    1C
    1UUSER                                                              
    1UDATE              06.may.2022                                     
    1UTIME              17:36:51                                        
    1UHOST                                                              
    1UPGM               CalculiX                                        
    1UVERSION           Version 2.16                             
    1UCOMPILETIME       Tue 20 Jul 2021 11:34:44 AM CDT                    
    1UDIR                                                               
    1UDBN                                                               
    1UMAT    1ACETATO                                                   
    2C                          2410                                     1
 -1         1 6.60000E-02 2.99750E-02 1.60000E-01
 -1         2 6.58542E-02 2.99750E-02 1.60000E-01
 -1         3 6.57083E-02 2.99750E-02 1.60000E-01
 -1         4 6.55625E-02 2.99750E-02 1.60000E-01
 -1         5 6.54167E-02 2.99750E-02 1.60000E-01
 -1         6 6.52708E-02 2.99750E-02 1.60000E-01
 -1         7 6.51250E-02 2.99750E-02 1.60000E-01
 -1         8 6.49792E-02 2.99750E-02 1.60000E-01
 -1         9 6.48333E-02 2.99750E-02 1.60000E-01
 -1        10 6.46875E-02 2.99750E-02 1.60000E-01
 -1        11 6.45417E-02 2.99750E-02 1.60000E-01
 -1        12 6.43958E-02 2.99750E-02 1.60000E-01
 -1        13 6.42500E-02 2.99750E-02 1.60000E-01
 -1        14 6.41042E-02 2.99750E-02 1.60000E-01
 -1        15 6.39583E-02 2.99750E-02 1.60000E-01
 -1        16 6.38125E-02 2.99750E-02 1.60000E-01
 -1        17 6.36666E-02 2.99750E-02 1.60000E-01
 -1        18 6.35208E-02 2.99750E-02 1.60000E-01
 -1        19 6.33750E-02 2.99750E-02 1.60000E-01
 -1        20 6.32292E-02 2.99750E-02 1.60000E-01
 -1        21 6.30833E-02 2.99750E-02 1.60000E-01
 -1        22 6.29375E-02 2.99750E-02 1.60000E-01
 -1        23 6.27916E-02 2.99750E-02 1.60000E-01
 -1        24 6.26458E-02 2.99750E-02 1.60000E-01
 -1        25 6.25000E-02 2.99750E-02 1.60000E-01
 -1        26 6.23541E-02 2.99750E-02 1.60000E-01
 -1        27 6.22083E-02 2.99750E-02 1.60000E-01
 -1        28 6.20625E-02 2.99750E-02 1.60000E-01
 -1        29 6.19166E-02 2.99750E-02 1.60000E-01
 -1        30 6.17708E-02 2.99750E-02 1.60000E-01
 -1        31 6.16250E-02 2.99750E-02 1.60000E-01
 -1        32 6.14791E-02 2.99750E-02 1.60000E-01
 -1        33 6.13333E-02 2.99750E-02 1.60000E-01
 -1        34 6.11875E-02 2.99750E-02 1.60000E-01
 -1        35 6.10416E-02 2.99750E-02 1.60000E-01
 -1        36 6.08958E-02 2.99750E-02 1.60000E-01
 -1        37 6.07500E-02 2.99750E-02 1.60000E-01
 -1        38 6.06041E-02 2.99750E-02 1.60000E-01
 -1        39 6.04583E-02 2.99750E-02 1.60000E-01
 -1        40 6.03125E-02 2.99750E-02 1.60000E-01
 -1        41 6.01666E-02 2.99750E-02 1.60000E-01
 -1        42 6.00208E-02 2.99750E-02 1.60000E-01
 -1        43 5.98750E-02 2.99750E-02 1.60000E-01
 -1        44 5.97291E-02 2.99750E-02 1.60000E-01
 -1        45 5.95833E-02 2.99750E-02 1.60000E-01
 -1        46 5.94375E-02 2.99750E-02 1.60000E-01
 -1        47 5.92916E-02 2.99750E-02 1.60000E-01
 -1        48 5.91458E-02 2.99750E-02 1.60000E-01
 -1        49 5.90000E-02 2.99750E-02 1.60000E-01
 -1        50 5.88541E-02 2.99750E-02 1.60000E-01
 -1        51 5.87083E-02 2.99750E-02 1.60000E-01
 -1        52 5.85625E-02 2.99750E-02 1.60000E-01
 -1        53 5.84166E-02 2.99750E-02 1.60000E-01
 -1        54 5.82708E-02 2.99750E-02 1.60000E-01
 -1        55 5.81250E-02 2.99750E-02 1.60000E-01
 -1        56 5.79791E-02 2.99750E-02 1.60000E-01
 -1        57 5.78333E-02 2.99750E-02 1.60000E-01
 -1        58 5.76875E-02 2.99750E-02 1.60000E-01
 -1        59 5.75416E-02 2.99750E-02 1.60000E-01
 -1        60 5.73958E-02 2.99750E-02 1.60000E-01
 -1        61 5.72499E-02 2.99750E-02 1.60000E-01
 -1        62 5.71041E-02 2.99750E-02 1.60000E-01
 -1        63 5.69583E-02 2.99750E-02 1.60000E-01
 -1        64 5.68124E-02 2.99750E-02 1.60000E-01
 -1        65 5.66666E-02 2.99750E-02 1.60000E-01
 -1        66 5.65208E-02 2.99750E-02 1.60000E-01
 -1        67 5.63749E-02 2.99750E-02 1.60000E-01
 -1        68 5.62291E-02 2.99750E-02 1.60000E-01
 -1        69 5.60833E-02 2.99750E-02 1.60000E-01
 -1        70 5.59374E-02 2.99750E-02 1.60000E-01
 -1        71 5.57916E-02 2.99750E-02 1.60000E-01
 -1        72 5.56458E-02 2.99750E-02 1.60000E-01
 -1        73 5.54999E-02 2.99750E-02 1.60000E-01
 -1        74 5.53541E-02 2.99750E-02 1.60000E-01
 -1        75 5.52083E-02 2.99750E-02 1.60000E-01
 -1        76 5.50624E-02 2.99750E-02 1.60000E-01
 -1        77 5.49166E-02 2.99750E-02 1.60000E-01
 -1        78 5.47708E-02 2.99750E-02 1.60000E-01
 -1        79 5.46249E-02 2.99750E-02 1.60000E-01
 -1        80 5.44791E-02 2.99750E-02 1.60000E-01
 -1        81 5.43333E-02 2.99750E-02 1.60000E-01
 -1        82 5.41874E-02 2.99750E-02 1.60000E-01
 -1        83 5.40416E-02 2.99750E-02 1.60000E-01
 -1        84 5.38958E-02 2.99750E-02 1.60000E-01
 -1        85 5.37499E-02 2.99750E-02 1.60000E-01
 -1        86 5.36041E-02 2.99750E-02 1.60000E-01
 -1        87 5.34583E-02 2.99750E-02 1.60000E-01
 -1        88 5.33124E-02 2.99750E-02 1.60000E-01
 -1        89 5.31666E-02 2.99750E-02 1.60000E-01
 -1        90 5.30208E-02 2.99750E-02 1.60000E-01
 -1        91 5.28749E-02 2.99750E-02 1.60000E-01
 -1        92 5.27291E-02 2.99750E-02 1.60000E-01
 -1        93 5.25833E-02 2.99750E-02 1.60000E-01
 -1        94 5.24374E-02 2.99750E-02 1.60000E-01
 -1        95 5.22916E-02 2.99750E-02 1.60000E-01
 -1        96 5.21457E-02 2.99750E-02 1.60000E-01
 -1        97 5.19999E-02 2.99750E-02 1.60000E-01
 -1        98 5.18541E-02 2.99750E-02 1.60000E-01
 -1        99 5.17082E-02 2.99750E-02 1.60000E-01
 -1       100 5.15624E-02 2.99750E-02 1.60000E-01
 -1       101 5.14166E-02 2.99750E-02 1.60000E-01
 -1       102 5.12707E-02 2.99750E-02 1.60000E-01
 -1       103 5.11249E-02 2.99750E-02 1.60000E-01
 -1       104 5.09791E-02 2.99750E-02 1.60000E-01
 -1       105 5.08332E-02 2.99750E-02 1.60000E-01
 -1       106 5.06874E-02 2.99750E-02 1.60000E-01
 -1       107 5.05416E-02 2.99750E-02 1.60000E-01
 -1       108 5.03957E-02 2.99750E-02 1.60000E-01
 -1       109 5.02499E-02 2.99750E-02 1.60000E-01
 -1       110 5.01041E-02 2.99750E-02 1.60000E-01
 -1       111 4.99582E-02 2.99750E-02 1.60000E-01
 -1       112 4.98124E-02 2.99750E-02 1.60000E-01
 -1       113 4.96666E-02 2.99750E-02 1.60000E-01
 -1       114 4.95207E-02 2.99750E-02 1.60000E-01
 -1       115 4.93749E-02 2.99750E-02 1.60000E-01
 -1       116 4.92291E-02 2.99750E-02 1.60000E-01
 -1       117 4.90832E-02 2.99750E-02 1.60000E-01
 -1       118 4.89374E-02 2.99750E-02 1.60000E-01
 -1       119 4.87916E-02 2.99750E-02 1.60000E-01
 -1       120 4.86457E-02 2.99750E-02 1.60000E-01
 -1       121 4.84999E-02 2.99750E-02 1.60000E-01
 -1       122 4.83541E-02 2.99750E-02 1.60000E-01
 -1       123 4.82082E-02 2.99750E-02 1.60000E-01
 -1       124 4.80624E-02 2.99750E-02 1.60000E-01
 -1       125 4.79166E-02 2.99750E-02 1.60000E-01
 -1       126 4.77707E-02 2.99750E-02 1.60000E-01
 -1       127 4.76249E-02 2.99750E-02 1.60000E-01
 -1       128 4.74791E-02 2.99750E-02 1.60000E-01
 -1       129 4.73332E-02 2.99750E-02 1.60000E-01
 -1       130 4.71874E-02 2.99750E-02 1.60000E-01
 -1       131 4.70416E-02 2.99750E-02 1.60000E-01
 -1       132 4.68957E-02 2.99750E-02 1.60000E-01
 -1       133 4.67499E-02 2.99750E-02 1.60000E-01
 -1       134 4.66040E-02 2.99750E-02 1.60000E-01
 -1       135 4.64582E-02 2.99750E-02 1.60000E-01
 -1       136 4.63124E-02 2.99750E-02 1.60000E-01
 -1       137 4.61665E-02 2.99750E-02 1.60000E-01
 -1       138 4.60207E-02 2.99750E-02 1.60000E-01
 -1       139 4.58749E-02 2.99750E-02 1.60000E-01
 -1       140 4.57290E-02 2.99750E-02 1.60000E-01
 -1       141 4.55832E-02 2.99750E-02 1.60000E-01
 -1       142 4.54374E-02 2.99750E-02 1.60000E-01
 -1       143 4.52915E-02 2.99750E-02 1.60000E-01
 -1       144 4.51457E-02 2.99750E-02 1.60000E-01
 -1       145 4.49999E-02 2.99750E-02 1.60000E-01
 -1       146 4.48540E-02 2.99750E-02 1.60000E-01
 -1       147 4.47082E-02 2.99750E-02 1.60000E-01
 -1       148 4.45624E-02 2.99750E-02 1.60000E-01
 -1       149 4.44165E-02 2.99750E-02 1.60000E-01
 -1       150 4.42707E-02 2.99750E-02 1.60000E-01
 -1       151 4.41249E-02 2.99750E-02 1.60000E-01
 -1       152 4.39790E-02 2.99750E-02 1.60000E-01
 -1       153 4.38332E-02 2.99750E-02 1.60000E-01
 -1       154 4.36874E-02 2.99750E-02 1.60000E-01
 -1       155 4.35415E-02 2.99750E-02 1.60000E-01
 -1       156 4.33957E-02 2.99750E-02 1.60000E-01
 -1       157 4.32499E-02 2.99750E-02 1.60000E-01
 -1       158 4.31040E-02 2.99750E-02 1.60000E-01
 -1       159 4.29582E-02 2.99750E-02 1.60000E-01
 -1       160 4.28124E-02 2.99750E-02 1.60000E-01
 -1       161 4.26665E-02 2.99750E-02 1.60000E-01
 -1       162 4.25207E-02 2.99750E-02 1.60000E-01
 -1       163 4.23749E-02 2.99750E-02 1.60000E-01
 -1       164 4.22290E-02 2.99750E-02 1.60000E-01
 -1       165 4.20832E-02 2.99750E-02 1.60000E-01
 -1       166 4.19374E-02 2.99750E-02 1.60000E-01
 -1       167 4.17915E-02 2.99750E-02 1.60000E-01
 -1       168 4.16457E-02 2.99750E-02 1.60000E-01
 -1       169 4.14999E-02 2.99750E-02 1.60000E-01
 -1       170 4.13540E-02 2.99750E-02 1.60000E-01
 -1       171 4.12082E-02 2.99750E-02 1.60000E-01
 -1       172 4.10624E-02 2.99750E-02 1.60000E-01
 -1       173 4.09165E-02 2.99750E-02 1.60000E-01
 -1       174 4.07707E-02 2.99750E-02 1.60000E-01
 -1       175 4.06248E-02 2.99750E-02 1.60000E-01
 -1       176 4.04790E-02 2.99750E-02 1.60000E-01
 -1       177 4.03332E-02 2.99750E-02 1.60000E-01
 -1       178 4.01873E-02 2.99750E-02 1.60000E-01
 -1       179 4.00415E-02 2.99750E-02 1.60000E-01
 -1       180 3.98957E-02 2.99750E-02 1.60000E-01
 -1       181 3.97498E-02 2.99750E-02 1.60000E-01
 -1       182 3.96040E-02 2.99750E-02 1.60000E-01
 -1       183 3.94582E-02 2.99750E-02 1.60000E-01
 -1       184 3.93123E-02 2.99750E-02 1.60000E-01
 -1       185 3.91665E-02 2.99750E-02 1.60000E-01
 -1       186 3.90207E-02 2.99750E-02 1.60000E-01
 -1       187 3.88748E-02 2.99750E-02 1.60000E-01
 -1       188 3.87290E-02 2.99750E-02 1.60000E-01
 -1       189 3.85832E-02 2.99750E-02 1.60000E-01
 -1       190 3.84373E-02 2.99750E-02 1.60000E-01
 -1       191 3.82915E-02 2.99750E-02 1.60000E-01
 -1       192 3.81457E-02 2.99750E-02 1.60000E-01
 -1       193 3.79998E-02 2.99750E-02 1.60000E-01
 -1       194 3.78540E-02 2.99750E-02 1.60000E-01
 -1       195 3.77082E-02 2.99750E-02 1.60000E-01
 -1       196 3.75623E-02 2.99750E-02 1.60000E-01
 -1       197 3.74165E-02 2.99750E-02 1.60000E-01
 -1       198 3.72707E-02 2.99750E-02 1.60000E-01
 -1       199 3.71248E-02 2.99750E-02 1.60000E-01
 -1       200 3.69790E-02 2.99750E-02 1.60000E-01
 -1       201 3.68332E-02 2.99750E-02 1.60000E-01
 -1       202 3.66873E-02 2.99750E-02 1.60000E-01
 -1       203 3.65415E-02 2.99750E-02 1.60000E-01
 -1       204 3.63957E-02 2.99750E-02 1.60000E-01
 -1       205 3.62498E-02 2.99750E-02 1.60000E-01
 -1       206 3.61040E-02 2.99750E-02 1.60000E-01
 -1       207 3.59582E-02 2.99750E-02 1.60000E-01
 -1       208 3.58123E-02 2.99750E-02 1.60000E-01
 -1       209 3.56665E-02 2.99750E-02 1.60000E-01
 -1       210 3.55207E-02 2.99750E-02 1.60000E-01
 -1       211 3.53748E-02 2.99750E-02 1.60000E-01
 -1       212 3.52290E-02 2.99750E-02 1.60000E-01
 -1       213 3.50831E-02 2.99750E-02 1.60000E-01
 -1       214 3.49373E-02 2.99750E-02 1.60000E-01
 -1       215 3.47915E-02 2.99750E-02 1.60000E-01
 -1       216 3.46456E-02 2.99750E-02 1.60000E-01
 -1       217 3.44998E-02 2.99750E-02 1.60000E-01
 -1       218 3.43540E-02 2.99750E-02 1.60000E-01
 -1       219 3.42081E-02 2.99750E-02 1.60000E-01
 -1       220 3.40623E-02 2.99750E-02 1.60000E-01
 -1       221 3.39165E-02 2.99750E-02 1.60000E-01
 -1       222 3.37706E-02 2.99750E-02 1.60000E-01
 -1       223 3.36248E-02 2.99750E-02 1.60000E-01
 -1       224 3.34790E-02 2.99750E-02 1.60000E-01
 -1       225 3.33331E-02 2.99750E-02 1.60000E-01
 -1       226 3.31873E-02 2.99750E-02 1.60000E-01
 -1       227 3.30415E-02 2.99750E-02 1.60000E-01
 -1       228 3.28956E-02 2.99750E-02 1.60000E-01
 -1       229 3.27498E-02 2.99750E-02 1.60000E-01
 -1       230 3.26040E-02 2.99750E-02 1.60000E-01
 -1       231 3.24581E-02 2.99750E-02 1.60000E-01
 -1       232 3.23123E-02 2.99750E-02 1.60000E-01
 -1       233 3.21665E-02 2.99750E-02 1.60000E-01
 -1       234 3.20206E-02 2.99750E-02 1.60000E-01
 -1       235 3.18748E-02 2.99750E-02 1.60000E-01
 -1       236 3.17290E-02 2.99750E-02 1.60000E-01
 -1       237 3.15831E-02 2.99750E-02 1.60000E-01
 -1       238 3.14373E-02 2.99750E-02 1.60000E-01
 -1       239 3.12915E-02 2.99750E-02 1.60000E-01
 -1       240 3.11456E-02 2.99750E-02 1.60000E-01
 -1       241 3.09998E-02 2.99750E-02 1.60000E-01
 -1       242 6.60000E-02 2.99750E-02 0.00000E+00
 -1       243 6.58542E-02 2.99750E-02 0.00000E+00
 -1       244 6.57083E-02 2.99750E-02 0.00000E+00
 -1       245 6.55625E-02 2.99750E-02 0.00000E+00
 -1       246 6.54167E-02 2.99750E-02 0.00000E+00
 -1       247 6.52708E-02 2.99750E-02 0.00000E+00
 -1       248 6.51250E-02 2.99750E-02 0.00000E+00
 -1       249 6.49792E-02 2.99750E-02 0.00000E+00
 -1       250 6.48333E-02 2.99750E-02 0.00000E+00
 -1       251 6.46875E-02 2.99750E-02 0.00000E+00
 -1       252 6.45417E-02 2.99750E-02 0.00000E+00
 -1       253 6.43958E-02 2.99750E-02 0.00000E+00
 -1       254 6.42500E-02 2.99750E-02 0.00000E+00
 -1       255 6.41042E-02 2.99750E-02 0.00000E+00
 -1       256 6.39583E-02 2.99750E-02 0.00000E+00
 -1       257 6.38125E-02 2.99750E-02 0.00000E+00
 -1       258 6.36666E-02 2.99750E-02 0.00000E+00
 -1       259 6.35208E-02 2.99750E-02 0.00000E+00
 -1       260 6.33750E-02 2.99750E-02 0.00000E+00
 -1       261 6.32292E-02 2.99750E-02 0.00000E+00
 -1       262 6.30833E-02 2.99750E-02 0.00000E+00
 -1       263 6.29375E-02 2.99750E-02 0.00000E+00
 -1       264 6.27916E-02 2.99750E-02 0.00000E+00
 -1       265 6.26458E-02 2.99750E-02 0.00000E+00
 -1       266 6.25000E-02 2.99750E-02 0.00000E+00
 -1       267 6.23541E-02 2.99750E-02 0.00000E+00
 -1       268 6.22083E-02 2.99750E-02 0.00000E+00
 -1       269 6.20625E-02 2.99750E-02 0.00000E+00
 -1       270 6.19166E-02 2.99750E-02 0.00000E+00
 -1       271 6.17708E-02 2.99750E-02 0.00000E+00
 -1       272 6.16250E-02 2.99750E-02 0.00000E+00
 -1       273 6.14791E-02 2.99750E-02 0.00000E+00
 -1       274 6.13333E-02 2.99750E-02 0.00000E+00
 -1       275 6.11875E-02 2.99750E-02 0.00000E+00
 -1       276 6.10416E-02 2.99750E-02 0.00000E+00
 -1       277 6.08958E-02 2.99750E-02 0.00000E+00
 -1       278 6.07500E-02 2.99750E-02 0.00000E+00
 -1       279 6.06041E-02 2.99750E-02 0.00000E+00
 -1       280 6.04583E-02 2.99750E-02 0.00000E+00
 -1       281 6.03125E-02 2.99750E-02 0.00000E+00
 -1       282 6.01666E-02 2.99750E-02 0.00000E+00
 -1       283 6.00208E-02 2.99750E-02 0.00000E+00
 -1       284 5.98750E-02 2.99750E-02 0.00000E+00
 -1       285 5.97291E-02 2.99750E-02 0.00000E+00
 -1       286 5.95833E-02 2.99750E-02 0.00000E+00
 -1       287 5.94375E-02 2.99750E-02 0.00000E+00
 -1       288 5.92916E-02 2.99750E-02 0.00000E+00
 -1       289 5.91458E-02 2.99750E-02 0.00000E+00
 -1       290 5.90000E-02 2.99750E-02 0.00000E+00
 -1       291 5.88541E-02 2.99750E-02 0.00000E+00
 -1       292 5.87083E-02 2.99750E-02 0.00000E+00
 -1       293 5.85625E-02 2.99750E-02 0.00000E+00
 -1       294 5.84166E-02 2.99750E-02 0.00000E+00
 -1       295 5.82708E-02 2.99750E-02 0.00000E+00
 -1       296 5.81250E-02 2.99750E-02 0.00000E+00
 -1       297 5.79791E-02 2.99750E-02 0.00000E+00
 -1       298 5.78333E-02 2.99750E-02 0.00000E+00
 -1       299 5.76875E-02 2.99750E-02 0.00000E+00
 -1       300 5.75416E-02 2.99750E-02 0.00000E+00
 -1       301 5.73958E-02 2.99750E-02 0.00000E+00
 -1       302 5.72499E-02 2.99750E-02 0.00000E+00
 -1       303 5.71041E-02 2.99750E-02 0.00000E+00
 -1       304 5.69583E-02 2.99750E-02 0.00000E+00
 -1       305 5.68124E-02 2.99750E-02 0.00000E+00
 -1       306 5.66666E-02 2.99750E-02 0.00000E+00
 -1       307 5.65208E-02 2.99750E-02 0.00000E+00
 -1       308 5.63749E-02 2.99750E-02 0.00000E+00
 -1       309 5.62291E-02 2.99750E-02 0.00000E+00
 -1       310 5.60833E-02 2.99750E-02 0.00000E+00
 -1       311 5.59374E-02 2.99750E-02 0.00000E+00
 -1       312 5.57916E-02 2.99750E-02 0.00000E+00
 -1       313 5.56458E-02 2.99750E-02 0.00000E+00
 -1       314 5.54999E-02 2.99750E-02 0.00000E+00
 -1       315 5.53541E-02 2.99750E-02 0.00000E+00
 -1       316 5.52083E-02 2.99750E-02 0.00000E+00
 -1       317 5.50624E-02 2.99750E-02 0.00000E+00
 -1       318 5.49166E-02 2.99750E-02 0.00000E+00
 -1       319 5.47708E-02 2.99750E-02 0.00000E+00
 -1       320 5.46249E-02 2.99750E-02 0.00000E+00
 -1       321 5.44791E-02 2.99750E-02 0.00000E+00
 -1       322 5.43333E-02 2.99750E-02 0.00000E+00
 -1       323 5.41874E-02 2.99750E-02 0.00000E+00
 -1       324 5.40416E-02 2.99750E-02 0.00000E+00
 -1       325 5.38958E-02 2.99750E-02 0.00000E+00
 -1       326 5.37499E-02 2.99750E-02 0.00000E+00
 -1       327 5.36041E-02 2.99750E-02 0.00000E+00
 -1       328 5.34583E-02 2.99750E-02 0.00000E+00
 -1       329 5.33124E-02 2.99750E-02 0.00000E+00
 -1       330 5.31666E-02 2.99750E-02 0.00000E+00
 -1       331 5.30208E-02 2.99750E-02 0.00000E+00
 -1       332 5.28749E-02 2.99750E-02 0.00000E+00
 -1       333 5.27291E-02 2.99750E-02 0.00000E+00
 -1       334 5.25833E-02 2.99750E-02 0.00000E+00
 -1       335 5.24374E-02 2.99750E-02 0.00000E+00
 -1       336 5.22916E-02 2.99750E-02 0.00000E+00
 -1       337 5.21457E-02 2.99750E-02 0.00000E+00
 -1       338 5.19999E-02 2.99750E-02 0.00000E+00
 -1       339 5.18541E-02 2.99750E-02 0.00000E+00
 -1       340 5.17082E-02 2.99750E-02 0.00000E+00
 -1       341 5.15624E-02 2.99750E-02 0.00000E+00
 -1       342 5.14166E-02 2.99750E-02 0.00000E+00
 -1       343 5.12707E-02 2.99750E-02 0.00000E+00
 -1       344 5.11249E-02 2.99750E-02 0.00000E+00
 -1       345 5.09791E-02 2.99750E-02 0.00000E+00
 -1       346 5.08332E-02 2.99750E-02 0.00000E+00
 -1       347 5.06874E-02 2.99750E-02 0.00000E+00
 -1       348 5.05416E-02 2.99750E-02 0.00000E+00
 -1       349 5.03957E-02 2.99750E-02 0.00000E+00
 -1       350 5.02499E-02 2.99750E-02 0.00000E+00
 -1       351 5.01041E-02 2.99750E-02 0.00000E+00
 -1       352 4.99582E-02 2.99750E-02 0.00000E+00
 -1       353 4.98124E-02 2.99750E-02 0.00000E+00
 -1       354 4.96666E-02 2.99750E-02 0.00000E+00
 -1       355 4.95207E-02 2.99750E-02 0.00000E+00
 -1       356 4.93749E-02 2.99750E-02 0.00000E+00
 -1       357 4.92291E-02 2.99750E-02 0.00000E+00
 -1       358 4.90832E-02 2.99750E-02 0.00000E+00
 -1       359 4.89374E-02 2.99750E-02 0.00000E+00
 -1       360 4.87916E-02 2.99750E-02 0.00000E+00
 -1       361 4.86457E-02 2.99750E-02 0.00000E+00
 -1       362 4.84999E-02 2.99750E-02 0.00000E+00
 -1       363 4.83541E-02 2.99750E-02 0.00000E+00
 -1       364 4.82082E-02 2.99750E-02 0.00000E+00
 -1       365 4.80624E-02 2.99750E-02 0.00000E+00
 -1       366 4.79166E-02 2.99750E-02 0.00000E+00
 -1       367 4.77707E-02 2.99750E-02 0.00000E+00
 -1       368 4.76249E-02 2.99750E-02 0.00000E+00
 -1       369 4.74791E-02 2.99750E-02 0.00000E+00
 -1       370 4.73332E-02 2.99750E-02 0.00000E+00
 -1       371 4.71874E-02 2.99750E-02 0.00000E+00
 -1       372 4.70416E-02 2.99750E-02 0.00000E+00
 -1       373 4.68957E-02 2.99750E-02 0.00000E+00
 -1       374 4.67499E-02 2.99750E-02 0.00000E+00
 -1       375 4.66040E-02 2.99750E-02 0.00000E+00
 -1       376 4.64582E-02 2.99750E-02 0.00000E+00
 -1       377 4.63124E-02 2.99750E-02 0.00000E+00
 -1       378 4.61665E-02 2.99750E-02 0.00000E+00
 -1       379 4.60207E-02 2.99750E-02 0.00000E+00
 -1       380 4.58749E-02 2.99750E-02 0.00000E+00
 -1       381 4.57290E-02 2.99750E-02 0.00000E+00
 -1       382 4.55832E-02 2.99750E-02 0.00000E+00
 -1       383 4.54374E-02 2.99750E-02 0.00000E+00
 -1       384 4.52915E-02 2.99750E-02 0.00000E+00
 -1       385 4.51457E-02 2.99750E-02 0.00000E+00
 -1       386 4.49999E-02 2.99750E-02 0.00000E+00
 -1       387 4.48540E-02 2.99750E-02 0.00000E+00
 -1       388 4.47082E-02 2.99750E-02 0.00000E+00
 -1       389 4.45624E-02 2.99750E-02 0.00000E+00
 -1       390 4.44165E-02 2.99750E-02 0.00000E+00
 -1       391 4.42707E-02 2.99750E-02 0.00000E+00
 -1       392 4.41249E-02 2.99750E-02 0.00000E+00
 -1       393 4.39790E-02 2.99750E-02 0.00000E+00
 -1       394 4.38332E-02 2.99750E-02 0.00000E+00
 -1       395 4.36874E-02 2.99750E-02 0.00000E+00
 -1       396 4.35415E-02 2.99750E-02 0.00000E+00
 -1       397 4.33957E-02 2.99750E-02 0.00000E+00
 -1       398 4.32499E-02 2.99750E-02 0.00000E+00
 -1       399 4.31040E-02 2.99750E-02 0.00000E+00
 -1       400 4.29582E-02 2.99750E-02 0.00000E+00
 -1       401 4.28124E-02 2.99750E-02 0.00000E+00
 -1       402 4.26665E-02 2.99750E-02 0.00000E+00
 -1       403 4.25207E-02 2.99750E-02 0.00000E+00
 -1       404 4.23749E-02 2.99750E-02 0.00000E+00
 -1       405 4.22290E-02 2.99750E-02 0.00000E+00
 -1       406 4.20832E-02 2.99750E-02 0.00000E+00
 -1       407 4.19374E-02 2.99750E-02 0.00000E+00
 -1       408 4.17915E-02 2.99750E-02 0.00000E+00
 -1       409 4.16457E-02 2.99750E-02 0.00000E+00
 -1       410 4.14999E-02 2.99750E-02 0.00000E+00
 -1       411 4.13540E-02 2.99750E-02 0.00000E+00
 -1       412 4.12082E-02 2.99750E-02 0.00000E+00
 -1       413 4.10624E-02 2.99750E-02 0.00000E+00
 -1       414 4.09165E-02 2.99750E-02 0.00000E+00
 -1       415 4.07707E-02 2.99750E-02 0.00000E+00
 -1       416 4.06248E-02 2.99750E-02 0.00000E+00
 -1       417 4.04790E-02 2.99750E-02 0.00000E+00
 -1       418 4.03332E-02 2.99750E-02 0.00000E+00
 -1       419 4.01873E-02 2.99750E-02 0.00000E+00
 -1       420 4.00415E-02 2.99750E-02 0.00000E+00
 -1       421 3.98957E-02 2.99750E-02 0.00000E+00
 -1       422 3.97498E-02 2.99750E-02 0.00000E+00
 -1       423 3.96040E-02 2.99750E-02 0.00000E+00
 -1       424 3.94582E-02 2.99750E-02 0.00000E+00
 -1       425 3.93123E-02 2.99750E-02 0.00000E+00
 -1       426 3.91665E-02 2.99750E-02 0.00000E+00
 -1       427 3.90207E-02 2.99750E-02 0.00000E+00
 -1       428 3.88748E-02 2.99750E-02 0.00000E+00
 -1       429 3.87290E-02 2.99750E-02 0.00000E+00
 -1       430 3.85832E-02 2.99750E-02 0.00000E+00
 -1       431 3.84373E-02 2.99750E-02 0.00000E+00
 -1       432 3.82915E-02 2.99750E-02 0.00000E+00
 -1       433 3.81457E-02 2.99750E-02 0.00000E+00
 -1       434 3.79998E-02 2.99750E-02 0.00000E+00
 -1       435 3.78540E-02 2.99750E-02 0.00000E+00
 -1       436 3.77082E-02 2.99750E-02 0.00000E+00
 -1       437 3.75623E-02 2.99750E-02 0.00000E+00
 -1       438 3.74165E-02 2.99750E-02 0.00000E+00
 -1       439 3.72707E-02 2.99750E-02 0.00000E+00
 -1       440 3.71248E-02 2.99750E-02 0.00000E+00
 -1       441 3.69790E-02 2.99750E-02 0.00000E+00
 -1       442 3.68332E-02 2.99750E-02 0.00000E+00
 -1       443 3.66873E-02 2.99750E-02 0.00000E+00
 -1       444 3.65415E-02 2.99750E-02 0.00000E+00
 -1       445 3.63957E-02 2.99750E-02 0.00000E+00
 -1       446 3.62498E-02 2.99750E-02 0.00000E+00
 -1       447 3.61040E-02 2.99750E-02 0.00000E+00
 -1       448 3.59582E-02 2.99750E-02 0.00000E+00
 -1       449 3.58123E-02 2.99750E-02 0.00000E+00
 -1       450 3.56665E-02 2.99750E-02 0.00000E+00
 -1       451 3.55207E-02 2.99750E-02 0.00000E+00
 -1       452 3.53748E-02 2.99750E-02 0.00000E+00
 -1       453 3.52290E-02 2.99750E-02 0.00000E+00
 -1       454 3.50831E-02 2.99750E-02 0.00000E+00
 -1       455 3.49373E-02 2.99750E-02 0.00000E+00
 -1       456 3.47915E-02 2.99750E-02 0.00000E+00
 -1       457 3.46456E-02 2.99750E-02 0.00000E+00
 -1       458 3.44998E-02 2.99750E-02 0.00000E+00
 -1       459 3.43540E-02 2.99750E-02 0.00000E+00
 -1       460 3.42081E-02 2.99750E-02 0.00000E+00
 -1       461 3.40623E-02 2.99750E-02 0.00000E+00
 -1       462 3.39165E-02 2.99750E-02 0.00000E+00
 -1       463 3.37706E-02 2.99750E-02 0.00000E+00
 -1       464 3.36248E-02 2.99750E-02 0.00000E+00
 -1       465 3.34790E-02 2.99750E-02 0.00000E+00
 -1       466 3.33331E-02 2.99750E-02 0.00000E+00
 -1       467 3.31873E-02 2.99750E-02 0.00000E+00
 -1       468 3.30415E-02 2.99750E-02 0.00000E+00
 -1       469 3.28956E-02 2.99750E-02 0.00000E+00
 -1       470 3.27498E-02 2.99750E-02 0.00000E+00
 -1       471 3.26040E-02 2.99750E-02 0.00000E+00
 -1       472 3.24581E-02 2.99750E-02 0.00000E+00
 -1       473 3.23123E-02 2.99750E-02 0.00000E+00
 -1       474 3.21665E-02 2.99750E-02 0.00000E+00
 -1       475 3.20206E-02 2.99750E-02 0.00000E+00
 -1       476 3.18748E-02 2.99750E-02 0.00000E+00
 -1       477 3.17290E-02 2.99750E-02 0.00000E+00
 -1       478 3.15831E-02 2.99750E-02 0.00000E+00
 -1       479 3.14373E-02 2.99750E-02 0.00000E+00
 -1       480 3.12915E-02 2.99750E-02 0.00000E+00
 -1       481 3.11456E-02 2.99750E-02 0.00000E+00
 -1       482 3.09998E-02 2.99750E-02 0.00000E+00
 -1       483 6.60000E-02 2.99875E-02 1.60000E-01
 -1       484 6.58542E-02 2.99875E-02 1.60000E-01
 -1       485 6.57083E-02 2.99875E-02 1.60000E-01
 -1       486 6.55625E-02 2.99875E-02 1.60000E-01
 -1       487 6.54167E-02 2.99875E-02 1.60000E-01
 -1       488 6.52708E-02 2.99875E-02 1.60000E-01
 -1       489 6.51250E-02 2.99875E-02 1.60000E-01
 -1       490 6.49792E-02 2.99875E-02 1.60000E-01
 -1       491 6.48333E-02 2.99875E-02 1.60000E-01
 -1       492 6.46875E-02 2.99875E-02 1.60000E-01
 -1       493 6.45417E-02 2.99875E-02 1.60000E-01
 -1       494 6.43958E-02 2.99875E-02 1.60000E-01
 -1       495 6.42500E-02 2.99875E-02 1.60000E-01
 -1       496 6.41042E-02 2.99875E-02 1.60000E-01
 -1       497 6.39583E-02 2.99875E-02 1.60000E-01
 -1       498 6.38125E-02 2.99875E-02 1.60000E-01
 -1       499 6.36667E-02 2.99875E-02 1.60000E-01
 -1       500 6.35208E-02 2.99875E-02 1.60000E-01
 -1       501 6.33750E-02 2.99875E-02 1.60000E-01
 -1       502 6.32292E-02 2.99875E-02 1.60000E-01
 -1       503 6.30833E-02 2.99875E-02 1.60000E-01
 -1       504 6.29375E-02 2.99875E-02 1.60000E-01
 -1       505 6.27917E-02 2.99875E-02 1.60000E-01
 -1       506 6.26458E-02 2.99875E-02 1.60000E-01
 -1       507 6.25000E-02 2.99875E-02 1.60000E-01
 -1       508 6.23542E-02 2.99875E-02 1.60000E-01
 -1       509 6.22083E-02 2.99875E-02 1.60000E-01
 -1       510 6.20625E-02 2.99875E-02 1.60000E-01
 -1       511 6.19167E-02 2.99875E-02 1.60000E-01
 -1       512 6.17708E-02 2.99875E-02 1.60000E-01
 -1       513 6.16250E-02 2.99875E-02 1.60000E-01
 -1       514 6.14792E-02 2.99875E-02 1.60000E-01
 -1       515 6.13333E-02 2.99875E-02 1.60000E-01
 -1       516 6.11875E-02 2.99875E-02 1.60000E-01
 -1       517 6.10417E-02 2.99875E-02 1.60000E-01
 -1       518 6.08958E-02 2.99875E-02 1.60000E-01
 -1       519 6.07500E-02 2.99875E-02 1.60000E-01
 -1       520 6.06042E-02 2.99875E-02 1.60000E-01
 -1       521 6.04583E-02 2.99875E-02 1.60000E-01
 -1       522 6.03125E-02 2.99875E-02 1.60000E-01
 -1       523 6.01667E-02 2.99875E-02 1.60000E-01
 -1       524 6.00208E-02 2.99875E-02 1.60000E-01
 -1       525 5.98750E-02 2.99875E-02 1.60000E-01
 -1       526 5.97292E-02 2.99875E-02 1.60000E-01
 -1       527 5.95833E-02 2.99875E-02 1.60000E-01
 -1       528 5.94375E-02 2.99875E-02 1.60000E-01
 -1       529 5.92917E-02 2.99875E-02 1.60000E-01
 -1       530 5.91458E-02 2.99875E-02 1.60000E-01
 -1       531 5.90000E-02 2.99875E-02 1.60000E-01
 -1       532 5.88542E-02 2.99875E-02 1.60000E-01
 -1       533 5.87083E-02 2.99875E-02 1.60000E-01
 -1       534 5.85625E-02 2.99875E-02 1.60000E-01
 -1       535 5.84167E-02 2.99875E-02 1.60000E-01
 -1       536 5.82708E-02 2.99875E-02 1.60000E-01
 -1       537 5.81250E-02 2.99875E-02 1.60000E-01
 -1       538 5.79792E-02 2.99875E-02 1.60000E-01
 -1       539 5.78333E-02 2.99875E-02 1.60000E-01
 -1       540 5.76875E-02 2.99875E-02 1.60000E-01
 -1       541 5.75417E-02 2.99875E-02 1.60000E-01
 -1       542 5.73958E-02 2.99875E-02 1.60000E-01
 -1       543 5.72500E-02 2.99875E-02 1.60000E-01
 -1       544 5.71042E-02 2.99875E-02 1.60000E-01
 -1       545 5.69583E-02 2.99875E-02 1.60000E-01
 -1       546 5.68125E-02 2.99875E-02 1.60000E-01
 -1       547 5.66667E-02 2.99875E-02 1.60000E-01
 -1       548 5.65208E-02 2.99875E-02 1.60000E-01
 -1       549 5.63750E-02 2.99875E-02 1.60000E-01
 -1       550 5.62292E-02 2.99875E-02 1.60000E-01
 -1       551 5.60833E-02 2.99875E-02 1.60000E-01
 -1       552 5.59375E-02 2.99875E-02 1.60000E-01
 -1       553 5.57917E-02 2.99875E-02 1.60000E-01
 -1       554 5.56458E-02 2.99875E-02 1.60000E-01
 -1       555 5.55000E-02 2.99875E-02 1.60000E-01
 -1       556 5.53542E-02 2.99875E-02 1.60000E-01
 -1       557 5.52083E-02 2.99875E-02 1.60000E-01
 -1       558 5.50625E-02 2.99875E-02 1.60000E-01
 -1       559 5.49167E-02 2.99875E-02 1.60000E-01
 -1       560 5.47708E-02 2.99875E-02 1.60000E-01
 -1       561 5.46250E-02 2.99875E-02 1.60000E-01
 -1       562 5.44792E-02 2.99875E-02 1.60000E-01
 -1       563 5.43333E-02 2.99875E-02 1.60000E-01
 -1       564 5.41875E-02 2.99875E-02 1.60000E-01
 -1       565 5.40417E-02 2.99875E-02 1.60000E-01
 -1       566 5.38958E-02 2.99875E-02 1.60000E-01
 -1       567 5.37500E-02 2.99875E-02 1.60000E-01
 -1       568 5.36042E-02 2.99875E-02 1.60000E-01
 -1       569 5.34583E-02 2.99875E-02 1.60000E-01
 -1       570 5.33125E-02 2.99875E-02 1.60000E-01
 -1       571 5.31667E-02 2.99875E-02 1.60000E-01
 -1       572 5.30208E-02 2.99875E-02 1.60000E-01
 -1       573 5.28750E-02 2.99875E-02 1.60000E-01
 -1       574 5.27292E-02 2.99875E-02 1.60000E-01
 -1       575 5.25833E-02 2.99875E-02 1.60000E-01
 -1       576 5.24375E-02 2.99875E-02 1.60000E-01
 -1       577 5.22917E-02 2.99875E-02 1.60000E-01
 -1       578 5.21458E-02 2.99875E-02 1.60000E-01
 -1       579 5.20000E-02 2.99875E-02 1.60000E-01
 -1       580 5.18542E-02 2.99875E-02 1.60000E-01
 -1       581 5.17083E-02 2.99875E-02 1.60000E-01
 -1       582 5.15625E-02 2.99875E-02 1.60000E-01
 -1       583 5.14167E-02 2.99875E-02 1.60000E-01
 -1       584 5.12708E-02 2.99875E-02 1.60000E-01
 -1       585 5.11250E-02 2.99875E-02 1.60000E-01
 -1       586 5.09792E-02 2.99875E-02 1.60000E-01
 -1       587 5.08333E-02 2.99875E-02 1.60000E-01
 -1       588 5.06875E-02 2.99875E-02 1.60000E-01
 -1       589 5.05417E-02 2.99875E-02 1.60000E-01
 -1       590 5.03958E-02 2.99875E-02 1.60000E-01
 -1       591 5.02500E-02 2.99875E-02 1.60000E-01
 -1       592 5.01042E-02 2.99875E-02 1.60000E-01
 -1       593 4.99583E-02 2.99875E-02 1.60000E-01
 -1       594 4.98125E-02 2.99875E-02 1.60000E-01
 -1       595 4.96667E-02 2.99875E-02 1.60000E-01
 -1       596 4.95208E-02 2.99875E-02 1.60000E-01
 -1       597 4.93750E-02 2.99875E-02 1.60000E-01
 -1       598 4.92292E-02 2.99875E-02 1.60000E-01
 -1       599 4.90833E-02 2.99875E-02 1.60000E-01
 -1       600 4.89375E-02 2.99875E-02 1.60000E-01
 -1       601 4.87917E-02 2.99875E-02 1.60000E-01
 -1       602 4.86458E-02 2.99875E-02 1.60000E-01
 -1       603 4.85000E-02 2.99875E-02 1.60000E-01
 -1       604 4.83542E-02 2.99875E-02 1.60000E-01
 -1       605 4.82083E-02 2.99875E-02 1.60000E-01
 -1       606 4.80625E-02 2.99875E-02 1.60000E-01
 -1       607 4.79167E-02 2.99875E-02 1.60000E-01
 -1       608 4.77708E-02 2.99875E-02 1.60000E-01
 -1       609 4.76250E-02 2.99875E-02 1.60000E-01
 -1       610 4.74792E-02 2.99875E-02 1.60000E-01
 -1       611 4.73333E-02 2.99875E-02 1.60000E-01
 -1       612 4.71875E-02 2.99875E-02 1.60000E-01
 -1       613 4.70417E-02 2.99875E-02 1.60000E-01
 -1       614 4.68958E-02 2.99875E-02 1.60000E-01
 -1       615 4.67500E-02 2.99875E-02 1.60000E-01
 -1       616 4.66042E-02 2.99875E-02 1.60000E-01
 -1       617 4.64583E-02 2.99875E-02 1.60000E-01
 -1       618 4.63125E-02 2.99875E-02 1.60000E-01
 -1       619 4.61667E-02 2.99875E-02 1.60000E-01
 -1       620 4.60208E-02 2.99875E-02 1.60000E-01
 -1       621 4.58750E-02 2.99875E-02 1.60000E-01
 -1       622 4.57292E-02 2.99875E-02 1.60000E-01
 -1       623 4.55833E-02 2.99875E-02 1.60000E-01
 -1       624 4.54375E-02 2.99875E-02 1.60000E-01
 -1       625 4.52917E-02 2.99875E-02 1.60000E-01
 -1       626 4.51458E-02 2.99875E-02 1.60000E-01
 -1       627 4.50000E-02 2.99875E-02 1.60000E-01
 -1       628 4.48542E-02 2.99875E-02 1.60000E-01
 -1       629 4.47083E-02 2.99875E-02 1.60000E-01
 -1       630 4.45625E-02 2.99875E-02 1.60000E-01
 -1       631 4.44167E-02 2.99875E-02 1.60000E-01
 -1       632 4.42708E-02 2.99875E-02 1.60000E-01
 -1       633 4.41250E-02 2.99875E-02 1.60000E-01
 -1       634 4.39792E-02 2.99875E-02 1.60000E-01
 -1       635 4.38333E-02 2.99875E-02 1.60000E-01
 -1       636 4.36875E-02 2.99875E-02 1.60000E-01
 -1       637 4.35417E-02 2.99875E-02 1.60000E-01
 -1       638 4.33959E-02 2.99875E-02 1.60000E-01
 -1       639 4.32500E-02 2.99875E-02 1.60000E-01
 -1       640 4.31042E-02 2.99875E-02 1.60000E-01
 -1       641 4.29583E-02 2.99875E-02 1.60000E-01
 -1       642 4.28125E-02 2.99875E-02 1.60000E-01
 -1       643 4.26667E-02 2.99875E-02 1.60000E-01
 -1       644 4.25209E-02 2.99875E-02 1.60000E-01
 -1       645 4.23750E-02 2.99875E-02 1.60000E-01
 -1       646 4.22292E-02 2.99875E-02 1.60000E-01
 -1       647 4.20833E-02 2.99875E-02 1.60000E-01
 -1       648 4.19375E-02 2.99875E-02 1.60000E-01
 -1       649 4.17917E-02 2.99875E-02 1.60000E-01
 -1       650 4.16459E-02 2.99875E-02 1.60000E-01
 -1       651 4.15000E-02 2.99875E-02 1.60000E-01
 -1       652 4.13542E-02 2.99875E-02 1.60000E-01
 -1       653 4.12083E-02 2.99875E-02 1.60000E-01
 -1       654 4.10625E-02 2.99875E-02 1.60000E-01
 -1       655 4.09167E-02 2.99875E-02 1.60000E-01
 -1       656 4.07709E-02 2.99875E-02 1.60000E-01
 -1       657 4.06250E-02 2.99875E-02 1.60000E-01
 -1       658 4.04792E-02 2.99875E-02 1.60000E-01
 -1       659 4.03334E-02 2.99875E-02 1.60000E-01
 -1       660 4.01875E-02 2.99875E-02 1.60000E-01
 -1       661 4.00417E-02 2.99875E-02 1.60000E-01
 -1       662 3.98959E-02 2.99875E-02 1.60000E-01
 -1       663 3.97500E-02 2.99875E-02 1.60000E-01
 -1       664 3.96042E-02 2.99875E-02 1.60000E-01
 -1       665 3.94584E-02 2.99875E-02 1.60000E-01
 -1       666 3.93125E-02 2.99875E-02 1.60000E-01
 -1       667 3.91667E-02 2.99875E-02 1.60000E-01
 -1       668 3.90209E-02 2.99875E-02 1.60000E-01
 -1       669 3.88750E-02 2.99875E-02 1.60000E-01
 -1       670 3.87292E-02 2.99875E-02 1.60000E-01
 -1       671 3.85834E-02 2.99875E-02 1.60000E-01
 -1       672 3.84375E-02 2.99875E-02 1.60000E-01
 -1       673 3.82917E-02 2.99875E-02 1.60000E-01
 -1       674 3.81459E-02 2.99875E-02 1.60000E-01
 -1       675 3.80000E-02 2.99875E-02 1.60000E-01
 -1       676 3.78542E-02 2.99875E-02 1.60000E-01
 -1       677 3.77084E-02 2.99875E-02 1.60000E-01
 -1       678 3.75625E-02 2.99875E-02 1.60000E-01
 -1       679 3.74167E-02 2.99875E-02 1.60000E-01
 -1       680 3.72709E-02 2.99875E-02 1.60000E-01
 -1       681 3.71250E-02 2.99875E-02 1.60000E-01
 -1       682 3.69792E-02 2.99875E-02 1.60000E-01
 -1       683 3.68334E-02 2.99875E-02 1.60000E-01
 -1       684 3.66875E-02 2.99875E-02 1.60000E-01
 -1       685 3.65417E-02 2.99875E-02 1.60000E-01
 -1       686 3.63959E-02 2.99875E-02 1.60000E-01
 -1       687 3.62500E-02 2.99875E-02 1.60000E-01
 -1       688 3.61042E-02 2.99875E-02 1.60000E-01
 -1       689 3.59584E-02 2.99875E-02 1.60000E-01
 -1       690 3.58125E-02 2.99875E-02 1.60000E-01
 -1       691 3.56667E-02 2.99875E-02 1.60000E-01
 -1       692 3.55209E-02 2.99875E-02 1.60000E-01
 -1       693 3.53750E-02 2.99875E-02 1.60000E-01
 -1       694 3.52292E-02 2.99875E-02 1.60000E-01
 -1       695 3.50834E-02 2.99875E-02 1.60000E-01
 -1       696 3.49375E-02 2.99875E-02 1.60000E-01
 -1       697 3.47917E-02 2.99875E-02 1.60000E-01
 -1       698 3.46459E-02 2.99875E-02 1.60000E-01
 -1       699 3.45000E-02 2.99875E-02 1.60000E-01
 -1       700 3.43542E-02 2.99875E-02 1.60000E-01
 -1       701 3.42084E-02 2.99875E-02 1.60000E-01
 -1       702 3.40625E-02 2.99875E-02 1.60000E-01
 -1       703 3.39167E-02 2.99875E-02 1.60000E-01
 -1       704 3.37709E-02 2.99875E-02 1.60000E-01
 -1       705 3.36250E-02 2.99875E-02 1.60000E-01
 -1       706 3.34792E-02 2.99875E-02 1.60000E-01
 -1       707 3.33334E-02 2.99875E-02 1.60000E-01
 -1       708 3.31875E-02 2.99875E-02 1.60000E-01
 -1       709 3.30417E-02 2.99875E-02 1.60000E-01
 -1       710 3.28959E-02 2.99875E-02 1.60000E-01
 -1       711 3.27500E-02 2.99875E-02 1.60000E-01
 -1       712 3.26042E-02 2.99875E-02 1.60000E-01
 -1       713 3.24584E-02 2.99875E-02 1.60000E-01
 -1       714 3.23125E-02 2.99875E-02 1.60000E-01
 -1       715 3.21667E-02 2.99875E-02 1.60000E-01
 -1       716 3.20209E-02 2.99875E-02 1.60000E-01
 -1       717 3.18750E-02 2.99875E-02 1.60000E-01
 -1       718 3.17292E-02 2.99875E-02 1.60000E-01
 -1       719 3.15834E-02 2.99875E-02 1.60000E-01
 -1       720 3.14375E-02 2.99875E-02 1.60000E-01
 -1       721 3.12917E-02 2.99875E-02 1.60000E-01
 -1       722 3.11459E-02 2.99875E-02 1.60000E-01
 -1       723 3.10000E-02 2.99875E-02 1.60000E-01
 -1       724 6.60000E-02 2.99875E-02 0.00000E+00
 -1       725 6.58542E-02 2.99875E-02 0.00000E+00
 -1       726 6.57083E-02 2.99875E-02 0.00000E+00
 -1       727 6.55625E-02 2.99875E-02 0.00000E+00
 -1       728 6.54167E-02 2.99875E-02 0.00000E+00
 -1       729 6.52708E-02 2.99875E-02 0.00000E+00
 -1       730 6.51250E-02 2.99875E-02 0.00000E+00
 -1       731 6.49792E-02 2.99875E-02 0.00000E+00
 -1       732 6.48333E-02 2.99875E-02 0.00000E+00
 -1       733 6.46875E-02 2.99875E-02 0.00000E+00
 -1       734 6.45417E-02 2.99875E-02 0.00000E+00
 -1       735 6.43958E-02 2.99875E-02 0.00000E+00
 -1       736 6.42500E-02 2.99875E-02 0.00000E+00
 -1       737 6.41042E-02 2.99875E-02 0.00000E+00
 -1       738 6.39583E-02 2.99875E-02 0.00000E+00
 -1       739 6.38125E-02 2.99875E-02 0.00000E+00
 -1       740 6.36667E-02 2.99875E-02 0.00000E+00
 -1       741 6.35208E-02 2.99875E-02 0.00000E+00
 -1       742 6.33750E-02 2.99875E-02 0.00000E+00
 -1       743 6.32292E-02 2.99875E-02 0.00000E+00
 -1       744 6.30833E-02 2.99875E-02 0.00000E+00
 -1       745 6.29375E-02 2.99875E-02 0.00000E+00
 -1       746 6.27917E-02 2.99875E-02 0.00000E+00
 -1       747 6.26458E-02 2.99875E-02 0.00000E+00
 -1       748 6.25000E-02 2.99875E-02 0.00000E+00
 -1       749 6.23542E-02 2.99875E-02 0.00000E+00
 -1       750 6.22083E-02 2.99875E-02 0.00000E+00
 -1       751 6.20625E-02 2.99875E-02 0.00000E+00
 -1       752 6.19167E-02 2.99875E-02 0.00000E+00
 -1       753 6.17708E-02 2.99875E-02 0.00000E+00
 -1       754 6.16250E-02 2.99875E-02 0.00000E+00
 -1       755 6.14792E-02 2.99875E-02 0.00000E+00
 -1       756 6.13333E-02 2.99875E-02 0.00000E+00
 -1       757 6.11875E-02 2.99875E-02 0.00000E+00
 -1       758 6.10417E-02 2.99875E-02 0.00000E+00
 -1       759 6.08958E-02 2.99875E-02 0.00000E+00
 -1       760 6.07500E-02 2.99875E-02 0.00000E+00
 -1       761 6.06042E-02 2.99875E-02 0.00000E+00
 -1       762 6.04583E-02 2.99875E-02 0.00000E+00
 -1       763 6.03125E-02 2.99875E-02 0.00000E+00
 -1       764 6.01667E-02 2.99875E-02 0.00000E+00
 -1       765 6.00208E-02 2.99875E-02 0.00000E+00
 -1       766 5.98750E-02 2.99875E-02 0.00000E+00
 -1       767 5.97292E-02 2.99875E-02 0.00000E+00
 -1       768 5.95833E-02 2.99875E-02 0.00000E+00
 -1       769 5.94375E-02 2.99875E-02 0.00000E+00
 -1       770 5.92917E-02 2.99875E-02 0.00000E+00
 -1       771 5.91458E-02 2.99875E-02 0.00000E+00
 -1       772 5.90000E-02 2.99875E-02 0.00000E+00
 -1       773 5.88542E-02 2.99875E-02 0.00000E+00
 -1       774 5.87083E-02 2.99875E-02 0.00000E+00
 -1       775 5.85625E-02 2.99875E-02 0.00000E+00
 -1       776 5.84167E-02 2.99875E-02 0.00000E+00
 -1       777 5.82708E-02 2.99875E-02 0.00000E+00
 -1       778 5.81250E-02 2.99875E-02 0.00000E+00
 -1       779 5.79792E-02 2.99875E-02 0.00000E+00
 -1       780 5.78333E-02 2.99875E-02 0.00000E+00
 -1       781 5.76875E-02 2.99875E-02 0.00000E+00
 -1       782 5.75417E-02 2.99875E-02 0.00000E+00
 -1       783 5.73958E-02 2.99875E-02 0.00000E+00
 -1       784 5.72500E-02 2.99875E-02 0.00000E+00
 -1       785 5.71042E-02 2.99875E-02 0.00000E+00
 -1       786 5.69583E-02 2.99875E-02 0.00000E+00
 -1       787 5.68125E-02 2.99875E-02 0.00000E+00
 -1       788 5.66667E-02 2.99875E-02 0.00000E+00
 -1       789 5.65208E-02 2.99875E-02 0.00000E+00
 -1       790 5.63750E-02 2.99875E-02 0.00000E+00
 -1       791 5.62292E-02 2.99875E-02 0.00000E+00
 -1       792 5.60833E-02 2.99875E-02 0.00000E+00
 -1       793 5.59375E-02 2.99875E-02 0.00000E+00
 -1       794 5.57917E-02 2.99875E-02 0.00000E+00
 -1       795 5.56458E-02 2.99875E-02 0.00000E+00
 -1       796 5.55000E-02 2.99875E-02 0.00000E+00
 -1       797 5.53542E-02 2.99875E-02 0.00000E+00
 -1       798 5.52083E-02 2.99875E-02 0.00000E+00
 -1       799 5.50625E-02 2.99875E-02 0.00000E+00
 -1       800 5.49167E-02 2.99875E-02 0.00000E+00
 -1       801 5.47708E-02 2.99875E-02 0.00000E+00
 -1       802 5.46250E-02 2.99875E-02 0.00000E+00
 -1       803 5.44792E-02 2.99875E-02 0.00000E+00
 -1       804 5.43333E-02 2.99875E-02 0.00000E+00
 -1       805 5.41875E-02 2.99875E-02 0.00000E+00
 -1       806 5.40417E-02 2.99875E-02 0.00000E+00
 -1       807 5.38958E-02 2.99875E-02 0.00000E+00
 -1       808 5.37500E-02 2.99875E-02 0.00000E+00
 -1       809 5.36042E-02 2.99875E-02 0.00000E+00
 -1       810 5.34583E-02 2.99875E-02 0.00000E+00
 -1       811 5.33125E-02 2.99875E-02 0.00000E+00
 -1       812 5.31667E-02 2.99875E-02 0.00000E+00
 -1       813 5.30208E-02 2.99875E-02 0.00000E+00
 -1       814 5.28750E-02 2.99875E-02 0.00000E+00
 -1       815 5.27292E-02 2.99875E-02 0.00000E+00
 -1       816 5.25833E-02 2.99875E-02 0.00000E+00
 -1       817 5.24375E-02 2.99875E-02 0.00000E+00
 -1       818 5.22917E-02 2.99875E-02 0.00000E+00
 -1       819 5.21458E-02 2.99875E-02 0.00000E+00
 -1       820 5.20000E-02 2.99875E-02 0.00000E+00
 -1       821 5.18542E-02 2.99875E-02 0.00000E+00
 -1       822 5.17083E-02 2.99875E-02 0.00000E+00
 -1       823 5.15625E-02 2.99875E-02 0.00000E+00
 -1       824 5.14167E-02 2.99875E-02 0.00000E+00
 -1       825 5.12708E-02 2.99875E-02 0.00000E+00
 -1       826 5.11250E-02 2.99875E-02 0.00000E+00
 -1       827 5.09792E-02 2.99875E-02 0.00000E+00
 -1       828 5.08333E-02 2.99875E-02 0.00000E+00
 -1       829 5.06875E-02 2.99875E-02 0.00000E+00
 -1       830 5.05417E-02 2.99875E-02 0.00000E+00
 -1       831 5.03958E-02 2.99875E-02 0.00000E+00
 -1       832 5.02500E-02 2.99875E-02 0.00000E+00
 -1       833 5.01042E-02 2.99875E-02 0.00000E+00
 -1       834 4.99583E-02 2.99875E-02 0.00000E+00
 -1       835 4.98125E-02 2.99875E-02 0.00000E+00
 -1       836 4.96667E-02 2.99875E-02 0.00000E+00
 -1       837 4.95208E-02 2.99875E-02 0.00000E+00
 -1       838 4.93750E-02 2.99875E-02 0.00000E+00
 -1       839 4.92292E-02 2.99875E-02 0.00000E+00
 -1       840 4.90833E-02 2.99875E-02 0.00000E+00
 -1       841 4.89375E-02 2.99875E-02 0.00000E+00
 -1       842 4.87917E-02 2.99875E-02 0.00000E+00
 -1       843 4.86458E-02 2.99875E-02 0.00000E+00
 -1       844 4.85000E-02 2.99875E-02 0.00000E+00
 -1       845 4.83542E-02 2.99875E-02 0.00000E+00
 -1       846 4.82083E-02 2.99875E-02 0.00000E+00
 -1       847 4.80625E-02 2.99875E-02 0.00000E+00
 -1       848 4.79167E-02 2.99875E-02 0.00000E+00
 -1       849 4.77708E-02 2.99875E-02 0.00000E+00
 -1       850 4.76250E-02 2.99875E-02 0.00000E+00
 -1       851 4.74792E-02 2.99875E-02 0.00000E+00
 -1       852 4.73333E-02 2.99875E-02 0.00000E+00
 -1       853 4.71875E-02 2.99875E-02 0.00000E+00
 -1       854 4.70417E-02 2.99875E-02 0.00000E+00
 -1       855 4.68958E-02 2.99875E-02 0.00000E+00
 -1       856 4.67500E-02 2.99875E-02 0.00000E+00
 -1       857 4.66042E-02 2.99875E-02 0.00000E+00
 -1       858 4.64583E-02 2.99875E-02 0.00000E+00
 -1       859 4.63125E-02 2.99875E-02 0.00000E+00
 -1       860 4.61667E-02 2.99875E-02 0.00000E+00
 -1       861 4.60208E-02 2.99875E-02 0.00000E+00
 -1       862 4.58750E-02 2.99875E-02 0.00000E+00
 -1       863 4.57292E-02 2.99875E-02 0.00000E+00
 -1       864 4.55833E-02 2.99875E-02 0.00000E+00
 -1       865 4.54375E-02 2.99875E-02 0.00000E+00
 -1       866 4.52917E-02 2.99875E-02 0.00000E+00
 -1       867 4.51458E-02 2.99875E-02 0.00000E+00
 -1       868 4.50000E-02 2.99875E-02 0.00000E+00
 -1       869 4.48542E-02 2.99875E-02 0.00000E+00
 -1       870 4.47083E-02 2.99875E-02 0.00000E+00
 -1       871 4.45625E-02 2.99875E-02 0.00000E+00
 -1       872 4.44167E-02 2.99875E-02 0.00000E+00
 -1       873 4.42708E-02 2.99875E-02 0.00000E+00
 -1       874 4.41250E-02 2.99875E-02 0.00000E+00
 -1       875 4.39792E-02 2.99875E-02 0.00000E+00
 -1       876 4.38333E-02 2.99875E-02 0.00000E+00
 -1       877 4.36875E-02 2.99875E-02 0.00000E+00
 -1       878 4.35417E-02 2.99875E-02 0.00000E+00
 -1       879 4.33959E-02 2.99875E-02 0.00000E+00
 -1       880 4.32500E-02 2.99875E-02 0.00000E+00
 -1       881 4.31042E-02 2.99875E-02 0.00000E+00
 -1       882 4.29583E-02 2.99875E-02 0.00000E+00
 -1       883 4.28125E-02 2.99875E-02 0.00000E+00
 -1       884 4.26667E-02 2.99875E-02 0.00000E+00
 -1       885 4.25209E-02 2.99875E-02 0.00000E+00
 -1       886 4.23750E-02 2.99875E-02 0.00000E+00
 -1       887 4.22292E-02 2.99875E-02 0.00000E+00
 -1       888 4.20833E-02 2.99875E-02 0.00000E+00
 -1       889 4.19375E-02 2.99875E-02 0.00000E+00
 -1       890 4.17917E-02 2.99875E-02 0.00000E+00
 -1       891 4.16459E-02 2.99875E-02 0.00000E+00
 -1       892 4.15000E-02 2.99875E-02 0.00000E+00
 -1       893 4.13542E-02 2.99875E-02 0.00000E+00
 -1       894 4.12083E-02 2.99875E-02 0.00000E+00
 -1       895 4.10625E-02 2.99875E-02 0.00000E+00
 -1       896 4.09167E-02 2.99875E-02 0.00000E+00
 -1       897 4.07709E-02 2.99875E-02 0.00000E+00
 -1       898 4.06250E-02 2.99875E-02 0.00000E+00
 -1       899 4.04792E-02 2.99875E-02 0.00000E+00
 -1       900 4.03334E-02 2.99875E-02 0.00000E+00
 -1       901 4.01875E-02 2.99875E-02 0.00000E+00
 -1       902 4.00417E-02 2.99875E-02 0.00000E+00
 -1       903 3.98959E-02 2.99875E-02 0.00000E+00
 -1       904 3.97500E-02 2.99875E-02 0.00000E+00
 -1       905 3.96042E-02 2.99875E-02 0.00000E+00
 -1       906 3.94584E-02 2.99875E-02 0.00000E+00
 -1       907 3.93125E-02 2.99875E-02 0.00000E+00
 -1       908 3.91667E-02 2.99875E-02 0.00000E+00
 -1       909 3.90209E-02 2.99875E-02 0.00000E+00
 -1       910 3.88750E-02 2.99875E-02 0.00000E+00
 -1       911 3.87292E-02 2.99875E-02 0.00000E+00
 -1       912 3.85834E-02 2.99875E-02 0.00000E+00
 -1       913 3.84375E-02 2.99875E-02 0.00000E+00
 -1       914 3.82917E-02 2.99875E-02 0.00000E+00
 -1       915 3.81459E-02 2.99875E-02 0.00000E+00
 -1       916 3.80000E-02 2.99875E-02 0.00000E+00
 -1       917 3.78542E-02 2.99875E-02 0.00000E+00
 -1       918 3.77084E-02 2.99875E-02 0.00000E+00
 -1       919 3.75625E-02 2.99875E-02 0.00000E+00
 -1       920 3.74167E-02 2.99875E-02 0.00000E+00
 -1       921 3.72709E-02 2.99875E-02 0.00000E+00
 -1       922 3.71250E-02 2.99875E-02 0.00000E+00
 -1       923 3.69792E-02 2.99875E-02 0.00000E+00
 -1       924 3.68334E-02 2.99875E-02 0.00000E+00
 -1       925 3.66875E-02 2.99875E-02 0.00000E+00
 -1       926 3.65417E-02 2.99875E-02 0.00000E+00
 -1       927 3.63959E-02 2.99875E-02 0.00000E+00
 -1       928 3.62500E-02 2.99875E-02 0.00000E+00
 -1       929 3.61042E-02 2.99875E-02 0.00000E+00
 -1       930 3.59584E-02 2.99875E-02 0.00000E+00
 -1       931 3.58125E-02 2.99875E-02 0.00000E+00
 -1       932 3.56667E-02 2.99875E-02 0.00000E+00
 -1       933 3.55209E-02 2.99875E-02 0.00000E+00
 -1       934 3.53750E-02 2.99875E-02 0.00000E+00
 -1       935 3.52292E-02 2.99875E-02 0.00000E+00
 -1       936 3.50834E-02 2.99875E-02 0.00000E+00
 -1       937 3.49375E-02 2.99875E-02 0.00000E+00
 -1       938 3.47917E-02 2.99875E-02 0.00000E+00
 -1       939 3.46459E-02 2.99875E-02 0.00000E+00
 -1       940 3.45000E-02 2.99875E-02 0.00000E+00
 -1       941 3.43542E-02 2.99875E-02 0.00000E+00
 -1       942 3.42084E-02 2.99875E-02 0.00000E+00
 -1       943 3.40625E-02 2.99875E-02 0.00000E+00
 -1       944 3.39167E-02 2.99875E-02 0.00000E+00
 -1       945 3.37709E-02 2.99875E-02 0.00000E+00
 -1       946 3.36250E-02 2.99875E-02 0.00000E+00
 -1       947 3.34792E-02 2.99875E-02 0.00000E+00
 -1       948 3.33334E-02 2.99875E-02 0.00000E+00
 -1       949 3.31875E-02 2.99875E-02 0.00000E+00
 -1       950 3.30417E-02 2.99875E-02 0.00000E+00
 -1       951 3.28959E-02 2.99875E-02 0.00000E+00
 -1       952 3.27500E-02 2.99875E-02 0.00000E+00
 -1       953 3.26042E-02 2.99875E-02 0.00000E+00
 -1       954 3.24584E-02 2.99875E-02 0.00000E+00
 -1       955 3.23125E-02 2.99875E-02 0.00000E+00
 -1       956 3.21667E-02 2.99875E-02 0.00000E+00
 -1       957 3.20209E-02 2.99875E-02 0.00000E+00
 -1       958 3.18750E-02 2.99875E-02 0.00000E+00
 -1       959 3.17292E-02 2.99875E-02 0.00000E+00
 -1       960 3.15834E-02 2.99875E-02 0.00000E+00
 -1       961 3.14375E-02 2.99875E-02 0.00000E+00
 -1       962 3.12917E-02 2.99875E-02 0.00000E+00
 -1       963 3.11459E-02 2.99875E-02 0.00000E+00
 -1       964 3.10000E-02 2.99875E-02 0.00000E+00
 -1       965 6.60000E-02 3.00000E-02 1.60000E-01
 -1       966 6.58542E-02 3.00000E-02 1.60000E-01
 -1       967 6.57083E-02 3.00000E-02 1.60000E-01
 -1       968 6.55625E-02 3.00000E-02 1.60000E-01
 -1       969 6.54167E-02 3.00000E-02 1.60000E-01
 -1       970 6.52708E-02 3.00000E-02 1.60000E-01
 -1       971 6.51250E-02 3.00000E-02 1.60000E-01
 -1       972 6.49792E-02 3.00000E-02 1.60000E-01
 -1       973 6.48333E-02 3.00000E-02 1.60000E-01
 -1       974 6.46875E-02 3.00000E-02 1.60000E-01
 -1       975 6.45417E-02 3.00000E-02 1.60000E-01
 -1       976 6.43958E-02 3.00000E-02 1.60000E-01
 -1       977 6.42500E-02 3.00000E-02 1.60000E-01
 -1       978 6.41042E-02 3.00000E-02 1.60000E-01
 -1       979 6.39583E-02 3.00000E-02 1.60000E-01
 -1       980 6.38125E-02 3.00000E-02 1.60000E-01
 -1       981 6.36667E-02 3.00000E-02 1.60000E-01
 -1       982 6.35208E-02 3.00000E-02 1.60000E-01
 -1       983 6.33750E-02 3.00000E-02 1.60000E-01
 -1       984 6.32292E-02 3.00000E-02 1.60000E-01
 -1       985 6.30833E-02 3.00000E-02 1.60000E-01
 -1       986 6.29375E-02 3.00000E-02 1.60000E-01
 -1       987 6.27917E-02 3.00000E-02 1.60000E-01
 -1       988 6.26458E-02 3.00000E-02 1.60000E-01
 -1       989 6.25000E-02 3.00000E-02 1.60000E-01
 -1       990 6.23542E-02 3.00000E-02 1.60000E-01
 -1       991 6.22083E-02 3.00000E-02 1.60000E-01
 -1       992 6.20625E-02 3.00000E-02 1.60000E-01
 -1       993 6.19167E-02 3.00000E-02 1.60000E-01
 -1       994 6.17708E-02 3.00000E-02 1.60000E-01
 -1       995 6.16250E-02 3.00000E-02 1.60000E-01
 -1       996 6.14792E-02 3.00000E-02 1.60000E-01
 -1       997 6.13333E-02 3.00000E-02 1.60000E-01
 -1       998 6.11875E-02 3.00000E-02 1.60000E-01
 -1       999 6.10417E-02 3.00000E-02 1.60000E-01
 -1      1000 6.08958E-02 3.00000E-02 1.60000E-01
 -1      1001 6.07500E-02 3.00000E-02 1.60000E-01
 -1      1002 6.06042E-02 3.00000E-02 1.60000E-01
 -1      1003 6.04584E-02 3.00000E-02 1.60000E-01
 -1      1004 6.03125E-02 3.00000E-02 1.60000E-01
 -1      1005 6.01667E-02 3.00000E-02 1.60000E-01
 -1      1006 6.00208E-02 3.00000E-02 1.60000E-01
 -1      1007 5.98750E-02 3.00000E-02 1.60000E-01
 -1      1008 5.97292E-02 3.00000E-02 1.60000E-01
 -1      1009 5.95834E-02 3.00000E-02 1.60000E-01
 -1      1010 5.94375E-02 3.00000E-02 1.60000E-01
 -1      1011 5.92917E-02 3.00000E-02 1.60000E-01
 -1      1012 5.91459E-02 3.00000E-02 1.60000E-01
 -1      1013 5.90000E-02 3.00000E-02 1.60000E-01
 -1      1014 5.88542E-02 3.00000E-02 1.60000E-01
 -1      1015 5.87084E-02 3.00000E-02 1.60000E-01
 -1      1016 5.85625E-02 3.00000E-02 1.60000E-01
 -1      1017 5.84167E-02 3.00000E-02 1.60000E-01
 -1      1018 5.82709E-02 3.00000E-02 1.60000E-01
 -1      1019 5.81250E-02 3.00000E-02 1.60000E-01
 -1      1020 5.79792E-02 3.00000E-02 1.60000E-01
 -1      1021 5.78334E-02 3.00000E-02 1.60000E-01
 -1      1022 5.76875E-02 3.00000E-02 1.60000E-01
 -1      1023 5.75417E-02 3.00000E-02 1.60000E-01
 -1      1024 5.73959E-02 3.00000E-02 1.60000E-01
 -1      1025 5.72500E-02 3.00000E-02 1.60000E-01
 -1      1026 5.71042E-02 3.00000E-02 1.60000E-01
 -1      1027 5.69584E-02 3.00000E-02 1.60000E-01
 -1      1028 5.68125E-02 3.00000E-02 1.60000E-01
 -1      1029 5.66667E-02 3.00000E-02 1.60000E-01
 -1      1030 5.65209E-02 3.00000E-02 1.60000E-01
 -1      1031 5.63750E-02 3.00000E-02 1.60000E-01
 -1      1032 5.62292E-02 3.00000E-02 1.60000E-01
 -1      1033 5.60834E-02 3.00000E-02 1.60000E-01
 -1      1034 5.59375E-02 3.00000E-02 1.60000E-01
 -1      1035 5.57917E-02 3.00000E-02 1.60000E-01
 -1      1036 5.56459E-02 3.00000E-02 1.60000E-01
 -1      1037 5.55000E-02 3.00000E-02 1.60000E-01
 -1      1038 5.53542E-02 3.00000E-02 1.60000E-01
 -1      1039 5.52084E-02 3.00000E-02 1.60000E-01
 -1      1040 5.50625E-02 3.00000E-02 1.60000E-01
 -1      1041 5.49167E-02 3.00000E-02 1.60000E-01
 -1      1042 5.47709E-02 3.00000E-02 1.60000E-01
 -1      1043 5.46250E-02 3.00000E-02 1.60000E-01
 -1      1044 5.44792E-02 3.00000E-02 1.60000E-01
 -1      1045 5.43334E-02 3.00000E-02 1.60000E-01
 -1      1046 5.41875E-02 3.00000E-02 1.60000E-01
 -1      1047 5.40417E-02 3.00000E-02 1.60000E-01
 -1      1048 5.38959E-02 3.00000E-02 1.60000E-01
 -1      1049 5.37500E-02 3.00000E-02 1.60000E-01
 -1      1050 5.36042E-02 3.00000E-02 1.60000E-01
 -1      1051 5.34584E-02 3.00000E-02 1.60000E-01
 -1      1052 5.33125E-02 3.00000E-02 1.60000E-01
 -1      1053 5.31667E-02 3.00000E-02 1.60000E-01
 -1      1054 5.30209E-02 3.00000E-02 1.60000E-01
 -1      1055 5.28750E-02 3.00000E-02 1.60000E-01
 -1      1056 5.27292E-02 3.00000E-02 1.60000E-01
 -1      1057 5.25834E-02 3.00000E-02 1.60000E-01
 -1      1058 5.24375E-02 3.00000E-02 1.60000E-01
 -1      1059 5.22917E-02 3.00000E-02 1.60000E-01
 -1      1060 5.21459E-02 3.00000E-02 1.60000E-01
 -1      1061 5.20000E-02 3.00000E-02 1.60000E-01
 -1      1062 5.18542E-02 3.00000E-02 1.60000E-01
 -1      1063 5.17084E-02 3.00000E-02 1.60000E-01
 -1      1064 5.15625E-02 3.00000E-02 1.60000E-01
 -1      1065 5.14167E-02 3.00000E-02 1.60000E-01
 -1      1066 5.12709E-02 3.00000E-02 1.60000E-01
 -1      1067 5.11250E-02 3.00000E-02 1.60000E-01
 -1      1068 5.09792E-02 3.00000E-02 1.60000E-01
 -1      1069 5.08334E-02 3.00000E-02 1.60000E-01
 -1      1070 5.06875E-02 3.00000E-02 1.60000E-01
 -1      1071 5.05417E-02 3.00000E-02 1.60000E-01
 -1      1072 5.03959E-02 3.00000E-02 1.60000E-01
 -1      1073 5.02500E-02 3.00000E-02 1.60000E-01
 -1      1074 5.01042E-02 3.00000E-02 1.60000E-01
 -1      1075 4.99584E-02 3.00000E-02 1.60000E-01
 -1      1076 4.98125E-02 3.00000E-02 1.60000E-01
 -1      1077 4.96667E-02 3.00000E-02 1.60000E-01
 -1      1078 4.95209E-02 3.00000E-02 1.60000E-01
 -1      1079 4.93750E-02 3.00000E-02 1.60000E-01
 -1      1080 4.92292E-02 3.00000E-02 1.60000E-01
 -1      1081 4.90834E-02 3.00000E-02 1.60000E-01
 -1      1082 4.89376E-02 3.00000E-02 1.60000E-01
 -1      1083 4.87917E-02 3.00000E-02 1.60000E-01
 -1      1084 4.86459E-02 3.00000E-02 1.60000E-01
 -1      1085 4.85000E-02 3.00000E-02 1.60000E-01
 -1      1086 4.83542E-02 3.00000E-02 1.60000E-01
 -1      1087 4.82084E-02 3.00000E-02 1.60000E-01
 -1      1088 4.80626E-02 3.00000E-02 1.60000E-01
 -1      1089 4.79167E-02 3.00000E-02 1.60000E-01
 -1      1090 4.77709E-02 3.00000E-02 1.60000E-01
 -1      1091 4.76251E-02 3.00000E-02 1.60000E-01
 -1      1092 4.74792E-02 3.00000E-02 1.60000E-01
 -1      1093 4.73334E-02 3.00000E-02 1.60000E-01
 -1      1094 4.71876E-02 3.00000E-02 1.60000E-01
 -1      1095 4.70417E-02 3.00000E-02 1.60000E-01
 -1      1096 4.68959E-02 3.00000E-02 1.60000E-01
 -1      1097 4.67501E-02 3.00000E-02 1.60000E-01
 -1      1098 4.66042E-02 3.00000E-02 1.60000E-01
 -1      1099 4.64584E-02 3.00000E-02 1.60000E-01
 -1      1100 4.63126E-02 3.00000E-02 1.60000E-01
 -1      1101 4.61667E-02 3.00000E-02 1.60000E-01
 -1      1102 4.60209E-02 3.00000E-02 1.60000E-01
 -1      1103 4.58751E-02 3.00000E-02 1.60000E-01
 -1      1104 4.57292E-02 3.00000E-02 1.60000E-01
 -1      1105 4.55834E-02 3.00000E-02 1.60000E-01
 -1      1106 4.54376E-02 3.00000E-02 1.60000E-01
 -1      1107 4.52917E-02 3.00000E-02 1.60000E-01
 -1      1108 4.51459E-02 3.00000E-02 1.60000E-01
 -1      1109 4.50001E-02 3.00000E-02 1.60000E-01
 -1      1110 4.48542E-02 3.00000E-02 1.60000E-01
 -1      1111 4.47084E-02 3.00000E-02 1.60000E-01
 -1      1112 4.45626E-02 3.00000E-02 1.60000E-01
 -1      1113 4.44167E-02 3.00000E-02 1.60000E-01
 -1      1114 4.42709E-02 3.00000E-02 1.60000E-01
 -1      1115 4.41251E-02 3.00000E-02 1.60000E-01
 -1      1116 4.39792E-02 3.00000E-02 1.60000E-01
 -1      1117 4.38334E-02 3.00000E-02 1.60000E-01
 -1      1118 4.36876E-02 3.00000E-02 1.60000E-01
 -1      1119 4.35417E-02 3.00000E-02 1.60000E-01
 -1      1120 4.33959E-02 3.00000E-02 1.60000E-01
 -1      1121 4.32501E-02 3.00000E-02 1.60000E-01
 -1      1122 4.31042E-02 3.00000E-02 1.60000E-01
 -1      1123 4.29584E-02 3.00000E-02 1.60000E-01
 -1      1124 4.28126E-02 3.00000E-02 1.60000E-01
 -1      1125 4.26667E-02 3.00000E-02 1.60000E-01
 -1      1126 4.25209E-02 3.00000E-02 1.60000E-01
 -1      1127 4.23751E-02 3.00000E-02 1.60000E-01
 -1      1128 4.22292E-02 3.00000E-02 1.60000E-01
 -1      1129 4.20834E-02 3.00000E-02 1.60000E-01
 -1      1130 4.19376E-02 3.00000E-02 1.60000E-01
 -1      1131 4.17917E-02 3.00000E-02 1.60000E-01
 -1      1132 4.16459E-02 3.00000E-02 1.60000E-01
 -1      1133 4.15001E-02 3.00000E-02 1.60000E-01
 -1      1134 4.13542E-02 3.00000E-02 1.60000E-01
 -1      1135 4.12084E-02 3.00000E-02 1.60000E-01
 -1      1136 4.10626E-02 3.00000E-02 1.60000E-01
 -1      1137 4.09167E-02 3.00000E-02 1.60000E-01
 -1      1138 4.07709E-02 3.00000E-02 1.60000E-01
 -1      1139 4.06251E-02 3.00000E-02 1.60000E-01
 -1      1140 4.04792E-02 3.00000E-02 1.60000E-01
 -1      1141 4.03334E-02 3.00000E-02 1.60000E-01
 -1      1142 4.01876E-02 3.00000E-02 1.60000E-01
 -1      1143 4.00417E-02 3.00000E-02 1.60000E-01
 -1      1144 3.98959E-02 3.00000E-02 1.60000E-01
 -1      1145 3.97501E-02 3.00000E-02 1.60000E-01
 -1      1146 3.96042E-02 3.00000E-02 1.60000E-01
 -1      1147 3.94584E-02 3.00000E-02 1.60000E-01
 -1      1148 3.93126E-02 3.00000E-02 1.60000E-01
 -1      1149 3.91667E-02 3.00000E-02 1.60000E-01
 -1      1150 3.90209E-02 3.00000E-02 1.60000E-01
 -1      1151 3.88751E-02 3.00000E-02 1.60000E-01
 -1      1152 3.87292E-02 3.00000E-02 1.60000E-01
 -1      1153 3.85834E-02 3.00000E-02 1.60000E-01
 -1      1154 3.84376E-02 3.00000E-02 1.60000E-01
 -1      1155 3.82917E-02 3.00000E-02 1.60000E-01
 -1      1156 3.81459E-02 3.00000E-02 1.60000E-01
 -1      1157 3.80001E-02 3.00000E-02 1.60000E-01
 -1      1158 3.78543E-02 3.00000E-02 1.60000E-01
 -1      1159 3.77084E-02 3.00000E-02 1.60000E-01
 -1      1160 3.75626E-02 3.00000E-02 1.60000E-01
 -1      1161 3.74167E-02 3.00000E-02 1.60000E-01
 -1      1162 3.72709E-02 3.00000E-02 1.60000E-01
 -1      1163 3.71251E-02 3.00000E-02 1.60000E-01
 -1      1164 3.69793E-02 3.00000E-02 1.60000E-01
 -1      1165 3.68334E-02 3.00000E-02 1.60000E-01
 -1      1166 3.66876E-02 3.00000E-02 1.60000E-01
 -1      1167 3.65418E-02 3.00000E-02 1.60000E-01
 -1      1168 3.63959E-02 3.00000E-02 1.60000E-01
 -1      1169 3.62501E-02 3.00000E-02 1.60000E-01
 -1      1170 3.61043E-02 3.00000E-02 1.60000E-01
 -1      1171 3.59584E-02 3.00000E-02 1.60000E-01
 -1      1172 3.58126E-02 3.00000E-02 1.60000E-01
 -1      1173 3.56668E-02 3.00000E-02 1.60000E-01
 -1      1174 3.55209E-02 3.00000E-02 1.60000E-01
 -1      1175 3.53751E-02 3.00000E-02 1.60000E-01
 -1      1176 3.52293E-02 3.00000E-02 1.60000E-01
 -1      1177 3.50834E-02 3.00000E-02 1.60000E-01
 -1      1178 3.49376E-02 3.00000E-02 1.60000E-01
 -1      1179 3.47918E-02 3.00000E-02 1.60000E-01
 -1      1180 3.46459E-02 3.00000E-02 1.60000E-01
 -1      1181 3.45001E-02 3.00000E-02 1.60000E-01
 -1      1182 3.43543E-02 3.00000E-02 1.60000E-01
 -1      1183 3.42084E-02 3.00000E-02 1.60000E-01
 -1      1184 3.40626E-02 3.00000E-02 1.60000E-01
 -1      1185 3.39168E-02 3.00000E-02 1.60000E-01
 -1      1186 3.37709E-02 3.00000E-02 1.60000E-01
 -1      1187 3.36251E-02 3.00000E-02 1.60000E-01
 -1      1188 3.34793E-02 3.00000E-02 1.60000E-01
 -1      1189 3.33334E-02 3.00000E-02 1.60000E-01
 -1      1190 3.31876E-02 3.00000E-02 1.60000E-01
 -1      1191 3.30418E-02 3.00000E-02 1.60000E-01
 -1      1192 3.28959E-02 3.00000E-02 1.60000E-01
 -1      1193 3.27501E-02 3.00000E-02 1.60000E-01
 -1      1194 3.26043E-02 3.00000E-02 1.60000E-01
 -1      1195 3.24584E-02 3.00000E-02 1.60000E-01
 -1      1196 3.23126E-02 3.00000E-02 1.60000E-01
 -1      1197 3.21668E-02 3.00000E-02 1.60000E-01
 -1      1198 3.20209E-02 3.00000E-02 1.60000E-01
 -1      1199 3.18751E-02 3.00000E-02 1.60000E-01
 -1      1200 3.17293E-02 3.00000E-02 1.60000E-01
 -1      1201 3.15834E-02 3.00000E-02 1.60000E-01
 -1      1202 3.14376E-02 3.00000E-02 1.60000E-01
 -1      1203 3.12918E-02 3.00000E-02 1.60000E-01
 -1      1204 3.11459E-02 3.00000E-02 1.60000E-01
 -1      1205 3.10001E-02 3.00000E-02 1.60000E-01
 -1      1206 6.60000E-02 3.00000E-02 0.00000E+00
 -1      1207 6.58542E-02 3.00000E-02 0.00000E+00
 -1      1208 6.57083E-02 3.00000E-02 0.00000E+00
 -1      1209 6.55625E-02 3.00000E-02 0.00000E+00
 -1      1210 6.54167E-02 3.00000E-02 0.00000E+00
 -1      1211 6.52708E-02 3.00000E-02 0.00000E+00
 -1      1212 6.51250E-02 3.00000E-02 0.00000E+00
 -1      1213 6.49792E-02 3.00000E-02 0.00000E+00
 -1      1214 6.48333E-02 3.00000E-02 0.00000E+00
 -1      1215 6.46875E-02 3.00000E-02 0.00000E+00
 -1      1216 6.45417E-02 3.00000E-02 0.00000E+00
 -1      1217 6.43958E-02 3.00000E-02 0.00000E+00
 -1      1218 6.42500E-02 3.00000E-02 0.00000E+00
 -1      1219 6.41042E-02 3.00000E-02 0.00000E+00
 -1      1220 6.39583E-02 3.00000E-02 0.00000E+00
 -1      1221 6.38125E-02 3.00000E-02 0.00000E+00
 -1      1222 6.36667E-02 3.00000E-02 0.00000E+00
 -1      1223 6.35208E-02 3.00000E-02 0.00000E+00
 -1      1224 6.33750E-02 3.00000E-02 0.00000E+00
 -1      1225 6.32292E-02 3.00000E-02 0.00000E+00
 -1      1226 6.30833E-02 3.00000E-02 0.00000E+00
 -1      1227 6.29375E-02 3.00000E-02 0.00000E+00
 -1      1228 6.27917E-02 3.00000E-02 0.00000E+00
 -1      1229 6.26458E-02 3.00000E-02 0.00000E+00
 -1      1230 6.25000E-02 3.00000E-02 0.00000E+00
 -1      1231 6.23542E-02 3.00000E-02 0.00000E+00
 -1      1232 6.22083E-02 3.00000E-02 0.00000E+00
 -1      1233 6.20625E-02 3.00000E-02 0.00000E+00
 -1      1234 6.19167E-02 3.00000E-02 0.00000E+00
 -1      1235 6.17708E-02 3.00000E-02 0.00000E+00
 -1      1236 6.16250E-02 3.00000E-02 0.00000E+00
 -1      1237 6.14792E-02 3.00000E-02 0.00000E+00
 -1      1238 6.13333E-02 3.00000E-02 0.00000E+00
 -1      1239 6.11875E-02 3.00000E-02 0.00000E+00
 -1      1240 6.10417E-02 3.00000E-02 0.00000E+00
 -1      1241 6.08958E-02 3.00000E-02 0.00000E+00
 -1      1242 6.07500E-02 3.00000E-02 0.00000E+00
 -1      1243 6.06042E-02 3.00000E-02 0.00000E+00
 -1      1244 6.04584E-02 3.00000E-02 0.00000E+00
 -1      1245 6.03125E-02 3.00000E-02 0.00000E+00
 -1      1246 6.01667E-02 3.00000E-02 0.00000E+00
 -1      1247 6.00208E-02 3.00000E-02 0.00000E+00
 -1      1248 5.98750E-02 3.00000E-02 0.00000E+00
 -1      1249 5.97292E-02 3.00000E-02 0.00000E+00
 -1      1250 5.95834E-02 3.00000E-02 0.00000E+00
 -1      1251 5.94375E-02 3.00000E-02 0.00000E+00
 -1      1252 5.92917E-02 3.00000E-02 0.00000E+00
 -1      1253 5.91459E-02 3.00000E-02 0.00000E+00
 -1      1254 5.90000E-02 3.00000E-02 0.00000E+00
 -1      1255 5.88542E-02 3.00000E-02 0.00000E+00
 -1      1256 5.87084E-02 3.00000E-02 0.00000E+00
 -1      1257 5.85625E-02 3.00000E-02 0.00000E+00
 -1      1258 5.84167E-02 3.00000E-02 0.00000E+00
 -1      1259 5.82709E-02 3.00000E-02 0.00000E+00
 -1      1260 5.81250E-02 3.00000E-02 0.00000E+00
 -1      1261 5.79792E-02 3.00000E-02 0.00000E+00
 -1      1262 5.78334E-02 3.00000E-02 0.00000E+00
 -1      1263 5.76875E-02 3.00000E-02 0.00000E+00
 -1      1264 5.75417E-02 3.00000E-02 0.00000E+00
 -1      1265 5.73959E-02 3.00000E-02 0.00000E+00
 -1      1266 5.72500E-02 3.00000E-02 0.00000E+00
 -1      1267 5.71042E-02 3.00000E-02 0.00000E+00
 -1      1268 5.69584E-02 3.00000E-02 0.00000E+00
 -1      1269 5.68125E-02 3.00000E-02 0.00000E+00
 -1      1270 5.66667E-02 3.00000E-02 0.00000E+00
 -1      1271 5.65209E-02 3.00000E-02 0.00000E+00
 -1      1272 5.63750E-02 3.00000E-02 0.00000E+00
 -1      1273 5.62292E-02 3.00000E-02 0.00000E+00
 -1      1274 5.60834E-02 3.00000E-02 0.00000E+00
 -1      1275 5.59375E-02 3.00000E-02 0.00000E+00
 -1      1276 5.57917E-02 3.00000E-02 0.00000E+00
 -1      1277 5.56459E-02 3.00000E-02 0.00000E+00
 -1      1278 5.55000E-02 3.00000E-02 0.00000E+00
 -1      1279 5.53542E-02 3.00000E-02 0.00000E+00
 -1      1280 5.52084E-02 3.00000E-02 0.00000E+00
 -1      1281 5.50625E-02 3.00000E-02 0.00000E+00
 -1      1282 5.49167E-02 3.00000E-02 0.00000E+00
 -1      1283 5.47709E-02 3.00000E-02 0.00000E+00
 -1      1284 5.46250E-02 3.00000E-02 0.00000E+00
 -1      1285 5.44792E-02 3.00000E-02 0.00000E+00
 -1      1286 5.43334E-02 3.00000E-02 0.00000E+00
 -1      1287 5.41875E-02 3.00000E-02 0.00000E+00
 -1      1288 5.40417E-02 3.00000E-02 0.00000E+00
 -1      1289 5.38959E-02 3.00000E-02 0.00000E+00
 -1      1290 5.37500E-02 3.00000E-02 0.00000E+00
 -1      1291 5.36042E-02 3.00000E-02 0.00000E+00
 -1      1292 5.34584E-02 3.00000E-02 0.00000E+00
 -1      1293 5.33125E-02 3.00000E-02 0.00000E+00
 -1      1294 5.31667E-02 3.00000E-02 0.00000E+00
 -1      1295 5.30209E-02 3.00000E-02 0.00000E+00
 -1      1296 5.28750E-02 3.00000E-02 0.00000E+00
 -1      1297 5.27292E-02 3.00000E-02 0.00000E+00
 -1      1298 5.25834E-02 3.00000E-02 0.00000E+00
 -1      1299 5.24375E-02 3.00000E-02 0.00000E+00
 -1      1300 5.22917E-02 3.00000E-02 0.00000E+00
 -1      1301 5.21459E-02 3.00000E-02 0.00000E+00
 -1      1302 5.20000E-02 3.00000E-02 0.00000E+00
 -1      1303 5.18542E-02 3.00000E-02 0.00000E+00
 -1      1304 5.17084E-02 3.00000E-02 0.00000E+00
 -1      1305 5.15625E-02 3.00000E-02 0.00000E+00
 -1      1306 5.14167E-02 3.00000E-02 0.00000E+00
 -1      1307 5.12709E-02 3.00000E-02 0.00000E+00
 -1      1308 5.11250E-02 3.00000E-02 0.00000E+00
 -1      1309 5.09792E-02 3.00000E-02 0.00000E+00
 -1      1310 5.08334E-02 3.00000E-02 0.00000E+00
 -1      1311 5.06875E-02 3.00000E-02 0.00000E+00
 -1      1312 5.05417E-02 3.00000E-02 0.00000E+00
 -1      1313 5.03959E-02 3.00000E-02 0.00000E+00
 -1      1314 5.02500E-02 3.00000E-02 0.00000E+00
 -1      1315 5.01042E-02 3.00000E-02 0.00000E+00
 -1      1316 4.99584E-02 3.00000E-02 0.00000E+00
 -1      1317 4.98125E-02 3.00000E-02 0.00000E+00
 -1      1318 4.96667E-02 3.00000E-02 0.00000E+00
 -1      1319 4.95209E-02 3.00000E-02 0.00000E+00
 -1      1320 4.93750E-02 3.00000E-02 0.00000E+00
 -1      1321 4.92292E-02 3.00000E-02 0.00000E+00
 -1      1322 4.90834E-02 3.00000E-02 0.00000E+00
 -1      1323 4.89376E-02 3.00000E-02 0.00000E+00
 -1      1324 4.87917E-02 3.00000E-02 0.00000E+00
 -1      1325 4.86459E-02 3.00000E-02 0.00000E+00
 -1      1326 4.85000E-02 3.00000E-02 0.00000E+00
 -1      1327 4.83542E-02 3.00000E-02 0.00000E+00
 -1      1328 4.82084E-02 3.00000E-02 0.00000E+00
 -1      1329 4.80626E-02 3.00000E-02 0.00000E+00
 -1      1330 4.79167E-02 3.00000E-02 0.00000E+00
 -1      1331 4.77709E-02 3.00000E-02 0.00000E+00
 -1      1332 4.76251E-02 3.00000E-02 0.00000E+00
 -1      1333 4.74792E-02 3.00000E-02 0.00000E+00
 -1      1334 4.73334E-02 3.00000E-02 0.00000E+00
 -1      1335 4.71876E-02 3.00000E-02 0.00000E+00
 -1      1336 4.70417E-02 3.00000E-02 0.00000E+00
 -1      1337 4.68959E-02 3.00000E-02 0.00000E+00
 -1      1338 4.67501E-02 3.00000E-02 0.00000E+00
 -1      1339 4.66042E-02 3.00000E-02 0.00000E+00
 -1      1340 4.64584E-02 3.00000E-02 0.00000E+00
 -1      1341 4.63126E-02 3.00000E-02 0.00000E+00
 -1      1342 4.61667E-02 3.00000E-02 0.00000E+00
 -1      1343 4.60209E-02 3.00000E-02 0.00000E+00
 -1      1344 4.58751E-02 3.00000E-02 0.00000E+00
 -1      1345 4.57292E-02 3.00000E-02 0.00000E+00
 -1      1346 4.55834E-02 3.00000E-02 0.00000E+00
 -1      1347 4.54376E-02 3.00000E-02 0.00000E+00
 -1      1348 4.52917E-02 3.00000E-02 0.00000E+00
 -1      1349 4.51459E-02 3.00000E-02 0.00000E+00
 -1      1350 4.50001E-02 3.00000E-02 0.00000E+00
 -1      1351 4.48542E-02 3.00000E-02 0.00000E+00
 -1      1352 4.47084E-02 3.00000E-02 0.00000E+00
 -1      1353 4.45626E-02 3.00000E-02 0.00000E+00
 -1      1354 4.44167E-02 3.00000E-02 0.00000E+00
 -1      1355 4.42709E-02 3.00000E-02 0.00000E+00
 -1      1356 4.41251E-02 3.00000E-02 0.00000E+00
 -1      1357 4.39792E-02 3.00000E-02 0.00000E+00
 -1      1358 4.38334E-02 3.00000E-02 0.00000E+00
 -1      1359 4.36876E-02 3.00000E-02 0.00000E+00
 -1      1360 4.35417E-02 3.00000E-02 0.00000E+00
 -1      1361 4.33959E-02 3.00000E-02 0.00000E+00
 -1      1362 4.32501E-02 3.00000E-02 0.00000E+00
 -1      1363 4.31042E-02 3.00000E-02 0.00000E+00
 -1      1364 4.29584E-02 3.00000E-02 0.00000E+00
 -1      1365 4.28126E-02 3.00000E-02 0.00000E+00
 -1      1366 4.26667E-02 3.00000E-02 0.00000E+00
 -1      1367 4.25209E-02 3.00000E-02 0.00000E+00
 -1      1368 4.23751E-02 3.00000E-02 0.00000E+00
 -1      1369 4.22292E-02 3.00000E-02 0.00000E+00
 -1      1370 4.20834E-02 3.00000E-02 0.00000E+00
 -1      1371 4.19376E-02 3.00000E-02 0.00000E+00
 -1      1372 4.17917E-02 3.00000E-02 0.00000E+00
 -1      1373 4.16459E-02 3.00000E-02 0.00000E+00
 -1      1374 4.15001E-02 3.00000E-02 0.00000E+00
 -1      1375 4.13542E-02 3.00000E-02 0.00000E+00
 -1      1376 4.12084E-02 3.00000E-02 0.00000E+00
 -1      1377 4.10626E-02 3.00000E-02 0.00000E+00
 -1      1378 4.09167E-02 3.00000E-02 0.00000E+00
 -1      1379 4.07709E-02 3.00000E-02 0.00000E+00
 -1      1380 4.06251E-02 3.00000E-02 0.00000E+00
 -1      1381 4.04792E-02 3.00000E-02 0.00000E+00
 -1      1382 4.03334E-02 3.00000E-02 0.00000E+00
 -1      1383 4.01876E-02 3.00000E-02 0.00000E+00
 -1      1384 4.00417E-02 3.00000E-02 0.00000E+00
 -1      1385 3.98959E-02 3.00000E-02 0.00000E+00
 -1      1386 3.97501E-02 3.00000E-02 0.00000E+00
 -1      1387 3.96042E-02 3.00000E-02 0.00000E+00
 -1      1388 3.94584E-02 3.00000E-02 0.00000E+00
 -1      1389 3.93126E-02 3.00000E-02 0.00000E+00
 -1      1390 3.91667E-02 3.00000E-02 0.00000E+00
 -1      1391 3.90209E-02 3.00000E-02 0.00000E+00
 -1      1392 3.88751E-02 3.00000E-02 0.00000E+00
 -1      1393 3.87292E-02 3.00000E-02 0.00000E+00
 -1      1394 3.85834E-02 3.00000E-02 0.00000E+00
 -1      1395 3.84376E-02 3.00000E-02 0.00000E+00
 -1      1396 3.82917E-02 3.00000E-02 0.00000E+00
 -1      1397 3.81459E-02 3.00000E-02 0.00000E+00
 -1      1398 3.80001E-02 3.00000E-02 0.00000E+00
 -1      1399 3.78543E-02 3.00000E-02 0.00000E+00
 -1      1400 3.77084E-02 3.00000E-02 0.00000E+00
 -1      1401 3.75626E-02 3.00000E-02 0.00000E+00
 -1      1402 3.74167E-02 3.00000E-02 0.00000E+00
 -1      1403 3.72709E-02 3.00000E-02 0.00000E+00
 -1      1404 3.71251E-02 3.00000E-02 0.00000E+00
 -1      1405 3.69793E-02 3.00000E-02 0.00000E+00
 -1      1406 3.68334E-02 3.00000E-02 0.00000E+00
 -1      1407 3.66876E-02 3.00000E-02 0.00000E+00
 -1      1408 3.65418E-02 3.00000E-02 0.00000E+00
 -1      1409 3.63959E-02 3.00000E-02 0.00000E+00
 -1      1410 3.62501E-02 3.00000E-02 0.00000E+00
 -1      1411 3.61043E-02 3.00000E-02 0.00000E+00
 -1      1412 3.59584E-02 3.00000E-02 0.00000E+00
 -1      1413 3.58126E-02 3.00000E-02 0.00000E+00
 -1      1414 3.56668E-02 3.00000E-02 0.00000E+00
 -1      1415 3.55209E-02 3.00000E-02 0.00000E+00
 -1      1416 3.53751E-02 3.00000E-02 0.00000E+00
 -1      1417 3.52293E-02 3.00000E-02 0.00000E+00
 -1      1418 3.50834E-02 3.00000E-02 0.00000E+00
 -1      1419 3.49376E-02 3.00000E-02 0.00000E+00
 -1      1420 3.47918E-02 3.00000E-02 0.00000E+00
 -1      1421 3.46459E-02 3.00000E-02 0.00000E+00
 -1      1422 3.45001E-02 3.00000E-02 0.00000E+00
 -1      1423 3.43543E-02 3.00000E-02 0.00000E+00
 -1      1424 3.42084E-02 3.00000E-02 0.00000E+00
 -1      1425 3.40626E-02 3.00000E-02 0.00000E+00
 -1      1426 3.39168E-02 3.00000E-02 0.00000E+00
 -1      1427 3.37709E-02 3.00000E-02 0.00000E+00
 -1      1428 3.36251E-02 3.00000E-02 0.00000E+00
 -1      1429 3.34793E-02 3.00000E-02 0.00000E+00
 -1      1430 3.33334E-02 3.00000E-02 0.00000E+00
 -1      1431 3.31876E-02 3.00000E-02 0.00000E+00
 -1      1432 3.30418E-02 3.00000E-02 0.00000E+00
 -1      1433 3.28959E-02 3.00000E-02 0.00000E+00
 -1      1434 3.27501E-02 3.00000E-02 0.00000E+00
 -1      1435 3.26043E-02 3.00000E-02 0.00000E+00
 -1      1436 3.24584E-02 3.00000E-02 0.00000E+00
 -1      1437 3.23126E-02 3.00000E-02 0.00000E+00
 -1      1438 3.21668E-02 3.00000E-02 0.00000E+00
 -1      1439 3.20209E-02 3.00000E-02 0.00000E+00
 -1      1440 3.18751E-02 3.00000E-02 0.00000E+00
 -1      1441 3.17293E-02 3.00000E-02 0.00000E+00
 -1      1442 3.15834E-02 3.00000E-02 0.00000E+00
 -1      1443 3.14376E-02 3.00000E-02 0.00000E+00
 -1      1444 3.12918E-02 3.00000E-02 0.00000E+00
 -1      1445 3.11459E-02 3.00000E-02 0.00000E+00
 -1      1446 3.10001E-02 3.00000E-02 0.00000E+00
 -1      1447 6.60000E-02 3.00125E-02 1.60000E-01
 -1      1448 6.58542E-02 3.00125E-02 1.60000E-01
 -1      1449 6.57083E-02 3.00125E-02 1.60000E-01
 -1      1450 6.55625E-02 3.00125E-02 1.60000E-01
 -1      1451 6.54167E-02 3.00125E-02 1.60000E-01
 -1      1452 6.52708E-02 3.00125E-02 1.60000E-01
 -1      1453 6.51250E-02 3.00125E-02 1.60000E-01
 -1      1454 6.49792E-02 3.00125E-02 1.60000E-01
 -1      1455 6.48333E-02 3.00125E-02 1.60000E-01
 -1      1456 6.46875E-02 3.00125E-02 1.60000E-01
 -1      1457 6.45417E-02 3.00125E-02 1.60000E-01
 -1      1458 6.43958E-02 3.00125E-02 1.60000E-01
 -1      1459 6.42500E-02 3.00125E-02 1.60000E-01
 -1      1460 6.41042E-02 3.00125E-02 1.60000E-01
 -1      1461 6.39583E-02 3.00125E-02 1.60000E-01
 -1      1462 6.38125E-02 3.00125E-02 1.60000E-01
 -1      1463 6.36667E-02 3.00125E-02 1.60000E-01
 -1      1464 6.35208E-02 3.00125E-02 1.60000E-01
 -1      1465 6.33750E-02 3.00125E-02 1.60000E-01
 -1      1466 6.32292E-02 3.00125E-02 1.60000E-01
 -1      1467 6.30833E-02 3.00125E-02 1.60000E-01
 -1      1468 6.29375E-02 3.00125E-02 1.60000E-01
 -1      1469 6.27917E-02 3.00125E-02 1.60000E-01
 -1      1470 6.26458E-02 3.00125E-02 1.60000E-01
 -1      1471 6.25000E-02 3.00125E-02 1.60000E-01
 -1      1472 6.23542E-02 3.00125E-02 1.60000E-01
 -1      1473 6.22083E-02 3.00125E-02 1.60000E-01
 -1      1474 6.20625E-02 3.00125E-02 1.60000E-01
 -1      1475 6.19167E-02 3.00125E-02 1.60000E-01
 -1      1476 6.17708E-02 3.00125E-02 1.60000E-01
 -1      1477 6.16250E-02 3.00125E-02 1.60000E-01
 -1      1478 6.14792E-02 3.00125E-02 1.60000E-01
 -1      1479 6.13333E-02 3.00125E-02 1.60000E-01
 -1      1480 6.11875E-02 3.00125E-02 1.60000E-01
 -1      1481 6.10417E-02 3.00125E-02 1.60000E-01
 -1      1482 6.08958E-02 3.00125E-02 1.60000E-01
 -1      1483 6.07500E-02 3.00125E-02 1.60000E-01
 -1      1484 6.06042E-02 3.00125E-02 1.60000E-01
 -1      1485 6.04583E-02 3.00125E-02 1.60000E-01
 -1      1486 6.03125E-02 3.00125E-02 1.60000E-01
 -1      1487 6.01667E-02 3.00125E-02 1.60000E-01
 -1      1488 6.00208E-02 3.00125E-02 1.60000E-01
 -1      1489 5.98750E-02 3.00125E-02 1.60000E-01
 -1      1490 5.97292E-02 3.00125E-02 1.60000E-01
 -1      1491 5.95833E-02 3.00125E-02 1.60000E-01
 -1      1492 5.94375E-02 3.00125E-02 1.60000E-01
 -1      1493 5.92917E-02 3.00125E-02 1.60000E-01
 -1      1494 5.91458E-02 3.00125E-02 1.60000E-01
 -1      1495 5.90000E-02 3.00125E-02 1.60000E-01
 -1      1496 5.88542E-02 3.00125E-02 1.60000E-01
 -1      1497 5.87083E-02 3.00125E-02 1.60000E-01
 -1      1498 5.85625E-02 3.00125E-02 1.60000E-01
 -1      1499 5.84167E-02 3.00125E-02 1.60000E-01
 -1      1500 5.82708E-02 3.00125E-02 1.60000E-01
 -1      1501 5.81250E-02 3.00125E-02 1.60000E-01
 -1      1502 5.79792E-02 3.00125E-02 1.60000E-01
 -1      1503 5.78333E-02 3.00125E-02 1.60000E-01
 -1      1504 5.76875E-02 3.00125E-02 1.60000E-01
 -1      1505 5.75417E-02 3.00125E-02 1.60000E-01
 -1      1506 5.73958E-02 3.00125E-02 1.60000E-01
 -1      1507 5.72500E-02 3.00125E-02 1.60000E-01
 -1      1508 5.71042E-02 3.00125E-02 1.60000E-01
 -1      1509 5.69583E-02 3.00125E-02 1.60000E-01
 -1      1510 5.68125E-02 3.00125E-02 1.60000E-01
 -1      1511 5.66667E-02 3.00125E-02 1.60000E-01
 -1      1512 5.65208E-02 3.00125E-02 1.60000E-01
 -1      1513 5.63750E-02 3.00125E-02 1.60000E-01
 -1      1514 5.62292E-02 3.00125E-02 1.60000E-01
 -1      1515 5.60833E-02 3.00125E-02 1.60000E-01
 -1      1516 5.59375E-02 3.00125E-02 1.60000E-01
 -1      1517 5.57917E-02 3.00125E-02 1.60000E-01
 -1      1518 5.56458E-02 3.00125E-02 1.60000E-01
 -1      1519 5.55000E-02 3.00125E-02 1.60000E-01
 -1      1520 5.53542E-02 3.00125E-02 1.60000E-01
 -1      1521 5.52083E-02 3.00125E-02 1.60000E-01
 -1      1522 5.50625E-02 3.00125E-02 1.60000E-01
 -1      1523 5.49167E-02 3.00125E-02 1.60000E-01
 -1      1524 5.47708E-02 3.00125E-02 1.60000E-01
 -1      1525 5.46250E-02 3.00125E-02 1.60000E-01
 -1      1526 5.44792E-02 3.00125E-02 1.60000E-01
 -1      1527 5.43333E-02 3.00125E-02 1.60000E-01
 -1      1528 5.41875E-02 3.00125E-02 1.60000E-01
 -1      1529 5.40417E-02 3.00125E-02 1.60000E-01
 -1      1530 5.38958E-02 3.00125E-02 1.60000E-01
 -1      1531 5.37500E-02 3.00125E-02 1.60000E-01
 -1      1532 5.36042E-02 3.00125E-02 1.60000E-01
 -1      1533 5.34583E-02 3.00125E-02 1.60000E-01
 -1      1534 5.33125E-02 3.00125E-02 1.60000E-01
 -1      1535 5.31667E-02 3.00125E-02 1.60000E-01
 -1      1536 5.30208E-02 3.00125E-02 1.60000E-01
 -1      1537 5.28750E-02 3.00125E-02 1.60000E-01
 -1      1538 5.27292E-02 3.00125E-02 1.60000E-01
 -1      1539 5.25833E-02 3.00125E-02 1.60000E-01
 -1      1540 5.24375E-02 3.00125E-02 1.60000E-01
 -1      1541 5.22917E-02 3.00125E-02 1.60000E-01
 -1      1542 5.21458E-02 3.00125E-02 1.60000E-01
 -1      1543 5.20000E-02 3.00125E-02 1.60000E-01
 -1      1544 5.18542E-02 3.00125E-02 1.60000E-01
 -1      1545 5.17083E-02 3.00125E-02 1.60000E-01
 -1      1546 5.15625E-02 3.00125E-02 1.60000E-01
 -1      1547 5.14167E-02 3.00125E-02 1.60000E-01
 -1      1548 5.12708E-02 3.00125E-02 1.60000E-01
 -1      1549 5.11250E-02 3.00125E-02 1.60000E-01
 -1      1550 5.09792E-02 3.00125E-02 1.60000E-01
 -1      1551 5.08333E-02 3.00125E-02 1.60000E-01
 -1      1552 5.06875E-02 3.00125E-02 1.60000E-01
 -1      1553 5.05417E-02 3.00125E-02 1.60000E-01
 -1      1554 5.03958E-02 3.00125E-02 1.60000E-01
 -1      1555 5.02500E-02 3.00125E-02 1.60000E-01
 -1      1556 5.01042E-02 3.00125E-02 1.60000E-01
 -1      1557 4.99583E-02 3.00125E-02 1.60000E-01
 -1      1558 4.98125E-02 3.00125E-02 1.60000E-01
 -1      1559 4.96667E-02 3.00125E-02 1.60000E-01
 -1      1560 4.95208E-02 3.00125E-02 1.60000E-01
 -1      1561 4.93750E-02 3.00125E-02 1.60000E-01
 -1      1562 4.92292E-02 3.00125E-02 1.60000E-01
 -1      1563 4.90833E-02 3.00125E-02 1.60000E-01
 -1      1564 4.89375E-02 3.00125E-02 1.60000E-01
 -1      1565 4.87917E-02 3.00125E-02 1.60000E-01
 -1      1566 4.86458E-02 3.00125E-02 1.60000E-01
 -1      1567 4.85000E-02 3.00125E-02 1.60000E-01
 -1      1568 4.83542E-02 3.00125E-02 1.60000E-01
 -1      1569 4.82083E-02 3.00125E-02 1.60000E-01
 -1      1570 4.80625E-02 3.00125E-02 1.60000E-01
 -1      1571 4.79167E-02 3.00125E-02 1.60000E-01
 -1      1572 4.77708E-02 3.00125E-02 1.60000E-01
 -1      1573 4.76250E-02 3.00125E-02 1.60000E-01
 -1      1574 4.74792E-02 3.00125E-02 1.60000E-01
 -1      1575 4.73333E-02 3.00125E-02 1.60000E-01
 -1      1576 4.71875E-02 3.00125E-02 1.60000E-01
 -1      1577 4.70417E-02 3.00125E-02 1.60000E-01
 -1      1578 4.68958E-02 3.00125E-02 1.60000E-01
 -1      1579 4.67500E-02 3.00125E-02 1.60000E-01
 -1      1580 4.66042E-02 3.00125E-02 1.60000E-01
 -1      1581 4.64583E-02 3.00125E-02 1.60000E-01
 -1      1582 4.63125E-02 3.00125E-02 1.60000E-01
 -1      1583 4.61667E-02 3.00125E-02 1.60000E-01
 -1      1584 4.60208E-02 3.00125E-02 1.60000E-01
 -1      1585 4.58750E-02 3.00125E-02 1.60000E-01
 -1      1586 4.57292E-02 3.00125E-02 1.60000E-01
 -1      1587 4.55833E-02 3.00125E-02 1.60000E-01
 -1      1588 4.54375E-02 3.00125E-02 1.60000E-01
 -1      1589 4.52917E-02 3.00125E-02 1.60000E-01
 -1      1590 4.51458E-02 3.00125E-02 1.60000E-01
 -1      1591 4.50000E-02 3.00125E-02 1.60000E-01
 -1      1592 4.48542E-02 3.00125E-02 1.60000E-01
 -1      1593 4.47083E-02 3.00125E-02 1.60000E-01
 -1      1594 4.45625E-02 3.00125E-02 1.60000E-01
 -1      1595 4.44167E-02 3.00125E-02 1.60000E-01
 -1      1596 4.42708E-02 3.00125E-02 1.60000E-01
 -1      1597 4.41250E-02 3.00125E-02 1.60000E-01
 -1      1598 4.39792E-02 3.00125E-02 1.60000E-01
 -1      1599 4.38333E-02 3.00125E-02 1.60000E-01
 -1      1600 4.36875E-02 3.00125E-02 1.60000E-01
 -1      1601 4.35417E-02 3.00125E-02 1.60000E-01
 -1      1602 4.33959E-02 3.00125E-02 1.60000E-01
 -1      1603 4.32500E-02 3.00125E-02 1.60000E-01
 -1      1604 4.31042E-02 3.00125E-02 1.60000E-01
 -1      1605 4.29583E-02 3.00125E-02 1.60000E-01
 -1      1606 4.28125E-02 3.00125E-02 1.60000E-01
 -1      1607 4.26667E-02 3.00125E-02 1.60000E-01
 -1      1608 4.25209E-02 3.00125E-02 1.60000E-01
 -1      1609 4.23750E-02 3.00125E-02 1.60000E-01
 -1      1610 4.22292E-02 3.00125E-02 1.60000E-01
 -1      1611 4.20833E-02 3.00125E-02 1.60000E-01
 -1      1612 4.19375E-02 3.00125E-02 1.60000E-01
 -1      1613 4.17917E-02 3.00125E-02 1.60000E-01
 -1      1614 4.16459E-02 3.00125E-02 1.60000E-01
 -1      1615 4.15000E-02 3.00125E-02 1.60000E-01
 -1      1616 4.13542E-02 3.00125E-02 1.60000E-01
 -1      1617 4.12083E-02 3.00125E-02 1.60000E-01
 -1      1618 4.10625E-02 3.00125E-02 1.60000E-01
 -1      1619 4.09167E-02 3.00125E-02 1.60000E-01
 -1      1620 4.07709E-02 3.00125E-02 1.60000E-01
 -1      1621 4.06250E-02 3.00125E-02 1.60000E-01
 -1      1622 4.04792E-02 3.00125E-02 1.60000E-01
 -1      1623 4.03334E-02 3.00125E-02 1.60000E-01
 -1      1624 4.01875E-02 3.00125E-02 1.60000E-01
 -1      1625 4.00417E-02 3.00125E-02 1.60000E-01
 -1      1626 3.98959E-02 3.00125E-02 1.60000E-01
 -1      1627 3.97500E-02 3.00125E-02 1.60000E-01
 -1      1628 3.96042E-02 3.00125E-02 1.60000E-01
 -1      1629 3.94584E-02 3.00125E-02 1.60000E-01
 -1      1630 3.93125E-02 3.00125E-02 1.60000E-01
 -1      1631 3.91667E-02 3.00125E-02 1.60000E-01
 -1      1632 3.90209E-02 3.00125E-02 1.60000E-01
 -1      1633 3.88750E-02 3.00125E-02 1.60000E-01
 -1      1634 3.87292E-02 3.00125E-02 1.60000E-01
 -1      1635 3.85834E-02 3.00125E-02 1.60000E-01
 -1      1636 3.84375E-02 3.00125E-02 1.60000E-01
 -1      1637 3.82917E-02 3.00125E-02 1.60000E-01
 -1      1638 3.81459E-02 3.00125E-02 1.60000E-01
 -1      1639 3.80000E-02 3.00125E-02 1.60000E-01
 -1      1640 3.78542E-02 3.00125E-02 1.60000E-01
 -1      1641 3.77084E-02 3.00125E-02 1.60000E-01
 -1      1642 3.75625E-02 3.00125E-02 1.60000E-01
 -1      1643 3.74167E-02 3.00125E-02 1.60000E-01
 -1      1644 3.72709E-02 3.00125E-02 1.60000E-01
 -1      1645 3.71250E-02 3.00125E-02 1.60000E-01
 -1      1646 3.69792E-02 3.00125E-02 1.60000E-01
 -1      1647 3.68334E-02 3.00125E-02 1.60000E-01
 -1      1648 3.66875E-02 3.00125E-02 1.60000E-01
 -1      1649 3.65417E-02 3.00125E-02 1.60000E-01
 -1      1650 3.63959E-02 3.00125E-02 1.60000E-01
 -1      1651 3.62500E-02 3.00125E-02 1.60000E-01
 -1      1652 3.61042E-02 3.00125E-02 1.60000E-01
 -1      1653 3.59584E-02 3.00125E-02 1.60000E-01
 -1      1654 3.58125E-02 3.00125E-02 1.60000E-01
 -1      1655 3.56667E-02 3.00125E-02 1.60000E-01
 -1      1656 3.55209E-02 3.00125E-02 1.60000E-01
 -1      1657 3.53750E-02 3.00125E-02 1.60000E-01
 -1      1658 3.52292E-02 3.00125E-02 1.60000E-01
 -1      1659 3.50834E-02 3.00125E-02 1.60000E-01
 -1      1660 3.49375E-02 3.00125E-02 1.60000E-01
 -1      1661 3.47917E-02 3.00125E-02 1.60000E-01
 -1      1662 3.46459E-02 3.00125E-02 1.60000E-01
 -1      1663 3.45000E-02 3.00125E-02 1.60000E-01
 -1      1664 3.43542E-02 3.00125E-02 1.60000E-01
 -1      1665 3.42084E-02 3.00125E-02 1.60000E-01
 -1      1666 3.40625E-02 3.00125E-02 1.60000E-01
 -1      1667 3.39167E-02 3.00125E-02 1.60000E-01
 -1      1668 3.37709E-02 3.00125E-02 1.60000E-01
 -1      1669 3.36250E-02 3.00125E-02 1.60000E-01
 -1      1670 3.34792E-02 3.00125E-02 1.60000E-01
 -1      1671 3.33334E-02 3.00125E-02 1.60000E-01
 -1      1672 3.31875E-02 3.00125E-02 1.60000E-01
 -1      1673 3.30417E-02 3.00125E-02 1.60000E-01
 -1      1674 3.28959E-02 3.00125E-02 1.60000E-01
 -1      1675 3.27500E-02 3.00125E-02 1.60000E-01
 -1      1676 3.26042E-02 3.00125E-02 1.60000E-01
 -1      1677 3.24584E-02 3.00125E-02 1.60000E-01
 -1      1678 3.23125E-02 3.00125E-02 1.60000E-01
 -1      1679 3.21667E-02 3.00125E-02 1.60000E-01
 -1      1680 3.20209E-02 3.00125E-02 1.60000E-01
 -1      1681 3.18750E-02 3.00125E-02 1.60000E-01
 -1      1682 3.17292E-02 3.00125E-02 1.60000E-01
 -1      1683 3.15834E-02 3.00125E-02 1.60000E-01
 -1      1684 3.14375E-02 3.00125E-02 1.60000E-01
 -1      1685 3.12917E-02 3.00125E-02 1.60000E-01
 -1      1686 3.11459E-02 3.00125E-02 1.60000E-01
 -1      1687 3.10000E-02 3.00125E-02 1.60000E-01
 -1      1688 6.60000E-02 3.00125E-02 0.00000E+00
 -1      1689 6.58542E-02 3.00125E-02 0.00000E+00
 -1      1690 6.57083E-02 3.00125E-02 0.00000E+00
 -1      1691 6.55625E-02 3.00125E-02 0.00000E+00
 -1      1692 6.54167E-02 3.00125E-02 0.00000E+00
 -1      1693 6.52708E-02 3.00125E-02 0.00000E+00
 -1      1694 6.51250E-02 3.00125E-02 0.00000E+00
 -1      1695 6.49792E-02 3.00125E-02 0.00000E+00
 -1      1696 6.48333E-02 3.00125E-02 0.00000E+00
 -1      1697 6.46875E-02 3.00125E-02 0.00000E+00
 -1      1698 6.45417E-02 3.00125E-02 0.00000E+00
 -1      1699 6.43958E-02 3.00125E-02 0.00000E+00
 -1      1700 6.42500E-02 3.00125E-02 0.00000E+00
 -1      1701 6.41042E-02 3.00125E-02 0.00000E+00
 -1      1702 6.39583E-02 3.00125E-02 0.00000E+00
 -1      1703 6.38125E-02 3.00125E-02 0.00000E+00
 -1      1704 6.36667E-02 3.00125E-02 0.00000E+00
 -1      1705 6.35208E-02 3.00125E-02 0.00000E+00
 -1      1706 6.33750E-02 3.00125E-02 0.00000E+00
 -1      1707 6.32292E-02 3.00125E-02 0.00000E+00
 -1      1708 6.30833E-02 3.00125E-02 0.00000E+00
 -1      1709 6.29375E-02 3.00125E-02 0.00000E+00
 -1      1710 6.27917E-02 3.00125E-02 0.00000E+00
 -1      1711 6.26458E-02 3.00125E-02 0.00000E+00
 -1      1712 6.25000E-02 3.00125E-02 0.00000E+00
 -1      1713 6.23542E-02 3.00125E-02 0.00000E+00
 -1      1714 6.22083E-02 3.00125E-02 0.00000E+00
 -1      1715 6.20625E-02 3.00125E-02 0.00000E+00
 -1      1716 6.19167E-02 3.00125E-02 0.00000E+00
 -1      1717 6.17708E-02 3.00125E-02 0.00000E+00
 -1      1718 6.16250E-02 3.00125E-02 0.00000E+00
 -1      1719 6.14792E-02 3.00125E-02 0.00000E+00
 -1      1720 6.13333E-02 3.00125E-02 0.00000E+00
 -1      1721 6.11875E-02 3.00125E-02 0.00000E+00
 -1      1722 6.10417E-02 3.00125E-02 0.00000E+00
 -1      1723 6.08958E-02 3.00125E-02 0.00000E+00
 -1      1724 6.07500E-02 3.00125E-02 0.00000E+00
 -1      1725 6.06042E-02 3.00125E-02 0.00000E+00
 -1      1726 6.04583E-02 3.00125E-02 0.00000E+00
 -1      1727 6.03125E-02 3.00125E-02 0.00000E+00
 -1      1728 6.01667E-02 3.00125E-02 0.00000E+00
 -1      1729 6.00208E-02 3.00125E-02 0.00000E+00
 -1      1730 5.98750E-02 3.00125E-02 0.00000E+00
 -1      1731 5.97292E-02 3.00125E-02 0.00000E+00
 -1      1732 5.95833E-02 3.00125E-02 0.00000E+00
 -1      1733 5.94375E-02 3.00125E-02 0.00000E+00
 -1      1734 5.92917E-02 3.00125E-02 0.00000E+00
 -1      1735 5.91458E-02 3.00125E-02 0.00000E+00
 -1      1736 5.90000E-02 3.00125E-02 0.00000E+00
 -1      1737 5.88542E-02 3.00125E-02 0.00000E+00
 -1      1738 5.87083E-02 3.00125E-02 0.00000E+00
 -1      1739 5.85625E-02 3.00125E-02 0.00000E+00
 -1      1740 5.84167E-02 3.00125E-02 0.00000E+00
 -1      1741 5.82708E-02 3.00125E-02 0.00000E+00
 -1      1742 5.81250E-02 3.00125E-02 0.00000E+00
 -1      1743 5.79792E-02 3.00125E-02 0.00000E+00
 -1      1744 5.78333E-02 3.00125E-02 0.00000E+00
 -1      1745 5.76875E-02 3.00125E-02 0.00000E+00
 -1      1746 5.75417E-02 3.00125E-02 0.00000E+00
 -1      1747 5.73958E-02 3.00125E-02 0.00000E+00
 -1      1748 5.72500E-02 3.00125E-02 0.00000E+00
 -1      1749 5.71042E-02 3.00125E-02 0.00000E+00
 -1      1750 5.69583E-02 3.00125E-02 0.00000E+00
 -1      1751 5.68125E-02 3.00125E-02 0.00000E+00
 -1      1752 5.66667E-02 3.00125E-02 0.00000E+00
 -1      1753 5.65208E-02 3.00125E-02 0.00000E+00
 -1      1754 5.63750E-02 3.00125E-02 0.00000E+00
 -1      1755 5.62292E-02 3.00125E-02 0.00000E+00
 -1      1756 5.60833E-02 3.00125E-02 0.00000E+00
 -1      1757 5.59375E-02 3.00125E-02 0.00000E+00
 -1      1758 5.57917E-02 3.00125E-02 0.00000E+00
 -1      1759 5.56458E-02 3.00125E-02 0.00000E+00
 -1      1760 5.55000E-02 3.00125E-02 0.00000E+00
 -1      1761 5.53542E-02 3.00125E-02 0.00000E+00
 -1      1762 5.52083E-02 3.00125E-02 0.00000E+00
 -1      1763 5.50625E-02 3.00125E-02 0.00000E+00
 -1      1764 5.49167E-02 3.00125E-02 0.00000E+00
 -1      1765 5.47708E-02 3.00125E-02 0.00000E+00
 -1      1766 5.46250E-02 3.00125E-02 0.00000E+00
 -1      1767 5.44792E-02 3.00125E-02 0.00000E+00
 -1      1768 5.43333E-02 3.00125E-02 0.00000E+00
 -1      1769 5.41875E-02 3.00125E-02 0.00000E+00
 -1      1770 5.40417E-02 3.00125E-02 0.00000E+00
 -1      1771 5.38958E-02 3.00125E-02 0.00000E+00
 -1      1772 5.37500E-02 3.00125E-02 0.00000E+00
 -1      1773 5.36042E-02 3.00125E-02 0.00000E+00
 -1      1774 5.34583E-02 3.00125E-02 0.00000E+00
 -1      1775 5.33125E-02 3.00125E-02 0.00000E+00
 -1      1776 5.31667E-02 3.00125E-02 0.00000E+00
 -1      1777 5.30208E-02 3.00125E-02 0.00000E+00
 -1      1778 5.28750E-02 3.00125E-02 0.00000E+00
 -1      1779 5.27292E-02 3.00125E-02 0.00000E+00
 -1      1780 5.25833E-02 3.00125E-02 0.00000E+00
 -1      1781 5.24375E-02 3.00125E-02 0.00000E+00
 -1      1782 5.22917E-02 3.00125E-02 0.00000E+00
 -1      1783 5.21458E-02 3.00125E-02 0.00000E+00
 -1      1784 5.20000E-02 3.00125E-02 0.00000E+00
 -1      1785 5.18542E-02 3.00125E-02 0.00000E+00
 -1      1786 5.17083E-02 3.00125E-02 0.00000E+00
 -1      1787 5.15625E-02 3.00125E-02 0.00000E+00
 -1      1788 5.14167E-02 3.00125E-02 0.00000E+00
 -1      1789 5.12708E-02 3.00125E-02 0.00000E+00
 -1      1790 5.11250E-02 3.00125E-02 0.00000E+00
 -1      1791 5.09792E-02 3.00125E-02 0.00000E+00
 -1      1792 5.08333E-02 3.00125E-02 0.00000E+00
 -1      1793 5.06875E-02 3.00125E-02 0.00000E+00
 -1      1794 5.05417E-02 3.00125E-02 0.00000E+00
 -1      1795 5.03958E-02 3.00125E-02 0.00000E+00
 -1      1796 5.02500E-02 3.00125E-02 0.00000E+00
 -1      1797 5.01042E-02 3.00125E-02 0.00000E+00
 -1      1798 4.99583E-02 3.00125E-02 0.00000E+00
 -1      1799 4.98125E-02 3.00125E-02 0.00000E+00
 -1      1800 4.96667E-02 3.00125E-02 0.00000E+00
 -1      1801 4.95208E-02 3.00125E-02 0.00000E+00
 -1      1802 4.93750E-02 3.00125E-02 0.00000E+00
 -1      1803 4.92292E-02 3.00125E-02 0.00000E+00
 -1      1804 4.90833E-02 3.00125E-02 0.00000E+00
 -1      1805 4.89375E-02 3.00125E-02 0.00000E+00
 -1      1806 4.87917E-02 3.00125E-02 0.00000E+00
 -1      1807 4.86458E-02 3.00125E-02 0.00000E+00
 -1      1808 4.85000E-02 3.00125E-02 0.00000E+00
 -1      1809 4.83542E-02 3.00125E-02 0.00000E+00
 -1      1810 4.82083E-02 3.00125E-02 0.00000E+00
 -1      1811 4.80625E-02 3.00125E-02 0.00000E+00
 -1      1812 4.79167E-02 3.00125E-02 0.00000E+00
 -1      1813 4.77708E-02 3.00125E-02 0.00000E+00
 -1      1814 4.76250E-02 3.00125E-02 0.00000E+00
 -1      1815 4.74792E-02 3.00125E-02 0.00000E+00
 -1      1816 4.73333E-02 3.00125E-02 0.00000E+00
 -1      1817 4.71875E-02 3.00125E-02 0.00000E+00
 -1      1818 4.70417E-02 3.00125E-02 0.00000E+00
 -1      1819 4.68958E-02 3.00125E-02 0.00000E+00
 -1      1820 4.67500E-02 3.00125E-02 0.00000E+00
 -1      1821 4.66042E-02 3.00125E-02 0.00000E+00
 -1      1822 4.64583E-02 3.00125E-02 0.00000E+00
 -1      1823 4.63125E-02 3.00125E-02 0.00000E+00
 -1      1824 4.61667E-02 3.00125E-02 0.00000E+00
 -1      1825 4.60208E-02 3.00125E-02 0.00000E+00
 -1      1826 4.58750E-02 3.00125E-02 0.00000E+00
 -1      1827 4.57292E-02 3.00125E-02 0.00000E+00
 -1      1828 4.55833E-02 3.00125E-02 0.00000E+00
 -1      1829 4.54375E-02 3.00125E-02 0.00000E+00
 -1      1830 4.52917E-02 3.00125E-02 0.00000E+00
 -1      1831 4.51458E-02 3.00125E-02 0.00000E+00
 -1      1832 4.50000E-02 3.00125E-02 0.00000E+00
 -1      1833 4.48542E-02 3.00125E-02 0.00000E+00
 -1      1834 4.47083E-02 3.00125E-02 0.00000E+00
 -1      1835 4.45625E-02 3.00125E-02 0.00000E+00
 -1      1836 4.44167E-02 3.00125E-02 0.00000E+00
 -1      1837 4.42708E-02 3.00125E-02 0.00000E+00
 -1      1838 4.41250E-02 3.00125E-02 0.00000E+00
 -1      1839 4.39792E-02 3.00125E-02 0.00000E+00
 -1      1840 4.38333E-02 3.00125E-02 0.00000E+00
 -1      1841 4.36875E-02 3.00125E-02 0.00000E+00
 -1      1842 4.35417E-02 3.00125E-02 0.00000E+00
 -1      1843 4.33959E-02 3.00125E-02 0.00000E+00
 -1      1844 4.32500E-02 3.00125E-02 0.00000E+00
 -1      1845 4.31042E-02 3.00125E-02 0.00000E+00
 -1      1846 4.29583E-02 3.00125E-02 0.00000E+00
 -1      1847 4.28125E-02 3.00125E-02 0.00000E+00
 -1      1848 4.26667E-02 3.00125E-02 0.00000E+00
 -1      1849 4.25209E-02 3.00125E-02 0.00000E+00
 -1      1850 4.23750E-02 3.00125E-02 0.00000E+00
 -1      1851 4.22292E-02 3.00125E-02 0.00000E+00
 -1      1852 4.20833E-02 3.00125E-02 0.00000E+00
 -1      1853 4.19375E-02 3.00125E-02 0.00000E+00
 -1      1854 4.17917E-02 3.00125E-02 0.00000E+00
 -1      1855 4.16459E-02 3.00125E-02 0.00000E+00
 -1      1856 4.15000E-02 3.00125E-02 0.00000E+00
 -1      1857 4.13542E-02 3.00125E-02 0.00000E+00
 -1      1858 4.12083E-02 3.00125E-02 0.00000E+00
 -1      1859 4.10625E-02 3.00125E-02 0.00000E+00
 -1      1860 4.09167E-02 3.00125E-02 0.00000E+00
 -1      1861 4.07709E-02 3.00125E-02 0.00000E+00
 -1      1862 4.06250E-02 3.00125E-02 0.00000E+00
 -1      1863 4.04792E-02 3.00125E-02 0.00000E+00
 -1      1864 4.03334E-02 3.00125E-02 0.00000E+00
 -1      1865 4.01875E-02 3.00125E-02 0.00000E+00
 -1      1866 4.00417E-02 3.00125E-02 0.00000E+00
 -1      1867 3.98959E-02 3.00125E-02 0.00000E+00
 -1      1868 3.97500E-02 3.00125E-02 0.00000E+00
 -1      1869 3.96042E-02 3.00125E-02 0.00000E+00
 -1      1870 3.94584E-02 3.00125E-02 0.00000E+00
 -1      1871 3.93125E-02 3.00125E-02 0.00000E+00
 -1      1872 3.91667E-02 3.00125E-02 0.00000E+00
 -1      1873 3.90209E-02 3.00125E-02 0.00000E+00
 -1      1874 3.88750E-02 3.00125E-02 0.00000E+00
 -1      1875 3.87292E-02 3.00125E-02 0.00000E+00
 -1      1876 3.85834E-02 3.00125E-02 0.00000E+00
 -1      1877 3.84375E-02 3.00125E-02 0.00000E+00
 -1      1878 3.82917E-02 3.00125E-02 0.00000E+00
 -1      1879 3.81459E-02 3.00125E-02 0.00000E+00
 -1      1880 3.80000E-02 3.00125E-02 0.00000E+00
 -1      1881 3.78542E-02 3.00125E-02 0.00000E+00
 -1      1882 3.77084E-02 3.00125E-02 0.00000E+00
 -1      1883 3.75625E-02 3.00125E-02 0.00000E+00
 -1      1884 3.74167E-02 3.00125E-02 0.00000E+00
 -1      1885 3.72709E-02 3.00125E-02 0.00000E+00
 -1      1886 3.71250E-02 3.00125E-02 0.00000E+00
 -1      1887 3.69792E-02 3.00125E-02 0.00000E+00
 -1      1888 3.68334E-02 3.00125E-02 0.00000E+00
 -1      1889 3.66875E-02 3.00125E-02 0.00000E+00
 -1      1890 3.65417E-02 3.00125E-02 0.00000E+00
 -1      1891 3.63959E-02 3.00125E-02 0.00000E+00
 -1      1892 3.62500E-02 3.00125E-02 0.00000E+00
 -1      1893 3.61042E-02 3.00125E-02 0.00000E+00
 -1      1894 3.59584E-02 3.00125E-02 0.00000E+00
 -1      1895 3.58125E-02 3.00125E-02 0.00000E+00
 -1      1896 3.56667E-02 3.00125E-02 0.00000E+00
 -1      1897 3.55209E-02 3.00125E-02 0.00000E+00
 -1      1898 3.53750E-02 3.00125E-02 0.00000E+00
 -1      1899 3.52292E-02 3.00125E-02 0.00000E+00
 -1      1900 3.50834E-02 3.00125E-02 0.00000E+00
 -1      1901 3.49375E-02 3.00125E-02 0.00000E+00
 -1      1902 3.47917E-02 3.00125E-02 0.00000E+00
 -1      1903 3.46459E-02 3.00125E-02 0.00000E+00
 -1      1904 3.45000E-02 3.00125E-02 0.00000E+00
 -1      1905 3.43542E-02 3.00125E-02 0.00000E+00
 -1      1906 3.42084E-02 3.00125E-02 0.00000E+00
 -1      1907 3.40625E-02 3.00125E-02 0.00000E+00
 -1      1908 3.39167E-02 3.00125E-02 0.00000E+00
 -1      1909 3.37709E-02 3.00125E-02 0.00000E+00
 -1      1910 3.36250E-02 3.00125E-02 0.00000E+00
 -1      1911 3.34792E-02 3.00125E-02 0.00000E+00
 -1      1912 3.33334E-02 3.00125E-02 0.00000E+00
 -1      1913 3.31875E-02 3.00125E-02 0.00000E+00
 -1      1914 3.30417E-02 3.00125E-02 0.00000E+00
 -1      1915 3.28959E-02 3.00125E-02 0.00000E+00
 -1      1916 3.27500E-02 3.00125E-02 0.00000E+00
 -1      1917 3.26042E-02 3.00125E-02 0.00000E+00
 -1      1918 3.24584E-02 3.00125E-02 0.00000E+00
 -1      1919 3.23125E-02 3.00125E-02 0.00000E+00
 -1      1920 3.21667E-02 3.00125E-02 0.00000E+00
 -1      1921 3.20209E-02 3.00125E-02 0.00000E+00
 -1      1922 3.18750E-02 3.00125E-02 0.00000E+00
 -1      1923 3.17292E-02 3.00125E-02 0.00000E+00
 -1      1924 3.15834E-02 3.00125E-02 0.00000E+00
 -1      1925 3.14375E-02 3.00125E-02 0.00000E+00
 -1      1926 3.12917E-02 3.00125E-02 0.00000E+00
 -1      1927 3.11459E-02 3.00125E-02 0.00000E+00
 -1      1928 3.10000E-02 3.00125E-02 0.00000E+00
 -1      1929 6.60000E-02 3.00250E-02 1.60000E-01
 -1      1930 6.58542E-02 3.00250E-02 1.60000E-01
 -1      1931 6.57083E-02 3.00250E-02 1.60000E-01
 -1      1932 6.55625E-02 3.00250E-02 1.60000E-01
 -1      1933 6.54167E-02 3.00250E-02 1.60000E-01
 -1      1934 6.52708E-02 3.00250E-02 1.60000E-01
 -1      1935 6.51250E-02 3.00250E-02 1.60000E-01
 -1      1936 6.49792E-02 3.00250E-02 1.60000E-01
 -1      1937 6.48333E-02 3.00250E-02 1.60000E-01
 -1      1938 6.46875E-02 3.00250E-02 1.60000E-01
 -1      1939 6.45417E-02 3.00250E-02 1.60000E-01
 -1      1940 6.43958E-02 3.00250E-02 1.60000E-01
 -1      1941 6.42500E-02 3.00250E-02 1.60000E-01
 -1      1942 6.41042E-02 3.00250E-02 1.60000E-01
 -1      1943 6.39583E-02 3.00250E-02 1.60000E-01
 -1      1944 6.38125E-02 3.00250E-02 1.60000E-01
 -1      1945 6.36666E-02 3.00250E-02 1.60000E-01
 -1      1946 6.35208E-02 3.00250E-02 1.60000E-01
 -1      1947 6.33750E-02 3.00250E-02 1.60000E-01
 -1      1948 6.32292E-02 3.00250E-02 1.60000E-01
 -1      1949 6.30833E-02 3.00250E-02 1.60000E-01
 -1      1950 6.29375E-02 3.00250E-02 1.60000E-01
 -1      1951 6.27916E-02 3.00250E-02 1.60000E-01
 -1      1952 6.26458E-02 3.00250E-02 1.60000E-01
 -1      1953 6.25000E-02 3.00250E-02 1.60000E-01
 -1      1954 6.23541E-02 3.00250E-02 1.60000E-01
 -1      1955 6.22083E-02 3.00250E-02 1.60000E-01
 -1      1956 6.20625E-02 3.00250E-02 1.60000E-01
 -1      1957 6.19166E-02 3.00250E-02 1.60000E-01
 -1      1958 6.17708E-02 3.00250E-02 1.60000E-01
 -1      1959 6.16250E-02 3.00250E-02 1.60000E-01
 -1      1960 6.14791E-02 3.00250E-02 1.60000E-01
 -1      1961 6.13333E-02 3.00250E-02 1.60000E-01
 -1      1962 6.11875E-02 3.00250E-02 1.60000E-01
 -1      1963 6.10416E-02 3.00250E-02 1.60000E-01
 -1      1964 6.08958E-02 3.00250E-02 1.60000E-01
 -1      1965 6.07500E-02 3.00250E-02 1.60000E-01
 -1      1966 6.06041E-02 3.00250E-02 1.60000E-01
 -1      1967 6.04583E-02 3.00250E-02 1.60000E-01
 -1      1968 6.03125E-02 3.00250E-02 1.60000E-01
 -1      1969 6.01666E-02 3.00250E-02 1.60000E-01
 -1      1970 6.00208E-02 3.00250E-02 1.60000E-01
 -1      1971 5.98750E-02 3.00250E-02 1.60000E-01
 -1      1972 5.97291E-02 3.00250E-02 1.60000E-01
 -1      1973 5.95833E-02 3.00250E-02 1.60000E-01
 -1      1974 5.94375E-02 3.00250E-02 1.60000E-01
 -1      1975 5.92916E-02 3.00250E-02 1.60000E-01
 -1      1976 5.91458E-02 3.00250E-02 1.60000E-01
 -1      1977 5.90000E-02 3.00250E-02 1.60000E-01
 -1      1978 5.88541E-02 3.00250E-02 1.60000E-01
 -1      1979 5.87083E-02 3.00250E-02 1.60000E-01
 -1      1980 5.85625E-02 3.00250E-02 1.60000E-01
 -1      1981 5.84166E-02 3.00250E-02 1.60000E-01
 -1      1982 5.82708E-02 3.00250E-02 1.60000E-01
 -1      1983 5.81250E-02 3.00250E-02 1.60000E-01
 -1      1984 5.79791E-02 3.00250E-02 1.60000E-01
 -1      1985 5.78333E-02 3.00250E-02 1.60000E-01
 -1      1986 5.76875E-02 3.00250E-02 1.60000E-01
 -1      1987 5.75416E-02 3.00250E-02 1.60000E-01
 -1      1988 5.73958E-02 3.00250E-02 1.60000E-01
 -1      1989 5.72499E-02 3.00250E-02 1.60000E-01
 -1      1990 5.71041E-02 3.00250E-02 1.60000E-01
 -1      1991 5.69583E-02 3.00250E-02 1.60000E-01
 -1      1992 5.68124E-02 3.00250E-02 1.60000E-01
 -1      1993 5.66666E-02 3.00250E-02 1.60000E-01
 -1      1994 5.65208E-02 3.00250E-02 1.60000E-01
 -1      1995 5.63749E-02 3.00250E-02 1.60000E-01
 -1      1996 5.62291E-02 3.00250E-02 1.60000E-01
 -1      1997 5.60833E-02 3.00250E-02 1.60000E-01
 -1      1998 5.59374E-02 3.00250E-02 1.60000E-01
 -1      1999 5.57916E-02 3.00250E-02 1.60000E-01
 -1      2000 5.56458E-02 3.00250E-02 1.60000E-01
 -1      2001 5.54999E-02 3.00250E-02 1.60000E-01
 -1      2002 5.53541E-02 3.00250E-02 1.60000E-01
 -1      2003 5.52083E-02 3.00250E-02 1.60000E-01
 -1      2004 5.50624E-02 3.00250E-02 1.60000E-01
 -1      2005 5.49166E-02 3.00250E-02 1.60000E-01
 -1      2006 5.47708E-02 3.00250E-02 1.60000E-01
 -1      2007 5.46249E-02 3.00250E-02 1.60000E-01
 -1      2008 5.44791E-02 3.00250E-02 1.60000E-01
 -1      2009 5.43333E-02 3.00250E-02 1.60000E-01
 -1      2010 5.41874E-02 3.00250E-02 1.60000E-01
 -1      2011 5.40416E-02 3.00250E-02 1.60000E-01
 -1      2012 5.38958E-02 3.00250E-02 1.60000E-01
 -1      2013 5.37499E-02 3.00250E-02 1.60000E-01
 -1      2014 5.36041E-02 3.00250E-02 1.60000E-01
 -1      2015 5.34583E-02 3.00250E-02 1.60000E-01
 -1      2016 5.33124E-02 3.00250E-02 1.60000E-01
 -1      2017 5.31666E-02 3.00250E-02 1.60000E-01
 -1      2018 5.30208E-02 3.00250E-02 1.60000E-01
 -1      2019 5.28749E-02 3.00250E-02 1.60000E-01
 -1      2020 5.27291E-02 3.00250E-02 1.60000E-01
 -1      2021 5.25833E-02 3.00250E-02 1.60000E-01
 -1      2022 5.24374E-02 3.00250E-02 1.60000E-01
 -1      2023 5.22916E-02 3.00250E-02 1.60000E-01
 -1      2024 5.21457E-02 3.00250E-02 1.60000E-01
 -1      2025 5.19999E-02 3.00250E-02 1.60000E-01
 -1      2026 5.18541E-02 3.00250E-02 1.60000E-01
 -1      2027 5.17082E-02 3.00250E-02 1.60000E-01
 -1      2028 5.15624E-02 3.00250E-02 1.60000E-01
 -1      2029 5.14166E-02 3.00250E-02 1.60000E-01
 -1      2030 5.12707E-02 3.00250E-02 1.60000E-01
 -1      2031 5.11249E-02 3.00250E-02 1.60000E-01
 -1      2032 5.09791E-02 3.00250E-02 1.60000E-01
 -1      2033 5.08332E-02 3.00250E-02 1.60000E-01
 -1      2034 5.06874E-02 3.00250E-02 1.60000E-01
 -1      2035 5.05416E-02 3.00250E-02 1.60000E-01
 -1      2036 5.03957E-02 3.00250E-02 1.60000E-01
 -1      2037 5.02499E-02 3.00250E-02 1.60000E-01
 -1      2038 5.01041E-02 3.00250E-02 1.60000E-01
 -1      2039 4.99582E-02 3.00250E-02 1.60000E-01
 -1      2040 4.98124E-02 3.00250E-02 1.60000E-01
 -1      2041 4.96666E-02 3.00250E-02 1.60000E-01
 -1      2042 4.95207E-02 3.00250E-02 1.60000E-01
 -1      2043 4.93749E-02 3.00250E-02 1.60000E-01
 -1      2044 4.92291E-02 3.00250E-02 1.60000E-01
 -1      2045 4.90832E-02 3.00250E-02 1.60000E-01
 -1      2046 4.89374E-02 3.00250E-02 1.60000E-01
 -1      2047 4.87916E-02 3.00250E-02 1.60000E-01
 -1      2048 4.86457E-02 3.00250E-02 1.60000E-01
 -1      2049 4.84999E-02 3.00250E-02 1.60000E-01
 -1      2050 4.83541E-02 3.00250E-02 1.60000E-01
 -1      2051 4.82082E-02 3.00250E-02 1.60000E-01
 -1      2052 4.80624E-02 3.00250E-02 1.60000E-01
 -1      2053 4.79166E-02 3.00250E-02 1.60000E-01
 -1      2054 4.77707E-02 3.00250E-02 1.60000E-01
 -1      2055 4.76249E-02 3.00250E-02 1.60000E-01
 -1      2056 4.74791E-02 3.00250E-02 1.60000E-01
 -1      2057 4.73332E-02 3.00250E-02 1.60000E-01
 -1      2058 4.71874E-02 3.00250E-02 1.60000E-01
 -1      2059 4.70416E-02 3.00250E-02 1.60000E-01
 -1      2060 4.68957E-02 3.00250E-02 1.60000E-01
 -1      2061 4.67499E-02 3.00250E-02 1.60000E-01
 -1      2062 4.66040E-02 3.00250E-02 1.60000E-01
 -1      2063 4.64582E-02 3.00250E-02 1.60000E-01
 -1      2064 4.63124E-02 3.00250E-02 1.60000E-01
 -1      2065 4.61665E-02 3.00250E-02 1.60000E-01
 -1      2066 4.60207E-02 3.00250E-02 1.60000E-01
 -1      2067 4.58749E-02 3.00250E-02 1.60000E-01
 -1      2068 4.57290E-02 3.00250E-02 1.60000E-01
 -1      2069 4.55832E-02 3.00250E-02 1.60000E-01
 -1      2070 4.54374E-02 3.00250E-02 1.60000E-01
 -1      2071 4.52915E-02 3.00250E-02 1.60000E-01
 -1      2072 4.51457E-02 3.00250E-02 1.60000E-01
 -1      2073 4.49999E-02 3.00250E-02 1.60000E-01
 -1      2074 4.48540E-02 3.00250E-02 1.60000E-01
 -1      2075 4.47082E-02 3.00250E-02 1.60000E-01
 -1      2076 4.45624E-02 3.00250E-02 1.60000E-01
 -1      2077 4.44165E-02 3.00250E-02 1.60000E-01
 -1      2078 4.42707E-02 3.00250E-02 1.60000E-01
 -1      2079 4.41249E-02 3.00250E-02 1.60000E-01
 -1      2080 4.39790E-02 3.00250E-02 1.60000E-01
 -1      2081 4.38332E-02 3.00250E-02 1.60000E-01
 -1      2082 4.36874E-02 3.00250E-02 1.60000E-01
 -1      2083 4.35415E-02 3.00250E-02 1.60000E-01
 -1      2084 4.33957E-02 3.00250E-02 1.60000E-01
 -1      2085 4.32499E-02 3.00250E-02 1.60000E-01
 -1      2086 4.31040E-02 3.00250E-02 1.60000E-01
 -1      2087 4.29582E-02 3.00250E-02 1.60000E-01
 -1      2088 4.28124E-02 3.00250E-02 1.60000E-01
 -1      2089 4.26665E-02 3.00250E-02 1.60000E-01
 -1      2090 4.25207E-02 3.00250E-02 1.60000E-01
 -1      2091 4.23749E-02 3.00250E-02 1.60000E-01
 -1      2092 4.22290E-02 3.00250E-02 1.60000E-01
 -1      2093 4.20832E-02 3.00250E-02 1.60000E-01
 -1      2094 4.19374E-02 3.00250E-02 1.60000E-01
 -1      2095 4.17915E-02 3.00250E-02 1.60000E-01
 -1      2096 4.16457E-02 3.00250E-02 1.60000E-01
 -1      2097 4.14999E-02 3.00250E-02 1.60000E-01
 -1      2098 4.13540E-02 3.00250E-02 1.60000E-01
 -1      2099 4.12082E-02 3.00250E-02 1.60000E-01
 -1      2100 4.10624E-02 3.00250E-02 1.60000E-01
 -1      2101 4.09165E-02 3.00250E-02 1.60000E-01
 -1      2102 4.07707E-02 3.00250E-02 1.60000E-01
 -1      2103 4.06248E-02 3.00250E-02 1.60000E-01
 -1      2104 4.04790E-02 3.00250E-02 1.60000E-01
 -1      2105 4.03332E-02 3.00250E-02 1.60000E-01
 -1      2106 4.01873E-02 3.00250E-02 1.60000E-01
 -1      2107 4.00415E-02 3.00250E-02 1.60000E-01
 -1      2108 3.98957E-02 3.00250E-02 1.60000E-01
 -1      2109 3.97498E-02 3.00250E-02 1.60000E-01
 -1      2110 3.96040E-02 3.00250E-02 1.60000E-01
 -1      2111 3.94582E-02 3.00250E-02 1.60000E-01
 -1      2112 3.93123E-02 3.00250E-02 1.60000E-01
 -1      2113 3.91665E-02 3.00250E-02 1.60000E-01
 -1      2114 3.90207E-02 3.00250E-02 1.60000E-01
 -1      2115 3.88748E-02 3.00250E-02 1.60000E-01
 -1      2116 3.87290E-02 3.00250E-02 1.60000E-01
 -1      2117 3.85832E-02 3.00250E-02 1.60000E-01
 -1      2118 3.84373E-02 3.00250E-02 1.60000E-01
 -1      2119 3.82915E-02 3.00250E-02 1.60000E-01
 -1      2120 3.81457E-02 3.00250E-02 1.60000E-01
 -1      2121 3.79998E-02 3.00250E-02 1.60000E-01
 -1      2122 3.78540E-02 3.00250E-02 1.60000E-01
 -1      2123 3.77082E-02 3.00250E-02 1.60000E-01
 -1      2124 3.75623E-02 3.00250E-02 1.60000E-01
 -1      2125 3.74165E-02 3.00250E-02 1.60000E-01
 -1      2126 3.72707E-02 3.00250E-02 1.60000E-01
 -1      2127 3.71248E-02 3.00250E-02 1.60000E-01
 -1      2128 3.69790E-02 3.00250E-02 1.60000E-01
 -1      2129 3.68332E-02 3.00250E-02 1.60000E-01
 -1      2130 3.66873E-02 3.00250E-02 1.60000E-01
 -1      2131 3.65415E-02 3.00250E-02 1.60000E-01
 -1      2132 3.63957E-02 3.00250E-02 1.60000E-01
 -1      2133 3.62498E-02 3.00250E-02 1.60000E-01
 -1      2134 3.61040E-02 3.00250E-02 1.60000E-01
 -1      2135 3.59582E-02 3.00250E-02 1.60000E-01
 -1      2136 3.58123E-02 3.00250E-02 1.60000E-01
 -1      2137 3.56665E-02 3.00250E-02 1.60000E-01
 -1      2138 3.55207E-02 3.00250E-02 1.60000E-01
 -1      2139 3.53748E-02 3.00250E-02 1.60000E-01
 -1      2140 3.52290E-02 3.00250E-02 1.60000E-01
 -1      2141 3.50831E-02 3.00250E-02 1.60000E-01
 -1      2142 3.49373E-02 3.00250E-02 1.60000E-01
 -1      2143 3.47915E-02 3.00250E-02 1.60000E-01
 -1      2144 3.46456E-02 3.00250E-02 1.60000E-01
 -1      2145 3.44998E-02 3.00250E-02 1.60000E-01
 -1      2146 3.43540E-02 3.00250E-02 1.60000E-01
 -1      2147 3.42081E-02 3.00250E-02 1.60000E-01
 -1      2148 3.40623E-02 3.00250E-02 1.60000E-01
 -1      2149 3.39165E-02 3.00250E-02 1.60000E-01
 -1      2150 3.37706E-02 3.00250E-02 1.60000E-01
 -1      2151 3.36248E-02 3.00250E-02 1.60000E-01
 -1      2152 3.34790E-02 3.00250E-02 1.60000E-01
 -1      2153 3.33331E-02 3.00250E-02 1.60000E-01
 -1      2154 3.31873E-02 3.00250E-02 1.60000E-01
 -1      2155 3.30415E-02 3.00250E-02 1.60000E-01
 -1      2156 3.28956E-02 3.00250E-02 1.60000E-01
 -1      2157 3.27498E-02 3.00250E-02 1.60000E-01
 -1      2158 3.26040E-02 3.00250E-02 1.60000E-01
 -1      2159 3.24581E-02 3.00250E-02 1.60000E-01
 -1      2160 3.23123E-02 3.00250E-02 1.60000E-01
 -1      2161 3.21665E-02 3.00250E-02 1.60000E-01
 -1      2162 3.20206E-02 3.00250E-02 1.60000E-01
 -1      2163 3.18748E-02 3.00250E-02 1.60000E-01
 -1      2164 3.17290E-02 3.00250E-02 1.60000E-01
 -1      2165 3.15831E-02 3.00250E-02 1.60000E-01
 -1      2166 3.14373E-02 3.00250E-02 1.60000E-01
 -1      2167 3.12915E-02 3.00250E-02 1.60000E-01
 -1      2168 3.11456E-02 3.00250E-02 1.60000E-01
 -1      2169 3.09998E-02 3.00250E-02 1.60000E-01
 -1      2170 6.60000E-02 3.00250E-02 0.00000E+00
 -1      2171 6.58542E-02 3.00250E-02 0.00000E+00
 -1      2172 6.57083E-02 3.00250E-02 0.00000E+00
 -1      2173 6.55625E-02 3.00250E-02 0.00000E+00
 -1      2174 6.54167E-02 3.00250E-02 0.00000E+00
 -1      2175 6.52708E-02 3.00250E-02 0.00000E+00
 -1      2176 6.51250E-02 3.00250E-02 0.00000E+00
 -1      2177 6.49792E-02 3.00250E-02 0.00000E+00
 -1      2178 6.48333E-02 3.00250E-02 0.00000E+00
 -1      2179 6.46875E-02 3.00250E-02 0.00000E+00
 -1      2180 6.45417E-02 3.00250E-02 0.00000E+00
 -1      2181 6.43958E-02 3.00250E-02 0.00000E+00
 -1      2182 6.42500E-02 3.00250E-02 0.00000E+00
 -1      2183 6.41042E-02 3.00250E-02 0.00000E+00
 -1      2184 6.39583E-02 3.00250E-02 0.00000E+00
 -1      2185 6.38125E-02 3.00250E-02 0.00000E+00
 -1      2186 6.36666E-02 3.00250E-02 0.00000E+00
 -1      2187 6.35208E-02 3.00250E-02 0.00000E+00
 -1      2188 6.33750E-02 3.00250E-02 0.00000E+00
 -1      2189 6.32292E-02 3.00250E-02 0.00000E+00
 -1      2190 6.30833E-02 3.00250E-02 0.00000E+00
 -1      2191 6.29375E-02 3.00250E-02 0.00000E+00
 -1      2192 6.27916E-02 3.00250E-02 0.00000E+00
 -1      2193 6.26458E-02 3.00250E-02 0.00000E+00
 -1      2194 6.25000E-02 3.00250E-02 0.00000E+00
 -1      2195 6.23541E-02 3.00250E-02 0.00000E+00
 -1      2196 6.22083E-02 3.00250E-02 0.00000E+00
 -1      2197 6.20625E-02 3.00250E-02 0.00000E+00
 -1      2198 6.19166E-02 3.00250E-02 0.00000E+00
 -1      2199 6.17708E-02 3.00250E-02 0.00000E+00
 -1      2200 6.16250E-02 3.00250E-02 0.00000E+00
 -1      2201 6.14791E-02 3.00250E-02 0.00000E+00
 -1      2202 6.13333E-02 3.00250E-02 0.00000E+00
 -1      2203 6.11875E-02 3.00250E-02 0.00000E+00
 -1      2204 6.10416E-02 3.00250E-02 0.00000E+00
 -1      2205 6.08958E-02 3.00250E-02 0.00000E+00
 -1      2206 6.07500E-02 3.00250E-02 0.00000E+00
 -1      2207 6.06041E-02 3.00250E-02 0.00000E+00
 -1      2208 6.04583E-02 3.00250E-02 0.00000E+00
 -1      2209 6.03125E-02 3.00250E-02 0.00000E+00
 -1      2210 6.01666E-02 3.00250E-02 0.00000E+00
 -1      2211 6.00208E-02 3.00250E-02 0.00000E+00
 -1      2212 5.98750E-02 3.00250E-02 0.00000E+00
 -1      2213 5.97291E-02 3.00250E-02 0.00000E+00
 -1      2214 5.95833E-02 3.00250E-02 0.00000E+00
 -1      2215 5.94375E-02 3.00250E-02 0.00000E+00
 -1      2216 5.92916E-02 3.00250E-02 0.00000E+00
 -1      2217 5.91458E-02 3.00250E-02 0.00000E+00
 -1      2218 5.90000E-02 3.00250E-02 0.00000E+00
 -1      2219 5.88541E-02 3.00250E-02 0.00000E+00
 -1      2220 5.87083E-02 3.00250E-02 0.00000E+00
 -1      2221 5.85625E-02 3.00250E-02 0.00000E+00
 -1      2222 5.84166E-02 3.00250E-02 0.00000E+00
 -1      2223 5.82708E-02 3.00250E-02 0.00000E+00
 -1      2224 5.81250E-02 3.00250E-02 0.00000E+00
 -1      2225 5.79791E-02 3.00250E-02 0.00000E+00
 -1      2226 5.78333E-02 3.00250E-02 0.00000E+00
 -1      2227 5.76875E-02 3.00250E-02 0.00000E+00
 -1      2228 5.75416E-02 3.00250E-02 0.00000E+00
 -1      2229 5.73958E-02 3.00250E-02 0.00000E+00
 -1      2230 5.72499E-02 3.00250E-02 0.00000E+00
 -1      2231 5.71041E-02 3.00250E-02 0.00000E+00
 -1      2232 5.69583E-02 3.00250E-02 0.00000E+00
 -1      2233 5.68124E-02 3.00250E-02 0.00000E+00
 -1      2234 5.66666E-02 3.00250E-02 0.00000E+00
 -1      2235 5.65208E-02 3.00250E-02 0.00000E+00
 -1      2236 5.63749E-02 3.00250E-02 0.00000E+00
 -1      2237 5.62291E-02 3.00250E-02 0.00000E+00
 -1      2238 5.60833E-02 3.00250E-02 0.00000E+00
 -1      2239 5.59374E-02 3.00250E-02 0.00000E+00
 -1      2240 5.57916E-02 3.00250E-02 0.00000E+00
 -1      2241 5.56458E-02 3.00250E-02 0.00000E+00
 -1      2242 5.54999E-02 3.00250E-02 0.00000E+00
 -1      2243 5.53541E-02 3.00250E-02 0.00000E+00
 -1      2244 5.52083E-02 3.00250E-02 0.00000E+00
 -1      2245 5.50624E-02 3.00250E-02 0.00000E+00
 -1      2246 5.49166E-02 3.00250E-02 0.00000E+00
 -1      2247 5.47708E-02 3.00250E-02 0.00000E+00
 -1      2248 5.46249E-02 3.00250E-02 0.00000E+00
 -1      2249 5.44791E-02 3.00250E-02 0.00000E+00
 -1      2250 5.43333E-02 3.00250E-02 0.00000E+00
 -1      2251 5.41874E-02 3.00250E-02 0.00000E+00
 -1      2252 5.40416E-02 3.00250E-02 0.00000E+00
 -1      2253 5.38958E-02 3.00250E-02 0.00000E+00
 -1      2254 5.37499E-02 3.00250E-02 0.00000E+00
 -1      2255 5.36041E-02 3.00250E-02 0.00000E+00
 -1      2256 5.34583E-02 3.00250E-02 0.00000E+00
 -1      2257 5.33124E-02 3.00250E-02 0.00000E+00
 -1      2258 5.31666E-02 3.00250E-02 0.00000E+00
 -1      2259 5.30208E-02 3.00250E-02 0.00000E+00
 -1      2260 5.28749E-02 3.00250E-02 0.00000E+00
 -1      2261 5.27291E-02 3.00250E-02 0.00000E+00
 -1      2262 5.25833E-02 3.00250E-02 0.00000E+00
 -1      2263 5.24374E-02 3.00250E-02 0.00000E+00
 -1      2264 5.22916E-02 3.00250E-02 0.00000E+00
 -1      2265 5.21457E-02 3.00250E-02 0.00000E+00
 -1      2266 5.19999E-02 3.00250E-02 0.00000E+00
 -1      2267 5.18541E-02 3.00250E-02 0.00000E+00
 -1      2268 5.17082E-02 3.00250E-02 0.00000E+00
 -1      2269 5.15624E-02 3.00250E-02 0.00000E+00
 -1      2270 5.14166E-02 3.00250E-02 0.00000E+00
 -1      2271 5.12707E-02 3.00250E-02 0.00000E+00
 -1      2272 5.11249E-02 3.00250E-02 0.00000E+00
 -1      2273 5.09791E-02 3.00250E-02 0.00000E+00
 -1      2274 5.08332E-02 3.00250E-02 0.00000E+00
 -1      2275 5.06874E-02 3.00250E-02 0.00000E+00
 -1      2276 5.05416E-02 3.00250E-02 0.00000E+00
 -1      2277 5.03957E-02 3.00250E-02 0.00000E+00
 -1      2278 5.02499E-02 3.00250E-02 0.00000E+00
 -1      2279 5.01041E-02 3.00250E-02 0.00000E+00
 -1      2280 4.99582E-02 3.00250E-02 0.00000E+00
 -1      2281 4.98124E-02 3.00250E-02 0.00000E+00
 -1      2282 4.96666E-02 3.00250E-02 0.00000E+00
 -1      2283 4.95207E-02 3.00250E-02 0.00000E+00
 -1      2284 4.93749E-02 3.00250E-02 0.00000E+00
 -1      2285 4.92291E-02 3.00250E-02 0.00000E+00
 -1      2286 4.90832E-02 3.00250E-02 0.00000E+00
 -1      2287 4.89374E-02 3.00250E-02 0.00000E+00
 -1      2288 4.87916E-02 3.00250E-02 0.00000E+00
 -1      2289 4.86457E-02 3.00250E-02 0.00000E+00
 -1      2290 4.84999E-02 3.00250E-02 0.00000E+00
 -1      2291 4.83541E-02 3.00250E-02 0.00000E+00
 -1      2292 4.82082E-02 3.00250E-02 0.00000E+00
 -1      2293 4.80624E-02 3.00250E-02 0.00000E+00
 -1      2294 4.79166E-02 3.00250E-02 0.00000E+00
 -1      2295 4.77707E-02 3.00250E-02 0.00000E+00
 -1      2296 4.76249E-02 3.00250E-02 0.00000E+00
 -1      2297 4.74791E-02 3.00250E-02 0.00000E+00
 -1      2298 4.73332E-02 3.00250E-02 0.00000E+00
 -1      2299 4.71874E-02 3.00250E-02 0.00000E+00
 -1      2300 4.70416E-02 3.00250E-02 0.00000E+00
 -1      2301 4.68957E-02 3.00250E-02 0.00000E+00
 -1      2302 4.67499E-02 3.00250E-02 0.00000E+00
 -1      2303 4.66040E-02 3.00250E-02 0.00000E+00
 -1      2304 4.64582E-02 3.00250E-02 0.00000E+00
 -1      2305 4.63124E-02 3.00250E-02 0.00000E+00
 -1      2306 4.61665E-02 3.00250E-02 0.00000E+00
 -1      2307 4.60207E-02 3.00250E-02 0.00000E+00
 -1      2308 4.58749E-02 3.00250E-02 0.00000E+00
 -1      2309 4.57290E-02 3.00250E-02 0.00000E+00
 -1      2310 4.55832E-02 3.00250E-02 0.00000E+00
 -1      2311 4.54374E-02 3.00250E-02 0.00000E+00
 -1      2312 4.52915E-02 3.00250E-02 0.00000E+00
 -1      2313 4.51457E-02 3.00250E-02 0.00000E+00
 -1      2314 4.49999E-02 3.00250E-02 0.00000E+00
 -1      2315 4.48540E-02 3.00250E-02 0.00000E+00
 -1      2316 4.47082E-02 3.00250E-02 0.00000E+00
 -1      2317 4.45624E-02 3.00250E-02 0.00000E+00
 -1      2318 4.44165E-02 3.00250E-02 0.00000E+00
 -1      2319 4.42707E-02 3.00250E-02 0.00000E+00
 -1      2320 4.41249E-02 3.00250E-02 0.00000E+00
 -1      2321 4.39790E-02 3.00250E-02 0.00000E+00
 -1      2322 4.38332E-02 3.00250E-02 0.00000E+00
 -1      2323 4.36874E-02 3.00250E-02 0.00000E+00
 -1      2324 4.35415E-02 3.00250E-02 0.00000E+00
 -1      2325 4.33957E-02 3.00250E-02 0.00000E+00
 -1      2326 4.32499E-02 3.00250E-02 0.00000E+00
 -1      2327 4.31040E-02 3.00250E-02 0.00000E+00
 -1      2328 4.29582E-02 3.00250E-02 0.00000E+00
 -1      2329 4.28124E-02 3.00250E-02 0.00000E+00
 -1      2330 4.26665E-02 3.00250E-02 0.00000E+00
 -1      2331 4.25207E-02 3.00250E-02 0.00000E+00
 -1      2332 4.23749E-02 3.00250E-02 0.00000E+00
 -1      2333 4.22290E-02 3.00250E-02 0.00000E+00
 -1      2334 4.20832E-02 3.00250E-02 0.00000E+00
 -1      2335 4.19374E-02 3.00250E-02 0.00000E+00
 -1      2336 4.17915E-02 3.00250E-02 0.00000E+00
 -1      2337 4.16457E-02 3.00250E-02 0.00000E+00
 -1      2338 4.14999E-02 3.00250E-02 0.00000E+00
 -1      2339 4.13540E-02 3.00250E-02 0.00000E+00
 -1      2340 4.12082E-02 3.00250E-02 0.00000E+00
 -1      2341 4.10624E-02 3.00250E-02 0.00000E+00
 -1      2342 4.09165E-02 3.00250E-02 0.00000E+00
 -1      2343 4.07707E-02 3.00250E-02 0.00000E+00
 -1      2344 4.06248E-02 3.00250E-02 0.00000E+00
 -1      2345 4.04790E-02 3.00250E-02 0.00000E+00
 -1      2346 4.03332E-02 3.00250E-02 0.00000E+00
 -1      2347 4.01873E-02 3.00250E-02 0.00000E+00
 -1      2348 4.00415E-02 3.00250E-02 0.00000E+00
 -1      2349 3.98957E-02 3.00250E-02 0.00000E+00
 -1      2350 3.97498E-02 3.00250E-02 0.00000E+00
 -1      2351 3.96040E-02 3.00250E-02 0.00000E+00
 -1      2352 3.94582E-02 3.00250E-02 0.00000E+00
 -1      2353 3.93123E-02 3.00250E-02 0.00000E+00
 -1      2354 3.91665E-02 3.00250E-02 0.00000E+00
 -1      2355 3.90207E-02 3.00250E-02 0.00000E+00
 -1      2356 3.88748E-02 3.00250E-02 0.00000E+00
 -1      2357 3.87290E-02 3.00250E-02 0.00000E+00
 -1      2358 3.85832E-02 3.00250E-02 0.00000E+00
 -1      2359 3.84373E-02 3.00250E-02 0.00000E+00
 -1      2360 3.82915E-02 3.00250E-02 0.00000E+00
 -1      2361 3.81457E-02 3.00250E-02 0.00000E+00
 -1      2362 3.79998E-02 3.00250E-02 0.00000E+00
 -1      2363 3.78540E-02 3.00250E-02 0.00000E+00
 -1      2364 3.77082E-02 3.00250E-02 0.00000E+00
 -1      2365 3.75623E-02 3.00250E-02 0.00000E+00
 -1      2366 3.74165E-02 3.00250E-02 0.00000E+00
 -1      2367 3.72707E-02 3.00250E-02 0.00000E+00
 -1      2368 3.71248E-02 3.00250E-02 0.00000E+00
 -1      2369 3.69790E-02 3.00250E-02 0.00000E+00
 -1      2370 3.68332E-02 3.00250E-02 0.00000E+00
 -1      2371 3.66873E-02 3.00250E-02 0.00000E+00
 -1      2372 3.65415E-02 3.00250E-02 0.00000E+00
 -1      2373 3.63957E-02 3.00250E-02 0.00000E+00
 -1      2374 3.62498E-02 3.00250E-02 0.00000E+00
 -1      2375 3.61040E-02 3.00250E-02 0.00000E+00
 -1      2376 3.59582E-02 3.00250E-02 0.00000E+00
 -1      2377 3.58123E-02 3.00250E-02 0.00000E+00
 -1      2378 3.56665E-02 3.00250E-02 0.00000E+00
 -1      2379 3.55207E-02 3.00250E-02 0.00000E+00
 -1      2380 3.53748E-02 3.00250E-02 0.00000E+00
 -1      2381 3.52290E-02 3.00250E-02 0.00000E+00
 -1      2382 3.50831E-02 3.00250E-02 0.00000E+00
 -1      2383 3.49373E-02 3.00250E-02 0.00000E+00
 -1      2384 3.47915E-02 3.00250E-02 0.00000E+00
 -1      2385 3.46456E-02 3.00250E-02 0.00000E+00
 -1      2386 3.44998E-02 3.00250E-02 0.00000E+00
 -1      2387 3.43540E-02 3.00250E-02 0.00000E+00
 -1      2388 3.42081E-02 3.00250E-02 0.00000E+00
 -1      2389 3.40623E-02 3.00250E-02 0.00000E+00
 -1      2390 3.39165E-02 3.00250E-02 0.00000E+00
 -1      2391 3.37706E-02 3.00250E-02 0.00000E+00
 -1      2392 3.36248E-02 3.00250E-02 0.00000E+00
 -1      2393 3.34790E-02 3.00250E-02 0.00000E+00
 -1      2394 3.33331E-02 3.00250E-02 0.00000E+00
 -1      2395 3.31873E-02 3.00250E-02 0.00000E+00
 -1      2396 3.30415E-02 3.00250E-02 0.00000E+00
 -1      2397 3.28956E-02 3.00250E-02 0.00000E+00
 -1      2398 3.27498E-02 3.00250E-02 0.00000E+00
 -1      2399 3.26040E-02 3.00250E-02 0.00000E+00
 -1      2400 3.24581E-02 3.00250E-02 0.00000E+00
 -1      2401 3.23123E-02 3.00250E-02 0.00000E+00
 -1      2402 3.21665E-02 3.00250E-02 0.00000E+00
 -1      2403 3.20206E-02 3.00250E-02 0.00000E+00
 -1      2404 3.18748E-02 3.00250E-02 0.00000E+00
 -1      2405 3.17290E-02 3.00250E-02 0.00000E+00
 -1      2406 3.15831E-02 3.00250E-02 0.00000E+00
 -1      2407 3.14373E-02 3.00250E-02 0.00000E+00
 -1      2408 3.12915E-02 3.00250E-02 0.00000E+00
 -1      2409 3.11456E-02 3.00250E-02 0.00000E+00
 -1      2410 3.09998E-02 3.00250E-02 0.00000E+00
 -3
    3C                           960                                     1
 -1         1    1    0    1
 -2       483       484       725       724         1         2       243       242
 -1         2    1    0    1
 -2       484       485       726       725         2         3       244       243
 -1         3    1    0    1
 -2       485       486       727       726         3         4       245       244
 -1         4    1    0    1
 -2       486       487       728       727         4         5       246       245
 -1         5    1    0    1
 -2       487       488       729       728         5         6       247       246
 -1         6    1    0    1
 -2       488       489       730       729         6         7       248       247
 -1         7    1    0    1
 -2       489       490       731       730         7         8       249       248
 -1         8    1    0    1
 -2       490       491       732       731         8         9       250       249
 -1         9    1    0    1
 -2       491       492       733       732         9        10       251       250
 -1        10    1    0    1
 -2       492       493       734       733        10        11       252       251
 -1        11    1    0    1
 -2       493       494       735       734        11        12       253       252
 -1        12    1    0    1
 -2       494       495       736       735        12        13       254       253
 -1        13    1    0    1
 -2       495       496       737       736        13        14       255       254
 -1        14    1    0    1
 -2       496       497       738       737        14        15       256       255
 -1        15    1    0    1
 -2       497       498       739       738        15        16       257       256
 -1        16    1    0    1
 -2       498       499       740       739        16        17       258       257
 -1        17    1    0    1
 -2       499       500       741       740        17        18       259       258
 -1        18    1    0    1
 -2       500       501       742       741        18        19       260       259
 -1        19    1    0    1
 -2       501       502       743       742        19        20       261       260
 -1        20    1    0    1
 -2       502       503       744       743        20        21       262       261
 -1        21    1    0    1
 -2       503       504       745       744        21        22       263       262
 -1        22    1    0    1
 -2       504       505       746       745        22        23       264       263
 -1        23    1    0    1
 -2       505       506       747       746        23        24       265       264
 -1        24    1    0    1
 -2       506       507       748       747        24        25       266       265
 -1        25    1    0    1
 -2       507       508       749       748        25        26       267       266
 -1        26    1    0    1
 -2       508       509       750       749        26        27       268       267
 -1        27    1    0    1
 -2       509       510       751       750        27        28       269       268
 -1        28    1    0    1
 -2       510       511       752       751        28        29       270       269
 -1        29    1    0    1
 -2       511       512       753       752        29        30       271       270
 -1        30    1    0    1
 -2       512       513       754       753        30        31       272       271
 -1        31    1    0    1
 -2       513       514       755       754        31        32       273       272
 -1        32    1    0    1
 -2       514       515       756       755        32        33       274       273
 -1        33    1    0    1
 -2       515       516       757       756        33        34       275       274
 -1        34    1    0    1
 -2       516       517       758       757        34        35       276       275
 -1        35    1    0    1
 -2       517       518       759       758        35        36       277       276
 -1        36    1    0    1
 -2       518       519       760       759        36        37       278       277
 -1        37    1    0    1
 -2       519       520       761       760        37        38       279       278
 -1        38    1    0    1
 -2       520       521       762       761        38        39       280       279
 -1        39    1    0    1
 -2       521       522       763       762        39        40       281       280
 -1        40    1    0    1
 -2       522       523       764       763        40        41       282       281
 -1        41    1    0    1
 -2       523       524       765       764        41        42       283       282
 -1        42    1    0    1
 -2       524       525       766       765        42        43       284       283
 -1        43    1    0    1
 -2       525       526       767       766        43        44       285       284
 -1        44    1    0    1
 -2       526       527       768       767        44        45       286       285
 -1        45    1    0    1
 -2       527       528       769       768        45        46       287       286
 -1        46    1    0    1
 -2       528       529       770       769        46        47       288       287
 -1        47    1    0    1
 -2       529       530       771       770        47        48       289       288
 -1        48    1    0    1
 -2       530       531       772       771        48        49       290       289
 -1        49    1    0    1
 -2       531       532       773       772        49        50       291       290
 -1        50    1    0    1
 -2       532       533       774       773        50        51       292       291
 -1        51    1    0    1
 -2       533       534       775       774        51        52       293       292
 -1        52    1    0    1
 -2       534       535       776       775        52        53       294       293
 -1        53    1    0    1
 -2       535       536       777       776        53        54       295       294
 -1        54    1    0    1
 -2       536       537       778       777        54        55       296       295
 -1        55    1    0    1
 -2       537       538       779       778        55        56       297       296
 -1        56    1    0    1
 -2       538       539       780       779        56        57       298       297
 -1        57    1    0    1
 -2       539       540       781       780        57        58       299       298
 -1        58    1    0    1
 -2       540       541       782       781        58        59       300       299
 -1        59    1    0    1
 -2       541       542       783       782        59        60       301       300
 -1        60    1    0    1
 -2       542       543       784       783        60        61       302       301
 -1        61    1    0    1
 -2       543       544       785       784        61        62       303       302
 -1        62    1    0    1
 -2       544       545       786       785        62        63       304       303
 -1        63    1    0    1
 -2       545       546       787       786        63        64       305       304
 -1        64    1    0    1
 -2       546       547       788       787        64        65       306       305
 -1        65    1    0    1
 -2       547       548       789       788        65        66       307       306
 -1        66    1    0    1
 -2       548       549       790       789        66        67       308       307
 -1        67    1    0    1
 -2       549       550       791       790        67        68       309       308
 -1        68    1    0    1
 -2       550       551       792       791        68        69       310       309
 -1        69    1    0    1
 -2       551       552       793       792        69        70       311       310
 -1        70    1    0    1
 -2       552       553       794       793        70        71       312       311
 -1        71    1    0    1
 -2       553       554       795       794        71        72       313       312
 -1        72    1    0    1
 -2       554       555       796       795        72        73       314       313
 -1        73    1    0    1
 -2       555       556       797       796        73        74       315       314
 -1        74    1    0    1
 -2       556       557       798       797        74        75       316       315
 -1        75    1    0    1
 -2       557       558       799       798        75        76       317       316
 -1        76    1    0    1
 -2       558       559       800       799        76        77       318       317
 -1        77    1    0    1
 -2       559       560       801       800        77        78       319       318
 -1        78    1    0    1
 -2       560       561       802       801        78        79       320       319
 -1        79    1    0    1
 -2       561       562       803       802        79        80       321       320
 -1        80    1    0    1
 -2       562       563       804       803        80        81       322       321
 -1        81    1    0    1
 -2       563       564       805       804        81        82       323       322
 -1        82    1    0    1
 -2       564       565       806       805        82        83       324       323
 -1        83    1    0    1
 -2       565       566       807       806        83        84       325       324
 -1        84    1    0    1
 -2       566       567       808       807        84        85       326       325
 -1        85    1    0    1
 -2       567       568       809       808        85        86       327       326
 -1        86    1    0    1
 -2       568       569       810       809        86        87       328       327
 -1        87    1    0    1
 -2       569       570       811       810        87        88       329       328
 -1        88    1    0    1
 -2       570       571       812       811        88        89       330       329
 -1        89    1    0    1
 -2       571       572       813       812        89        90       331       330
 -1        90    1    0    1
 -2       572       573       814       813        90        91       332       331
 -1        91    1    0    1
 -2       573       574       815       814        91        92       333       332
 -1        92    1    0    1
 -2       574       575       816       815        92        93       334       333
 -1        93    1    0    1
 -2       575       576       817       816        93        94       335       334
 -1        94    1    0    1
 -2       576       577       818       817        94        95       336       335
 -1        95    1    0    1
 -2       577       578       819       818        95        96       337       336
 -1        96    1    0    1
 -2       578       579       820       819        96        97       338       337
 -1        97    1    0    1
 -2       579       580       821       820        97        98       339       338
 -1        98    1    0    1
 -2       580       581       822       821        98        99       340       339
 -1        99    1    0    1
 -2       581       582       823       822        99       100       341       340
 -1       100    1    0    1
 -2       582       583       824       823       100       101       342       341
 -1       101    1    0    1
 -2       583       584       825       824       101       102       343       342
 -1       102    1    0    1
 -2       584       585       826       825       102       103       344       343
 -1       103    1    0    1
 -2       585       586       827       826       103       104       345       344
 -1       104    1    0    1
 -2       586       587       828       827       104       105       346       345
 -1       105    1    0    1
 -2       587       588       829       828       105       106       347       346
 -1       106    1    0    1
 -2       588       589       830       829       106       107       348       347
 -1       107    1    0    1
 -2       589       590       831       830       107       108       349       348
 -1       108    1    0    1
 -2       590       591       832       831       108       109       350       349
 -1       109    1    0    1
 -2       591       592       833       832       109       110       351       350
 -1       110    1    0    1
 -2       592       593       834       833       110       111       352       351
 -1       111    1    0    1
 -2       593       594       835       834       111       112       353       352
 -1       112    1    0    1
 -2       594       595       836       835       112       113       354       353
 -1       113    1    0    1
 -2       595       596       837       836       113       114       355       354
 -1       114    1    0    1
 -2       596       597       838       837       114       115       356       355
 -1       115    1    0    1
 -2       597       598       839       838       115       116       357       356
 -1       116    1    0    1
 -2       598       599       840       839       116       117       358       357
 -1       117    1    0    1
 -2       599       600       841       840       117       118       359       358
 -1       118    1    0    1
 -2       600       601       842       841       118       119       360       359
 -1       119    1    0    1
 -2       601       602       843       842       119       120       361       360
 -1       120    1    0    1
 -2       602       603       844       843       120       121       362       361
 -1       121    1    0    1
 -2       603       604       845       844       121       122       363       362
 -1       122    1    0    1
 -2       604       605       846       845       122       123       364       363
 -1       123    1    0    1
 -2       605       606       847       846       123       124       365       364
 -1       124    1    0    1
 -2       606       607       848       847       124       125       366       365
 -1       125    1    0    1
 -2       607       608       849       848       125       126       367       366
 -1       126    1    0    1
 -2       608       609       850       849       126       127       368       367
 -1       127    1    0    1
 -2       609       610       851       850       127       128       369       368
 -1       128    1    0    1
 -2       610       611       852       851       128       129       370       369
 -1       129    1    0    1
 -2       611       612       853       852       129       130       371       370
 -1       130    1    0    1
 -2       612       613       854       853       130       131       372       371
 -1       131    1    0    1
 -2       613       614       855       854       131       132       373       372
 -1       132    1    0    1
 -2       614       615       856       855       132       133       374       373
 -1       133    1    0    1
 -2       615       616       857       856       133       134       375       374
 -1       134    1    0    1
 -2       616       617       858       857       134       135       376       375
 -1       135    1    0    1
 -2       617       618       859       858       135       136       377       376
 -1       136    1    0    1
 -2       618       619       860       859       136       137       378       377
 -1       137    1    0    1
 -2       619       620       861       860       137       138       379       378
 -1       138    1    0    1
 -2       620       621       862       861       138       139       380       379
 -1       139    1    0    1
 -2       621       622       863       862       139       140       381       380
 -1       140    1    0    1
 -2       622       623       864       863       140       141       382       381
 -1       141    1    0    1
 -2       623       624       865       864       141       142       383       382
 -1       142    1    0    1
 -2       624       625       866       865       142       143       384       383
 -1       143    1    0    1
 -2       625       626       867       866       143       144       385       384
 -1       144    1    0    1
 -2       626       627       868       867       144       145       386       385
 -1       145    1    0    1
 -2       627       628       869       868       145       146       387       386
 -1       146    1    0    1
 -2       628       629       870       869       146       147       388       387
 -1       147    1    0    1
 -2       629       630       871       870       147       148       389       388
 -1       148    1    0    1
 -2       630       631       872       871       148       149       390       389
 -1       149    1    0    1
 -2       631       632       873       872       149       150       391       390
 -1       150    1    0    1
 -2       632       633       874       873       150       151       392       391
 -1       151    1    0    1
 -2       633       634       875       874       151       152       393       392
 -1       152    1    0    1
 -2       634       635       876       875       152       153       394       393
 -1       153    1    0    1
 -2       635       636       877       876       153       154       395       394
 -1       154    1    0    1
 -2       636       637       878       877       154       155       396       395
 -1       155    1    0    1
 -2       637       638       879       878       155       156       397       396
 -1       156    1    0    1
 -2       638       639       880       879       156       157       398       397
 -1       157    1    0    1
 -2       639       640       881       880       157       158       399       398
 -1       158    1    0    1
 -2       640       641       882       881       158       159       400       399
 -1       159    1    0    1
 -2       641       642       883       882       159       160       401       400
 -1       160    1    0    1
 -2       642       643       884       883       160       161       402       401
 -1       161    1    0    1
 -2       643       644       885       884       161       162       403       402
 -1       162    1    0    1
 -2       644       645       886       885       162       163       404       403
 -1       163    1    0    1
 -2       645       646       887       886       163       164       405       404
 -1       164    1    0    1
 -2       646       647       888       887       164       165       406       405
 -1       165    1    0    1
 -2       647       648       889       888       165       166       407       406
 -1       166    1    0    1
 -2       648       649       890       889       166       167       408       407
 -1       167    1    0    1
 -2       649       650       891       890       167       168       409       408
 -1       168    1    0    1
 -2       650       651       892       891       168       169       410       409
 -1       169    1    0    1
 -2       651       652       893       892       169       170       411       410
 -1       170    1    0    1
 -2       652       653       894       893       170       171       412       411
 -1       171    1    0    1
 -2       653       654       895       894       171       172       413       412
 -1       172    1    0    1
 -2       654       655       896       895       172       173       414       413
 -1       173    1    0    1
 -2       655       656       897       896       173       174       415       414
 -1       174    1    0    1
 -2       656       657       898       897       174       175       416       415
 -1       175    1    0    1
 -2       657       658       899       898       175       176       417       416
 -1       176    1    0    1
 -2       658       659       900       899       176       177       418       417
 -1       177    1    0    1
 -2       659       660       901       900       177       178       419       418
 -1       178    1    0    1
 -2       660       661       902       901       178       179       420       419
 -1       179    1    0    1
 -2       661       662       903       902       179       180       421       420
 -1       180    1    0    1
 -2       662       663       904       903       180       181       422       421
 -1       181    1    0    1
 -2       663       664       905       904       181       182       423       422
 -1       182    1    0    1
 -2       664       665       906       905       182       183       424       423
 -1       183    1    0    1
 -2       665       666       907       906       183       184       425       424
 -1       184    1    0    1
 -2       666       667       908       907       184       185       426       425
 -1       185    1    0    1
 -2       667       668       909       908       185       186       427       426
 -1       186    1    0    1
 -2       668       669       910       909       186       187       428       427
 -1       187    1    0    1
 -2       669       670       911       910       187       188       429       428
 -1       188    1    0    1
 -2       670       671       912       911       188       189       430       429
 -1       189    1    0    1
 -2       671       672       913       912       189       190       431       430
 -1       190    1    0    1
 -2       672       673       914       913       190       191       432       431
 -1       191    1    0    1
 -2       673       674       915       914       191       192       433       432
 -1       192    1    0    1
 -2       674       675       916       915       192       193       434       433
 -1       193    1    0    1
 -2       675       676       917       916       193       194       435       434
 -1       194    1    0    1
 -2       676       677       918       917       194       195       436       435
 -1       195    1    0    1
 -2       677       678       919       918       195       196       437       436
 -1       196    1    0    1
 -2       678       679       920       919       196       197       438       437
 -1       197    1    0    1
 -2       679       680       921       920       197       198       439       438
 -1       198    1    0    1
 -2       680       681       922       921       198       199       440       439
 -1       199    1    0    1
 -2       681       682       923       922       199       200       441       440
 -1       200    1    0    1
 -2       682       683       924       923       200       201       442       441
 -1       201    1    0    1
 -2       683       684       925       924       201       202       443       442
 -1       202    1    0    1
 -2       684       685       926       925       202       203       444       443
 -1       203    1    0    1
 -2       685       686       927       926       203       204       445       444
 -1       204    1    0    1
 -2       686       687       928       927       204       205       446       445
 -1       205    1    0    1
 -2       687       688       929       928       205       206       447       446
 -1       206    1    0    1
 -2       688       689       930       929       206       207       448       447
 -1       207    1    0    1
 -2       689       690       931       930       207       208       449       448
 -1       208    1    0    1
 -2       690       691       932       931       208       209       450       449
 -1       209    1    0    1
 -2       691       692       933       932       209       210       451       450
 -1       210    1    0    1
 -2       692       693       934       933       210       211       452       451
 -1       211    1    0    1
 -2       693       694       935       934       211       212       453       452
 -1       212    1    0    1
 -2       694       695       936       935       212       213       454       453
 -1       213    1    0    1
 -2       695       696       937       936       213       214       455       454
 -1       214    1    0    1
 -2       696       697       938       937       214       215       456       455
 -1       215    1    0    1
 -2       697       698       939       938       215       216       457       456
 -1       216    1    0    1
 -2       698       699       940       939       216       217       458       457
 -1       217    1    0    1
 -2       699       700       941       940       217       218       459       458
 -1       218    1    0    1
 -2       700       701       942       941       218       219       460       459
 -1       219    1    0    1
 -2       701       702       943       942       219       220       461       460
 -1       220    1    0    1
 -2       702       703       944       943       220       221       462       461
 -1       221    1    0    1
 -2       703       704       945       944       221       222       463       462
 -1       222    1    0    1
 -2       704       705       946       945       222       223       464       463
 -1       223    1    0    1
 -2       705       706       947       946       223       224       465       464
 -1       224    1    0    1
 -2       706       707       948       947       224       225       466       465
 -1       225    1    0    1
 -2       707       708       949       948       225       226       467       466
 -1       226    1    0    1
 -2       708       709       950       949       226       227       468       467
 -1       227    1    0    1
 -2       709       710       951       950       227       228       469       468
 -1       228    1    0    1
 -2       710       711       952       951       228       229       470       469
 -1       229    1    0    1
 -2       711       712       953       952       229       230       471       470
 -1       230    1    0    1
 -2       712       713       954       953       230       231       472       471
 -1       231    1    0    1
 -2       713       714       955       954       231       232       473       472
 -1       232    1    0    1
 -2       714       715       956       955       232       233       474       473
 -1       233    1    0    1
 -2       715       716       957       956       233       234       475       474
 -1       234    1    0    1
 -2       716       717       958       957       234       235       476       475
 -1       235    1    0    1
 -2       717       718       959       958       235       236       477       476
 -1       236    1    0    1
 -2       718       719       960       959       236       237       478       477
 -1       237    1    0    1
 -2       719       720       961       960       237       238       479       478
 -1       238    1    0    1
 -2       720       721       962       961       238       239       480       479
 -1       239    1    0    1
 -2       721       722       963       962       239       240       481       480
 -1       240    1    0    1
 -2       722       723       964       963       240       241       482       481
 -1       241    1    0    1
 -2       965       966      1207      1206       483       484       725       724
 -1       242    1    0    1
 -2       966       967      1208      1207       484       485       726       725
 -1       243    1    0    1
 -2       967       968      1209      1208       485       486       727       726
 -1       244    1    0    1
 -2       968       969      1210      1209       486       487       728       727
 -1       245    1    0    1
 -2       969       970      1211      1210       487       488       729       728
 -1       246    1    0    1
 -2       970       971      1212      1211       488       489       730       729
 -1       247    1    0    1
 -2       971       972      1213      1212       489       490       731       730
 -1       248    1    0    1
 -2       972       973      1214      1213       490       491       732       731
 -1       249    1    0    1
 -2       973       974      1215      1214       491       492       733       732
 -1       250    1    0    1
 -2       974       975      1216      1215       492       493       734       733
 -1       251    1    0    1
 -2       975       976      1217      1216       493       494       735       734
 -1       252    1    0    1
 -2       976       977      1218      1217       494       495       736       735
 -1       253    1    0    1
 -2       977       978      1219      1218       495       496       737       736
 -1       254    1    0    1
 -2       978       979      1220      1219       496       497       738       737
 -1       255    1    0    1
 -2       979       980      1221      1220       497       498       739       738
 -1       256    1    0    1
 -2       980       981      1222      1221       498       499       740       739
 -1       257    1    0    1
 -2       981       982      1223      1222       499       500       741       740
 -1       258    1    0    1
 -2       982       983      1224      1223       500       501       742       741
 -1       259    1    0    1
 -2       983       984      1225      1224       501       502       743       742
 -1       260    1    0    1
 -2       984       985      1226      1225       502       503       744       743
 -1       261    1    0    1
 -2       985       986      1227      1226       503       504       745       744
 -1       262    1    0    1
 -2       986       987      1228      1227       504       505       746       745
 -1       263    1    0    1
 -2       987       988      1229      1228       505       506       747       746
 -1       264    1    0    1
 -2       988       989      1230      1229       506       507       748       747
 -1       265    1    0    1
 -2       989       990      1231      1230       507       508       749       748
 -1       266    1    0    1
 -2       990       991      1232      1231       508       509       750       749
 -1       267    1    0    1
 -2       991       992      1233      1232       509       510       751       750
 -1       268    1    0    1
 -2       992       993      1234      1233       510       511       752       751
 -1       269    1    0    1
 -2       993       994      1235      1234       511       512       753       752
 -1       270    1    0    1
 -2       994       995      1236      1235       512       513       754       753
 -1       271    1    0    1
 -2       995       996      1237      1236       513       514       755       754
 -1       272    1    0    1
 -2       996       997      1238      1237       514       515       756       755
 -1       273    1    0    1
 -2       997       998      1239      1238       515       516       757       756
 -1       274    1    0    1
 -2       998       999      1240      1239       516       517       758       757
 -1       275    1    0    1
 -2       999      1000      1241      1240       517       518       759       758
 -1       276    1    0    1
 -2      1000      1001      1242      1241       518       519       760       759
 -1       277    1    0    1
 -2      1001      1002      1243      1242       519       520       761       760
 -1       278    1    0    1
 -2      1002      1003      1244      1243       520       521       762       761
 -1       279    1    0    1
 -2      1003      1004      1245      1244       521       522       763       762
 -1       280    1    0    1
 -2      1004      1005      1246      1245       522       523       764       763
 -1       281    1    0    1
 -2      1005      1006      1247      1246       523       524       765       764
 -1       282    1    0    1
 -2      1006      1007      1248      1247       524       525       766       765
 -1       283    1    0    1
 -2      1007      1008      1249      1248       525       526       767       766
 -1       284    1    0    1
 -2      1008      1009      1250      1249       526       527       768       767
 -1       285    1    0    1
 -2      1009      1010      1251      1250       527       528       769       768
 -1       286    1    0    1
 -2      1010      1011      1252      1251       528       529       770       769
 -1       287    1    0    1
 -2      1011      1012      1253      1252       529       530       771       770
 -1       288    1    0    1
 -2      1012      1013      1254      1253       530       531       772       771
 -1       289    1    0    1
 -2      1013      1014      1255      1254       531       532       773       772
 -1       290    1    0    1
 -2      1014      1015      1256      1255       532       533       774       773
 -1       291    1    0    1
 -2      1015      1016      1257      1256       533       534       775       774
 -1       292    1    0    1
 -2      1016      1017      1258      1257       534       535       776       775
 -1       293    1    0    1
 -2      1017      1018      1259      1258       535       536       777       776
 -1       294    1    0    1
 -2      1018      1019      1260      1259       536       537       778       777
 -1       295    1    0    1
 -2      1019      1020      1261      1260       537       538       779       778
 -1       296    1    0    1
 -2      1020      1021      1262      1261       538       539       780       779
 -1       297    1    0    1
 -2      1021      1022      1263      1262       539       540       781       780
 -1       298    1    0    1
 -2      1022      1023      1264      1263       540       541       782       781
 -1       299    1    0    1
 -2      1023      1024      1265      1264       541       542       783       782
 -1       300    1    0    1
 -2      1024      1025      1266      1265       542       543       784       783
 -1       301    1    0    1
 -2      1025      1026      1267      1266       543       544       785       784
 -1       302    1    0    1
 -2      1026      1027      1268      1267       544       545       786       785
 -1       303    1    0    1
 -2      1027      1028      1269      1268       545       546       787       786
 -1       304    1    0    1
 -2      1028      1029      1270      1269       546       547       788       787
 -1       305    1    0    1
 -2      1029      1030      1271      1270       547       548       789       788
 -1       306    1    0    1
 -2      1030      1031      1272      1271       548       549       790       789
 -1       307    1    0    1
 -2      1031      1032      1273      1272       549       550       791       790
 -1       308    1    0    1
 -2      1032      1033      1274      1273       550       551       792       791
 -1       309    1    0    1
 -2      1033      1034      1275      1274       551       552       793       792
 -1       310    1    0    1
 -2      1034      1035      1276      1275       552       553       794       793
 -1       311    1    0    1
 -2      1035      1036      1277      1276       553       554       795       794
 -1       312    1    0    1
 -2      1036      1037      1278      1277       554       555       796       795
 -1       313    1    0    1
 -2      1037      1038      1279      1278       555       556       797       796
 -1       314    1    0    1
 -2      1038      1039      1280      1279       556       557       798       797
 -1       315    1    0    1
 -2      1039      1040      1281      1280       557       558       799       798
 -1       316    1    0    1
 -2      1040      1041      1282      1281       558       559       800       799
 -1       317    1    0    1
 -2      1041      1042      1283      1282       559       560       801       800
 -1       318    1    0    1
 -2      1042      1043      1284      1283       560       561       802       801
 -1       319    1    0    1
 -2      1043      1044      1285      1284       561       562       803       802
 -1       320    1    0    1
 -2      1044      1045      1286      1285       562       563       804       803
 -1       321    1    0    1
 -2      1045      1046      1287      1286       563       564       805       804
 -1       322    1    0    1
 -2      1046      1047      1288      1287       564       565       806       805
 -1       323    1    0    1
 -2      1047      1048      1289      1288       565       566       807       806
 -1       324    1    0    1
 -2      1048      1049      1290      1289       566       567       808       807
 -1       325    1    0    1
 -2      1049      1050      1291      1290       567       568       809       808
 -1       326    1    0    1
 -2      1050      1051      1292      1291       568       569       810       809
 -1       327    1    0    1
 -2      1051      1052      1293      1292       569       570       811       810
 -1       328    1    0    1
 -2      1052      1053      1294      1293       570       571       812       811
 -1       329    1    0    1
 -2      1053      1054      1295      1294       571       572       813       812
 -1       330    1    0    1
 -2      1054      1055      1296      1295       572       573       814       813
 -1       331    1    0    1
 -2      1055      1056      1297      1296       573       574       815       814
 -1       332    1    0    1
 -2      1056      1057      1298      1297       574       575       816       815
 -1       333    1    0    1
 -2      1057      1058      1299      1298       575       576       817       816
 -1       334    1    0    1
 -2      1058      1059      1300      1299       576       577       818       817
 -1       335    1    0    1
 -2      1059      1060      1301      1300       577       578       819       818
 -1       336    1    0    1
 -2      1060      1061      1302      1301       578       579       820       819
 -1       337    1    0    1
 -2      1061      1062      1303      1302       579       580       821       820
 -1       338    1    0    1
 -2      1062      1063      1304      1303       580       581       822       821
 -1       339    1    0    1
 -2      1063      1064      1305      1304       581       582       823       822
 -1       340    1    0    1
 -2      1064      1065      1306      1305       582       583       824       823
 -1       341    1    0    1
 -2      1065      1066      1307      1306       583       584       825       824
 -1       342    1    0    1
 -2      1066      1067      1308      1307       584       585       826       825
 -1       343    1    0    1
 -2      1067      1068      1309      1308       585       586       827       826
 -1       344    1    0    1
 -2      1068      1069      1310      1309       586       587       828       827
 -1       345    1    0    1
 -2      1069      1070      1311      1310       587       588       829       828
 -1       346    1    0    1
 -2      1070      1071      1312      1311       588       589       830       829
 -1       347    1    0    1
 -2      1071      1072      1313      1312       589       590       831       830
 -1       348    1    0    1
 -2      1072      1073      1314      1313       590       591       832       831
 -1       349    1    0    1
 -2      1073      1074      1315      1314       591       592       833       832
 -1       350    1    0    1
 -2      1074      1075      1316      1315       592       593       834       833
 -1       351    1    0    1
 -2      1075      1076      1317      1316       593       594       835       834
 -1       352    1    0    1
 -2      1076      1077      1318      1317       594       595       836       835
 -1       353    1    0    1
 -2      1077      1078      1319      1318       595       596       837       836
 -1       354    1    0    1
 -2      1078      1079      1320      1319       596       597       838       837
 -1       355    1    0    1
 -2      1079      1080      1321      1320       597       598       839       838
 -1       356    1    0    1
 -2      1080      1081      1322      1321       598       599       840       839
 -1       357    1    0    1
 -2      1081      1082      1323      1322       599       600       841       840
 -1       358    1    0    1
 -2      1082      1083      1324      1323       600       601       842       841
 -1       359    1    0    1
 -2      1083      1084      1325      1324       601       602       843       842
 -1       360    1    0    1
 -2      1084      1085      1326      1325       602       603       844       843
 -1       361    1    0    1
 -2      1085      1086      1327      1326       603       604       845       844
 -1       362    1    0    1
 -2      1086      1087      1328      1327       604       605       846       845
 -1       363    1    0    1
 -2      1087      1088      1329      1328       605       606       847       846
 -1       364    1    0    1
 -2      1088      1089      1330      1329       606       607       848       847
 -1       365    1    0    1
 -2      1089      1090      1331      1330       607       608       849       848
 -1       366    1    0    1
 -2      1090      1091      1332      1331       608       609       850       849
 -1       367    1    0    1
 -2      1091      1092      1333      1332       609       610       851       850
 -1       368    1    0    1
 -2      1092      1093      1334      1333       610       611       852       851
 -1       369    1    0    1
 -2      1093      1094      1335      1334       611       612       853       852
 -1       370    1    0    1
 -2      1094      1095      1336      1335       612       613       854       853
 -1       371    1    0    1
 -2      1095      1096      1337      1336       613       614       855       854
 -1       372    1    0    1
 -2      1096      1097      1338      1337       614       615       856       855
 -1       373    1    0    1
 -2      1097      1098      1339      1338       615       616       857       856
 -1       374    1    0    1
 -2      1098      1099      1340      1339       616       617       858       857
 -1       375    1    0    1
 -2      1099      1100      1341      1340       617       618       859       858
 -1       376    1    0    1
 -2      1100      1101      1342      1341       618       619       860       859
 -1       377    1    0    1
 -2      1101      1102      1343      1342       619       620       861       860
 -1       378    1    0    1
 -2      1102      1103      1344      1343       620       621       862       861
 -1       379    1    0    1
 -2      1103      1104      1345      1344       621       622       863       862
 -1       380    1    0    1
 -2      1104      1105      1346      1345       622       623       864       863
 -1       381    1    0    1
 -2      1105      1106      1347      1346       623       624       865       864
 -1       382    1    0    1
 -2      1106      1107      1348      1347       624       625       866       865
 -1       383    1    0    1
 -2      1107      1108      1349      1348       625       626       867       866
 -1       384    1    0    1
 -2      1108      1109      1350      1349       626       627       868       867
 -1       385    1    0    1
 -2      1109      1110      1351      1350       627       628       869       868
 -1       386    1    0    1
 -2      1110      1111      1352      1351       628       629       870       869
 -1       387    1    0    1
 -2      1111      1112      1353      1352       629       630       871       870
 -1       388    1    0    1
 -2      1112      1113      1354      1353       630       631       872       871
 -1       389    1    0    1
 -2      1113      1114      1355      1354       631       632       873       872
 -1       390    1    0    1
 -2      1114      1115      1356      1355       632       633       874       873
 -1       391    1    0    1
 -2      1115      1116      1357      1356       633       634       875       874
 -1       392    1    0    1
 -2      1116      1117      1358      1357       634       635       876       875
 -1       393    1    0    1
 -2      1117      1118      1359      1358       635       636       877       876
 -1       394    1    0    1
 -2      1118      1119      1360      1359       636       637       878       877
 -1       395    1    0    1
 -2      1119      1120      1361      1360       637       638       879       878
 -1       396    1    0    1
 -2      1120      1121      1362      1361       638       639       880       879
 -1       397    1    0    1
 -2      1121      1122      1363      1362       639       640       881       880
 -1       398    1    0    1
 -2      1122      1123      1364      1363       640       641       882       881
 -1       399    1    0    1
 -2      1123      1124      1365      1364       641       642       883       882
 -1       400    1    0    1
 -2      1124      1125      1366      1365       642       643       884       883
 -1       401    1    0    1
 -2      1125      1126      1367      1366       643       644       885       884
 -1       402    1    0    1
 -2      1126      1127      1368      1367       644       645       886       885
 -1       403    1    0    1
 -2      1127      1128      1369      1368       645       646       887       886
 -1       404    1    0    1
 -2      1128      1129      1370      1369       646       647       888       887
 -1       405    1    0    1
 -2      1129      1130      1371      1370       647       648       889       888
 -1       406    1    0    1
 -2      1130      1131      1372      1371       648       649       890       889
 -1       407    1    0    1
 -2      1131      1132      1373      1372       649       650       891       890
 -1       408    1    0    1
 -2      1132      1133      1374      1373       650       651       892       891
 -1       409    1    0    1
 -2      1133      1134      1375      1374       651       652       893       892
 -1       410    1    0    1
 -2      1134      1135      1376      1375       652       653       894       893
 -1       411    1    0    1
 -2      1135      1136      1377      1376       653       654       895       894
 -1       412    1    0    1
 -2      1136      1137      1378      1377       654       655       896       895
 -1       413    1    0    1
 -2      1137      1138      1379      1378       655       656       897       896
 -1       414    1    0    1
 -2      1138      1139      1380      1379       656       657       898       897
 -1       415    1    0    1
 -2      1139      1140      1381      1380       657       658       899       898
 -1       416    1    0    1
 -2      1140      1141      1382      1381       658       659       900       899
 -1       417    1    0    1
 -2      1141      1142      1383      1382       659       660       901       900
 -1       418    1    0    1
 -2      1142      1143      1384      1383       660       661       902       901
 -1       419    1    0    1
 -2      1143      1144      1385      1384       661       662       903       902
 -1       420    1    0    1
 -2      1144      1145      1386      1385       662       663       904       903
 -1       421    1    0    1
 -2      1145      1146      1387      1386       663       664       905       904
 -1       422    1    0    1
 -2      1146      1147      1388      1387       664       665       906       905
 -1       423    1    0    1
 -2      1147      1148      1389      1388       665       666       907       906
 -1       424    1    0    1
 -2      1148      1149      1390      1389       666       667       908       907
 -1       425    1    0    1
 -2      1149      1150      1391      1390       667       668       909       908
 -1       426    1    0    1
 -2      1150      1151      1392      1391       668       669       910       909
 -1       427    1    0    1
 -2      1151      1152      1393      1392       669       670       911       910
 -1       428    1    0    1
 -2      1152      1153      1394      1393       670       671       912       911
 -1       429    1    0    1
 -2      1153      1154      1395      1394       671       672       913       912
 -1       430    1    0    1
 -2      1154      1155      1396      1395       672       673       914       913
 -1       431    1    0    1
 -2      1155      1156      1397      1396       673       674       915       914
 -1       432    1    0    1
 -2      1156      1157      1398      1397       674       675       916       915
 -1       433    1    0    1
 -2      1157      1158      1399      1398       675       676       917       916
 -1       434    1    0    1
 -2      1158      1159      1400      1399       676       677       918       917
 -1       435    1    0    1
 -2      1159      1160      1401      1400       677       678       919       918
 -1       436    1    0    1
 -2      1160      1161      1402      1401       678       679       920       919
 -1       437    1    0    1
 -2      1161      1162      1403      1402       679       680       921       920
 -1       438    1    0    1
 -2      1162      1163      1404      1403       680       681       922       921
 -1       439    1    0    1
 -2      1163      1164      1405      1404       681       682       923       922
 -1       440    1    0    1
 -2      1164      1165      1406      1405       682       683       924       923
 -1       441    1    0    1
 -2      1165      1166      1407      1406       683       684       925       924
 -1       442    1    0    1
 -2      1166      1167      1408      1407       684       685       926       925
 -1       443    1    0    1
 -2      1167      1168      1409      1408       685       686       927       926
 -1       444    1    0    1
 -2      1168      1169      1410      1409       686       687       928       927
 -1       445    1    0    1
 -2      1169      1170      1411      1410       687       688       929       928
 -1       446    1    0    1
 -2      1170      1171      1412      1411       688       689       930       929
 -1       447    1    0    1
 -2      1171      1172      1413      1412       689       690       931       930
 -1       448    1    0    1
 -2      1172      1173      1414      1413       690       691       932       931
 -1       449    1    0    1
 -2      1173      1174      1415      1414       691       692       933       932
 -1       450    1    0    1
 -2      1174      1175      1416      1415       692       693       934       933
 -1       451    1    0    1
 -2      1175      1176      1417      1416       693       694       935       934
 -1       452    1    0    1
 -2      1176      1177      1418      1417       694       695       936       935
 -1       453    1    0    1
 -2      1177      1178      1419      1418       695       696       937       936
 -1       454    1    0    1
 -2      1178      1179      1420      1419       696       697       938       937
 -1       455    1    0    1
 -2      1179      1180      1421      1420       697       698       939       938
 -1       456    1    0    1
 -2      1180      1181      1422      1421       698       699       940       939
 -1       457    1    0    1
 -2      1181      1182      1423      1422       699       700       941       940
 -1       458    1    0    1
 -2      1182      1183      1424      1423       700       701       942       941
 -1       459    1    0    1
 -2      1183      1184      1425      1424       701       702       943       942
 -1       460    1    0    1
 -2      1184      1185      1426      1425       702       703       944       943
 -1       461    1    0    1
 -2      1185      1186      1427      1426       703       704       945       944
 -1       462    1    0    1
 -2      1186      1187      1428      1427       704       705       946       945
 -1       463    1    0    1
 -2      1187      1188      1429      1428       705       706       947       946
 -1       464    1    0    1
 -2      1188      1189      1430      1429       706       707       948       947
 -1       465    1    0    1
 -2      1189      1190      1431      1430       707       708       949       948
 -1       466    1    0    1
 -2      1190      1191      1432      1431       708       709       950       949
 -1       467    1    0    1
 -2      1191      1192      1433      1432       709       710       951       950
 -1       468    1    0    1
 -2      1192      1193      1434      1433       710       711       952       951
 -1       469    1    0    1
 -2      1193      1194      1435      1434       711       712       953       952
 -1       470    1    0    1
 -2      1194      1195      1436      1435       712       713       954       953
 -1       471    1    0    1
 -2      1195      1196      1437      1436       713       714       955       954
 -1       472    1    0    1
 -2      1196      1197      1438      1437       714       715       956       955
 -1       473    1    0    1
 -2      1197      1198      1439      1438       715       716       957       956
 -1       474    1    0    1
 -2      1198      1199      1440      1439       716       717       958       957
 -1       475    1    0    1
 -2      1199      1200      1441      1440       717       718       959       958
 -1       476    1    0    1
 -2      1200      1201      1442      1441       718       719       960       959
 -1       477    1    0    1
 -2      1201      1202      1443      1442       719       720       961       960
 -1       478    1    0    1
 -2      1202      1203      1444      1443       720       721       962       961
 -1       479    1    0    1
 -2      1203      1204      1445      1444       721       722       963       962
 -1       480    1    0    1
 -2      1204      1205      1446      1445       722       723       964       963
 -1       481    1    0    1
 -2      1447      1448      1689      1688       965       966      1207      1206
 -1       482    1    0    1
 -2      1448      1449      1690      1689       966       967      1208      1207
 -1       483    1    0    1
 -2      1449      1450      1691      1690       967       968      1209      1208
 -1       484    1    0    1
 -2      1450      1451      1692      1691       968       969      1210      1209
 -1       485    1    0    1
 -2      1451      1452      1693      1692       969       970      1211      1210
 -1       486    1    0    1
 -2      1452      1453      1694      1693       970       971      1212      1211
 -1       487    1    0    1
 -2      1453      1454      1695      1694       971       972      1213      1212
 -1       488    1    0    1
 -2      1454      1455      1696      1695       972       973      1214      1213
 -1       489    1    0    1
 -2      1455      1456      1697      1696       973       974      1215      1214
 -1       490    1    0    1
 -2      1456      1457      1698      1697       974       975      1216      1215
 -1       491    1    0    1
 -2      1457      1458      1699      1698       975       976      1217      1216
 -1       492    1    0    1
 -2      1458      1459      1700      1699       976       977      1218      1217
 -1       493    1    0    1
 -2      1459      1460      1701      1700       977       978      1219      1218
 -1       494    1    0    1
 -2      1460      1461      1702      1701       978       979      1220      1219
 -1       495    1    0    1
 -2      1461      1462      1703      1702       979       980      1221      1220
 -1       496    1    0    1
 -2      1462      1463      1704      1703       980       981      1222      1221
 -1       497    1    0    1
 -2      1463      1464      1705      1704       981       982      1223      1222
 -1       498    1    0    1
 -2      1464      1465      1706      1705       982       983      1224      1223
 -1       499    1    0    1
 -2      1465      1466      1707      1706       983       984      1225      1224
 -1       500    1    0    1
 -2      1466      1467      1708      1707       984       985      1226      1225
 -1       501    1    0    1
 -2      1467      1468      1709      1708       985       986      1227      1226
 -1       502    1    0    1
 -2      1468      1469      1710      1709       986       987      1228      1227
 -1       503    1    0    1
 -2      1469      1470      1711      1710       987       988      1229      1228
 -1       504    1    0    1
 -2      1470      1471      1712      1711       988       989      1230      1229
 -1       505    1    0    1
 -2      1471      1472      1713      1712       989       990      1231      1230
 -1       506    1    0    1
 -2      1472      1473      1714      1713       990       991      1232      1231
 -1       507    1    0    1
 -2      1473      1474      1715      1714       991       992      1233      1232
 -1       508    1    0    1
 -2      1474      1475      1716      1715       992       993      1234      1233
 -1       509    1    0    1
 -2      1475      1476      1717      1716       993       994      1235      1234
 -1       510    1    0    1
 -2      1476      1477      1718      1717       994       995      1236      1235
 -1       511    1    0    1
 -2      1477      1478      1719      1718       995       996      1237      1236
 -1       512    1    0    1
 -2      1478      1479      1720      1719       996       997      1238      1237
 -1       513    1    0    1
 -2      1479      1480      1721      1720       997       998      1239      1238
 -1       514    1    0    1
 -2      1480      1481      1722      1721       998       999      1240      1239
 -1       515    1    0    1
 -2      1481      1482      1723      1722       999      1000      1241      1240
 -1       516    1    0    1
 -2      1482      1483      1724      1723      1000      1001      1242      1241
 -1       517    1    0    1
 -2      1483      1484      1725      1724      1001      1002      1243      1242
 -1       518    1    0    1
 -2      1484      1485      1726      1725      1002      1003      1244      1243
 -1       519    1    0    1
 -2      1485      1486      1727      1726      1003      1004      1245      1244
 -1       520    1    0    1
 -2      1486      1487      1728      1727      1004      1005      1246      1245
 -1       521    1    0    1
 -2      1487      1488      1729      1728      1005      1006      1247      1246
 -1       522    1    0    1
 -2      1488      1489      1730      1729      1006      1007      1248      1247
 -1       523    1    0    1
 -2      1489      1490      1731      1730      1007      1008      1249      1248
 -1       524    1    0    1
 -2      1490      1491      1732      1731      1008      1009      1250      1249
 -1       525    1    0    1
 -2      1491      1492      1733      1732      1009      1010      1251      1250
 -1       526    1    0    1
 -2      1492      1493      1734      1733      1010      1011      1252      1251
 -1       527    1    0    1
 -2      1493      1494      1735      1734      1011      1012      1253      1252
 -1       528    1    0    1
 -2      1494      1495      1736      1735      1012      1013      1254      1253
 -1       529    1    0    1
 -2      1495      1496      1737      1736      1013      1014      1255      1254
 -1       530    1    0    1
 -2      1496      1497      1738      1737      1014      1015      1256      1255
 -1       531    1    0    1
 -2      1497      1498      1739      1738      1015      1016      1257      1256
 -1       532    1    0    1
 -2      1498      1499      1740      1739      1016      1017      1258      1257
 -1       533    1    0    1
 -2      1499      1500      1741      1740      1017      1018      1259      1258
 -1       534    1    0    1
 -2      1500      1501      1742      1741      1018      1019      1260      1259
 -1       535    1    0    1
 -2      1501      1502      1743      1742      1019      1020      1261      1260
 -1       536    1    0    1
 -2      1502      1503      1744      1743      1020      1021      1262      1261
 -1       537    1    0    1
 -2      1503      1504      1745      1744      1021      1022      1263      1262
 -1       538    1    0    1
 -2      1504      1505      1746      1745      1022      1023      1264      1263
 -1       539    1    0    1
 -2      1505      1506      1747      1746      1023      1024      1265      1264
 -1       540    1    0    1
 -2      1506      1507      1748      1747      1024      1025      1266      1265
 -1       541    1    0    1
 -2      1507      1508      1749      1748      1025      1026      1267      1266
 -1       542    1    0    1
 -2      1508      1509      1750      1749      1026      1027      1268      1267
 -1       543    1    0    1
 -2      1509      1510      1751      1750      1027      1028      1269      1268
 -1       544    1    0    1
 -2      1510      1511      1752      1751      1028      1029      1270      1269
 -1       545    1    0    1
 -2      1511      1512      1753      1752      1029      1030      1271      1270
 -1       546    1    0    1
 -2      1512      1513      1754      1753      1030      1031      1272      1271
 -1       547    1    0    1
 -2      1513      1514      1755      1754      1031      1032      1273      1272
 -1       548    1    0    1
 -2      1514      1515      1756      1755      1032      1033      1274      1273
 -1       549    1    0    1
 -2      1515      1516      1757      1756      1033      1034      1275      1274
 -1       550    1    0    1
 -2      1516      1517      1758      1757      1034      1035      1276      1275
 -1       551    1    0    1
 -2      1517      1518      1759      1758      1035      1036      1277      1276
 -1       552    1    0    1
 -2      1518      1519      1760      1759      1036      1037      1278      1277
 -1       553    1    0    1
 -2      1519      1520      1761      1760      1037      1038      1279      1278
 -1       554    1    0    1
 -2      1520      1521      1762      1761      1038      1039      1280      1279
 -1       555    1    0    1
 -2      1521      1522      1763      1762      1039      1040      1281      1280
 -1       556    1    0    1
 -2      1522      1523      1764      1763      1040      1041      1282      1281
 -1       557    1    0    1
 -2      1523      1524      1765      1764      1041      1042      1283      1282
 -1       558    1    0    1
 -2      1524      1525      1766      1765      1042      1043      1284      1283
 -1       559    1    0    1
 -2      1525      1526      1767      1766      1043      1044      1285      1284
 -1       560    1    0    1
 -2      1526      1527      1768      1767      1044      1045      1286      1285
 -1       561    1    0    1
 -2      1527      1528      1769      1768      1045      1046      1287      1286
 -1       562    1    0    1
 -2      1528      1529      1770      1769      1046      1047      1288      1287
 -1       563    1    0    1
 -2      1529      1530      1771      1770      1047      1048      1289      1288
 -1       564    1    0    1
 -2      1530      1531      1772      1771      1048      1049      1290      1289
 -1       565    1    0    1
 -2      1531      1532      1773      1772      1049      1050      1291      1290
 -1       566    1    0    1
 -2      1532      1533      1774      1773      1050      1051      1292      1291
 -1       567    1    0    1
 -2      1533      1534      1775      1774      1051      1052      1293      1292
 -1       568    1    0    1
 -2      1534      1535      1776      1775      1052      1053      1294      1293
 -1       569    1    0    1
 -2      1535      1536      1777      1776      1053      1054      1295      1294
 -1       570    1    0    1
 -2      1536      1537      1778      1777      1054      1055      1296      1295
 -1       571    1    0    1
 -2      1537      1538      1779      1778      1055      1056      1297      1296
 -1       572    1    0    1
 -2      1538      1539      1780      1779      1056      1057      1298      1297
 -1       573    1    0    1
 -2      1539      1540      1781      1780      1057      1058      1299      1298
 -1       574    1    0    1
 -2      1540      1541      1782      1781      1058      1059      1300      1299
 -1       575    1    0    1
 -2      1541      1542      1783      1782      1059      1060      1301      1300
 -1       576    1    0    1
 -2      1542      1543      1784      1783      1060      1061      1302      1301
 -1       577    1    0    1
 -2      1543      1544      1785      1784      1061      1062      1303      1302
 -1       578    1    0    1
 -2      1544      1545      1786      1785      1062      1063      1304      1303
 -1       579    1    0    1
 -2      1545      1546      1787      1786      1063      1064      1305      1304
 -1       580    1    0    1
 -2      1546      1547      1788      1787      1064      1065      1306      1305
 -1       581    1    0    1
 -2      1547      1548      1789      1788      1065      1066      1307      1306
 -1       582    1    0    1
 -2      1548      1549      1790      1789      1066      1067      1308      1307
 -1       583    1    0    1
 -2      1549      1550      1791      1790      1067      1068      1309      1308
 -1       584    1    0    1
 -2      1550      1551      1792      1791      1068      1069      1310      1309
 -1       585    1    0    1
 -2      1551      1552      1793      1792      1069      1070      1311      1310
 -1       586    1    0    1
 -2      1552      1553      1794      1793      1070      1071      1312      1311
 -1       587    1    0    1
 -2      1553      1554      1795      1794      1071      1072      1313      1312
 -1       588    1    0    1
 -2      1554      1555      1796      1795      1072      1073      1314      1313
 -1       589    1    0    1
 -2      1555      1556      1797      1796      1073      1074      1315      1314
 -1       590    1    0    1
 -2      1556      1557      1798      1797      1074      1075      1316      1315
 -1       591    1    0    1
 -2      1557      1558      1799      1798      1075      1076      1317      1316
 -1       592    1    0    1
 -2      1558      1559      1800      1799      1076      1077      1318      1317
 -1       593    1    0    1
 -2      1559      1560      1801      1800      1077      1078      1319      1318
 -1       594    1    0    1
 -2      1560      1561      1802      1801      1078      1079      1320      1319
 -1       595    1    0    1
 -2      1561      1562      1803      1802      1079      1080      1321      1320
 -1       596    1    0    1
 -2      1562      1563      1804      1803      1080      1081      1322      1321
 -1       597    1    0    1
 -2      1563      1564      1805      1804      1081      1082      1323      1322
 -1       598    1    0    1
 -2      1564      1565      1806      1805      1082      1083      1324      1323
 -1       599    1    0    1
 -2      1565      1566      1807      1806      1083      1084      1325      1324
 -1       600    1    0    1
 -2      1566      1567      1808      1807      1084      1085      1326      1325
 -1       601    1    0    1
 -2      1567      1568      1809      1808      1085      1086      1327      1326
 -1       602    1    0    1
 -2      1568      1569      1810      1809      1086      1087      1328      1327
 -1       603    1    0    1
 -2      1569      1570      1811      1810      1087      1088      1329      1328
 -1       604    1    0    1
 -2      1570      1571      1812      1811      1088      1089      1330      1329
 -1       605    1    0    1
 -2      1571      1572      1813      1812      1089      1090      1331      1330
 -1       606    1    0    1
 -2      1572      1573      1814      1813      1090      1091      1332      1331
 -1       607    1    0    1
 -2      1573      1574      1815      1814      1091      1092      1333      1332
 -1       608    1    0    1
 -2      1574      1575      1816      1815      1092      1093      1334      1333
 -1       609    1    0    1
 -2      1575      1576      1817      1816      1093      1094      1335      1334
 -1       610    1    0    1
 -2      1576      1577      1818      1817      1094      1095      1336      1335
 -1       611    1    0    1
 -2      1577      1578      1819      1818      1095      1096      1337      1336
 -1       612    1    0    1
 -2      1578      1579      1820      1819      1096      1097      1338      1337
 -1       613    1    0    1
 -2      1579      1580      1821      1820      1097      1098      1339      1338
 -1       614    1    0    1
 -2      1580      1581      1822      1821      1098      1099      1340      1339
 -1       615    1    0    1
 -2      1581      1582      1823      1822      1099      1100      1341      1340
 -1       616    1    0    1
 -2      1582      1583      1824      1823      1100      1101      1342      1341
 -1       617    1    0    1
 -2      1583      1584      1825      1824      1101      1102      1343      1342
 -1       618    1    0    1
 -2      1584      1585      1826      1825      1102      1103      1344      1343
 -1       619    1    0    1
 -2      1585      1586      1827      1826      1103      1104      1345      1344
 -1       620    1    0    1
 -2      1586      1587      1828      1827      1104      1105      1346      1345
 -1       621    1    0    1
 -2      1587      1588      1829      1828      1105      1106      1347      1346
 -1       622    1    0    1
 -2      1588      1589      1830      1829      1106      1107      1348      1347
 -1       623    1    0    1
 -2      1589      1590      1831      1830      1107      1108      1349      1348
 -1       624    1    0    1
 -2      1590      1591      1832      1831      1108      1109      1350      1349
 -1       625    1    0    1
 -2      1591      1592      1833      1832      1109      1110      1351      1350
 -1       626    1    0    1
 -2      1592      1593      1834      1833      1110      1111      1352      1351
 -1       627    1    0    1
 -2      1593      1594      1835      1834      1111      1112      1353      1352
 -1       628    1    0    1
 -2      1594      1595      1836      1835      1112      1113      1354      1353
 -1       629    1    0    1
 -2      1595      1596      1837      1836      1113      1114      1355      1354
 -1       630    1    0    1
 -2      1596      1597      1838      1837      1114      1115      1356      1355
 -1       631    1    0    1
 -2      1597      1598      1839      1838      1115      1116      1357      1356
 -1       632    1    0    1
 -2      1598      1599      1840      1839      1116      1117      1358      1357
 -1       633    1    0    1
 -2      1599      1600      1841      1840      1117      1118      1359      1358
 -1       634    1    0    1
 -2      1600      1601      1842      1841      1118      1119      1360      1359
 -1       635    1    0    1
 -2      1601      1602      1843      1842      1119      1120      1361      1360
 -1       636    1    0    1
 -2      1602      1603      1844      1843      1120      1121      1362      1361
 -1       637    1    0    1
 -2      1603      1604      1845      1844      1121      1122      1363      1362
 -1       638    1    0    1
 -2      1604      1605      1846      1845      1122      1123      1364      1363
 -1       639    1    0    1
 -2      1605      1606      1847      1846      1123      1124      1365      1364
 -1       640    1    0    1
 -2      1606      1607      1848      1847      1124      1125      1366      1365
 -1       641    1    0    1
 -2      1607      1608      1849      1848      1125      1126      1367      1366
 -1       642    1    0    1
 -2      1608      1609      1850      1849      1126      1127      1368      1367
 -1       643    1    0    1
 -2      1609      1610      1851      1850      1127      1128      1369      1368
 -1       644    1    0    1
 -2      1610      1611      1852      1851      1128      1129      1370      1369
 -1       645    1    0    1
 -2      1611      1612      1853      1852      1129      1130      1371      1370
 -1       646    1    0    1
 -2      1612      1613      1854      1853      1130      1131      1372      1371
 -1       647    1    0    1
 -2      1613      1614      1855      1854      1131      1132      1373      1372
 -1       648    1    0    1
 -2      1614      1615      1856      1855      1132      1133      1374      1373
 -1       649    1    0    1
 -2      1615      1616      1857      1856      1133      1134      1375      1374
 -1       650    1    0    1
 -2      1616      1617      1858      1857      1134      1135      1376      1375
 -1       651    1    0    1
 -2      1617      1618      1859      1858      1135      1136      1377      1376
 -1       652    1    0    1
 -2      1618      1619      1860      1859      1136      1137      1378      1377
 -1       653    1    0    1
 -2      1619      1620      1861      1860      1137      1138      1379      1378
 -1       654    1    0    1
 -2      1620      1621      1862      1861      1138      1139      1380      1379
 -1       655    1    0    1
 -2      1621      1622      1863      1862      1139      1140      1381      1380
 -1       656    1    0    1
 -2      1622      1623      1864      1863      1140      1141      1382      1381
 -1       657    1    0    1
 -2      1623      1624      1865      1864      1141      1142      1383      1382
 -1       658    1    0    1
 -2      1624      1625      1866      1865      1142      1143      1384      1383
 -1       659    1    0    1
 -2      1625      1626      1867      1866      1143      1144      1385      1384
 -1       660    1    0    1
 -2      1626      1627      1868      1867      1144      1145      1386      1385
 -1       661    1    0    1
 -2      1627      1628      1869      1868      1145      1146      1387      1386
 -1       662    1    0    1
 -2      1628      1629      1870      1869      1146      1147      1388      1387
 -1       663    1    0    1
 -2      1629      1630      1871      1870      1147      1148      1389      1388
 -1       664    1    0    1
 -2      1630      1631      1872      1871      1148      1149      1390      1389
 -1       665    1    0    1
 -2      1631      1632      1873      1872      1149      1150      1391      1390
 -1       666    1    0    1
 -2      1632      1633      1874      1873      1150      1151      1392      1391
 -1       667    1    0    1
 -2      1633      1634      1875      1874      1151      1152      1393      1392
 -1       668    1    0    1
 -2      1634      1635      1876      1875      1152      1153      1394      1393
 -1       669    1    0    1
 -2      1635      1636      1877      1876      1153      1154      1395      1394
 -1       670    1    0    1
 -2      1636      1637      1878      1877      1154      1155      1396      1395
 -1       671    1    0    1
 -2      1637      1638      1879      1878      1155      1156      1397      1396
 -1       672    1    0    1
 -2      1638      1639      1880      1879      1156      1157      1398      1397
 -1       673    1    0    1
 -2      1639      1640      1881      1880      1157      1158      1399      1398
 -1       674    1    0    1
 -2      1640      1641      1882      1881      1158      1159      1400      1399
 -1       675    1    0    1
 -2      1641      1642      1883      1882      1159      1160      1401      1400
 -1       676    1    0    1
 -2      1642      1643      1884      1883      1160      1161      1402      1401
 -1       677    1    0    1
 -2      1643      1644      1885      1884      1161      1162      1403      1402
 -1       678    1    0    1
 -2      1644      1645      1886      1885      1162      1163      1404      1403
 -1       679    1    0    1
 -2      1645      1646      1887      1886      1163      1164      1405      1404
 -1       680    1    0    1
 -2      1646      1647      1888      1887      1164      1165      1406      1405
 -1       681    1    0    1
 -2      1647      1648      1889      1888      1165      1166      1407      1406
 -1       682    1    0    1
 -2      1648      1649      1890      1889      1166      1167      1408      1407
 -1       683    1    0    1
 -2      1649      1650      1891      1890      1167      1168      1409      1408
 -1       684    1    0    1
 -2      1650      1651      1892      1891      1168      1169      1410      1409
 -1       685    1    0    1
 -2      1651      1652      1893      1892      1169      1170      1411      1410
 -1       686    1    0    1
 -2      1652      1653      1894      1893      1170      1171      1412      1411
 -1       687    1    0    1
 -2      1653      1654      1895      1894      1171      1172      1413      1412
 -1       688    1    0    1
 -2      1654      1655      1896      1895      1172      1173      1414      1413
 -1       689    1    0    1
 -2      1655      1656      1897      1896      1173      1174      1415      1414
 -1       690    1    0    1
 -2      1656      1657      1898      1897      1174      1175      1416      1415
 -1       691    1    0    1
 -2      1657      1658      1899      1898      1175      1176      1417      1416
 -1       692    1    0    1
 -2      1658      1659      1900      1899      1176      1177      1418      1417
 -1       693    1    0    1
 -2      1659      1660      1901      1900      1177      1178      1419      1418
 -1       694    1    0    1
 -2      1660      1661      1902      1901      1178      1179      1420      1419
 -1       695    1    0    1
 -2      1661      1662      1903      1902      1179      1180      1421      1420
 -1       696    1    0    1
 -2      1662      1663      1904      1903      1180      1181      1422      1421
 -1       697    1    0    1
 -2      1663      1664      1905      1904      1181      1182      1423      1422
 -1       698    1    0    1
 -2      1664      1665      1906      1905      1182      1183      1424      1423
 -1       699    1    0    1
 -2      1665      1666      1907      1906      1183      1184      1425      1424
 -1       700    1    0    1
 -2      1666      1667      1908      1907      1184      1185      1426      1425
 -1       701    1    0    1
 -2      1667      1668      1909      1908      1185      1186      1427      1426
 -1       702    1    0    1
 -2      1668      1669      1910      1909      1186      1187      1428      1427
 -1       703    1    0    1
 -2      1669      1670      1911      1910      1187      1188      1429      1428
 -1       704    1    0    1
 -2      1670      1671      1912      1911      1188      1189      1430      1429
 -1       705    1    0    1
 -2      1671      1672      1913      1912      1189      1190      1431      1430
 -1       706    1    0    1
 -2      1672      1673      1914      1913      1190      1191      1432      1431
 -1       707    1    0    1
 -2      1673      1674      1915      1914      1191      1192      1433      1432
 -1       708    1    0    1
 -2      1674      1675      1916      1915      1192      1193      1434      1433
 -1       709    1    0    1
 -2      1675      1676      1917      1916      1193      1194      1435      1434
 -1       710    1    0    1
 -2      1676      1677      1918      1917      1194      1195      1436      1435
 -1       711    1    0    1
 -2      1677      1678      1919      1918      1195      1196      1437      1436
 -1       712    1    0    1
 -2      1678      1679      1920      1919      1196      1197      1438      1437
 -1       713    1    0    1
 -2      1679      1680      1921      1920      1197      1198      1439      1438
 -1       714    1    0    1
 -2      1680      1681      1922      1921      1198      1199      1440      1439
 -1       715    1    0    1
 -2      1681      1682      1923      1922      1199      1200      1441      1440
 -1       716    1    0    1
 -2      1682      1683      1924      1923      1200      1201      1442      1441
 -1       717    1    0    1
 -2      1683      1684      1925      1924      1201      1202      1443      1442
 -1       718    1    0    1
 -2      1684      1685      1926      1925      1202      1203      1444      1443
 -1       719    1    0    1
 -2      1685      1686      1927      1926      1203      1204      1445      1444
 -1       720    1    0    1
 -2      1686      1687      1928      1927      1204      1205      1446      1445
 -1       721    1    0    1
 -2      1929      1930      2171      2170      1447      1448      1689      1688
 -1       722    1    0    1
 -2      1930      1931      2172      2171      1448      1449      1690      1689
 -1       723    1    0    1
 -2      1931      1932      2173      2172      1449      1450      1691      1690
 -1       724    1    0    1
 -2      1932      1933      2174      2173      1450      1451      1692      1691
 -1       725    1    0    1
 -2      1933      1934      2175      2174      1451      1452      1693      1692
 -1       726    1    0    1
 -2      1934      1935      2176      2175      1452      1453      1694      1693
 -1       727    1    0    1
 -2      1935      1936      2177      2176      1453      1454      1695      1694
 -1       728    1    0    1
 -2      1936      1937      2178      2177      1454      1455      1696      1695
 -1       729    1    0    1
 -2      1937      1938      2179      2178      1455      1456      1697      1696
 -1       730    1    0    1
 -2      1938      1939      2180      2179      1456      1457      1698      1697
 -1       731    1    0    1
 -2      1939      1940      2181      2180      1457      1458      1699      1698
 -1       732    1    0    1
 -2      1940      1941      2182      2181      1458      1459      1700      1699
 -1       733    1    0    1
 -2      1941      1942      2183      2182      1459      1460      1701      1700
 -1       734    1    0    1
 -2      1942      1943      2184      2183      1460      1461      1702      1701
 -1       735    1    0    1
 -2      1943      1944      2185      2184      1461      1462      1703      1702
 -1       736    1    0    1
 -2      1944      1945      2186      2185      1462      1463      1704      1703
 -1       737    1    0    1
 -2      1945      1946      2187      2186      1463      1464      1705      1704
 -1       738    1    0    1
 -2      1946      1947      2188      2187      1464      1465      1706      1705
 -1       739    1    0    1
 -2      1947      1948      2189      2188      1465      1466      1707      1706
 -1       740    1    0    1
 -2      1948      1949      2190      2189      1466      1467      1708      1707
 -1       741    1    0    1
 -2      1949      1950      2191      2190      1467      1468      1709      1708
 -1       742    1    0    1
 -2      1950      1951      2192      2191      1468      1469      1710      1709
 -1       743    1    0    1
 -2      1951      1952      2193      2192      1469      1470      1711      1710
 -1       744    1    0    1
 -2      1952      1953      2194      2193      1470      1471      1712      1711
 -1       745    1    0    1
 -2      1953      1954      2195      2194      1471      1472      1713      1712
 -1       746    1    0    1
 -2      1954      1955      2196      2195      1472      1473      1714      1713
 -1       747    1    0    1
 -2      1955      1956      2197      2196      1473      1474      1715      1714
 -1       748    1    0    1
 -2      1956      1957      2198      2197      1474      1475      1716      1715
 -1       749    1    0    1
 -2      1957      1958      2199      2198      1475      1476      1717      1716
 -1       750    1    0    1
 -2      1958      1959      2200      2199      1476      1477      1718      1717
 -1       751    1    0    1
 -2      1959      1960      2201      2200      1477      1478      1719      1718
 -1       752    1    0    1
 -2      1960      1961      2202      2201      1478      1479      1720      1719
 -1       753    1    0    1
 -2      1961      1962      2203      2202      1479      1480      1721      1720
 -1       754    1    0    1
 -2      1962      1963      2204      2203      1480      1481      1722      1721
 -1       755    1    0    1
 -2      1963      1964      2205      2204      1481      1482      1723      1722
 -1       756    1    0    1
 -2      1964      1965      2206      2205      1482      1483      1724      1723
 -1       757    1    0    1
 -2      1965      1966      2207      2206      1483      1484      1725      1724
 -1       758    1    0    1
 -2      1966      1967      2208      2207      1484      1485      1726      1725
 -1       759    1    0    1
 -2      1967      1968      2209      2208      1485      1486      1727      1726
 -1       760    1    0    1
 -2      1968      1969      2210      2209      1486      1487      1728      1727
 -1       761    1    0    1
 -2      1969      1970      2211      2210      1487      1488      1729      1728
 -1       762    1    0    1
 -2      1970      1971      2212      2211      1488      1489      1730      1729
 -1       763    1    0    1
 -2      1971      1972      2213      2212      1489      1490      1731      1730
 -1       764    1    0    1
 -2      1972      1973      2214      2213      1490      1491      1732      1731
 -1       765    1    0    1
 -2      1973      1974      2215      2214      1491      1492      1733      1732
 -1       766    1    0    1
 -2      1974      1975      2216      2215      1492      1493      1734      1733
 -1       767    1    0    1
 -2      1975      1976      2217      2216      1493      1494      1735      1734
 -1       768    1    0    1
 -2      1976      1977      2218      2217      1494      1495      1736      1735
 -1       769    1    0    1
 -2      1977      1978      2219      2218      1495      1496      1737      1736
 -1       770    1    0    1
 -2      1978      1979      2220      2219      1496      1497      1738      1737
 -1       771    1    0    1
 -2      1979      1980      2221      2220      1497      1498      1739      1738
 -1       772    1    0    1
 -2      1980      1981      2222      2221      1498      1499      1740      1739
 -1       773    1    0    1
 -2      1981      1982      2223      2222      1499      1500      1741      1740
 -1       774    1    0    1
 -2      1982      1983      2224      2223      1500      1501      1742      1741
 -1       775    1    0    1
 -2      1983      1984      2225      2224      1501      1502      1743      1742
 -1       776    1    0    1
 -2      1984      1985      2226      2225      1502      1503      1744      1743
 -1       777    1    0    1
 -2      1985      1986      2227      2226      1503      1504      1745      1744
 -1       778    1    0    1
 -2      1986      1987      2228      2227      1504      1505      1746      1745
 -1       779    1    0    1
 -2      1987      1988      2229      2228      1505      1506      1747      1746
 -1       780    1    0    1
 -2      1988      1989      2230      2229      1506      1507      1748      1747
 -1       781    1    0    1
 -2      1989      1990      2231      2230      1507      1508      1749      1748
 -1       782    1    0    1
 -2      1990      1991      2232      2231      1508      1509      1750      1749
 -1       783    1    0    1
 -2      1991      1992      2233      2232      1509      1510      1751      1750
 -1       784    1    0    1
 -2      1992      1993      2234      2233      1510      1511      1752      1751
 -1       785    1    0    1
 -2      1993      1994      2235      2234      1511      1512      1753      1752
 -1       786    1    0    1
 -2      1994      1995      2236      2235      1512      1513      1754      1753
 -1       787    1    0    1
 -2      1995      1996      2237      2236      1513      1514      1755      1754
 -1       788    1    0    1
 -2      1996      1997      2238      2237      1514      1515      1756      1755
 -1       789    1    0    1
 -2      1997      1998      2239      2238      1515      1516      1757      1756
 -1       790    1    0    1
 -2      1998      1999      2240      2239      1516      1517      1758      1757
 -1       791    1    0    1
 -2      1999      2000      2241      2240      1517      1518      1759      1758
 -1       792    1    0    1
 -2      2000      2001      2242      2241      1518      1519      1760      1759
 -1       793    1    0    1
 -2      2001      2002      2243      2242      1519      1520      1761      1760
 -1       794    1    0    1
 -2      2002      2003      2244      2243      1520      1521      1762      1761
 -1       795    1    0    1
 -2      2003      2004      2245      2244      1521      1522      1763      1762
 -1       796    1    0    1
 -2      2004      2005      2246      2245      1522      1523      1764      1763
 -1       797    1    0    1
 -2      2005      2006      2247      2246      1523      1524      1765      1764
 -1       798    1    0    1
 -2      2006      2007      2248      2247      1524      1525      1766      1765
 -1       799    1    0    1
 -2      2007      2008      2249      2248      1525      1526      1767      1766
 -1       800    1    0    1
 -2      2008      2009      2250      2249      1526      1527      1768      1767
 -1       801    1    0    1
 -2      2009      2010      2251      2250      1527      1528      1769      1768
 -1       802    1    0    1
 -2      2010      2011      2252      2251      1528      1529      1770      1769
 -1       803    1    0    1
 -2      2011      2012      2253      2252      1529      1530      1771      1770
 -1       804    1    0    1
 -2      2012      2013      2254      2253      1530      1531      1772      1771
 -1       805    1    0    1
 -2      2013      2014      2255      2254      1531      1532      1773      1772
 -1       806    1    0    1
 -2      2014      2015      2256      2255      1532      1533      1774      1773
 -1       807    1    0    1
 -2      2015      2016      2257      2256      1533      1534      1775      1774
 -1       808    1    0    1
 -2      2016      2017      2258      2257      1534      1535      1776      1775
 -1       809    1    0    1
 -2      2017      2018      2259      2258      1535      1536      1777      1776
 -1       810    1    0    1
 -2      2018      2019      2260      2259      1536      1537      1778      1777
 -1       811    1    0    1
 -2      2019      2020      2261      2260      1537      1538      1779      1778
 -1       812    1    0    1
 -2      2020      2021      2262      2261      1538      1539      1780      1779
 -1       813    1    0    1
 -2      2021      2022      2263      2262      1539      1540      1781      1780
 -1       814    1    0    1
 -2      2022      2023      2264      2263      1540      1541      1782      1781
 -1       815    1    0    1
 -2      2023      2024      2265      2264      1541      1542      1783      1782
 -1       816    1    0    1
 -2      2024      2025      2266      2265      1542      1543      1784      1783
 -1       817    1    0    1
 -2      2025      2026      2267      2266      1543      1544      1785      1784
 -1       818    1    0    1
 -2      2026      2027      2268      2267      1544      1545      1786      1785
 -1       819    1    0    1
 -2      2027      2028      2269      2268      1545      1546      1787      1786
 -1       820    1    0    1
 -2      2028      2029      2270      2269      1546      1547      1788      1787
 -1       821    1    0    1
 -2      2029      2030      2271      2270      1547      1548      1789      1788
 -1       822    1    0    1
 -2      2030      2031      2272      2271      1548      1549      1790      1789
 -1       823    1    0    1
 -2      2031      2032      2273      2272      1549      1550      1791      1790
 -1       824    1    0    1
 -2      2032      2033      2274      2273      1550      1551      1792      1791
 -1       825    1    0    1
 -2      2033      2034      2275      2274      1551      1552      1793      1792
 -1       826    1    0    1
 -2      2034      2035      2276      2275      1552      1553      1794      1793
 -1       827    1    0    1
 -2      2035      2036      2277      2276      1553      1554      1795      1794
 -1       828    1    0    1
 -2      2036      2037      2278      2277      1554      1555      1796      1795
 -1       829    1    0    1
 -2      2037      2038      2279      2278      1555      1556      1797      1796
 -1       830    1    0    1
 -2      2038      2039      2280      2279      1556      1557      1798      1797
 -1       831    1    0    1
 -2      2039      2040      2281      2280      1557      1558      1799      1798
 -1       832    1    0    1
 -2      2040      2041      2282      2281      1558      1559      1800      1799
 -1       833    1    0    1
 -2      2041      2042      2283      2282      1559      1560      1801      1800
 -1       834    1    0    1
 -2      2042      2043      2284      2283      1560      1561      1802      1801
 -1       835    1    0    1
 -2      2043      2044      2285      2284      1561      1562      1803      1802
 -1       836    1    0    1
 -2      2044      2045      2286      2285      1562      1563      1804      1803
 -1       837    1    0    1
 -2      2045      2046      2287      2286      1563      1564      1805      1804
 -1       838    1    0    1
 -2      2046      2047      2288      2287      1564      1565      1806      1805
 -1       839    1    0    1
 -2      2047      2048      2289      2288      1565      1566      1807      1806
 -1       840    1    0    1
 -2      2048      2049      2290      2289      1566      1567      1808      1807
 -1       841    1    0    1
 -2      2049      2050      2291      2290      1567      1568      1809      1808
 -1       842    1    0    1
 -2      2050      2051      2292      2291      1568      1569      1810      1809
 -1       843    1    0    1
 -2      2051      2052      2293      2292      1569      1570      1811      1810
 -1       844    1    0    1
 -2      2052      2053      2294      2293      1570      1571      1812      1811
 -1       845    1    0    1
 -2      2053      2054      2295      2294      1571      1572      1813      1812
 -1       846    1    0    1
 -2      2054      2055      2296      2295      1572      1573      1814      1813
 -1       847    1    0    1
 -2      2055      2056      2297      2296      1573      1574      1815      1814
 -1       848    1    0    1
 -2      2056      2057      2298      2297      1574      1575      1816      1815
 -1       849    1    0    1
 -2      2057      2058      2299      2298      1575      1576      1817      1816
 -1       850    1    0    1
 -2      2058      2059      2300      2299      1576      1577      1818      1817
 -1       851    1    0    1
 -2      2059      2060      2301      2300      1577      1578      1819      1818
 -1       852    1    0    1
 -2      2060      2061      2302      2301      1578      1579      1820      1819
 -1       853    1    0    1
 -2      2061      2062      2303      2302      1579      1580      1821      1820
 -1       854    1    0    1
 -2      2062      2063      2304      2303      1580      1581      1822      1821
 -1       855    1    0    1
 -2      2063      2064      2305      2304      1581      1582      1823      1822
 -1       856    1    0    1
 -2      2064      2065      2306      2305      1582      1583      1824      1823
 -1       857    1    0    1
 -2      2065      2066      2307      2306      1583      1584      1825      1824
 -1       858    1    0    1
 -2      2066      2067      2308      2307      1584      1585      1826      1825
 -1       859    1    0    1
 -2      2067      2068      2309      2308      1585      1586      1827      1826
 -1       860    1    0    1
 -2      2068      2069      2310      2309      1586      1587      1828      1827
 -1       861    1    0    1
 -2      2069      2070      2311      2310      1587      1588      1829      1828
 -1       862    1    0    1
 -2      2070      2071      2312      2311      1588      1589      1830      1829
 -1       863    1    0    1
 -2      2071      2072      2313      2312      1589      1590      1831      1830
 -1       864    1    0    1
 -2      2072      2073      2314      2313      1590      1591      1832      1831
 -1       865    1    0    1
 -2      2073      2074      2315      2314      1591      1592      1833      1832
 -1       866    1    0    1
 -2      2074      2075      2316      2315      1592      1593      1834      1833
 -1       867    1    0    1
 -2      2075      2076      2317      2316      1593      1594      1835      1834
 -1       868    1    0    1
 -2      2076      2077      2318      2317      1594      1595      1836      1835
 -1       869    1    0    1
 -2      2077      2078      2319      2318      1595      1596      1837      1836
 -1       870    1    0    1
 -2      2078      2079      2320      2319      1596      1597      1838      1837
 -1       871    1    0    1
 -2      2079      2080      2321      2320      1597      1598      1839      1838
 -1       872    1    0    1
 -2      2080      2081      2322      2321      1598      1599      1840      1839
 -1       873    1    0    1
 -2      2081      2082      2323      2322      1599      1600      1841      1840
 -1       874    1    0    1
 -2      2082      2083      2324      2323      1600      1601      1842      1841
 -1       875    1    0    1
 -2      2083      2084      2325      2324      1601      1602      1843      1842
 -1       876    1    0    1
 -2      2084      2085      2326      2325      1602      1603      1844      1843
 -1       877    1    0    1
 -2      2085      2086      2327      2326      1603      1604      1845      1844
 -1       878    1    0    1
 -2      2086      2087      2328      2327      1604      1605      1846      1845
 -1       879    1    0    1
 -2      2087      2088      2329      2328      1605      1606      1847      1846
 -1       880    1    0    1
 -2      2088      2089      2330      2329      1606      1607      1848      1847
 -1       881    1    0    1
 -2      2089      2090      2331      2330      1607      1608      1849      1848
 -1       882    1    0    1
 -2      2090      2091      2332      2331      1608      1609      1850      1849
 -1       883    1    0    1
 -2      2091      2092      2333      2332      1609      1610      1851      1850
 -1       884    1    0    1
 -2      2092      2093      2334      2333      1610      1611      1852      1851
 -1       885    1    0    1
 -2      2093      2094      2335      2334      1611      1612      1853      1852
 -1       886    1    0    1
 -2      2094      2095      2336      2335      1612      1613      1854      1853
 -1       887    1    0    1
 -2      2095      2096      2337      2336      1613      1614      1855      1854
 -1       888    1    0    1
 -2      2096      2097      2338      2337      1614      1615      1856      1855
 -1       889    1    0    1
 -2      2097      2098      2339      2338      1615      1616      1857      1856
 -1       890    1    0    1
 -2      2098      2099      2340      2339      1616      1617      1858      1857
 -1       891    1    0    1
 -2      2099      2100      2341      2340      1617      1618      1859      1858
 -1       892    1    0    1
 -2      2100      2101      2342      2341      1618      1619      1860      1859
 -1       893    1    0    1
 -2      2101      2102      2343      2342      1619      1620      1861      1860
 -1       894    1    0    1
 -2      2102      2103      2344      2343      1620      1621      1862      1861
 -1       895    1    0    1
 -2      2103      2104      2345      2344      1621      1622      1863      1862
 -1       896    1    0    1
 -2      2104      2105      2346      2345      1622      1623      1864      1863
 -1       897    1    0    1
 -2      2105      2106      2347      2346      1623      1624      1865      1864
 -1       898    1    0    1
 -2      2106      2107      2348      2347      1624      1625      1866      1865
 -1       899    1    0    1
 -2      2107      2108      2349      2348      1625      1626      1867      1866
 -1       900    1    0    1
 -2      2108      2109      2350      2349      1626      1627      1868      1867
 -1       901    1    0    1
 -2      2109      2110      2351      2350      1627      1628      1869      1868
 -1       902    1    0    1
 -2      2110      2111      2352      2351      1628      1629      1870      1869
 -1       903    1    0    1
 -2      2111      2112      2353      2352      1629      1630      1871      1870
 -1       904    1    0    1
 -2      2112      2113      2354      2353      1630      1631      1872      1871
 -1       905    1    0    1
 -2      2113      2114      2355      2354      1631      1632      1873      1872
 -1       906    1    0    1
 -2      2114      2115      2356      2355      1632      1633      1874      1873
 -1       907    1    0    1
 -2      2115      2116      2357      2356      1633      1634      1875      1874
 -1       908    1    0    1
 -2      2116      2117      2358      2357      1634      1635      1876      1875
 -1       909    1    0    1
 -2      2117      2118      2359      2358      1635      1636      1877      1876
 -1       910    1    0    1
 -2      2118      2119      2360      2359      1636      1637      1878      1877
 -1       911    1    0    1
 -2      2119      2120      2361      2360      1637      1638      1879      1878
 -1       912    1    0    1
 -2      2120      2121      2362      2361      1638      1639      1880      1879
 -1       913    1    0    1
 -2      2121      2122      2363      2362      1639      1640      1881      1880
 -1       914    1    0    1
 -2      2122      2123      2364      2363      1640      1641      1882      1881
 -1       915    1    0    1
 -2      2123      2124      2365      2364      1641      1642      1883      1882
 -1       916    1    0    1
 -2      2124      2125      2366      2365      1642      1643      1884      1883
 -1       917    1    0    1
 -2      2125      2126      2367      2366      1643      1644      1885      1884
 -1       918    1    0    1
 -2      2126      2127      2368      2367      1644      1645      1886      1885
 -1       919    1    0    1
 -2      2127      2128      2369      2368      1645      1646      1887      1886
 -1       920    1    0    1
 -2      2128      2129      2370      2369      1646      1647      1888      1887
 -1       921    1    0    1
 -2      2129      2130      2371      2370      1647      1648      1889      1888
 -1       922    1    0    1
 -2      2130      2131      2372      2371      1648      1649      1890      1889
 -1       923    1    0    1
 -2      2131      2132      2373      2372      1649      1650      1891      1890
 -1       924    1    0    1
 -2      2132      2133      2374      2373      1650      1651      1892      1891
 -1       925    1    0    1
 -2      2133      2134      2375      2374      1651      1652      1893      1892
 -1       926    1    0    1
 -2      2134      2135      2376      2375      1652      1653      1894      1893
 -1       927    1    0    1
 -2      2135      2136      2377      2376      1653      1654      1895      1894
 -1       928    1    0    1
 -2      2136      2137      2378      2377      1654      1655      1896      1895
 -1       929    1    0    1
 -2      2137      2138      2379      2378      1655      1656      1897      1896
 -1       930    1    0    1
 -2      2138      2139      2380      2379      1656      1657      1898      1897
 -1       931    1    0    1
 -2      2139      2140      2381      2380      1657      1658      1899      1898
 -1       932    1    0    1
 -2      2140      2141      2382      2381      1658      1659      1900      1899
 -1       933    1    0    1
 -2      2141      2142      2383      2382      1659      1660      1901      1900
 -1       934    1    0    1
 -2      2142      2143      2384      2383      1660      1661      1902      1901
 -1       935    1    0    1
 -2      2143      2144      2385      2384      1661      1662      1903      1902
 -1       936    1    0    1
 -2      2144      2145      2386      2385      1662      1663      1904      1903
 -1       937    1    0    1
 -2      2145      2146      2387      2386      1663      1664      1905      1904
 -1       938    1    0    1
 -2      2146      2147      2388      2387      1664      1665      1906      1905
 -1       939    1    0    1
 -2      2147      2148      2389      2388      1665      1666      1907      1906
 -1       940    1    0    1
 -2      2148      2149      2390      2389      1666      1667      1908      1907
 -1       941    1    0    1
 -2      2149      2150      2391      2390      1667      1668      1909      1908
 -1       942    1    0    1
 -2      2150      2151      2392      2391      1668      1669      1910      1909
 -1       943    1    0    1
 -2      2151      2152      2393      2392      1669      1670      1911      1910
 -1       944    1    0    1
 -2      2152      2153      2394      2393      1670      1671      1912      1911
 -1       945    1    0    1
 -2      2153      2154      2395      2394      1671      1672      1913      1912
 -1       946    1    0    1
 -2      2154      2155      2396      2395      1672      1673      1914      1913
 -1       947    1    0    1
 -2      2155      2156      2397      2396      1673      1674      1915      1914
 -1       948    1    0    1
 -2      2156      2157      2398      2397      1674      1675      1916      1915
 -1       949    1    0    1
 -2      2157      2158      2399      2398      1675      1676      1917      1916
 -1       950    1    0    1
 -2      2158      2159      2400      2399      1676      1677      1918      1917
 -1       951    1    0    1
 -2      2159      2160      2401      2400      1677      1678      1919      1918
 -1       952    1    0    1
 -2      2160      2161      2402      2401      1678      1679      1920      1919
 -1       953    1    0    1
 -2      2161      2162      2403      2402      1679      1680      1921      1920
 -1       954    1    0    1
 -2      2162      2163      2404      2403      1680      1681      1922      1921
 -1       955    1    0    1
 -2      2163      2164      2405      2404      1681      1682      1923      1922
 -1       956    1    0    1
 -2      2164      2165      2406      2405      1682      1683      1924      1923
 -1       957    1    0    1
 -2      2165      2166      2407      2406      1683      1684      1925      1924
 -1       958    1    0    1
 -2      2166      2167      2408      2407      1684      1685      1926      1925
 -1       959    1    0    1
 -2      2167      2168      2409      2408      1685      1686      1927      1926
 -1       960    1    0    1
 -2      2168      2169      2410      2409      1686      1687      1928      1927
 -3
    1PSTEP                         1           1           1          
    1PGM                1.000000E+00                                  
    1PGK                6.946942E+03                                  
    1PHID                         -1                                  
    1PSUBC                         0                                  
    1PMODE                         1                                  
  100CL  101 13.26529687        2410                     2    1MODAL      1
 -4  DISP        4    1
 -5  D1          1    2    1    0
 -5  D2          1    2    2    0
 -5  D3          1    2    3    0
 -5  ALL         1    2    0    0    1ALL
 -1         1 9.97383E-02 1.01399E+02 0.00000E+00
 -1         2 9.97383E-02 1.00818E+02 0.00000E+00
 -1         3 9.97382E-02 1.00236E+02 0.00000E+00
 -1         4 9.97380E-02 9.96538E+01 0.00000E+00
 -1         5 9.97376E-02 9.90720E+01 0.00000E+00
 -1         6 9.97370E-02 9.84902E+01 0.00000E+00
 -1         7 9.97360E-02 9.79084E+01 0.00000E+00
 -1         8 9.97346E-02 9.73266E+01 0.00000E+00
 -1         9 9.97328E-02 9.67448E+01 0.00000E+00
 -1        10 9.97305E-02 9.61630E+01 0.00000E+00
 -1        11 9.97276E-02 9.55813E+01 0.00000E+00
 -1        12 9.97241E-02 9.49995E+01 0.00000E+00
 -1        13 9.97199E-02 9.44178E+01 0.00000E+00
 -1        14 9.97150E-02 9.38361E+01 0.00000E+00
 -1        15 9.97092E-02 9.32544E+01 0.00000E+00
 -1        16 9.97026E-02 9.26728E+01 0.00000E+00
 -1        17 9.96950E-02 9.20912E+01 0.00000E+00
 -1        18 9.96864E-02 9.15096E+01 0.00000E+00
 -1        19 9.96768E-02 9.09281E+01 0.00000E+00
 -1        20 9.96661E-02 9.03467E+01 0.00000E+00
 -1        21 9.96542E-02 8.97653E+01 0.00000E+00
 -1        22 9.96411E-02 8.91841E+01 0.00000E+00
 -1        23 9.96267E-02 8.86028E+01 0.00000E+00
 -1        24 9.96110E-02 8.80217E+01 0.00000E+00
 -1        25 9.95939E-02 8.74407E+01 0.00000E+00
 -1        26 9.95753E-02 8.68598E+01 0.00000E+00
 -1        27 9.95553E-02 8.62789E+01 0.00000E+00
 -1        28 9.95336E-02 8.56982E+01 0.00000E+00
 -1        29 9.95104E-02 8.51177E+01 0.00000E+00
 -1        30 9.94855E-02 8.45373E+01 0.00000E+00
 -1        31 9.94588E-02 8.39570E+01 0.00000E+00
 -1        32 9.94304E-02 8.33769E+01 0.00000E+00
 -1        33 9.94002E-02 8.27970E+01 0.00000E+00
 -1        34 9.93680E-02 8.22172E+01 0.00000E+00
 -1        35 9.93339E-02 8.16376E+01 0.00000E+00
 -1        36 9.92979E-02 8.10583E+01 0.00000E+00
 -1        37 9.92598E-02 8.04791E+01 0.00000E+00
 -1        38 9.92196E-02 7.99002E+01 0.00000E+00
 -1        39 9.91772E-02 7.93215E+01 0.00000E+00
 -1        40 9.91327E-02 7.87431E+01 0.00000E+00
 -1        41 9.90859E-02 7.81650E+01 0.00000E+00
 -1        42 9.90368E-02 7.75871E+01 0.00000E+00
 -1        43 9.89853E-02 7.70095E+01 0.00000E+00
 -1        44 9.89315E-02 7.64323E+01 0.00000E+00
 -1        45 9.88752E-02 7.58553E+01 0.00000E+00
 -1        46 9.88164E-02 7.52787E+01 0.00000E+00
 -1        47 9.87551E-02 7.47024E+01 0.00000E+00
 -1        48 9.86912E-02 7.41265E+01 0.00000E+00
 -1        49 9.86246E-02 7.35510E+01 0.00000E+00
 -1        50 9.85554E-02 7.29759E+01 0.00000E+00
 -1        51 9.84834E-02 7.24012E+01 0.00000E+00
 -1        52 9.84087E-02 7.18269E+01 0.00000E+00
 -1        53 9.83311E-02 7.12530E+01 0.00000E+00
 -1        54 9.82507E-02 7.06797E+01 0.00000E+00
 -1        55 9.81673E-02 7.01068E+01 0.00000E+00
 -1        56 9.80810E-02 6.95344E+01 0.00000E+00
 -1        57 9.79916E-02 6.89625E+01 0.00000E+00
 -1        58 9.78993E-02 6.83911E+01 0.00000E+00
 -1        59 9.78038E-02 6.78203E+01 0.00000E+00
 -1        60 9.77052E-02 6.72500E+01 0.00000E+00
 -1        61 9.76034E-02 6.66804E+01 0.00000E+00
 -1        62 9.74984E-02 6.61113E+01 0.00000E+00
 -1        63 9.73901E-02 6.55429E+01 0.00000E+00
 -1        64 9.72785E-02 6.49751E+01 0.00000E+00
 -1        65 9.71635E-02 6.44079E+01 0.00000E+00
 -1        66 9.70452E-02 6.38415E+01 0.00000E+00
 -1        67 9.69234E-02 6.32757E+01 0.00000E+00
 -1        68 9.67982E-02 6.27107E+01 0.00000E+00
 -1        69 9.66694E-02 6.21464E+01 0.00000E+00
 -1        70 9.65371E-02 6.15828E+01 0.00000E+00
 -1        71 9.64012E-02 6.10201E+01 0.00000E+00
 -1        72 9.62617E-02 6.04581E+01 0.00000E+00
 -1        73 9.61185E-02 5.98970E+01 0.00000E+00
 -1        74 9.59715E-02 5.93368E+01 0.00000E+00
 -1        75 9.58209E-02 5.87773E+01 0.00000E+00
 -1        76 9.56664E-02 5.82188E+01 0.00000E+00
 -1        77 9.55081E-02 5.76612E+01 0.00000E+00
 -1        78 9.53460E-02 5.71045E+01 0.00000E+00
 -1        79 9.51800E-02 5.65488E+01 0.00000E+00
 -1        80 9.50100E-02 5.59941E+01 0.00000E+00
 -1        81 9.48361E-02 5.54403E+01 0.00000E+00
 -1        82 9.46581E-02 5.48876E+01 0.00000E+00
 -1        83 9.44761E-02 5.43360E+01 0.00000E+00
 -1        84 9.42901E-02 5.37854E+01 0.00000E+00
 -1        85 9.40999E-02 5.32359E+01 0.00000E+00
 -1        86 9.39056E-02 5.26876E+01 0.00000E+00
 -1        87 9.37071E-02 5.21403E+01 0.00000E+00
 -1        88 9.35044E-02 5.15943E+01 0.00000E+00
 -1        89 9.32975E-02 5.10494E+01 0.00000E+00
 -1        90 9.30863E-02 5.05058E+01 0.00000E+00
 -1        91 9.28707E-02 4.99634E+01 0.00000E+00
 -1        92 9.26509E-02 4.94223E+01 0.00000E+00
 -1        93 9.24266E-02 4.88825E+01 0.00000E+00
 -1        94 9.21979E-02 4.83440E+01 0.00000E+00
 -1        95 9.19648E-02 4.78068E+01 0.00000E+00
 -1        96 9.17273E-02 4.72710E+01 0.00000E+00
 -1        97 9.14852E-02 4.67366E+01 0.00000E+00
 -1        98 9.12386E-02 4.62037E+01 0.00000E+00
 -1        99 9.09875E-02 4.56722E+01 0.00000E+00
 -1       100 9.07318E-02 4.51421E+01 0.00000E+00
 -1       101 9.04714E-02 4.46136E+01 0.00000E+00
 -1       102 9.02064E-02 4.40866E+01 0.00000E+00
 -1       103 8.99368E-02 4.35612E+01 0.00000E+00
 -1       104 8.96624E-02 4.30374E+01 0.00000E+00
 -1       105 8.93833E-02 4.25151E+01 0.00000E+00
 -1       106 8.90995E-02 4.19945E+01 0.00000E+00
 -1       107 8.88108E-02 4.14756E+01 0.00000E+00
 -1       108 8.85174E-02 4.09584E+01 0.00000E+00
 -1       109 8.82191E-02 4.04429E+01 0.00000E+00
 -1       110 8.79160E-02 3.99292E+01 0.00000E+00
 -1       111 8.76079E-02 3.94172E+01 0.00000E+00
 -1       112 8.72950E-02 3.89070E+01 0.00000E+00
 -1       113 8.69771E-02 3.83987E+01 0.00000E+00
 -1       114 8.66542E-02 3.78923E+01 0.00000E+00
 -1       115 8.63264E-02 3.73878E+01 0.00000E+00
 -1       116 8.59936E-02 3.68852E+01 0.00000E+00
 -1       117 8.56557E-02 3.63845E+01 0.00000E+00
 -1       118 8.53128E-02 3.58858E+01 0.00000E+00
 -1       119 8.49647E-02 3.53892E+01 0.00000E+00
 -1       120 8.46116E-02 3.48946E+01 0.00000E+00
 -1       121 8.42533E-02 3.44020E+01 0.00000E+00
 -1       122 8.38899E-02 3.39116E+01 0.00000E+00
 -1       123 8.35213E-02 3.34233E+01 0.00000E+00
 -1       124 8.31476E-02 3.29372E+01 0.00000E+00
 -1       125 8.27686E-02 3.24532E+01 0.00000E+00
 -1       126 8.23844E-02 3.19715E+01 0.00000E+00
 -1       127 8.19949E-02 3.14921E+01 0.00000E+00
 -1       128 8.16002E-02 3.10149E+01 0.00000E+00
 -1       129 8.12001E-02 3.05400E+01 0.00000E+00
 -1       130 8.07947E-02 3.00676E+01 0.00000E+00
 -1       131 8.03841E-02 2.95974E+01 0.00000E+00
 -1       132 7.99680E-02 2.91297E+01 0.00000E+00
 -1       133 7.95466E-02 2.86645E+01 0.00000E+00
 -1       134 7.91197E-02 2.82017E+01 0.00000E+00
 -1       135 7.86875E-02 2.77414E+01 0.00000E+00
 -1       136 7.82499E-02 2.72836E+01 0.00000E+00
 -1       137 7.78067E-02 2.68285E+01 0.00000E+00
 -1       138 7.73582E-02 2.63759E+01 0.00000E+00
 -1       139 7.69041E-02 2.59259E+01 0.00000E+00
 -1       140 7.64446E-02 2.54787E+01 0.00000E+00
 -1       141 7.59795E-02 2.50341E+01 0.00000E+00
 -1       142 7.55090E-02 2.45922E+01 0.00000E+00
 -1       143 7.50329E-02 2.41531E+01 0.00000E+00
 -1       144 7.45512E-02 2.37168E+01 0.00000E+00
 -1       145 7.40639E-02 2.32834E+01 0.00000E+00
 -1       146 7.35711E-02 2.28527E+01 0.00000E+00
 -1       147 7.30726E-02 2.24250E+01 0.00000E+00
 -1       148 7.25685E-02 2.20002E+01 0.00000E+00
 -1       149 7.20588E-02 2.15784E+01 0.00000E+00
 -1       150 7.15435E-02 2.11595E+01 0.00000E+00
 -1       151 7.10224E-02 2.07437E+01 0.00000E+00
 -1       152 7.04957E-02 2.03309E+01 0.00000E+00
 -1       153 6.99634E-02 1.99212E+01 0.00000E+00
 -1       154 6.94253E-02 1.95147E+01 0.00000E+00
 -1       155 6.88815E-02 1.91113E+01 0.00000E+00
 -1       156 6.83319E-02 1.87111E+01 0.00000E+00
 -1       157 6.77767E-02 1.83141E+01 0.00000E+00
 -1       158 6.72157E-02 1.79203E+01 0.00000E+00
 -1       159 6.66489E-02 1.75299E+01 0.00000E+00
 -1       160 6.60763E-02 1.71428E+01 0.00000E+00
 -1       161 6.54981E-02 1.67590E+01 0.00000E+00
 -1       162 6.49138E-02 1.63786E+01 0.00000E+00
 -1       163 6.43240E-02 1.60016E+01 0.00000E+00
 -1       164 6.37282E-02 1.56281E+01 0.00000E+00
 -1       165 6.31266E-02 1.52581E+01 0.00000E+00
 -1       166 6.25192E-02 1.48917E+01 0.00000E+00
 -1       167 6.19059E-02 1.45288E+01 0.00000E+00
 -1       168 6.12868E-02 1.41694E+01 0.00000E+00
 -1       169 6.06618E-02 1.38137E+01 0.00000E+00
 -1       170 6.00310E-02 1.34617E+01 0.00000E+00
 -1       171 5.93943E-02 1.31134E+01 0.00000E+00
 -1       172 5.87516E-02 1.27688E+01 0.00000E+00
 -1       173 5.81031E-02 1.24279E+01 0.00000E+00
 -1       174 5.74487E-02 1.20909E+01 0.00000E+00
 -1       175 5.67884E-02 1.17577E+01 0.00000E+00
 -1       176 5.61221E-02 1.14284E+01 0.00000E+00
 -1       177 5.54498E-02 1.11029E+01 0.00000E+00
 -1       178 5.47718E-02 1.07814E+01 0.00000E+00
 -1       179 5.40877E-02 1.04639E+01 0.00000E+00
 -1       180 5.33976E-02 1.01504E+01 0.00000E+00
 -1       181 5.27016E-02 9.84096E+00 0.00000E+00
 -1       182 5.19998E-02 9.53557E+00 0.00000E+00
 -1       183 5.12918E-02 9.23430E+00 0.00000E+00
 -1       184 5.05779E-02 8.93717E+00 0.00000E+00
 -1       185 4.98580E-02 8.64422E+00 0.00000E+00
 -1       186 4.91322E-02 8.35549E+00 0.00000E+00
 -1       187 4.84003E-02 8.07102E+00 0.00000E+00
 -1       188 4.76624E-02 7.79083E+00 0.00000E+00
 -1       189 4.69187E-02 7.51496E+00 0.00000E+00
 -1       190 4.61687E-02 7.24344E+00 0.00000E+00
 -1       191 4.54128E-02 6.97632E+00 0.00000E+00
 -1       192 4.46510E-02 6.71362E+00 0.00000E+00
 -1       193 4.38830E-02 6.45539E+00 0.00000E+00
 -1       194 4.31091E-02 6.20166E+00 0.00000E+00
 -1       195 4.23291E-02 5.95246E+00 0.00000E+00
 -1       196 4.15431E-02 5.70782E+00 0.00000E+00
 -1       197 4.07511E-02 5.46779E+00 0.00000E+00
 -1       198 3.99529E-02 5.23240E+00 0.00000E+00
 -1       199 3.91489E-02 5.00168E+00 0.00000E+00
 -1       200 3.83387E-02 4.77567E+00 0.00000E+00
 -1       201 3.75225E-02 4.55440E+00 0.00000E+00
 -1       202 3.67001E-02 4.33791E+00 0.00000E+00
 -1       203 3.58719E-02 4.12624E+00 0.00000E+00
 -1       204 3.50373E-02 3.91941E+00 0.00000E+00
 -1       205 3.41970E-02 3.71747E+00 0.00000E+00
 -1       206 3.33504E-02 3.52045E+00 0.00000E+00
 -1       207 3.24978E-02 3.32839E+00 0.00000E+00
 -1       208 3.16392E-02 3.14131E+00 0.00000E+00
 -1       209 3.07744E-02 2.95927E+00 0.00000E+00
 -1       210 2.99037E-02 2.78229E+00 0.00000E+00
 -1       211 2.90268E-02 2.61040E+00 0.00000E+00
 -1       212 2.81438E-02 2.44365E+00 0.00000E+00
 -1       213 2.72548E-02 2.28206E+00 0.00000E+00
 -1       214 2.63596E-02 2.12568E+00 0.00000E+00
 -1       215 2.54585E-02 1.97454E+00 0.00000E+00
 -1       216 2.45513E-02 1.82868E+00 0.00000E+00
 -1       217 2.36377E-02 1.68812E+00 0.00000E+00
 -1       218 2.27185E-02 1.55291E+00 0.00000E+00
 -1       219 2.17928E-02 1.42308E+00 0.00000E+00
 -1       220 2.08612E-02 1.29867E+00 0.00000E+00
 -1       221 1.99235E-02 1.17971E+00 0.00000E+00
 -1       222 1.89798E-02 1.06624E+00 0.00000E+00
 -1       223 1.80298E-02 9.58289E-01 0.00000E+00
 -1       224 1.70739E-02 8.55899E-01 0.00000E+00
 -1       225 1.61117E-02 7.59105E-01 0.00000E+00
 -1       226 1.51437E-02 6.67940E-01 0.00000E+00
 -1       227 1.41693E-02 5.82440E-01 0.00000E+00
 -1       228 1.31891E-02 5.02642E-01 0.00000E+00
 -1       229 1.22026E-02 4.28580E-01 0.00000E+00
 -1       230 1.12103E-02 3.60290E-01 0.00000E+00
 -1       231 1.02112E-02 2.97807E-01 0.00000E+00
 -1       232 9.20704E-03 2.41168E-01 0.00000E+00
 -1       233 8.19564E-03 1.90408E-01 0.00000E+00
 -1       234 7.17952E-03 1.45562E-01 0.00000E+00
 -1       235 6.15553E-03 1.06666E-01 0.00000E+00
 -1       236 5.12759E-03 7.37552E-02 0.00000E+00
 -1       237 4.09152E-03 4.68644E-02 0.00000E+00
 -1       238 3.04946E-03 2.60361E-02 0.00000E+00
 -1       239 2.01011E-03 1.12740E-02 0.00000E+00
 -1       240 9.20973E-04 2.73760E-03 0.00000E+00
 -1       241 0.00000E+00 0.00000E+00 0.00000E+00
 -1       242 9.97383E-02 1.01399E+02 0.00000E+00
 -1       243 9.97383E-02 1.00818E+02 0.00000E+00
 -1       244 9.97382E-02 1.00236E+02 0.00000E+00
 -1       245 9.97380E-02 9.96538E+01 0.00000E+00
 -1       246 9.97376E-02 9.90720E+01 0.00000E+00
 -1       247 9.97370E-02 9.84902E+01 0.00000E+00
 -1       248 9.97360E-02 9.79084E+01 0.00000E+00
 -1       249 9.97346E-02 9.73266E+01 0.00000E+00
 -1       250 9.97328E-02 9.67448E+01 0.00000E+00
 -1       251 9.97305E-02 9.61630E+01 0.00000E+00
 -1       252 9.97276E-02 9.55813E+01 0.00000E+00
 -1       253 9.97241E-02 9.49995E+01 0.00000E+00
 -1       254 9.97199E-02 9.44178E+01 0.00000E+00
 -1       255 9.97150E-02 9.38361E+01 0.00000E+00
 -1       256 9.97092E-02 9.32544E+01 0.00000E+00
 -1       257 9.97026E-02 9.26728E+01 0.00000E+00
 -1       258 9.96950E-02 9.20912E+01 0.00000E+00
 -1       259 9.96864E-02 9.15096E+01 0.00000E+00
 -1       260 9.96768E-02 9.09281E+01 0.00000E+00
 -1       261 9.96661E-02 9.03467E+01 0.00000E+00
 -1       262 9.96542E-02 8.97653E+01 0.00000E+00
 -1       263 9.96411E-02 8.91841E+01 0.00000E+00
 -1       264 9.96267E-02 8.86028E+01 0.00000E+00
 -1       265 9.96110E-02 8.80217E+01 0.00000E+00
 -1       266 9.95939E-02 8.74407E+01 0.00000E+00
 -1       267 9.95753E-02 8.68598E+01 0.00000E+00
 -1       268 9.95553E-02 8.62789E+01 0.00000E+00
 -1       269 9.95336E-02 8.56982E+01 0.00000E+00
 -1       270 9.95104E-02 8.51177E+01 0.00000E+00
 -1       271 9.94855E-02 8.45373E+01 0.00000E+00
 -1       272 9.94588E-02 8.39570E+01 0.00000E+00
 -1       273 9.94304E-02 8.33769E+01 0.00000E+00
 -1       274 9.94002E-02 8.27970E+01 0.00000E+00
 -1       275 9.93680E-02 8.22172E+01 0.00000E+00
 -1       276 9.93339E-02 8.16376E+01 0.00000E+00
 -1       277 9.92979E-02 8.10583E+01 0.00000E+00
 -1       278 9.92598E-02 8.04791E+01 0.00000E+00
 -1       279 9.92196E-02 7.99002E+01 0.00000E+00
 -1       280 9.91772E-02 7.93215E+01 0.00000E+00
 -1       281 9.91326E-02 7.87431E+01 0.00000E+00
 -1       282 9.90859E-02 7.81650E+01 0.00000E+00
 -1       283 9.90368E-02 7.75871E+01 0.00000E+00
 -1       284 9.89853E-02 7.70095E+01 0.00000E+00
 -1       285 9.89315E-02 7.64323E+01 0.00000E+00
 -1       286 9.88752E-02 7.58553E+01 0.00000E+00
 -1       287 9.88164E-02 7.52787E+01 0.00000E+00
 -1       288 9.87551E-02 7.47024E+01 0.00000E+00
 -1       289 9.86912E-02 7.41265E+01 0.00000E+00
 -1       290 9.86246E-02 7.35510E+01 0.00000E+00
 -1       291 9.85554E-02 7.29759E+01 0.00000E+00
 -1       292 9.84834E-02 7.24012E+01 0.00000E+00
 -1       293 9.84087E-02 7.18269E+01 0.00000E+00
 -1       294 9.83311E-02 7.12530E+01 0.00000E+00
 -1       295 9.82507E-02 7.06797E+01 0.00000E+00
 -1       296 9.81673E-02 7.01068E+01 0.00000E+00
 -1       297 9.80810E-02 6.95344E+01 0.00000E+00
 -1       298 9.79916E-02 6.89625E+01 0.00000E+00
 -1       299 9.78993E-02 6.83911E+01 0.00000E+00
 -1       300 9.78038E-02 6.78203E+01 0.00000E+00
 -1       301 9.77052E-02 6.72500E+01 0.00000E+00
 -1       302 9.76034E-02 6.66804E+01 0.00000E+00
 -1       303 9.74984E-02 6.61113E+01 0.00000E+00
 -1       304 9.73901E-02 6.55429E+01 0.00000E+00
 -1       305 9.72785E-02 6.49751E+01 0.00000E+00
 -1       306 9.71635E-02 6.44079E+01 0.00000E+00
 -1       307 9.70452E-02 6.38415E+01 0.00000E+00
 -1       308 9.69234E-02 6.32757E+01 0.00000E+00
 -1       309 9.67982E-02 6.27107E+01 0.00000E+00
 -1       310 9.66694E-02 6.21464E+01 0.00000E+00
 -1       311 9.65371E-02 6.15828E+01 0.00000E+00
 -1       312 9.64012E-02 6.10201E+01 0.00000E+00
 -1       313 9.62617E-02 6.04581E+01 0.00000E+00
 -1       314 9.61185E-02 5.98970E+01 0.00000E+00
 -1       315 9.59716E-02 5.93368E+01 0.00000E+00
 -1       316 9.58209E-02 5.87773E+01 0.00000E+00
 -1       317 9.56664E-02 5.82188E+01 0.00000E+00
 -1       318 9.55081E-02 5.76612E+01 0.00000E+00
 -1       319 9.53460E-02 5.71045E+01 0.00000E+00
 -1       320 9.51800E-02 5.65488E+01 0.00000E+00
 -1       321 9.50100E-02 5.59941E+01 0.00000E+00
 -1       322 9.48361E-02 5.54403E+01 0.00000E+00
 -1       323 9.46581E-02 5.48876E+01 0.00000E+00
 -1       324 9.44761E-02 5.43360E+01 0.00000E+00
 -1       325 9.42901E-02 5.37854E+01 0.00000E+00
 -1       326 9.40999E-02 5.32359E+01 0.00000E+00
 -1       327 9.39056E-02 5.26876E+01 0.00000E+00
 -1       328 9.37071E-02 5.21403E+01 0.00000E+00
 -1       329 9.35044E-02 5.15943E+01 0.00000E+00
 -1       330 9.32975E-02 5.10494E+01 0.00000E+00
 -1       331 9.30863E-02 5.05058E+01 0.00000E+00
 -1       332 9.28707E-02 4.99634E+01 0.00000E+00
 -1       333 9.26509E-02 4.94223E+01 0.00000E+00
 -1       334 9.24266E-02 4.88825E+01 0.00000E+00
 -1       335 9.21979E-02 4.83440E+01 0.00000E+00
 -1       336 9.19648E-02 4.78068E+01 0.00000E+00
 -1       337 9.17273E-02 4.72710E+01 0.00000E+00
 -1       338 9.14852E-02 4.67366E+01 0.00000E+00
 -1       339 9.12386E-02 4.62037E+01 0.00000E+00
 -1       340 9.09875E-02 4.56722E+01 0.00000E+00
 -1       341 9.07318E-02 4.51421E+01 0.00000E+00
 -1       342 9.04714E-02 4.46136E+01 0.00000E+00
 -1       343 9.02064E-02 4.40866E+01 0.00000E+00
 -1       344 8.99368E-02 4.35612E+01 0.00000E+00
 -1       345 8.96624E-02 4.30374E+01 0.00000E+00
 -1       346 8.93833E-02 4.25151E+01 0.00000E+00
 -1       347 8.90995E-02 4.19945E+01 0.00000E+00
 -1       348 8.88108E-02 4.14756E+01 0.00000E+00
 -1       349 8.85174E-02 4.09584E+01 0.00000E+00
 -1       350 8.82191E-02 4.04429E+01 0.00000E+00
 -1       351 8.79160E-02 3.99292E+01 0.00000E+00
 -1       352 8.76079E-02 3.94172E+01 0.00000E+00
 -1       353 8.72950E-02 3.89070E+01 0.00000E+00
 -1       354 8.69771E-02 3.83987E+01 0.00000E+00
 -1       355 8.66542E-02 3.78923E+01 0.00000E+00
 -1       356 8.63264E-02 3.73878E+01 0.00000E+00
 -1       357 8.59936E-02 3.68852E+01 0.00000E+00
 -1       358 8.56557E-02 3.63845E+01 0.00000E+00
 -1       359 8.53128E-02 3.58858E+01 0.00000E+00
 -1       360 8.49647E-02 3.53892E+01 0.00000E+00
 -1       361 8.46116E-02 3.48946E+01 0.00000E+00
 -1       362 8.42533E-02 3.44020E+01 0.00000E+00
 -1       363 8.38899E-02 3.39116E+01 0.00000E+00
 -1       364 8.35213E-02 3.34233E+01 0.00000E+00
 -1       365 8.31476E-02 3.29372E+01 0.00000E+00
 -1       366 8.27686E-02 3.24532E+01 0.00000E+00
 -1       367 8.23844E-02 3.19715E+01 0.00000E+00
 -1       368 8.19949E-02 3.14921E+01 0.00000E+00
 -1       369 8.16002E-02 3.10149E+01 0.00000E+00
 -1       370 8.12001E-02 3.05400E+01 0.00000E+00
 -1       371 8.07947E-02 3.00676E+01 0.00000E+00
 -1       372 8.03840E-02 2.95974E+01 0.00000E+00
 -1       373 7.99680E-02 2.91297E+01 0.00000E+00
 -1       374 7.95466E-02 2.86645E+01 0.00000E+00
 -1       375 7.91197E-02 2.82017E+01 0.00000E+00
 -1       376 7.86875E-02 2.77414E+01 0.00000E+00
 -1       377 7.82499E-02 2.72836E+01 0.00000E+00
 -1       378 7.78067E-02 2.68285E+01 0.00000E+00
 -1       379 7.73582E-02 2.63759E+01 0.00000E+00
 -1       380 7.69041E-02 2.59259E+01 0.00000E+00
 -1       381 7.64446E-02 2.54787E+01 0.00000E+00
 -1       382 7.59795E-02 2.50341E+01 0.00000E+00
 -1       383 7.55090E-02 2.45922E+01 0.00000E+00
 -1       384 7.50329E-02 2.41531E+01 0.00000E+00
 -1       385 7.45512E-02 2.37168E+01 0.00000E+00
 -1       386 7.40639E-02 2.32834E+01 0.00000E+00
 -1       387 7.35711E-02 2.28527E+01 0.00000E+00
 -1       388 7.30726E-02 2.24250E+01 0.00000E+00
 -1       389 7.25685E-02 2.20002E+01 0.00000E+00
 -1       390 7.20588E-02 2.15784E+01 0.00000E+00
 -1       391 7.15435E-02 2.11595E+01 0.00000E+00
 -1       392 7.10224E-02 2.07437E+01 0.00000E+00
 -1       393 7.04957E-02 2.03309E+01 0.00000E+00
 -1       394 6.99634E-02 1.99212E+01 0.00000E+00
 -1       395 6.94253E-02 1.95147E+01 0.00000E+00
 -1       396 6.88815E-02 1.91113E+01 0.00000E+00
 -1       397 6.83319E-02 1.87111E+01 0.00000E+00
 -1       398 6.77767E-02 1.83141E+01 0.00000E+00
 -1       399 6.72157E-02 1.79203E+01 0.00000E+00
 -1       400 6.66489E-02 1.75299E+01 0.00000E+00
 -1       401 6.60763E-02 1.71428E+01 0.00000E+00
 -1       402 6.54981E-02 1.67590E+01 0.00000E+00
 -1       403 6.49138E-02 1.63786E+01 0.00000E+00
 -1       404 6.43240E-02 1.60016E+01 0.00000E+00
 -1       405 6.37282E-02 1.56281E+01 0.00000E+00
 -1       406 6.31266E-02 1.52581E+01 0.00000E+00
 -1       407 6.25192E-02 1.48917E+01 0.00000E+00
 -1       408 6.19059E-02 1.45288E+01 0.00000E+00
 -1       409 6.12868E-02 1.41694E+01 0.00000E+00
 -1       410 6.06618E-02 1.38137E+01 0.00000E+00
 -1       411 6.00310E-02 1.34617E+01 0.00000E+00
 -1       412 5.93943E-02 1.31134E+01 0.00000E+00
 -1       413 5.87516E-02 1.27688E+01 0.00000E+00
 -1       414 5.81031E-02 1.24279E+01 0.00000E+00
 -1       415 5.74487E-02 1.20909E+01 0.00000E+00
 -1       416 5.67884E-02 1.17577E+01 0.00000E+00
 -1       417 5.61221E-02 1.14284E+01 0.00000E+00
 -1       418 5.54498E-02 1.11029E+01 0.00000E+00
 -1       419 5.47718E-02 1.07814E+01 0.00000E+00
 -1       420 5.40877E-02 1.04639E+01 0.00000E+00
 -1       421 5.33976E-02 1.01504E+01 0.00000E+00
 -1       422 5.27016E-02 9.84096E+00 0.00000E+00
 -1       423 5.19998E-02 9.53557E+00 0.00000E+00
 -1       424 5.12918E-02 9.23430E+00 0.00000E+00
 -1       425 5.05779E-02 8.93717E+00 0.00000E+00
 -1       426 4.98580E-02 8.64422E+00 0.00000E+00
 -1       427 4.91322E-02 8.35549E+00 0.00000E+00
 -1       428 4.84003E-02 8.07102E+00 0.00000E+00
 -1       429 4.76624E-02 7.79083E+00 0.00000E+00
 -1       430 4.69187E-02 7.51496E+00 0.00000E+00
 -1       431 4.61687E-02 7.24344E+00 0.00000E+00
 -1       432 4.54128E-02 6.97632E+00 0.00000E+00
 -1       433 4.46510E-02 6.71362E+00 0.00000E+00
 -1       434 4.38830E-02 6.45539E+00 0.00000E+00
 -1       435 4.31091E-02 6.20166E+00 0.00000E+00
 -1       436 4.23291E-02 5.95246E+00 0.00000E+00
 -1       437 4.15431E-02 5.70782E+00 0.00000E+00
 -1       438 4.07511E-02 5.46779E+00 0.00000E+00
 -1       439 3.99529E-02 5.23240E+00 0.00000E+00
 -1       440 3.91489E-02 5.00168E+00 0.00000E+00
 -1       441 3.83387E-02 4.77567E+00 0.00000E+00
 -1       442 3.75225E-02 4.55440E+00 0.00000E+00
 -1       443 3.67001E-02 4.33791E+00 0.00000E+00
 -1       444 3.58719E-02 4.12624E+00 0.00000E+00
 -1       445 3.50373E-02 3.91941E+00 0.00000E+00
 -1       446 3.41970E-02 3.71747E+00 0.00000E+00
 -1       447 3.33504E-02 3.52045E+00 0.00000E+00
 -1       448 3.24978E-02 3.32839E+00 0.00000E+00
 -1       449 3.16392E-02 3.14131E+00 0.00000E+00
 -1       450 3.07744E-02 2.95927E+00 0.00000E+00
 -1       451 2.99037E-02 2.78229E+00 0.00000E+00
 -1       452 2.90268E-02 2.61040E+00 0.00000E+00
 -1       453 2.81438E-02 2.44365E+00 0.00000E+00
 -1       454 2.72548E-02 2.28206E+00 0.00000E+00
 -1       455 2.63596E-02 2.12568E+00 0.00000E+00
 -1       456 2.54585E-02 1.97454E+00 0.00000E+00
 -1       457 2.45513E-02 1.82868E+00 0.00000E+00
 -1       458 2.36377E-02 1.68812E+00 0.00000E+00
 -1       459 2.27185E-02 1.55291E+00 0.00000E+00
 -1       460 2.17928E-02 1.42308E+00 0.00000E+00
 -1       461 2.08612E-02 1.29867E+00 0.00000E+00
 -1       462 1.99235E-02 1.17971E+00 0.00000E+00
 -1       463 1.89798E-02 1.06624E+00 0.00000E+00
 -1       464 1.80298E-02 9.58289E-01 0.00000E+00
 -1       465 1.70739E-02 8.55899E-01 0.00000E+00
 -1       466 1.61117E-02 7.59105E-01 0.00000E+00
 -1       467 1.51437E-02 6.67940E-01 0.00000E+00
 -1       468 1.41693E-02 5.82440E-01 0.00000E+00
 -1       469 1.31891E-02 5.02642E-01 0.00000E+00
 -1       470 1.22026E-02 4.28580E-01 0.00000E+00
 -1       471 1.12103E-02 3.60290E-01 0.00000E+00
 -1       472 1.02112E-02 2.97807E-01 0.00000E+00
 -1       473 9.20704E-03 2.41168E-01 0.00000E+00
 -1       474 8.19564E-03 1.90408E-01 0.00000E+00
 -1       475 7.17952E-03 1.45562E-01 0.00000E+00
 -1       476 6.15553E-03 1.06666E-01 0.00000E+00
 -1       477 5.12759E-03 7.37552E-02 0.00000E+00
 -1       478 4.09152E-03 4.68644E-02 0.00000E+00
 -1       479 3.04946E-03 2.60361E-02 0.00000E+00
 -1       480 2.01011E-03 1.12740E-02 0.00000E+00
 -1       481 9.20973E-04 2.73760E-03 0.00000E+00
 -1       482 0.00000E+00 0.00000E+00 0.00000E+00
 -1       483 4.98749E-02 1.01399E+02 0.00000E+00
 -1       484 4.98749E-02 1.00818E+02 0.00000E+00
 -1       485 4.98749E-02 1.00236E+02 0.00000E+00
 -1       486 4.98748E-02 9.96539E+01 0.00000E+00
 -1       487 4.98746E-02 9.90720E+01 0.00000E+00
 -1       488 4.98743E-02 9.84902E+01 0.00000E+00
 -1       489 4.98738E-02 9.79084E+01 0.00000E+00
 -1       490 4.98731E-02 9.73266E+01 0.00000E+00
 -1       491 4.98722E-02 9.67448E+01 0.00000E+00
 -1       492 4.98710E-02 9.61630E+01 0.00000E+00
 -1       493 4.98696E-02 9.55813E+01 0.00000E+00
 -1       494 4.98678E-02 9.49996E+01 0.00000E+00
 -1       495 4.98657E-02 9.44178E+01 0.00000E+00
 -1       496 4.98633E-02 9.38361E+01 0.00000E+00
 -1       497 4.98604E-02 9.32544E+01 0.00000E+00
 -1       498 4.98571E-02 9.26728E+01 0.00000E+00
 -1       499 4.98533E-02 9.20913E+01 0.00000E+00
 -1       500 4.98490E-02 9.15097E+01 0.00000E+00
 -1       501 4.98442E-02 9.09282E+01 0.00000E+00
 -1       502 4.98388E-02 9.03468E+01 0.00000E+00
 -1       503 4.98329E-02 8.97654E+01 0.00000E+00
 -1       504 4.98263E-02 8.91842E+01 0.00000E+00
 -1       505 4.98191E-02 8.86029E+01 0.00000E+00
 -1       506 4.98113E-02 8.80218E+01 0.00000E+00
 -1       507 4.98027E-02 8.74408E+01 0.00000E+00
 -1       508 4.97934E-02 8.68599E+01 0.00000E+00
 -1       509 4.97834E-02 8.62790E+01 0.00000E+00
 -1       510 4.97726E-02 8.56984E+01 0.00000E+00
 -1       511 4.97610E-02 8.51178E+01 0.00000E+00
 -1       512 4.97485E-02 8.45374E+01 0.00000E+00
 -1       513 4.97352E-02 8.39571E+01 0.00000E+00
 -1       514 4.97210E-02 8.33770E+01 0.00000E+00
 -1       515 4.97058E-02 8.27971E+01 0.00000E+00
 -1       516 4.96898E-02 8.22173E+01 0.00000E+00
 -1       517 4.96727E-02 8.16378E+01 0.00000E+00
 -1       518 4.96547E-02 8.10584E+01 0.00000E+00
 -1       519 4.96356E-02 8.04793E+01 0.00000E+00
 -1       520 4.96155E-02 7.99004E+01 0.00000E+00
 -1       521 4.95944E-02 7.93217E+01 0.00000E+00
 -1       522 4.95721E-02 7.87433E+01 0.00000E+00
 -1       523 4.95487E-02 7.81651E+01 0.00000E+00
 -1       524 4.95241E-02 7.75873E+01 0.00000E+00
 -1       525 4.94984E-02 7.70097E+01 0.00000E+00
 -1       526 4.94715E-02 7.64324E+01 0.00000E+00
 -1       527 4.94433E-02 7.58555E+01 0.00000E+00
 -1       528 4.94139E-02 7.52789E+01 0.00000E+00
 -1       529 4.93833E-02 7.47026E+01 0.00000E+00
 -1       530 4.93513E-02 7.41267E+01 0.00000E+00
 -1       531 4.93180E-02 7.35512E+01 0.00000E+00
 -1       532 4.92834E-02 7.29761E+01 0.00000E+00
 -1       533 4.92474E-02 7.24014E+01 0.00000E+00
 -1       534 4.92100E-02 7.18271E+01 0.00000E+00
 -1       535 4.91713E-02 7.12532E+01 0.00000E+00
 -1       536 4.91310E-02 7.06799E+01 0.00000E+00
 -1       537 4.90893E-02 7.01070E+01 0.00000E+00
 -1       538 4.90462E-02 6.95346E+01 0.00000E+00
 -1       539 4.90015E-02 6.89627E+01 0.00000E+00
 -1       540 4.89553E-02 6.83913E+01 0.00000E+00
 -1       541 4.89076E-02 6.78205E+01 0.00000E+00
 -1       542 4.88583E-02 6.72503E+01 0.00000E+00
 -1       543 4.88074E-02 6.66806E+01 0.00000E+00
 -1       544 4.87548E-02 6.61115E+01 0.00000E+00
 -1       545 4.87007E-02 6.55431E+01 0.00000E+00
 -1       546 4.86449E-02 6.49753E+01 0.00000E+00
 -1       547 4.85874E-02 6.44082E+01 0.00000E+00
 -1       548 4.85282E-02 6.38417E+01 0.00000E+00
 -1       549 4.84673E-02 6.32760E+01 0.00000E+00
 -1       550 4.84047E-02 6.27109E+01 0.00000E+00
 -1       551 4.83403E-02 6.21466E+01 0.00000E+00
 -1       552 4.82742E-02 6.15831E+01 0.00000E+00
 -1       553 4.82062E-02 6.10203E+01 0.00000E+00
 -1       554 4.81364E-02 6.04584E+01 0.00000E+00
 -1       555 4.80648E-02 5.98973E+01 0.00000E+00
 -1       556 4.79914E-02 5.93370E+01 0.00000E+00
 -1       557 4.79160E-02 5.87776E+01 0.00000E+00
 -1       558 4.78388E-02 5.82191E+01 0.00000E+00
 -1       559 4.77596E-02 5.76615E+01 0.00000E+00
 -1       560 4.76786E-02 5.71048E+01 0.00000E+00
 -1       561 4.75955E-02 5.65491E+01 0.00000E+00
 -1       562 4.75105E-02 5.59944E+01 0.00000E+00
 -1       563 4.74236E-02 5.54406E+01 0.00000E+00
 -1       564 4.73346E-02 5.48879E+01 0.00000E+00
 -1       565 4.72436E-02 5.43363E+01 0.00000E+00
 -1       566 4.71505E-02 5.37857E+01 0.00000E+00
 -1       567 4.70555E-02 5.32362E+01 0.00000E+00
 -1       568 4.69583E-02 5.26879E+01 0.00000E+00
 -1       569 4.68590E-02 5.21406E+01 0.00000E+00
 -1       570 4.67577E-02 5.15946E+01 0.00000E+00
 -1       571 4.66542E-02 5.10498E+01 0.00000E+00
 -1       572 4.65486E-02 5.05061E+01 0.00000E+00
 -1       573 4.64408E-02 4.99637E+01 0.00000E+00
 -1       574 4.63309E-02 4.94226E+01 0.00000E+00
 -1       575 4.62187E-02 4.88828E+01 0.00000E+00
 -1       576 4.61044E-02 4.83443E+01 0.00000E+00
 -1       577 4.59878E-02 4.78071E+01 0.00000E+00
 -1       578 4.58690E-02 4.72714E+01 0.00000E+00
 -1       579 4.57480E-02 4.67370E+01 0.00000E+00
 -1       580 4.56247E-02 4.62040E+01 0.00000E+00
 -1       581 4.54991E-02 4.56725E+01 0.00000E+00
 -1       582 4.53712E-02 4.51425E+01 0.00000E+00
 -1       583 4.52410E-02 4.46140E+01 0.00000E+00
 -1       584 4.51085E-02 4.40870E+01 0.00000E+00
 -1       585 4.49737E-02 4.35615E+01 0.00000E+00
 -1       586 4.48365E-02 4.30377E+01 0.00000E+00
 -1       587 4.46969E-02 4.25155E+01 0.00000E+00
 -1       588 4.45550E-02 4.19949E+01 0.00000E+00
 -1       589 4.44106E-02 4.14760E+01 0.00000E+00
 -1       590 4.42639E-02 4.09587E+01 0.00000E+00
 -1       591 4.41147E-02 4.04433E+01 0.00000E+00
 -1       592 4.39632E-02 3.99295E+01 0.00000E+00
 -1       593 4.38091E-02 3.94176E+01 0.00000E+00
 -1       594 4.36526E-02 3.89074E+01 0.00000E+00
 -1       595 4.34937E-02 3.83991E+01 0.00000E+00
 -1       596 4.33322E-02 3.78927E+01 0.00000E+00
 -1       597 4.31683E-02 3.73881E+01 0.00000E+00
 -1       598 4.30019E-02 3.68855E+01 0.00000E+00
 -1       599 4.28329E-02 3.63849E+01 0.00000E+00
 -1       600 4.26614E-02 3.58862E+01 0.00000E+00
 -1       601 4.24874E-02 3.53895E+01 0.00000E+00
 -1       602 4.23108E-02 3.48949E+01 0.00000E+00
 -1       603 4.21317E-02 3.44024E+01 0.00000E+00
 -1       604 4.19499E-02 3.39120E+01 0.00000E+00
 -1       605 4.17657E-02 3.34237E+01 0.00000E+00
 -1       606 4.15787E-02 3.29375E+01 0.00000E+00
 -1       607 4.13892E-02 3.24536E+01 0.00000E+00
 -1       608 4.11971E-02 3.19719E+01 0.00000E+00
 -1       609 4.10023E-02 3.14924E+01 0.00000E+00
 -1       610 4.08050E-02 3.10153E+01 0.00000E+00
 -1       611 4.06049E-02 3.05404E+01 0.00000E+00
 -1       612 4.04022E-02 3.00679E+01 0.00000E+00
 -1       613 4.01968E-02 2.95978E+01 0.00000E+00
 -1       614 3.99888E-02 2.91301E+01 0.00000E+00
 -1       615 3.97781E-02 2.86649E+01 0.00000E+00
 -1       616 3.95646E-02 2.82021E+01 0.00000E+00
 -1       617 3.93485E-02 2.77418E+01 0.00000E+00
 -1       618 3.91296E-02 2.72840E+01 0.00000E+00
 -1       619 3.89081E-02 2.68289E+01 0.00000E+00
 -1       620 3.86838E-02 2.63763E+01 0.00000E+00
 -1       621 3.84567E-02 2.59263E+01 0.00000E+00
 -1       622 3.82269E-02 2.54791E+01 0.00000E+00
 -1       623 3.79944E-02 2.50345E+01 0.00000E+00
 -1       624 3.77591E-02 2.45926E+01 0.00000E+00
 -1       625 3.75210E-02 2.41535E+01 0.00000E+00
 -1       626 3.72801E-02 2.37172E+01 0.00000E+00
 -1       627 3.70365E-02 2.32838E+01 0.00000E+00
 -1       628 3.67900E-02 2.28531E+01 0.00000E+00
 -1       629 3.65408E-02 2.24254E+01 0.00000E+00
 -1       630 3.62887E-02 2.20006E+01 0.00000E+00
 -1       631 3.60338E-02 2.15788E+01 0.00000E+00
 -1       632 3.57761E-02 2.11599E+01 0.00000E+00
 -1       633 3.55156E-02 2.07441E+01 0.00000E+00
 -1       634 3.52522E-02 2.03313E+01 0.00000E+00
 -1       635 3.49860E-02 1.99216E+01 0.00000E+00
 -1       636 3.47169E-02 1.95151E+01 0.00000E+00
 -1       637 3.44450E-02 1.91117E+01 0.00000E+00
 -1       638 3.41702E-02 1.87115E+01 0.00000E+00
 -1       639 3.38925E-02 1.83145E+01 0.00000E+00
 -1       640 3.36120E-02 1.79207E+01 0.00000E+00
 -1       641 3.33286E-02 1.75303E+01 0.00000E+00
 -1       642 3.30423E-02 1.71431E+01 0.00000E+00
 -1       643 3.27531E-02 1.67594E+01 0.00000E+00
 -1       644 3.24610E-02 1.63790E+01 0.00000E+00
 -1       645 3.21660E-02 1.60020E+01 0.00000E+00
 -1       646 3.18681E-02 1.56285E+01 0.00000E+00
 -1       647 3.15673E-02 1.52585E+01 0.00000E+00
 -1       648 3.12635E-02 1.48920E+01 0.00000E+00
 -1       649 3.09569E-02 1.45291E+01 0.00000E+00
 -1       650 3.06473E-02 1.41698E+01 0.00000E+00
 -1       651 3.03348E-02 1.38141E+01 0.00000E+00
 -1       652 3.00193E-02 1.34621E+01 0.00000E+00
 -1       653 2.97009E-02 1.31137E+01 0.00000E+00
 -1       654 2.93796E-02 1.27691E+01 0.00000E+00
 -1       655 2.90553E-02 1.24283E+01 0.00000E+00
 -1       656 2.87280E-02 1.20913E+01 0.00000E+00
 -1       657 2.83979E-02 1.17581E+01 0.00000E+00
 -1       658 2.80646E-02 1.14287E+01 0.00000E+00
 -1       659 2.77285E-02 1.11033E+01 0.00000E+00
 -1       660 2.73894E-02 1.07818E+01 0.00000E+00
 -1       661 2.70474E-02 1.04643E+01 0.00000E+00
 -1       662 2.67023E-02 1.01508E+01 0.00000E+00
 -1       663 2.63543E-02 9.84130E+00 0.00000E+00
 -1       664 2.60033E-02 9.53591E+00 0.00000E+00
 -1       665 2.56493E-02 9.23464E+00 0.00000E+00
 -1       666 2.52923E-02 8.93750E+00 0.00000E+00
 -1       667 2.49323E-02 8.64455E+00 0.00000E+00
 -1       668 2.45694E-02 8.35582E+00 0.00000E+00
 -1       669 2.42034E-02 8.07133E+00 0.00000E+00
 -1       670 2.38344E-02 7.79115E+00 0.00000E+00
 -1       671 2.34625E-02 7.51527E+00 0.00000E+00
 -1       672 2.30875E-02 7.24375E+00 0.00000E+00
 -1       673 2.27095E-02 6.97663E+00 0.00000E+00
 -1       674 2.23285E-02 6.71393E+00 0.00000E+00
 -1       675 2.19445E-02 6.45570E+00 0.00000E+00
 -1       676 2.15575E-02 6.20196E+00 0.00000E+00
 -1       677 2.11675E-02 5.95275E+00 0.00000E+00
 -1       678 2.07744E-02 5.70811E+00 0.00000E+00
 -1       679 2.03784E-02 5.46807E+00 0.00000E+00
 -1       680 1.99793E-02 5.23268E+00 0.00000E+00
 -1       681 1.95772E-02 5.00195E+00 0.00000E+00
 -1       682 1.91721E-02 4.77593E+00 0.00000E+00
 -1       683 1.87639E-02 4.55466E+00 0.00000E+00
 -1       684 1.83527E-02 4.33816E+00 0.00000E+00
 -1       685 1.79385E-02 4.12648E+00 0.00000E+00
 -1       686 1.75213E-02 3.91966E+00 0.00000E+00
 -1       687 1.71010E-02 3.71771E+00 0.00000E+00
 -1       688 1.66777E-02 3.52068E+00 0.00000E+00
 -1       689 1.62514E-02 3.32861E+00 0.00000E+00
 -1       690 1.58220E-02 3.14153E+00 0.00000E+00
 -1       691 1.53896E-02 2.95949E+00 0.00000E+00
 -1       692 1.49541E-02 2.78250E+00 0.00000E+00
 -1       693 1.45157E-02 2.61060E+00 0.00000E+00
 -1       694 1.40741E-02 2.44384E+00 0.00000E+00
 -1       695 1.36296E-02 2.28225E+00 0.00000E+00
 -1       696 1.31819E-02 2.12587E+00 0.00000E+00
 -1       697 1.27313E-02 1.97472E+00 0.00000E+00
 -1       698 1.22776E-02 1.82885E+00 0.00000E+00
 -1       699 1.18209E-02 1.68828E+00 0.00000E+00
 -1       700 1.13612E-02 1.55306E+00 0.00000E+00
 -1       701 1.08983E-02 1.42323E+00 0.00000E+00
 -1       702 1.04325E-02 1.29881E+00 0.00000E+00
 -1       703 9.96359E-03 1.17984E+00 0.00000E+00
 -1       704 9.49163E-03 1.06636E+00 0.00000E+00
 -1       705 9.01664E-03 9.58407E-01 0.00000E+00
 -1       706 8.53860E-03 8.56009E-01 0.00000E+00
 -1       707 8.05754E-03 7.59208E-01 0.00000E+00
 -1       708 7.57338E-03 6.68035E-01 0.00000E+00
 -1       709 7.08627E-03 5.82527E-01 0.00000E+00
 -1       710 6.59594E-03 5.02719E-01 0.00000E+00
 -1       711 6.10285E-03 4.28649E-01 0.00000E+00
 -1       712 5.60632E-03 3.60351E-01 0.00000E+00
 -1       713 5.10722E-03 2.97860E-01 0.00000E+00
 -1       714 4.60447E-03 2.41212E-01 0.00000E+00
 -1       715 4.09949E-03 1.90443E-01 0.00000E+00
 -1       716 3.59039E-03 1.45587E-01 0.00000E+00
 -1       717 3.07962E-03 1.06682E-01 0.00000E+00
 -1       718 2.56397E-03 7.37619E-02 0.00000E+00
 -1       719 2.04794E-03 4.68615E-02 0.00000E+00
 -1       720 1.52427E-03 2.60223E-02 0.00000E+00
 -1       721 1.00764E-03 1.12543E-02 0.00000E+00
 -1       722 4.59935E-04 2.69318E-03 0.00000E+00
 -1       723 0.00000E+00 0.00000E+00 0.00000E+00
 -1       724 4.98749E-02 1.01399E+02 0.00000E+00
 -1       725 4.98749E-02 1.00818E+02 0.00000E+00
 -1       726 4.98749E-02 1.00236E+02 0.00000E+00
 -1       727 4.98748E-02 9.96539E+01 0.00000E+00
 -1       728 4.98746E-02 9.90720E+01 0.00000E+00
 -1       729 4.98743E-02 9.84902E+01 0.00000E+00
 -1       730 4.98738E-02 9.79084E+01 0.00000E+00
 -1       731 4.98731E-02 9.73266E+01 0.00000E+00
 -1       732 4.98722E-02 9.67448E+01 0.00000E+00
 -1       733 4.98710E-02 9.61630E+01 0.00000E+00
 -1       734 4.98696E-02 9.55813E+01 0.00000E+00
 -1       735 4.98678E-02 9.49996E+01 0.00000E+00
 -1       736 4.98657E-02 9.44178E+01 0.00000E+00
 -1       737 4.98633E-02 9.38361E+01 0.00000E+00
 -1       738 4.98604E-02 9.32544E+01 0.00000E+00
 -1       739 4.98571E-02 9.26728E+01 0.00000E+00
 -1       740 4.98533E-02 9.20913E+01 0.00000E+00
 -1       741 4.98490E-02 9.15097E+01 0.00000E+00
 -1       742 4.98442E-02 9.09282E+01 0.00000E+00
 -1       743 4.98388E-02 9.03468E+01 0.00000E+00
 -1       744 4.98329E-02 8.97654E+01 0.00000E+00
 -1       745 4.98263E-02 8.91842E+01 0.00000E+00
 -1       746 4.98191E-02 8.86029E+01 0.00000E+00
 -1       747 4.98113E-02 8.80218E+01 0.00000E+00
 -1       748 4.98027E-02 8.74408E+01 0.00000E+00
 -1       749 4.97934E-02 8.68599E+01 0.00000E+00
 -1       750 4.97834E-02 8.62790E+01 0.00000E+00
 -1       751 4.97726E-02 8.56984E+01 0.00000E+00
 -1       752 4.97610E-02 8.51178E+01 0.00000E+00
 -1       753 4.97485E-02 8.45374E+01 0.00000E+00
 -1       754 4.97352E-02 8.39571E+01 0.00000E+00
 -1       755 4.97210E-02 8.33770E+01 0.00000E+00
 -1       756 4.97058E-02 8.27971E+01 0.00000E+00
 -1       757 4.96898E-02 8.22173E+01 0.00000E+00
 -1       758 4.96727E-02 8.16378E+01 0.00000E+00
 -1       759 4.96547E-02 8.10584E+01 0.00000E+00
 -1       760 4.96356E-02 8.04793E+01 0.00000E+00
 -1       761 4.96155E-02 7.99004E+01 0.00000E+00
 -1       762 4.95943E-02 7.93217E+01 0.00000E+00
 -1       763 4.95721E-02 7.87433E+01 0.00000E+00
 -1       764 4.95487E-02 7.81651E+01 0.00000E+00
 -1       765 4.95241E-02 7.75873E+01 0.00000E+00
 -1       766 4.94984E-02 7.70097E+01 0.00000E+00
 -1       767 4.94715E-02 7.64324E+01 0.00000E+00
 -1       768 4.94433E-02 7.58555E+01 0.00000E+00
 -1       769 4.94139E-02 7.52789E+01 0.00000E+00
 -1       770 4.93833E-02 7.47026E+01 0.00000E+00
 -1       771 4.93513E-02 7.41267E+01 0.00000E+00
 -1       772 4.93180E-02 7.35512E+01 0.00000E+00
 -1       773 4.92834E-02 7.29761E+01 0.00000E+00
 -1       774 4.92474E-02 7.24014E+01 0.00000E+00
 -1       775 4.92100E-02 7.18271E+01 0.00000E+00
 -1       776 4.91713E-02 7.12532E+01 0.00000E+00
 -1       777 4.91310E-02 7.06799E+01 0.00000E+00
 -1       778 4.90893E-02 7.01070E+01 0.00000E+00
 -1       779 4.90462E-02 6.95346E+01 0.00000E+00
 -1       780 4.90015E-02 6.89627E+01 0.00000E+00
 -1       781 4.89553E-02 6.83913E+01 0.00000E+00
 -1       782 4.89076E-02 6.78205E+01 0.00000E+00
 -1       783 4.88583E-02 6.72503E+01 0.00000E+00
 -1       784 4.88074E-02 6.66806E+01 0.00000E+00
 -1       785 4.87548E-02 6.61115E+01 0.00000E+00
 -1       786 4.87007E-02 6.55431E+01 0.00000E+00
 -1       787 4.86449E-02 6.49753E+01 0.00000E+00
 -1       788 4.85874E-02 6.44082E+01 0.00000E+00
 -1       789 4.85282E-02 6.38417E+01 0.00000E+00
 -1       790 4.84673E-02 6.32760E+01 0.00000E+00
 -1       791 4.84047E-02 6.27109E+01 0.00000E+00
 -1       792 4.83403E-02 6.21466E+01 0.00000E+00
 -1       793 4.82742E-02 6.15831E+01 0.00000E+00
 -1       794 4.82062E-02 6.10203E+01 0.00000E+00
 -1       795 4.81364E-02 6.04584E+01 0.00000E+00
 -1       796 4.80648E-02 5.98973E+01 0.00000E+00
 -1       797 4.79914E-02 5.93370E+01 0.00000E+00
 -1       798 4.79160E-02 5.87776E+01 0.00000E+00
 -1       799 4.78388E-02 5.82191E+01 0.00000E+00
 -1       800 4.77596E-02 5.76615E+01 0.00000E+00
 -1       801 4.76786E-02 5.71048E+01 0.00000E+00
 -1       802 4.75955E-02 5.65491E+01 0.00000E+00
 -1       803 4.75105E-02 5.59944E+01 0.00000E+00
 -1       804 4.74236E-02 5.54406E+01 0.00000E+00
 -1       805 4.73346E-02 5.48879E+01 0.00000E+00
 -1       806 4.72436E-02 5.43363E+01 0.00000E+00
 -1       807 4.71505E-02 5.37857E+01 0.00000E+00
 -1       808 4.70555E-02 5.32362E+01 0.00000E+00
 -1       809 4.69583E-02 5.26879E+01 0.00000E+00
 -1       810 4.68590E-02 5.21406E+01 0.00000E+00
 -1       811 4.67577E-02 5.15946E+01 0.00000E+00
 -1       812 4.66542E-02 5.10498E+01 0.00000E+00
 -1       813 4.65486E-02 5.05061E+01 0.00000E+00
 -1       814 4.64408E-02 4.99637E+01 0.00000E+00
 -1       815 4.63309E-02 4.94226E+01 0.00000E+00
 -1       816 4.62187E-02 4.88828E+01 0.00000E+00
 -1       817 4.61044E-02 4.83443E+01 0.00000E+00
 -1       818 4.59878E-02 4.78071E+01 0.00000E+00
 -1       819 4.58690E-02 4.72714E+01 0.00000E+00
 -1       820 4.57480E-02 4.67370E+01 0.00000E+00
 -1       821 4.56247E-02 4.62040E+01 0.00000E+00
 -1       822 4.54991E-02 4.56725E+01 0.00000E+00
 -1       823 4.53712E-02 4.51425E+01 0.00000E+00
 -1       824 4.52410E-02 4.46140E+01 0.00000E+00
 -1       825 4.51085E-02 4.40870E+01 0.00000E+00
 -1       826 4.49737E-02 4.35615E+01 0.00000E+00
 -1       827 4.48365E-02 4.30377E+01 0.00000E+00
 -1       828 4.46969E-02 4.25155E+01 0.00000E+00
 -1       829 4.45550E-02 4.19949E+01 0.00000E+00
 -1       830 4.44106E-02 4.14760E+01 0.00000E+00
 -1       831 4.42639E-02 4.09587E+01 0.00000E+00
 -1       832 4.41147E-02 4.04433E+01 0.00000E+00
 -1       833 4.39632E-02 3.99295E+01 0.00000E+00
 -1       834 4.38091E-02 3.94176E+01 0.00000E+00
 -1       835 4.36526E-02 3.89074E+01 0.00000E+00
 -1       836 4.34937E-02 3.83991E+01 0.00000E+00
 -1       837 4.33322E-02 3.78927E+01 0.00000E+00
 -1       838 4.31683E-02 3.73881E+01 0.00000E+00
 -1       839 4.30019E-02 3.68855E+01 0.00000E+00
 -1       840 4.28329E-02 3.63849E+01 0.00000E+00
 -1       841 4.26614E-02 3.58862E+01 0.00000E+00
 -1       842 4.24874E-02 3.53895E+01 0.00000E+00
 -1       843 4.23108E-02 3.48949E+01 0.00000E+00
 -1       844 4.21317E-02 3.44024E+01 0.00000E+00
 -1       845 4.19499E-02 3.39120E+01 0.00000E+00
 -1       846 4.17657E-02 3.34237E+01 0.00000E+00
 -1       847 4.15787E-02 3.29375E+01 0.00000E+00
 -1       848 4.13892E-02 3.24536E+01 0.00000E+00
 -1       849 4.11971E-02 3.19719E+01 0.00000E+00
 -1       850 4.10023E-02 3.14924E+01 0.00000E+00
 -1       851 4.08050E-02 3.10153E+01 0.00000E+00
 -1       852 4.06049E-02 3.05404E+01 0.00000E+00
 -1       853 4.04022E-02 3.00679E+01 0.00000E+00
 -1       854 4.01968E-02 2.95978E+01 0.00000E+00
 -1       855 3.99888E-02 2.91301E+01 0.00000E+00
 -1       856 3.97781E-02 2.86649E+01 0.00000E+00
 -1       857 3.95646E-02 2.82021E+01 0.00000E+00
 -1       858 3.93485E-02 2.77418E+01 0.00000E+00
 -1       859 3.91296E-02 2.72840E+01 0.00000E+00
 -1       860 3.89081E-02 2.68289E+01 0.00000E+00
 -1       861 3.86838E-02 2.63763E+01 0.00000E+00
 -1       862 3.84567E-02 2.59263E+01 0.00000E+00
 -1       863 3.82269E-02 2.54791E+01 0.00000E+00
 -1       864 3.79944E-02 2.50345E+01 0.00000E+00
 -1       865 3.77591E-02 2.45926E+01 0.00000E+00
 -1       866 3.75210E-02 2.41535E+01 0.00000E+00
 -1       867 3.72801E-02 2.37172E+01 0.00000E+00
 -1       868 3.70365E-02 2.32838E+01 0.00000E+00
 -1       869 3.67900E-02 2.28531E+01 0.00000E+00
 -1       870 3.65408E-02 2.24254E+01 0.00000E+00
 -1       871 3.62887E-02 2.20006E+01 0.00000E+00
 -1       872 3.60338E-02 2.15788E+01 0.00000E+00
 -1       873 3.57761E-02 2.11599E+01 0.00000E+00
 -1       874 3.55156E-02 2.07441E+01 0.00000E+00
 -1       875 3.52522E-02 2.03313E+01 0.00000E+00
 -1       876 3.49860E-02 1.99216E+01 0.00000E+00
 -1       877 3.47169E-02 1.95151E+01 0.00000E+00
 -1       878 3.44450E-02 1.91117E+01 0.00000E+00
 -1       879 3.41702E-02 1.87115E+01 0.00000E+00
 -1       880 3.38925E-02 1.83145E+01 0.00000E+00
 -1       881 3.36120E-02 1.79207E+01 0.00000E+00
 -1       882 3.33286E-02 1.75303E+01 0.00000E+00
 -1       883 3.30423E-02 1.71431E+01 0.00000E+00
 -1       884 3.27531E-02 1.67594E+01 0.00000E+00
 -1       885 3.24610E-02 1.63790E+01 0.00000E+00
 -1       886 3.21660E-02 1.60020E+01 0.00000E+00
 -1       887 3.18681E-02 1.56285E+01 0.00000E+00
 -1       888 3.15673E-02 1.52585E+01 0.00000E+00
 -1       889 3.12635E-02 1.48920E+01 0.00000E+00
 -1       890 3.09569E-02 1.45291E+01 0.00000E+00
 -1       891 3.06473E-02 1.41698E+01 0.00000E+00
 -1       892 3.03348E-02 1.38141E+01 0.00000E+00
 -1       893 3.00193E-02 1.34621E+01 0.00000E+00
 -1       894 2.97009E-02 1.31137E+01 0.00000E+00
 -1       895 2.93796E-02 1.27691E+01 0.00000E+00
 -1       896 2.90553E-02 1.24283E+01 0.00000E+00
 -1       897 2.87280E-02 1.20913E+01 0.00000E+00
 -1       898 2.83979E-02 1.17581E+01 0.00000E+00
 -1       899 2.80646E-02 1.14287E+01 0.00000E+00
 -1       900 2.77285E-02 1.11033E+01 0.00000E+00
 -1       901 2.73894E-02 1.07818E+01 0.00000E+00
 -1       902 2.70474E-02 1.04643E+01 0.00000E+00
 -1       903 2.67023E-02 1.01508E+01 0.00000E+00
 -1       904 2.63543E-02 9.84130E+00 0.00000E+00
 -1       905 2.60033E-02 9.53591E+00 0.00000E+00
 -1       906 2.56493E-02 9.23464E+00 0.00000E+00
 -1       907 2.52923E-02 8.93750E+00 0.00000E+00
 -1       908 2.49323E-02 8.64455E+00 0.00000E+00
 -1       909 2.45694E-02 8.35582E+00 0.00000E+00
 -1       910 2.42034E-02 8.07133E+00 0.00000E+00
 -1       911 2.38344E-02 7.79115E+00 0.00000E+00
 -1       912 2.34625E-02 7.51527E+00 0.00000E+00
 -1       913 2.30875E-02 7.24375E+00 0.00000E+00
 -1       914 2.27095E-02 6.97663E+00 0.00000E+00
 -1       915 2.23285E-02 6.71393E+00 0.00000E+00
 -1       916 2.19445E-02 6.45570E+00 0.00000E+00
 -1       917 2.15575E-02 6.20196E+00 0.00000E+00
 -1       918 2.11675E-02 5.95275E+00 0.00000E+00
 -1       919 2.07744E-02 5.70811E+00 0.00000E+00
 -1       920 2.03784E-02 5.46807E+00 0.00000E+00
 -1       921 1.99793E-02 5.23268E+00 0.00000E+00
 -1       922 1.95772E-02 5.00195E+00 0.00000E+00
 -1       923 1.91721E-02 4.77593E+00 0.00000E+00
 -1       924 1.87639E-02 4.55466E+00 0.00000E+00
 -1       925 1.83527E-02 4.33816E+00 0.00000E+00
 -1       926 1.79385E-02 4.12648E+00 0.00000E+00
 -1       927 1.75213E-02 3.91966E+00 0.00000E+00
 -1       928 1.71010E-02 3.71771E+00 0.00000E+00
 -1       929 1.66777E-02 3.52068E+00 0.00000E+00
 -1       930 1.62514E-02 3.32861E+00 0.00000E+00
 -1       931 1.58220E-02 3.14153E+00 0.00000E+00
 -1       932 1.53896E-02 2.95949E+00 0.00000E+00
 -1       933 1.49541E-02 2.78250E+00 0.00000E+00
 -1       934 1.45157E-02 2.61060E+00 0.00000E+00
 -1       935 1.40741E-02 2.44384E+00 0.00000E+00
 -1       936 1.36296E-02 2.28225E+00 0.00000E+00
 -1       937 1.31819E-02 2.12587E+00 0.00000E+00
 -1       938 1.27313E-02 1.97472E+00 0.00000E+00
 -1       939 1.22776E-02 1.82885E+00 0.00000E+00
 -1       940 1.18209E-02 1.68828E+00 0.00000E+00
 -1       941 1.13612E-02 1.55306E+00 0.00000E+00
 -1       942 1.08983E-02 1.42323E+00 0.00000E+00
 -1       943 1.04325E-02 1.29881E+00 0.00000E+00
 -1       944 9.96359E-03 1.17984E+00 0.00000E+00
 -1       945 9.49163E-03 1.06636E+00 0.00000E+00
 -1       946 9.01664E-03 9.58407E-01 0.00000E+00
 -1       947 8.53860E-03 8.56009E-01 0.00000E+00
 -1       948 8.05754E-03 7.59208E-01 0.00000E+00
 -1       949 7.57338E-03 6.68035E-01 0.00000E+00
 -1       950 7.08627E-03 5.82527E-01 0.00000E+00
 -1       951 6.59594E-03 5.02719E-01 0.00000E+00
 -1       952 6.10285E-03 4.28649E-01 0.00000E+00
 -1       953 5.60632E-03 3.60351E-01 0.00000E+00
 -1       954 5.10722E-03 2.97860E-01 0.00000E+00
 -1       955 4.60447E-03 2.41212E-01 0.00000E+00
 -1       956 4.09949E-03 1.90443E-01 0.00000E+00
 -1       957 3.59039E-03 1.45587E-01 0.00000E+00
 -1       958 3.07962E-03 1.06682E-01 0.00000E+00
 -1       959 2.56397E-03 7.37619E-02 0.00000E+00
 -1       960 2.04794E-03 4.68615E-02 0.00000E+00
 -1       961 1.52427E-03 2.60223E-02 0.00000E+00
 -1       962 1.00764E-03 1.12543E-02 0.00000E+00
 -1       963 4.59935E-04 2.69318E-03 0.00000E+00
 -1       964 0.00000E+00 0.00000E+00 0.00000E+00
 -1       965 3.98993E-06 1.01399E+02 0.00000E+00
 -1       966 3.98993E-06 1.00818E+02 0.00000E+00
 -1       967 3.98993E-06 1.00236E+02 0.00000E+00
 -1       968 3.98992E-06 9.96539E+01 0.00000E+00
 -1       969 3.98990E-06 9.90721E+01 0.00000E+00
 -1       970 3.98988E-06 9.84902E+01 0.00000E+00
 -1       971 3.98984E-06 9.79084E+01 0.00000E+00
 -1       972 3.98978E-06 9.73266E+01 0.00000E+00
 -1       973 3.98971E-06 9.67448E+01 0.00000E+00
 -1       974 3.98962E-06 9.61631E+01 0.00000E+00
 -1       975 3.98950E-06 9.55813E+01 0.00000E+00
 -1       976 3.98936E-06 9.49996E+01 0.00000E+00
 -1       977 3.98920E-06 9.44178E+01 0.00000E+00
 -1       978 3.98900E-06 9.38361E+01 0.00000E+00
 -1       979 3.98877E-06 9.32545E+01 0.00000E+00
 -1       980 3.98850E-06 9.26729E+01 0.00000E+00
 -1       981 3.98820E-06 9.20913E+01 0.00000E+00
 -1       982 3.98786E-06 9.15097E+01 0.00000E+00
 -1       983 3.98747E-06 9.09283E+01 0.00000E+00
 -1       984 3.98705E-06 9.03468E+01 0.00000E+00
 -1       985 3.98657E-06 8.97655E+01 0.00000E+00
 -1       986 3.98605E-06 8.91842E+01 0.00000E+00
 -1       987 3.98547E-06 8.86030E+01 0.00000E+00
 -1       988 3.98485E-06 8.80218E+01 0.00000E+00
 -1       989 3.98416E-06 8.74408E+01 0.00000E+00
 -1       990 3.98342E-06 8.68599E+01 0.00000E+00
 -1       991 3.98262E-06 8.62791E+01 0.00000E+00
 -1       992 3.98175E-06 8.56984E+01 0.00000E+00
 -1       993 3.98082E-06 8.51178E+01 0.00000E+00
 -1       994 3.97983E-06 8.45374E+01 0.00000E+00
 -1       995 3.97876E-06 8.39572E+01 0.00000E+00
 -1       996 3.97762E-06 8.33771E+01 0.00000E+00
 -1       997 3.97641E-06 8.27971E+01 0.00000E+00
 -1       998 3.97513E-06 8.22174E+01 0.00000E+00
 -1       999 3.97377E-06 8.16378E+01 0.00000E+00
 -1      1000 3.97232E-06 8.10585E+01 0.00000E+00
 -1      1001 3.97080E-06 8.04793E+01 0.00000E+00
 -1      1002 3.96919E-06 7.99004E+01 0.00000E+00
 -1      1003 3.96749E-06 7.93218E+01 0.00000E+00
 -1      1004 3.96571E-06 7.87433E+01 0.00000E+00
 -1      1005 3.96384E-06 7.81652E+01 0.00000E+00
 -1      1006 3.96187E-06 7.75873E+01 0.00000E+00
 -1      1007 3.95981E-06 7.70097E+01 0.00000E+00
 -1      1008 3.95766E-06 7.64325E+01 0.00000E+00
 -1      1009 3.95541E-06 7.58555E+01 0.00000E+00
 -1      1010 3.95306E-06 7.52789E+01 0.00000E+00
 -1      1011 3.95060E-06 7.47027E+01 0.00000E+00
 -1      1012 3.94804E-06 7.41268E+01 0.00000E+00
 -1      1013 3.94538E-06 7.35512E+01 0.00000E+00
 -1      1014 3.94261E-06 7.29761E+01 0.00000E+00
 -1      1015 3.93973E-06 7.24014E+01 0.00000E+00
 -1      1016 3.93674E-06 7.18271E+01 0.00000E+00
 -1      1017 3.93364E-06 7.12533E+01 0.00000E+00
 -1      1018 3.93042E-06 7.06799E+01 0.00000E+00
 -1      1019 3.92708E-06 7.01070E+01 0.00000E+00
 -1      1020 3.92363E-06 6.95346E+01 0.00000E+00
 -1      1021 3.92006E-06 6.89627E+01 0.00000E+00
 -1      1022 3.91636E-06 6.83914E+01 0.00000E+00
 -1      1023 3.91254E-06 6.78206E+01 0.00000E+00
 -1      1024 3.90860E-06 6.72503E+01 0.00000E+00
 -1      1025 3.90452E-06 6.66807E+01 0.00000E+00
 -1      1026 3.90032E-06 6.61116E+01 0.00000E+00
 -1      1027 3.89599E-06 6.55432E+01 0.00000E+00
 -1      1028 3.89152E-06 6.49754E+01 0.00000E+00
 -1      1029 3.88693E-06 6.44082E+01 0.00000E+00
 -1      1030 3.88219E-06 6.38418E+01 0.00000E+00
 -1      1031 3.87732E-06 6.32760E+01 0.00000E+00
 -1      1032 3.87231E-06 6.27110E+01 0.00000E+00
 -1      1033 3.86716E-06 6.21467E+01 0.00000E+00
 -1      1034 3.86187E-06 6.15832E+01 0.00000E+00
 -1      1035 3.85643E-06 6.10204E+01 0.00000E+00
 -1      1036 3.85085E-06 6.04585E+01 0.00000E+00
 -1      1037 3.84512E-06 5.98974E+01 0.00000E+00
 -1      1038 3.83924E-06 5.93371E+01 0.00000E+00
 -1      1039 3.83322E-06 5.87777E+01 0.00000E+00
 -1      1040 3.82704E-06 5.82192E+01 0.00000E+00
 -1      1041 3.82070E-06 5.76616E+01 0.00000E+00
 -1      1042 3.81422E-06 5.71049E+01 0.00000E+00
 -1      1043 3.80758E-06 5.65492E+01 0.00000E+00
 -1      1044 3.80078E-06 5.59945E+01 0.00000E+00
 -1      1045 3.79382E-06 5.54407E+01 0.00000E+00
 -1      1046 3.78670E-06 5.48880E+01 0.00000E+00
 -1      1047 3.77942E-06 5.43364E+01 0.00000E+00
 -1      1048 3.77197E-06 5.37858E+01 0.00000E+00
 -1      1049 3.76437E-06 5.32363E+01 0.00000E+00
 -1      1050 3.75659E-06 5.26880E+01 0.00000E+00
 -1      1051 3.74866E-06 5.21407E+01 0.00000E+00
 -1      1052 3.74054E-06 5.15947E+01 0.00000E+00
 -1      1053 3.73228E-06 5.10499E+01 0.00000E+00
 -1      1054 3.72381E-06 5.05062E+01 0.00000E+00
 -1      1055 3.71521E-06 4.99638E+01 0.00000E+00
 -1      1056 3.70639E-06 4.94227E+01 0.00000E+00
 -1      1057 3.69744E-06 4.88829E+01 0.00000E+00
 -1      1058 3.68827E-06 4.83444E+01 0.00000E+00
 -1      1059 3.67898E-06 4.78072E+01 0.00000E+00
 -1      1060 3.66943E-06 4.72715E+01 0.00000E+00
 -1      1061 3.65980E-06 4.67371E+01 0.00000E+00
 -1      1062 3.64987E-06 4.62041E+01 0.00000E+00
 -1      1063 3.63990E-06 4.56726E+01 0.00000E+00
 -1      1064 3.62958E-06 4.51426E+01 0.00000E+00
 -1      1065 3.61927E-06 4.46141E+01 0.00000E+00
 -1      1066 3.60855E-06 4.40871E+01 0.00000E+00
 -1      1067 3.59791E-06 4.35617E+01 0.00000E+00
 -1      1068 3.58676E-06 4.30378E+01 0.00000E+00
 -1      1069 3.57581E-06 4.25156E+01 0.00000E+00
 -1      1070 3.56419E-06 4.19950E+01 0.00000E+00
 -1      1071 3.55296E-06 4.14761E+01 0.00000E+00
 -1      1072 3.54085E-06 4.09589E+01 0.00000E+00
 -1      1073 3.52936E-06 4.04434E+01 0.00000E+00
 -1      1074 3.51670E-06 3.99296E+01 0.00000E+00
 -1      1075 3.50502E-06 3.94177E+01 0.00000E+00
 -1      1076 3.49172E-06 3.89075E+01 0.00000E+00
 -1      1077 3.47994E-06 3.83992E+01 0.00000E+00
 -1      1078 3.46589E-06 3.78928E+01 0.00000E+00
 -1      1079 3.45415E-06 3.73883E+01 0.00000E+00
 -1      1080 3.43919E-06 3.68856E+01 0.00000E+00
 -1      1081 3.42759E-06 3.63850E+01 0.00000E+00
 -1      1082 3.41386E-06 3.58863E+01 0.00000E+00
 -1      1083 3.39806E-06 3.53897E+01 0.00000E+00
 -1      1084 3.38553E-06 3.48951E+01 0.00000E+00
 -1      1085 3.36986E-06 3.44025E+01 0.00000E+00
 -1      1086 3.35644E-06 3.39121E+01 0.00000E+00
 -1      1087 3.34077E-06 3.34238E+01 0.00000E+00
 -1      1088 3.32658E-06 3.29377E+01 0.00000E+00
 -1      1089 3.31078E-06 3.24537E+01 0.00000E+00
 -1      1090 3.29594E-06 3.19720E+01 0.00000E+00
 -1      1091 3.27992E-06 3.14926E+01 0.00000E+00
 -1      1092 3.26450E-06 3.10154E+01 0.00000E+00
 -1      1093 3.24819E-06 3.05406E+01 0.00000E+00
 -1      1094 3.23223E-06 3.00681E+01 0.00000E+00
 -1      1095 3.21558E-06 2.95979E+01 0.00000E+00
 -1      1096 3.19912E-06 2.91302E+01 0.00000E+00
 -1      1097 3.18211E-06 2.86650E+01 0.00000E+00
 -1      1098 3.16516E-06 2.82022E+01 0.00000E+00
 -1      1099 3.14776E-06 2.77419E+01 0.00000E+00
 -1      1100 3.13034E-06 2.72842E+01 0.00000E+00
 -1      1101 3.11255E-06 2.68290E+01 0.00000E+00
 -1      1102 3.09466E-06 2.63764E+01 0.00000E+00
 -1      1103 3.07645E-06 2.59265E+01 0.00000E+00
 -1      1104 3.05811E-06 2.54792E+01 0.00000E+00
 -1      1105 3.03947E-06 2.50346E+01 0.00000E+00
 -1      1106 3.02067E-06 2.45928E+01 0.00000E+00
 -1      1107 3.00160E-06 2.41537E+01 0.00000E+00
 -1      1108 2.98235E-06 2.37174E+01 0.00000E+00
 -1      1109 2.96284E-06 2.32839E+01 0.00000E+00
 -1      1110 2.94314E-06 2.28533E+01 0.00000E+00
 -1      1111 2.92319E-06 2.24256E+01 0.00000E+00
 -1      1112 2.90303E-06 2.20008E+01 0.00000E+00
 -1      1113 2.88263E-06 2.15789E+01 0.00000E+00
 -1      1114 2.86202E-06 2.11601E+01 0.00000E+00
 -1      1115 2.84117E-06 2.07442E+01 0.00000E+00
 -1      1116 2.82011E-06 2.03315E+01 0.00000E+00
 -1      1117 2.79881E-06 1.99218E+01 0.00000E+00
 -1      1118 2.77729E-06 1.95152E+01 0.00000E+00
 -1      1119 2.75553E-06 1.91118E+01 0.00000E+00
 -1      1120 2.73355E-06 1.87116E+01 0.00000E+00
 -1      1121 2.71133E-06 1.83146E+01 0.00000E+00
 -1      1122 2.68889E-06 1.79209E+01 0.00000E+00
 -1      1123 2.66622E-06 1.75304E+01 0.00000E+00
 -1      1124 2.64331E-06 1.71433E+01 0.00000E+00
 -1      1125 2.62018E-06 1.67595E+01 0.00000E+00
 -1      1126 2.59681E-06 1.63791E+01 0.00000E+00
 -1      1127 2.57321E-06 1.60022E+01 0.00000E+00
 -1      1128 2.54938E-06 1.56287E+01 0.00000E+00
 -1      1129 2.52531E-06 1.52587E+01 0.00000E+00
 -1      1130 2.50102E-06 1.48922E+01 0.00000E+00
 -1      1131 2.47648E-06 1.45293E+01 0.00000E+00
 -1      1132 2.45172E-06 1.41699E+01 0.00000E+00
 -1      1133 2.42672E-06 1.38142E+01 0.00000E+00
 -1      1134 2.40148E-06 1.34622E+01 0.00000E+00
 -1      1135 2.37601E-06 1.31139E+01 0.00000E+00
 -1      1136 2.35030E-06 1.27693E+01 0.00000E+00
 -1      1137 2.32436E-06 1.24284E+01 0.00000E+00
 -1      1138 2.29818E-06 1.20914E+01 0.00000E+00
 -1      1139 2.27176E-06 1.17582E+01 0.00000E+00
 -1      1140 2.24511E-06 1.14288E+01 0.00000E+00
 -1      1141 2.21822E-06 1.11034E+01 0.00000E+00
 -1      1142 2.19109E-06 1.07819E+01 0.00000E+00
 -1      1143 2.16373E-06 1.04644E+01 0.00000E+00
 -1      1144 2.13612E-06 1.01509E+01 0.00000E+00
 -1      1145 2.10828E-06 9.84142E+00 0.00000E+00
 -1      1146 2.08020E-06 9.53602E+00 0.00000E+00
 -1      1147 2.05188E-06 9.23475E+00 0.00000E+00
 -1      1148 2.02332E-06 8.93762E+00 0.00000E+00
 -1      1149 1.99453E-06 8.64466E+00 0.00000E+00
 -1      1150 1.96549E-06 8.35593E+00 0.00000E+00
 -1      1151 1.93621E-06 8.07145E+00 0.00000E+00
 -1      1152 1.90670E-06 7.79125E+00 0.00000E+00
 -1      1153 1.87694E-06 7.51537E+00 0.00000E+00
 -1      1154 1.84694E-06 7.24386E+00 0.00000E+00
 -1      1155 1.81671E-06 6.97673E+00 0.00000E+00
 -1      1156 1.78623E-06 6.71403E+00 0.00000E+00
 -1      1157 1.75551E-06 6.45579E+00 0.00000E+00
 -1      1158 1.72455E-06 6.20206E+00 0.00000E+00
 -1      1159 1.69335E-06 5.95285E+00 0.00000E+00
 -1      1160 1.66190E-06 5.70820E+00 0.00000E+00
 -1      1161 1.63022E-06 5.46816E+00 0.00000E+00
 -1      1162 1.59829E-06 5.23277E+00 0.00000E+00
 -1      1163 1.56613E-06 5.00204E+00 0.00000E+00
 -1      1164 1.53372E-06 4.77602E+00 0.00000E+00
 -1      1165 1.50107E-06 4.55475E+00 0.00000E+00
 -1      1166 1.46817E-06 4.33825E+00 0.00000E+00
 -1      1167 1.43504E-06 4.12657E+00 0.00000E+00
 -1      1168 1.40166E-06 3.91973E+00 0.00000E+00
 -1      1169 1.36804E-06 3.71779E+00 0.00000E+00
 -1      1170 1.33418E-06 3.52076E+00 0.00000E+00
 -1      1171 1.30007E-06 3.32869E+00 0.00000E+00
 -1      1172 1.26572E-06 3.14161E+00 0.00000E+00
 -1      1173 1.23113E-06 2.95956E+00 0.00000E+00
 -1      1174 1.19630E-06 2.78256E+00 0.00000E+00
 -1      1175 1.16122E-06 2.61067E+00 0.00000E+00
 -1      1176 1.12590E-06 2.44391E+00 0.00000E+00
 -1      1177 1.09034E-06 2.28232E+00 0.00000E+00
 -1      1178 1.05453E-06 2.12593E+00 0.00000E+00
 -1      1179 1.01848E-06 1.97478E+00 0.00000E+00
 -1      1180 9.82186E-07 1.82890E+00 0.00000E+00
 -1      1181 9.45645E-07 1.68834E+00 0.00000E+00
 -1      1182 9.08870E-07 1.55312E+00 0.00000E+00
 -1      1183 8.71841E-07 1.42328E+00 0.00000E+00
 -1      1184 8.34579E-07 1.29886E+00 0.00000E+00
 -1      1185 7.97064E-07 1.17989E+00 0.00000E+00
 -1      1186 7.59315E-07 1.06640E+00 0.00000E+00
 -1      1187 7.21311E-07 9.58448E-01 0.00000E+00
 -1      1188 6.83079E-07 8.56047E-01 0.00000E+00
 -1      1189 6.44583E-07 7.59241E-01 0.00000E+00
 -1      1190 6.05866E-07 6.68065E-01 0.00000E+00
 -1      1191 5.66882E-07 5.82556E-01 0.00000E+00
 -1      1192 5.27678E-07 5.02746E-01 0.00000E+00
 -1      1193 4.88207E-07 4.28672E-01 0.00000E+00
 -1      1194 4.48517E-07 3.60372E-01 0.00000E+00
 -1      1195 4.08554E-07 2.97877E-01 0.00000E+00
 -1      1196 3.68381E-07 2.41226E-01 0.00000E+00
 -1      1197 3.27929E-07 1.90454E-01 0.00000E+00
 -1      1198 2.87270E-07 1.45596E-01 0.00000E+00
 -1      1199 2.46328E-07 1.06687E-01 0.00000E+00
 -1      1200 2.05179E-07 7.37636E-02 0.00000E+00
 -1      1201 1.63773E-07 4.68607E-02 0.00000E+00
 -1      1202 1.22039E-07 2.60178E-02 0.00000E+00
 -1      1203 8.05168E-08 1.12479E-02 0.00000E+00
 -1      1204 3.69145E-08 2.67834E-03 0.00000E+00
 -1      1205 0.00000E+00 0.00000E+00 0.00000E+00
 -1      1206 3.98941E-06 1.01399E+02 0.00000E+00
 -1      1207 3.98941E-06 1.00818E+02 0.00000E+00
 -1      1208 3.98940E-06 1.00236E+02 0.00000E+00
 -1      1209 3.98940E-06 9.96539E+01 0.00000E+00
 -1      1210 3.98938E-06 9.90721E+01 0.00000E+00
 -1      1211 3.98935E-06 9.84902E+01 0.00000E+00
 -1      1212 3.98931E-06 9.79084E+01 0.00000E+00
 -1      1213 3.98926E-06 9.73266E+01 0.00000E+00
 -1      1214 3.98919E-06 9.67448E+01 0.00000E+00
 -1      1215 3.98909E-06 9.61631E+01 0.00000E+00
 -1      1216 3.98898E-06 9.55813E+01 0.00000E+00
 -1      1217 3.98884E-06 9.49996E+01 0.00000E+00
 -1      1218 3.98867E-06 9.44178E+01 0.00000E+00
 -1      1219 3.98847E-06 9.38361E+01 0.00000E+00
 -1      1220 3.98824E-06 9.32545E+01 0.00000E+00
 -1      1221 3.98797E-06 9.26729E+01 0.00000E+00
 -1      1222 3.98767E-06 9.20913E+01 0.00000E+00
 -1      1223 3.98733E-06 9.15097E+01 0.00000E+00
 -1      1224 3.98694E-06 9.09283E+01 0.00000E+00
 -1      1225 3.98651E-06 9.03468E+01 0.00000E+00
 -1      1226 3.98604E-06 8.97655E+01 0.00000E+00
 -1      1227 3.98551E-06 8.91842E+01 0.00000E+00
 -1      1228 3.98494E-06 8.86030E+01 0.00000E+00
 -1      1229 3.98431E-06 8.80218E+01 0.00000E+00
 -1      1230 3.98363E-06 8.74408E+01 0.00000E+00
 -1      1231 3.98288E-06 8.68599E+01 0.00000E+00
 -1      1232 3.98208E-06 8.62791E+01 0.00000E+00
 -1      1233 3.98121E-06 8.56984E+01 0.00000E+00
 -1      1234 3.98028E-06 8.51178E+01 0.00000E+00
 -1      1235 3.97928E-06 8.45374E+01 0.00000E+00
 -1      1236 3.97822E-06 8.39572E+01 0.00000E+00
 -1      1237 3.97708E-06 8.33771E+01 0.00000E+00
 -1      1238 3.97587E-06 8.27971E+01 0.00000E+00
 -1      1239 3.97458E-06 8.22174E+01 0.00000E+00
 -1      1240 3.97322E-06 8.16378E+01 0.00000E+00
 -1      1241 3.97178E-06 8.10585E+01 0.00000E+00
 -1      1242 3.97025E-06 8.04793E+01 0.00000E+00
 -1      1243 3.96865E-06 7.99004E+01 0.00000E+00
 -1      1244 3.96695E-06 7.93218E+01 0.00000E+00
 -1      1245 3.96517E-06 7.87433E+01 0.00000E+00
 -1      1246 3.96330E-06 7.81652E+01 0.00000E+00
 -1      1247 3.96133E-06 7.75873E+01 0.00000E+00
 -1      1248 3.95928E-06 7.70097E+01 0.00000E+00
 -1      1249 3.95712E-06 7.64325E+01 0.00000E+00
 -1      1250 3.95487E-06 7.58555E+01 0.00000E+00
 -1      1251 3.95252E-06 7.52789E+01 0.00000E+00
 -1      1252 3.95007E-06 7.47027E+01 0.00000E+00
 -1      1253 3.94751E-06 7.41268E+01 0.00000E+00
 -1      1254 3.94485E-06 7.35512E+01 0.00000E+00
 -1      1255 3.94208E-06 7.29761E+01 0.00000E+00
 -1      1256 3.93920E-06 7.24014E+01 0.00000E+00
 -1      1257 3.93621E-06 7.18271E+01 0.00000E+00
 -1      1258 3.93311E-06 7.12533E+01 0.00000E+00
 -1      1259 3.92989E-06 7.06799E+01 0.00000E+00
 -1      1260 3.92656E-06 7.01070E+01 0.00000E+00
 -1      1261 3.92310E-06 6.95346E+01 0.00000E+00
 -1      1262 3.91953E-06 6.89627E+01 0.00000E+00
 -1      1263 3.91583E-06 6.83914E+01 0.00000E+00
 -1      1264 3.91202E-06 6.78206E+01 0.00000E+00
 -1      1265 3.90807E-06 6.72503E+01 0.00000E+00
 -1      1266 3.90400E-06 6.66807E+01 0.00000E+00
 -1      1267 3.89980E-06 6.61116E+01 0.00000E+00
 -1      1268 3.89547E-06 6.55432E+01 0.00000E+00
 -1      1269 3.89100E-06 6.49754E+01 0.00000E+00
 -1      1270 3.88640E-06 6.44082E+01 0.00000E+00
 -1      1271 3.88167E-06 6.38418E+01 0.00000E+00
 -1      1272 3.87680E-06 6.32760E+01 0.00000E+00
 -1      1273 3.87179E-06 6.27110E+01 0.00000E+00
 -1      1274 3.86664E-06 6.21467E+01 0.00000E+00
 -1      1275 3.86135E-06 6.15832E+01 0.00000E+00
 -1      1276 3.85591E-06 6.10204E+01 0.00000E+00
 -1      1277 3.85033E-06 6.04585E+01 0.00000E+00
 -1      1278 3.84460E-06 5.98974E+01 0.00000E+00
 -1      1279 3.83872E-06 5.93371E+01 0.00000E+00
 -1      1280 3.83270E-06 5.87777E+01 0.00000E+00
 -1      1281 3.82652E-06 5.82192E+01 0.00000E+00
 -1      1282 3.82019E-06 5.76616E+01 0.00000E+00
 -1      1283 3.81370E-06 5.71049E+01 0.00000E+00
 -1      1284 3.80706E-06 5.65492E+01 0.00000E+00
 -1      1285 3.80026E-06 5.59945E+01 0.00000E+00
 -1      1286 3.79330E-06 5.54407E+01 0.00000E+00
 -1      1287 3.78618E-06 5.48880E+01 0.00000E+00
 -1      1288 3.77891E-06 5.43364E+01 0.00000E+00
 -1      1289 3.77146E-06 5.37858E+01 0.00000E+00
 -1      1290 3.76386E-06 5.32363E+01 0.00000E+00
 -1      1291 3.75608E-06 5.26880E+01 0.00000E+00
 -1      1292 3.74815E-06 5.21407E+01 0.00000E+00
 -1      1293 3.74003E-06 5.15947E+01 0.00000E+00
 -1      1294 3.73176E-06 5.10499E+01 0.00000E+00
 -1      1295 3.72330E-06 5.05062E+01 0.00000E+00
 -1      1296 3.71470E-06 4.99638E+01 0.00000E+00
 -1      1297 3.70588E-06 4.94227E+01 0.00000E+00
 -1      1298 3.69693E-06 4.88829E+01 0.00000E+00
 -1      1299 3.68776E-06 4.83444E+01 0.00000E+00
 -1      1300 3.67847E-06 4.78072E+01 0.00000E+00
 -1      1301 3.66893E-06 4.72715E+01 0.00000E+00
 -1      1302 3.65930E-06 4.67371E+01 0.00000E+00
 -1      1303 3.64937E-06 4.62041E+01 0.00000E+00
 -1      1304 3.63940E-06 4.56726E+01 0.00000E+00
 -1      1305 3.62908E-06 4.51426E+01 0.00000E+00
 -1      1306 3.61877E-06 4.46141E+01 0.00000E+00
 -1      1307 3.60805E-06 4.40871E+01 0.00000E+00
 -1      1308 3.59741E-06 4.35617E+01 0.00000E+00
 -1      1309 3.58626E-06 4.30378E+01 0.00000E+00
 -1      1310 3.57531E-06 4.25156E+01 0.00000E+00
 -1      1311 3.56370E-06 4.19950E+01 0.00000E+00
 -1      1312 3.55247E-06 4.14761E+01 0.00000E+00
 -1      1313 3.54036E-06 4.09589E+01 0.00000E+00
 -1      1314 3.52887E-06 4.04434E+01 0.00000E+00
 -1      1315 3.51621E-06 3.99296E+01 0.00000E+00
 -1      1316 3.50454E-06 3.94177E+01 0.00000E+00
 -1      1317 3.49124E-06 3.89075E+01 0.00000E+00
 -1      1318 3.47947E-06 3.83992E+01 0.00000E+00
 -1      1319 3.46542E-06 3.78928E+01 0.00000E+00
 -1      1320 3.45368E-06 3.73883E+01 0.00000E+00
 -1      1321 3.43873E-06 3.68856E+01 0.00000E+00
 -1      1322 3.42712E-06 3.63850E+01 0.00000E+00
 -1      1323 3.41340E-06 3.58863E+01 0.00000E+00
 -1      1324 3.39760E-06 3.53897E+01 0.00000E+00
 -1      1325 3.38508E-06 3.48951E+01 0.00000E+00
 -1      1326 3.36941E-06 3.44025E+01 0.00000E+00
 -1      1327 3.35599E-06 3.39121E+01 0.00000E+00
 -1      1328 3.34032E-06 3.34238E+01 0.00000E+00
 -1      1329 3.32614E-06 3.29377E+01 0.00000E+00
 -1      1330 3.31034E-06 3.24537E+01 0.00000E+00
 -1      1331 3.29551E-06 3.19720E+01 0.00000E+00
 -1      1332 3.27949E-06 3.14926E+01 0.00000E+00
 -1      1333 3.26407E-06 3.10154E+01 0.00000E+00
 -1      1334 3.24776E-06 3.05406E+01 0.00000E+00
 -1      1335 3.23180E-06 3.00681E+01 0.00000E+00
 -1      1336 3.21516E-06 2.95979E+01 0.00000E+00
 -1      1337 3.19870E-06 2.91302E+01 0.00000E+00
 -1      1338 3.18170E-06 2.86650E+01 0.00000E+00
 -1      1339 3.16475E-06 2.82022E+01 0.00000E+00
 -1      1340 3.14736E-06 2.77419E+01 0.00000E+00
 -1      1341 3.12994E-06 2.72842E+01 0.00000E+00
 -1      1342 3.11215E-06 2.68290E+01 0.00000E+00
 -1      1343 3.09426E-06 2.63764E+01 0.00000E+00
 -1      1344 3.07605E-06 2.59265E+01 0.00000E+00
 -1      1345 3.05772E-06 2.54792E+01 0.00000E+00
 -1      1346 3.03908E-06 2.50346E+01 0.00000E+00
 -1      1347 3.02029E-06 2.45928E+01 0.00000E+00
 -1      1348 3.00122E-06 2.41537E+01 0.00000E+00
 -1      1349 2.98197E-06 2.37174E+01 0.00000E+00
 -1      1350 2.96247E-06 2.32839E+01 0.00000E+00
 -1      1351 2.94277E-06 2.28533E+01 0.00000E+00
 -1      1352 2.92282E-06 2.24256E+01 0.00000E+00
 -1      1353 2.90267E-06 2.20008E+01 0.00000E+00
 -1      1354 2.88227E-06 2.15789E+01 0.00000E+00
 -1      1355 2.86167E-06 2.11601E+01 0.00000E+00
 -1      1356 2.84082E-06 2.07442E+01 0.00000E+00
 -1      1357 2.81976E-06 2.03315E+01 0.00000E+00
 -1      1358 2.79846E-06 1.99218E+01 0.00000E+00
 -1      1359 2.77695E-06 1.95152E+01 0.00000E+00
 -1      1360 2.75519E-06 1.91118E+01 0.00000E+00
 -1      1361 2.73322E-06 1.87116E+01 0.00000E+00
 -1      1362 2.71100E-06 1.83146E+01 0.00000E+00
 -1      1363 2.68857E-06 1.79209E+01 0.00000E+00
 -1      1364 2.66590E-06 1.75304E+01 0.00000E+00
 -1      1365 2.64300E-06 1.71433E+01 0.00000E+00
 -1      1366 2.61987E-06 1.67595E+01 0.00000E+00
 -1      1367 2.59650E-06 1.63791E+01 0.00000E+00
 -1      1368 2.57290E-06 1.60022E+01 0.00000E+00
 -1      1369 2.54908E-06 1.56287E+01 0.00000E+00
 -1      1370 2.52501E-06 1.52587E+01 0.00000E+00
 -1      1371 2.50072E-06 1.48922E+01 0.00000E+00
 -1      1372 2.47619E-06 1.45293E+01 0.00000E+00
 -1      1373 2.45143E-06 1.41699E+01 0.00000E+00
 -1      1374 2.42643E-06 1.38142E+01 0.00000E+00
 -1      1375 2.40120E-06 1.34622E+01 0.00000E+00
 -1      1376 2.37573E-06 1.31139E+01 0.00000E+00
 -1      1377 2.35003E-06 1.27693E+01 0.00000E+00
 -1      1378 2.32409E-06 1.24284E+01 0.00000E+00
 -1      1379 2.29791E-06 1.20914E+01 0.00000E+00
 -1      1380 2.27150E-06 1.17582E+01 0.00000E+00
 -1      1381 2.24485E-06 1.14288E+01 0.00000E+00
 -1      1382 2.21797E-06 1.11034E+01 0.00000E+00
 -1      1383 2.19084E-06 1.07819E+01 0.00000E+00
 -1      1384 2.16348E-06 1.04644E+01 0.00000E+00
 -1      1385 2.13588E-06 1.01509E+01 0.00000E+00
 -1      1386 2.10805E-06 9.84142E+00 0.00000E+00
 -1      1387 2.07997E-06 9.53602E+00 0.00000E+00
 -1      1388 2.05165E-06 9.23475E+00 0.00000E+00
 -1      1389 2.02310E-06 8.93762E+00 0.00000E+00
 -1      1390 1.99431E-06 8.64466E+00 0.00000E+00
 -1      1391 1.96527E-06 8.35593E+00 0.00000E+00
 -1      1392 1.93600E-06 8.07145E+00 0.00000E+00
 -1      1393 1.90649E-06 7.79125E+00 0.00000E+00
 -1      1394 1.87674E-06 7.51537E+00 0.00000E+00
 -1      1395 1.84674E-06 7.24386E+00 0.00000E+00
 -1      1396 1.81651E-06 6.97673E+00 0.00000E+00
 -1      1397 1.78604E-06 6.71403E+00 0.00000E+00
 -1      1398 1.75532E-06 6.45579E+00 0.00000E+00
 -1      1399 1.72437E-06 6.20206E+00 0.00000E+00
 -1      1400 1.69317E-06 5.95285E+00 0.00000E+00
 -1      1401 1.66173E-06 5.70820E+00 0.00000E+00
 -1      1402 1.63005E-06 5.46816E+00 0.00000E+00
 -1      1403 1.59813E-06 5.23277E+00 0.00000E+00
 -1      1404 1.56596E-06 5.00204E+00 0.00000E+00
 -1      1405 1.53356E-06 4.77602E+00 0.00000E+00
 -1      1406 1.50091E-06 4.55475E+00 0.00000E+00
 -1      1407 1.46802E-06 4.33825E+00 0.00000E+00
 -1      1408 1.43489E-06 4.12657E+00 0.00000E+00
 -1      1409 1.40151E-06 3.91973E+00 0.00000E+00
 -1      1410 1.36790E-06 3.71779E+00 0.00000E+00
 -1      1411 1.33404E-06 3.52076E+00 0.00000E+00
 -1      1412 1.29994E-06 3.32869E+00 0.00000E+00
 -1      1413 1.26559E-06 3.14161E+00 0.00000E+00
 -1      1414 1.23101E-06 2.95956E+00 0.00000E+00
 -1      1415 1.19617E-06 2.78256E+00 0.00000E+00
 -1      1416 1.16110E-06 2.61067E+00 0.00000E+00
 -1      1417 1.12578E-06 2.44391E+00 0.00000E+00
 -1      1418 1.09023E-06 2.28232E+00 0.00000E+00
 -1      1419 1.05442E-06 2.12593E+00 0.00000E+00
 -1      1420 1.01838E-06 1.97478E+00 0.00000E+00
 -1      1421 9.82089E-07 1.82890E+00 0.00000E+00
 -1      1422 9.45551E-07 1.68834E+00 0.00000E+00
 -1      1423 9.08780E-07 1.55312E+00 0.00000E+00
 -1      1424 8.71755E-07 1.42328E+00 0.00000E+00
 -1      1425 8.34497E-07 1.29886E+00 0.00000E+00
 -1      1426 7.96986E-07 1.17989E+00 0.00000E+00
 -1      1427 7.59241E-07 1.06640E+00 0.00000E+00
 -1      1428 7.21240E-07 9.58448E-01 0.00000E+00
 -1      1429 6.83012E-07 8.56047E-01 0.00000E+00
 -1      1430 6.44520E-07 7.59241E-01 0.00000E+00
 -1      1431 6.05807E-07 6.68065E-01 0.00000E+00
 -1      1432 5.66827E-07 5.82556E-01 0.00000E+00
 -1      1433 5.27628E-07 5.02746E-01 0.00000E+00
 -1      1434 4.88160E-07 4.28672E-01 0.00000E+00
 -1      1435 4.48475E-07 3.60372E-01 0.00000E+00
 -1      1436 4.08515E-07 2.97877E-01 0.00000E+00
 -1      1437 3.68346E-07 2.41226E-01 0.00000E+00
 -1      1438 3.27898E-07 1.90454E-01 0.00000E+00
 -1      1439 2.87243E-07 1.45596E-01 0.00000E+00
 -1      1440 2.46305E-07 1.06687E-01 0.00000E+00
 -1      1441 2.05159E-07 7.37636E-02 0.00000E+00
 -1      1442 1.63758E-07 4.68607E-02 0.00000E+00
 -1      1443 1.22027E-07 2.60178E-02 0.00000E+00
 -1      1444 8.05092E-08 1.12479E-02 0.00000E+00
 -1      1445 3.69109E-08 2.67834E-03 0.00000E+00
 -1      1446 0.00000E+00 0.00000E+00 0.00000E+00
 -1      1447-4.98670E-02 1.01399E+02 0.00000E+00
 -1      1448-4.98669E-02 1.00818E+02 0.00000E+00
 -1      1449-4.98669E-02 1.00236E+02 0.00000E+00
 -1      1450-4.98668E-02 9.96539E+01 0.00000E+00
 -1      1451-4.98666E-02 9.90720E+01 0.00000E+00
 -1      1452-4.98663E-02 9.84902E+01 0.00000E+00
 -1      1453-4.98658E-02 9.79084E+01 0.00000E+00
 -1      1454-4.98651E-02 9.73266E+01 0.00000E+00
 -1      1455-4.98642E-02 9.67448E+01 0.00000E+00
 -1      1456-4.98631E-02 9.61630E+01 0.00000E+00
 -1      1457-4.98616E-02 9.55813E+01 0.00000E+00
 -1      1458-4.98599E-02 9.49996E+01 0.00000E+00
 -1      1459-4.98578E-02 9.44178E+01 0.00000E+00
 -1      1460-4.98553E-02 9.38361E+01 0.00000E+00
 -1      1461-4.98524E-02 9.32544E+01 0.00000E+00
 -1      1462-4.98491E-02 9.26728E+01 0.00000E+00
 -1      1463-4.98453E-02 9.20913E+01 0.00000E+00
 -1      1464-4.98410E-02 9.15097E+01 0.00000E+00
 -1      1465-4.98362E-02 9.09282E+01 0.00000E+00
 -1      1466-4.98309E-02 9.03468E+01 0.00000E+00
 -1      1467-4.98249E-02 8.97654E+01 0.00000E+00
 -1      1468-4.98184E-02 8.91842E+01 0.00000E+00
 -1      1469-4.98112E-02 8.86029E+01 0.00000E+00
 -1      1470-4.98033E-02 8.80218E+01 0.00000E+00
 -1      1471-4.97948E-02 8.74408E+01 0.00000E+00
 -1      1472-4.97855E-02 8.68599E+01 0.00000E+00
 -1      1473-4.97754E-02 8.62790E+01 0.00000E+00
 -1      1474-4.97646E-02 8.56984E+01 0.00000E+00
 -1      1475-4.97530E-02 8.51178E+01 0.00000E+00
 -1      1476-4.97405E-02 8.45374E+01 0.00000E+00
 -1      1477-4.97272E-02 8.39571E+01 0.00000E+00
 -1      1478-4.97130E-02 8.33770E+01 0.00000E+00
 -1      1479-4.96979E-02 8.27971E+01 0.00000E+00
 -1      1480-4.96818E-02 8.22173E+01 0.00000E+00
 -1      1481-4.96648E-02 8.16378E+01 0.00000E+00
 -1      1482-4.96468E-02 8.10584E+01 0.00000E+00
 -1      1483-4.96277E-02 8.04793E+01 0.00000E+00
 -1      1484-4.96076E-02 7.99004E+01 0.00000E+00
 -1      1485-4.95864E-02 7.93217E+01 0.00000E+00
 -1      1486-4.95641E-02 7.87433E+01 0.00000E+00
 -1      1487-4.95407E-02 7.81651E+01 0.00000E+00
 -1      1488-4.95162E-02 7.75873E+01 0.00000E+00
 -1      1489-4.94905E-02 7.70097E+01 0.00000E+00
 -1      1490-4.94636E-02 7.64324E+01 0.00000E+00
 -1      1491-4.94354E-02 7.58555E+01 0.00000E+00
 -1      1492-4.94060E-02 7.52789E+01 0.00000E+00
 -1      1493-4.93754E-02 7.47026E+01 0.00000E+00
 -1      1494-4.93434E-02 7.41267E+01 0.00000E+00
 -1      1495-4.93101E-02 7.35512E+01 0.00000E+00
 -1      1496-4.92755E-02 7.29761E+01 0.00000E+00
 -1      1497-4.92395E-02 7.24014E+01 0.00000E+00
 -1      1498-4.92022E-02 7.18271E+01 0.00000E+00
 -1      1499-4.91634E-02 7.12532E+01 0.00000E+00
 -1      1500-4.91232E-02 7.06799E+01 0.00000E+00
 -1      1501-4.90815E-02 7.01070E+01 0.00000E+00
 -1      1502-4.90383E-02 6.95346E+01 0.00000E+00
 -1      1503-4.89937E-02 6.89627E+01 0.00000E+00
 -1      1504-4.89475E-02 6.83913E+01 0.00000E+00
 -1      1505-4.88997E-02 6.78205E+01 0.00000E+00
 -1      1506-4.88504E-02 6.72503E+01 0.00000E+00
 -1      1507-4.87995E-02 6.66806E+01 0.00000E+00
 -1      1508-4.87470E-02 6.61115E+01 0.00000E+00
 -1      1509-4.86929E-02 6.55431E+01 0.00000E+00
 -1      1510-4.86371E-02 6.49753E+01 0.00000E+00
 -1      1511-4.85796E-02 6.44082E+01 0.00000E+00
 -1      1512-4.85205E-02 6.38417E+01 0.00000E+00
 -1      1513-4.84596E-02 6.32760E+01 0.00000E+00
 -1      1514-4.83970E-02 6.27109E+01 0.00000E+00
 -1      1515-4.83326E-02 6.21466E+01 0.00000E+00
 -1      1516-4.82664E-02 6.15831E+01 0.00000E+00
 -1      1517-4.81985E-02 6.10203E+01 0.00000E+00
 -1      1518-4.81287E-02 6.04584E+01 0.00000E+00
 -1      1519-4.80571E-02 5.98973E+01 0.00000E+00
 -1      1520-4.79837E-02 5.93370E+01 0.00000E+00
 -1      1521-4.79083E-02 5.87776E+01 0.00000E+00
 -1      1522-4.78311E-02 5.82191E+01 0.00000E+00
 -1      1523-4.77520E-02 5.76615E+01 0.00000E+00
 -1      1524-4.76709E-02 5.71048E+01 0.00000E+00
 -1      1525-4.75879E-02 5.65491E+01 0.00000E+00
 -1      1526-4.75029E-02 5.59944E+01 0.00000E+00
 -1      1527-4.74160E-02 5.54406E+01 0.00000E+00
 -1      1528-4.73270E-02 5.48879E+01 0.00000E+00
 -1      1529-4.72360E-02 5.43363E+01 0.00000E+00
 -1      1530-4.71430E-02 5.37857E+01 0.00000E+00
 -1      1531-4.70479E-02 5.32362E+01 0.00000E+00
 -1      1532-4.69508E-02 5.26879E+01 0.00000E+00
 -1      1533-4.68515E-02 5.21406E+01 0.00000E+00
 -1      1534-4.67502E-02 5.15946E+01 0.00000E+00
 -1      1535-4.66467E-02 5.10498E+01 0.00000E+00
 -1      1536-4.65411E-02 5.05061E+01 0.00000E+00
 -1      1537-4.64334E-02 4.99637E+01 0.00000E+00
 -1      1538-4.63234E-02 4.94226E+01 0.00000E+00
 -1      1539-4.62113E-02 4.88828E+01 0.00000E+00
 -1      1540-4.60970E-02 4.83443E+01 0.00000E+00
 -1      1541-4.59804E-02 4.78071E+01 0.00000E+00
 -1      1542-4.58617E-02 4.72714E+01 0.00000E+00
 -1      1543-4.57407E-02 4.67370E+01 0.00000E+00
 -1      1544-4.56174E-02 4.62040E+01 0.00000E+00
 -1      1545-4.54918E-02 4.56725E+01 0.00000E+00
 -1      1546-4.53640E-02 4.51425E+01 0.00000E+00
 -1      1547-4.52338E-02 4.46140E+01 0.00000E+00
 -1      1548-4.51013E-02 4.40870E+01 0.00000E+00
 -1      1549-4.49665E-02 4.35615E+01 0.00000E+00
 -1      1550-4.48293E-02 4.30377E+01 0.00000E+00
 -1      1551-4.46898E-02 4.25155E+01 0.00000E+00
 -1      1552-4.45478E-02 4.19949E+01 0.00000E+00
 -1      1553-4.44035E-02 4.14760E+01 0.00000E+00
 -1      1554-4.42568E-02 4.09587E+01 0.00000E+00
 -1      1555-4.41077E-02 4.04433E+01 0.00000E+00
 -1      1556-4.39561E-02 3.99295E+01 0.00000E+00
 -1      1557-4.38021E-02 3.94176E+01 0.00000E+00
 -1      1558-4.36457E-02 3.89074E+01 0.00000E+00
 -1      1559-4.34867E-02 3.83991E+01 0.00000E+00
 -1      1560-4.33253E-02 3.78927E+01 0.00000E+00
 -1      1561-4.31614E-02 3.73881E+01 0.00000E+00
 -1      1562-4.29950E-02 3.68855E+01 0.00000E+00
 -1      1563-4.28261E-02 3.63849E+01 0.00000E+00
 -1      1564-4.26611E-02 3.58862E+01 0.00000E+00
 -1      1565-4.24871E-02 3.53895E+01 0.00000E+00
 -1      1566-4.23105E-02 3.48949E+01 0.00000E+00
 -1      1567-4.21313E-02 3.44024E+01 0.00000E+00
 -1      1568-4.19496E-02 3.39120E+01 0.00000E+00
 -1      1569-4.17653E-02 3.34237E+01 0.00000E+00
 -1      1570-4.15784E-02 3.29375E+01 0.00000E+00
 -1      1571-4.13889E-02 3.24536E+01 0.00000E+00
 -1      1572-4.11968E-02 3.19719E+01 0.00000E+00
 -1      1573-4.10020E-02 3.14924E+01 0.00000E+00
 -1      1574-4.08046E-02 3.10153E+01 0.00000E+00
 -1      1575-4.06046E-02 3.05404E+01 0.00000E+00
 -1      1576-4.04019E-02 3.00679E+01 0.00000E+00
 -1      1577-4.01965E-02 2.95978E+01 0.00000E+00
 -1      1578-3.99885E-02 2.91301E+01 0.00000E+00
 -1      1579-3.97777E-02 2.86649E+01 0.00000E+00
 -1      1580-3.95643E-02 2.82021E+01 0.00000E+00
 -1      1581-3.93482E-02 2.77418E+01 0.00000E+00
 -1      1582-3.91293E-02 2.72840E+01 0.00000E+00
 -1      1583-3.89078E-02 2.68289E+01 0.00000E+00
 -1      1584-3.86834E-02 2.63763E+01 0.00000E+00
 -1      1585-3.84564E-02 2.59263E+01 0.00000E+00
 -1      1586-3.82266E-02 2.54791E+01 0.00000E+00
 -1      1587-3.79941E-02 2.50345E+01 0.00000E+00
 -1      1588-3.77588E-02 2.45926E+01 0.00000E+00
 -1      1589-3.75207E-02 2.41535E+01 0.00000E+00
 -1      1590-3.72798E-02 2.37172E+01 0.00000E+00
 -1      1591-3.70362E-02 2.32838E+01 0.00000E+00
 -1      1592-3.67897E-02 2.28531E+01 0.00000E+00
 -1      1593-3.65405E-02 2.24254E+01 0.00000E+00
 -1      1594-3.62884E-02 2.20006E+01 0.00000E+00
 -1      1595-3.60335E-02 2.15788E+01 0.00000E+00
 -1      1596-3.57758E-02 2.11599E+01 0.00000E+00
 -1      1597-3.55153E-02 2.07441E+01 0.00000E+00
 -1      1598-3.52519E-02 2.03313E+01 0.00000E+00
 -1      1599-3.49857E-02 1.99216E+01 0.00000E+00
 -1      1600-3.47166E-02 1.95151E+01 0.00000E+00
 -1      1601-3.44447E-02 1.91117E+01 0.00000E+00
 -1      1602-3.41699E-02 1.87115E+01 0.00000E+00
 -1      1603-3.38923E-02 1.83145E+01 0.00000E+00
 -1      1604-3.36117E-02 1.79207E+01 0.00000E+00
 -1      1605-3.33283E-02 1.75303E+01 0.00000E+00
 -1      1606-3.30420E-02 1.71431E+01 0.00000E+00
 -1      1607-3.27528E-02 1.67594E+01 0.00000E+00
 -1      1608-3.24607E-02 1.63790E+01 0.00000E+00
 -1      1609-3.21657E-02 1.60020E+01 0.00000E+00
 -1      1610-3.18678E-02 1.56285E+01 0.00000E+00
 -1      1611-3.15670E-02 1.52585E+01 0.00000E+00
 -1      1612-3.12633E-02 1.48920E+01 0.00000E+00
 -1      1613-3.09566E-02 1.45291E+01 0.00000E+00
 -1      1614-3.06471E-02 1.41698E+01 0.00000E+00
 -1      1615-3.03345E-02 1.38141E+01 0.00000E+00
 -1      1616-3.00191E-02 1.34621E+01 0.00000E+00
 -1      1617-2.97007E-02 1.31137E+01 0.00000E+00
 -1      1618-2.93793E-02 1.27691E+01 0.00000E+00
 -1      1619-2.90551E-02 1.24283E+01 0.00000E+00
 -1      1620-2.87278E-02 1.20913E+01 0.00000E+00
 -1      1621-2.83976E-02 1.17581E+01 0.00000E+00
 -1      1622-2.80644E-02 1.14287E+01 0.00000E+00
 -1      1623-2.77283E-02 1.11033E+01 0.00000E+00
 -1      1624-2.73892E-02 1.07818E+01 0.00000E+00
 -1      1625-2.70472E-02 1.04643E+01 0.00000E+00
 -1      1626-2.67021E-02 1.01508E+01 0.00000E+00
 -1      1627-2.63541E-02 9.84130E+00 0.00000E+00
 -1      1628-2.60031E-02 9.53591E+00 0.00000E+00
 -1      1629-2.56491E-02 9.23464E+00 0.00000E+00
 -1      1630-2.52921E-02 8.93750E+00 0.00000E+00
 -1      1631-2.49321E-02 8.64455E+00 0.00000E+00
 -1      1632-2.45692E-02 8.35582E+00 0.00000E+00
 -1      1633-2.42032E-02 8.07133E+00 0.00000E+00
 -1      1634-2.38342E-02 7.79115E+00 0.00000E+00
 -1      1635-2.34623E-02 7.51527E+00 0.00000E+00
 -1      1636-2.30873E-02 7.24375E+00 0.00000E+00
 -1      1637-2.27093E-02 6.97663E+00 0.00000E+00
 -1      1638-2.23283E-02 6.71393E+00 0.00000E+00
 -1      1639-2.19444E-02 6.45570E+00 0.00000E+00
 -1      1640-2.15573E-02 6.20196E+00 0.00000E+00
 -1      1641-2.11673E-02 5.95275E+00 0.00000E+00
 -1      1642-2.07743E-02 5.70811E+00 0.00000E+00
 -1      1643-2.03782E-02 5.46807E+00 0.00000E+00
 -1      1644-1.99791E-02 5.23268E+00 0.00000E+00
 -1      1645-1.95770E-02 5.00195E+00 0.00000E+00
 -1      1646-1.91719E-02 4.77593E+00 0.00000E+00
 -1      1647-1.87637E-02 4.55466E+00 0.00000E+00
 -1      1648-1.83526E-02 4.33816E+00 0.00000E+00
 -1      1649-1.79384E-02 4.12648E+00 0.00000E+00
 -1      1650-1.75211E-02 3.91966E+00 0.00000E+00
 -1      1651-1.71009E-02 3.71771E+00 0.00000E+00
 -1      1652-1.66776E-02 3.52068E+00 0.00000E+00
 -1      1653-1.62512E-02 3.32861E+00 0.00000E+00
 -1      1654-1.58219E-02 3.14153E+00 0.00000E+00
 -1      1655-1.53895E-02 2.95949E+00 0.00000E+00
 -1      1656-1.49540E-02 2.78250E+00 0.00000E+00
 -1      1657-1.45156E-02 2.61060E+00 0.00000E+00
 -1      1658-1.40740E-02 2.44384E+00 0.00000E+00
 -1      1659-1.36295E-02 2.28225E+00 0.00000E+00
 -1      1660-1.31818E-02 2.12587E+00 0.00000E+00
 -1      1661-1.27312E-02 1.97472E+00 0.00000E+00
 -1      1662-1.22776E-02 1.82885E+00 0.00000E+00
 -1      1663-1.18208E-02 1.68828E+00 0.00000E+00
 -1      1664-1.13611E-02 1.55306E+00 0.00000E+00
 -1      1665-1.08982E-02 1.42323E+00 0.00000E+00
 -1      1666-1.04324E-02 1.29881E+00 0.00000E+00
 -1      1667-9.96351E-03 1.17984E+00 0.00000E+00
 -1      1668-9.49155E-03 1.06636E+00 0.00000E+00
 -1      1669-9.01657E-03 9.58407E-01 0.00000E+00
 -1      1670-8.53853E-03 8.56009E-01 0.00000E+00
 -1      1671-8.05748E-03 7.59208E-01 0.00000E+00
 -1      1672-7.57332E-03 6.68035E-01 0.00000E+00
 -1      1673-7.08621E-03 5.82527E-01 0.00000E+00
 -1      1674-6.59589E-03 5.02719E-01 0.00000E+00
 -1      1675-6.10280E-03 4.28649E-01 0.00000E+00
 -1      1676-5.60628E-03 3.60351E-01 0.00000E+00
 -1      1677-5.10718E-03 2.97860E-01 0.00000E+00
 -1      1678-4.60444E-03 2.41212E-01 0.00000E+00
 -1      1679-4.09945E-03 1.90443E-01 0.00000E+00
 -1      1680-3.59036E-03 1.45587E-01 0.00000E+00
 -1      1681-3.07959E-03 1.06682E-01 0.00000E+00
 -1      1682-2.56395E-03 7.37619E-02 0.00000E+00
 -1      1683-2.04793E-03 4.68615E-02 0.00000E+00
 -1      1684-1.52425E-03 2.60223E-02 0.00000E+00
 -1      1685-1.00763E-03 1.12543E-02 0.00000E+00
 -1      1686-4.59932E-04 2.69318E-03 0.00000E+00
 -1      1687 0.00000E+00 0.00000E+00 0.00000E+00
 -1      1688-4.98670E-02 1.01399E+02 0.00000E+00
 -1      1689-4.98669E-02 1.00818E+02 0.00000E+00
 -1      1690-4.98669E-02 1.00236E+02 0.00000E+00
 -1      1691-4.98668E-02 9.96539E+01 0.00000E+00
 -1      1692-4.98666E-02 9.90720E+01 0.00000E+00
 -1      1693-4.98663E-02 9.84902E+01 0.00000E+00
 -1      1694-4.98658E-02 9.79084E+01 0.00000E+00
 -1      1695-4.98651E-02 9.73266E+01 0.00000E+00
 -1      1696-4.98642E-02 9.67448E+01 0.00000E+00
 -1      1697-4.98631E-02 9.61630E+01 0.00000E+00
 -1      1698-4.98616E-02 9.55813E+01 0.00000E+00
 -1      1699-4.98599E-02 9.49996E+01 0.00000E+00
 -1      1700-4.98578E-02 9.44178E+01 0.00000E+00
 -1      1701-4.98553E-02 9.38361E+01 0.00000E+00
 -1      1702-4.98524E-02 9.32544E+01 0.00000E+00
 -1      1703-4.98491E-02 9.26728E+01 0.00000E+00
 -1      1704-4.98453E-02 9.20913E+01 0.00000E+00
 -1      1705-4.98410E-02 9.15097E+01 0.00000E+00
 -1      1706-4.98362E-02 9.09282E+01 0.00000E+00
 -1      1707-4.98309E-02 9.03468E+01 0.00000E+00
 -1      1708-4.98249E-02 8.97654E+01 0.00000E+00
 -1      1709-4.98184E-02 8.91842E+01 0.00000E+00
 -1      1710-4.98112E-02 8.86029E+01 0.00000E+00
 -1      1711-4.98033E-02 8.80218E+01 0.00000E+00
 -1      1712-4.97948E-02 8.74408E+01 0.00000E+00
 -1      1713-4.97855E-02 8.68599E+01 0.00000E+00
 -1      1714-4.97754E-02 8.62790E+01 0.00000E+00
 -1      1715-4.97646E-02 8.56984E+01 0.00000E+00
 -1      1716-4.97530E-02 8.51178E+01 0.00000E+00
 -1      1717-4.97405E-02 8.45374E+01 0.00000E+00
 -1      1718-4.97272E-02 8.39571E+01 0.00000E+00
 -1      1719-4.97130E-02 8.33770E+01 0.00000E+00
 -1      1720-4.96979E-02 8.27971E+01 0.00000E+00
 -1      1721-4.96818E-02 8.22173E+01 0.00000E+00
 -1      1722-4.96648E-02 8.16378E+01 0.00000E+00
 -1      1723-4.96468E-02 8.10584E+01 0.00000E+00
 -1      1724-4.96277E-02 8.04793E+01 0.00000E+00
 -1      1725-4.96076E-02 7.99004E+01 0.00000E+00
 -1      1726-4.95864E-02 7.93217E+01 0.00000E+00
 -1      1727-4.95641E-02 7.87433E+01 0.00000E+00
 -1      1728-4.95407E-02 7.81651E+01 0.00000E+00
 -1      1729-4.95162E-02 7.75873E+01 0.00000E+00
 -1      1730-4.94905E-02 7.70097E+01 0.00000E+00
 -1      1731-4.94636E-02 7.64324E+01 0.00000E+00
 -1      1732-4.94354E-02 7.58555E+01 0.00000E+00
 -1      1733-4.94060E-02 7.52789E+01 0.00000E+00
 -1      1734-4.93754E-02 7.47026E+01 0.00000E+00
 -1      1735-4.93434E-02 7.41267E+01 0.00000E+00
 -1      1736-4.93101E-02 7.35512E+01 0.00000E+00
 -1      1737-4.92755E-02 7.29761E+01 0.00000E+00
 -1      1738-4.92395E-02 7.24014E+01 0.00000E+00
 -1      1739-4.92022E-02 7.18271E+01 0.00000E+00
 -1      1740-4.91634E-02 7.12532E+01 0.00000E+00
 -1      1741-4.91232E-02 7.06799E+01 0.00000E+00
 -1      1742-4.90815E-02 7.01070E+01 0.00000E+00
 -1      1743-4.90383E-02 6.95346E+01 0.00000E+00
 -1      1744-4.89937E-02 6.89627E+01 0.00000E+00
 -1      1745-4.89475E-02 6.83913E+01 0.00000E+00
 -1      1746-4.88997E-02 6.78205E+01 0.00000E+00
 -1      1747-4.88504E-02 6.72503E+01 0.00000E+00
 -1      1748-4.87995E-02 6.66806E+01 0.00000E+00
 -1      1749-4.87470E-02 6.61115E+01 0.00000E+00
 -1      1750-4.86929E-02 6.55431E+01 0.00000E+00
 -1      1751-4.86371E-02 6.49753E+01 0.00000E+00
 -1      1752-4.85796E-02 6.44082E+01 0.00000E+00
 -1      1753-4.85205E-02 6.38417E+01 0.00000E+00
 -1      1754-4.84596E-02 6.32760E+01 0.00000E+00
 -1      1755-4.83970E-02 6.27109E+01 0.00000E+00
 -1      1756-4.83326E-02 6.21466E+01 0.00000E+00
 -1      1757-4.82665E-02 6.15831E+01 0.00000E+00
 -1      1758-4.81985E-02 6.10203E+01 0.00000E+00
 -1      1759-4.81287E-02 6.04584E+01 0.00000E+00
 -1      1760-4.80571E-02 5.98973E+01 0.00000E+00
 -1      1761-4.79837E-02 5.93370E+01 0.00000E+00
 -1      1762-4.79084E-02 5.87776E+01 0.00000E+00
 -1      1763-4.78311E-02 5.82191E+01 0.00000E+00
 -1      1764-4.77520E-02 5.76615E+01 0.00000E+00
 -1      1765-4.76709E-02 5.71048E+01 0.00000E+00
 -1      1766-4.75879E-02 5.65491E+01 0.00000E+00
 -1      1767-4.75029E-02 5.59944E+01 0.00000E+00
 -1      1768-4.74160E-02 5.54406E+01 0.00000E+00
 -1      1769-4.73270E-02 5.48879E+01 0.00000E+00
 -1      1770-4.72360E-02 5.43363E+01 0.00000E+00
 -1      1771-4.71430E-02 5.37857E+01 0.00000E+00
 -1      1772-4.70479E-02 5.32362E+01 0.00000E+00
 -1      1773-4.69508E-02 5.26879E+01 0.00000E+00
 -1      1774-4.68515E-02 5.21406E+01 0.00000E+00
 -1      1775-4.67502E-02 5.15946E+01 0.00000E+00
 -1      1776-4.66467E-02 5.10498E+01 0.00000E+00
 -1      1777-4.65411E-02 5.05061E+01 0.00000E+00
 -1      1778-4.64334E-02 4.99637E+01 0.00000E+00
 -1      1779-4.63234E-02 4.94226E+01 0.00000E+00
 -1      1780-4.62113E-02 4.88828E+01 0.00000E+00
 -1      1781-4.60970E-02 4.83443E+01 0.00000E+00
 -1      1782-4.59804E-02 4.78071E+01 0.00000E+00
 -1      1783-4.58617E-02 4.72714E+01 0.00000E+00
 -1      1784-4.57407E-02 4.67370E+01 0.00000E+00
 -1      1785-4.56174E-02 4.62040E+01 0.00000E+00
 -1      1786-4.54918E-02 4.56725E+01 0.00000E+00
 -1      1787-4.53640E-02 4.51425E+01 0.00000E+00
 -1      1788-4.52338E-02 4.46140E+01 0.00000E+00
 -1      1789-4.51013E-02 4.40870E+01 0.00000E+00
 -1      1790-4.49665E-02 4.35615E+01 0.00000E+00
 -1      1791-4.48293E-02 4.30377E+01 0.00000E+00
 -1      1792-4.46898E-02 4.25155E+01 0.00000E+00
 -1      1793-4.45478E-02 4.19949E+01 0.00000E+00
 -1      1794-4.44035E-02 4.14760E+01 0.00000E+00
 -1      1795-4.42568E-02 4.09587E+01 0.00000E+00
 -1      1796-4.41077E-02 4.04433E+01 0.00000E+00
 -1      1797-4.39561E-02 3.99295E+01 0.00000E+00
 -1      1798-4.38021E-02 3.94176E+01 0.00000E+00
 -1      1799-4.36457E-02 3.89074E+01 0.00000E+00
 -1      1800-4.34867E-02 3.83991E+01 0.00000E+00
 -1      1801-4.33253E-02 3.78927E+01 0.00000E+00
 -1      1802-4.31614E-02 3.73881E+01 0.00000E+00
 -1      1803-4.29950E-02 3.68855E+01 0.00000E+00
 -1      1804-4.28261E-02 3.63849E+01 0.00000E+00
 -1      1805-4.26611E-02 3.58862E+01 0.00000E+00
 -1      1806-4.24871E-02 3.53895E+01 0.00000E+00
 -1      1807-4.23105E-02 3.48949E+01 0.00000E+00
 -1      1808-4.21313E-02 3.44024E+01 0.00000E+00
 -1      1809-4.19496E-02 3.39120E+01 0.00000E+00
 -1      1810-4.17653E-02 3.34237E+01 0.00000E+00
 -1      1811-4.15784E-02 3.29375E+01 0.00000E+00
 -1      1812-4.13889E-02 3.24536E+01 0.00000E+00
 -1      1813-4.11968E-02 3.19719E+01 0.00000E+00
 -1      1814-4.10020E-02 3.14924E+01 0.00000E+00
 -1      1815-4.08046E-02 3.10153E+01 0.00000E+00
 -1      1816-4.06046E-02 3.05404E+01 0.00000E+00
 -1      1817-4.04019E-02 3.00679E+01 0.00000E+00
 -1      1818-4.01965E-02 2.95978E+01 0.00000E+00
 -1      1819-3.99885E-02 2.91301E+01 0.00000E+00
 -1      1820-3.97777E-02 2.86649E+01 0.00000E+00
 -1      1821-3.95643E-02 2.82021E+01 0.00000E+00
 -1      1822-3.93482E-02 2.77418E+01 0.00000E+00
 -1      1823-3.91293E-02 2.72840E+01 0.00000E+00
 -1      1824-3.89078E-02 2.68289E+01 0.00000E+00
 -1      1825-3.86834E-02 2.63763E+01 0.00000E+00
 -1      1826-3.84564E-02 2.59263E+01 0.00000E+00
 -1      1827-3.82266E-02 2.54791E+01 0.00000E+00
 -1      1828-3.79941E-02 2.50345E+01 0.00000E+00
 -1      1829-3.77588E-02 2.45926E+01 0.00000E+00
 -1      1830-3.75207E-02 2.41535E+01 0.00000E+00
 -1      1831-3.72798E-02 2.37172E+01 0.00000E+00
 -1      1832-3.70362E-02 2.32838E+01 0.00000E+00
 -1      1833-3.67897E-02 2.28531E+01 0.00000E+00
 -1      1834-3.65405E-02 2.24254E+01 0.00000E+00
 -1      1835-3.62884E-02 2.20006E+01 0.00000E+00
 -1      1836-3.60335E-02 2.15788E+01 0.00000E+00
 -1      1837-3.57758E-02 2.11599E+01 0.00000E+00
 -1      1838-3.55153E-02 2.07441E+01 0.00000E+00
 -1      1839-3.52519E-02 2.03313E+01 0.00000E+00
 -1      1840-3.49857E-02 1.99216E+01 0.00000E+00
 -1      1841-3.47166E-02 1.95151E+01 0.00000E+00
 -1      1842-3.44447E-02 1.91117E+01 0.00000E+00
 -1      1843-3.41699E-02 1.87115E+01 0.00000E+00
 -1      1844-3.38923E-02 1.83145E+01 0.00000E+00
 -1      1845-3.36117E-02 1.79207E+01 0.00000E+00
 -1      1846-3.33283E-02 1.75303E+01 0.00000E+00
 -1      1847-3.30420E-02 1.71431E+01 0.00000E+00
 -1      1848-3.27528E-02 1.67594E+01 0.00000E+00
 -1      1849-3.24607E-02 1.63790E+01 0.00000E+00
 -1      1850-3.21657E-02 1.60020E+01 0.00000E+00
 -1      1851-3.18678E-02 1.56285E+01 0.00000E+00
 -1      1852-3.15670E-02 1.52585E+01 0.00000E+00
 -1      1853-3.12633E-02 1.48920E+01 0.00000E+00
 -1      1854-3.09566E-02 1.45291E+01 0.00000E+00
 -1      1855-3.06471E-02 1.41698E+01 0.00000E+00
 -1      1856-3.03345E-02 1.38141E+01 0.00000E+00
 -1      1857-3.00191E-02 1.34621E+01 0.00000E+00
 -1      1858-2.97007E-02 1.31137E+01 0.00000E+00
 -1      1859-2.93793E-02 1.27691E+01 0.00000E+00
 -1      1860-2.90551E-02 1.24283E+01 0.00000E+00
 -1      1861-2.87278E-02 1.20913E+01 0.00000E+00
 -1      1862-2.83976E-02 1.17581E+01 0.00000E+00
 -1      1863-2.80644E-02 1.14287E+01 0.00000E+00
 -1      1864-2.77283E-02 1.11033E+01 0.00000E+00
 -1      1865-2.73892E-02 1.07818E+01 0.00000E+00
 -1      1866-2.70472E-02 1.04643E+01 0.00000E+00
 -1      1867-2.67021E-02 1.01508E+01 0.00000E+00
 -1      1868-2.63541E-02 9.84130E+00 0.00000E+00
 -1      1869-2.60031E-02 9.53591E+00 0.00000E+00
 -1      1870-2.56491E-02 9.23464E+00 0.00000E+00
 -1      1871-2.52921E-02 8.93750E+00 0.00000E+00
 -1      1872-2.49321E-02 8.64455E+00 0.00000E+00
 -1      1873-2.45692E-02 8.35582E+00 0.00000E+00
 -1      1874-2.42032E-02 8.07133E+00 0.00000E+00
 -1      1875-2.38342E-02 7.79115E+00 0.00000E+00
 -1      1876-2.34623E-02 7.51527E+00 0.00000E+00
 -1      1877-2.30873E-02 7.24375E+00 0.00000E+00
 -1      1878-2.27093E-02 6.97663E+00 0.00000E+00
 -1      1879-2.23283E-02 6.71393E+00 0.00000E+00
 -1      1880-2.19444E-02 6.45570E+00 0.00000E+00
 -1      1881-2.15573E-02 6.20196E+00 0.00000E+00
 -1      1882-2.11673E-02 5.95275E+00 0.00000E+00
 -1      1883-2.07743E-02 5.70811E+00 0.00000E+00
 -1      1884-2.03782E-02 5.46807E+00 0.00000E+00
 -1      1885-1.99791E-02 5.23268E+00 0.00000E+00
 -1      1886-1.95770E-02 5.00195E+00 0.00000E+00
 -1      1887-1.91719E-02 4.77593E+00 0.00000E+00
 -1      1888-1.87637E-02 4.55466E+00 0.00000E+00
 -1      1889-1.83526E-02 4.33816E+00 0.00000E+00
 -1      1890-1.79384E-02 4.12648E+00 0.00000E+00
 -1      1891-1.75211E-02 3.91966E+00 0.00000E+00
 -1      1892-1.71009E-02 3.71771E+00 0.00000E+00
 -1      1893-1.66776E-02 3.52068E+00 0.00000E+00
 -1      1894-1.62512E-02 3.32861E+00 0.00000E+00
 -1      1895-1.58219E-02 3.14153E+00 0.00000E+00
 -1      1896-1.53895E-02 2.95949E+00 0.00000E+00
 -1      1897-1.49540E-02 2.78250E+00 0.00000E+00
 -1      1898-1.45156E-02 2.61060E+00 0.00000E+00
 -1      1899-1.40740E-02 2.44384E+00 0.00000E+00
 -1      1900-1.36295E-02 2.28225E+00 0.00000E+00
 -1      1901-1.31818E-02 2.12587E+00 0.00000E+00
 -1      1902-1.27312E-02 1.97472E+00 0.00000E+00
 -1      1903-1.22776E-02 1.82885E+00 0.00000E+00
 -1      1904-1.18208E-02 1.68828E+00 0.00000E+00
 -1      1905-1.13611E-02 1.55306E+00 0.00000E+00
 -1      1906-1.08982E-02 1.42323E+00 0.00000E+00
 -1      1907-1.04324E-02 1.29881E+00 0.00000E+00
 -1      1908-9.96351E-03 1.17984E+00 0.00000E+00
 -1      1909-9.49155E-03 1.06636E+00 0.00000E+00
 -1      1910-9.01657E-03 9.58407E-01 0.00000E+00
 -1      1911-8.53853E-03 8.56009E-01 0.00000E+00
 -1      1912-8.05748E-03 7.59208E-01 0.00000E+00
 -1      1913-7.57332E-03 6.68035E-01 0.00000E+00
 -1      1914-7.08621E-03 5.82527E-01 0.00000E+00
 -1      1915-6.59589E-03 5.02719E-01 0.00000E+00
 -1      1916-6.10280E-03 4.28649E-01 0.00000E+00
 -1      1917-5.60628E-03 3.60351E-01 0.00000E+00
 -1      1918-5.10718E-03 2.97860E-01 0.00000E+00
 -1      1919-4.60444E-03 2.41212E-01 0.00000E+00
 -1      1920-4.09945E-03 1.90443E-01 0.00000E+00
 -1      1921-3.59036E-03 1.45587E-01 0.00000E+00
 -1      1922-3.07959E-03 1.06682E-01 0.00000E+00
 -1      1923-2.56395E-03 7.37619E-02 0.00000E+00
 -1      1924-2.04793E-03 4.68615E-02 0.00000E+00
 -1      1925-1.52425E-03 2.60223E-02 0.00000E+00
 -1      1926-1.00763E-03 1.12543E-02 0.00000E+00
 -1      1927-4.59932E-04 2.69318E-03 0.00000E+00
 -1      1928 0.00000E+00 0.00000E+00 0.00000E+00
 -1      1929-9.97383E-02 1.01399E+02 0.00000E+00
 -1      1930-9.97383E-02 1.00818E+02 0.00000E+00
 -1      1931-9.97382E-02 1.00236E+02 0.00000E+00
 -1      1932-9.97380E-02 9.96538E+01 0.00000E+00
 -1      1933-9.97376E-02 9.90720E+01 0.00000E+00
 -1      1934-9.97369E-02 9.84902E+01 0.00000E+00
 -1      1935-9.97360E-02 9.79084E+01 0.00000E+00
 -1      1936-9.97346E-02 9.73266E+01 0.00000E+00
 -1      1937-9.97328E-02 9.67448E+01 0.00000E+00
 -1      1938-9.97305E-02 9.61630E+01 0.00000E+00
 -1      1939-9.97276E-02 9.55813E+01 0.00000E+00
 -1      1940-9.97241E-02 9.49995E+01 0.00000E+00
 -1      1941-9.97199E-02 9.44178E+01 0.00000E+00
 -1      1942-9.97150E-02 9.38361E+01 0.00000E+00
 -1      1943-9.97092E-02 9.32544E+01 0.00000E+00
 -1      1944-9.97026E-02 9.26728E+01 0.00000E+00
 -1      1945-9.96950E-02 9.20912E+01 0.00000E+00
 -1      1946-9.96864E-02 9.15096E+01 0.00000E+00
 -1      1947-9.96768E-02 9.09281E+01 0.00000E+00
 -1      1948-9.96661E-02 9.03467E+01 0.00000E+00
 -1      1949-9.96542E-02 8.97653E+01 0.00000E+00
 -1      1950-9.96411E-02 8.91841E+01 0.00000E+00
 -1      1951-9.96267E-02 8.86028E+01 0.00000E+00
 -1      1952-9.96110E-02 8.80217E+01 0.00000E+00
 -1      1953-9.95939E-02 8.74407E+01 0.00000E+00
 -1      1954-9.95753E-02 8.68598E+01 0.00000E+00
 -1      1955-9.95553E-02 8.62789E+01 0.00000E+00
 -1      1956-9.95336E-02 8.56982E+01 0.00000E+00
 -1      1957-9.95104E-02 8.51177E+01 0.00000E+00
 -1      1958-9.94855E-02 8.45373E+01 0.00000E+00
 -1      1959-9.94588E-02 8.39570E+01 0.00000E+00
 -1      1960-9.94304E-02 8.33769E+01 0.00000E+00
 -1      1961-9.94002E-02 8.27970E+01 0.00000E+00
 -1      1962-9.93680E-02 8.22172E+01 0.00000E+00
 -1      1963-9.93339E-02 8.16376E+01 0.00000E+00
 -1      1964-9.92979E-02 8.10583E+01 0.00000E+00
 -1      1965-9.92598E-02 8.04791E+01 0.00000E+00
 -1      1966-9.92196E-02 7.99002E+01 0.00000E+00
 -1      1967-9.91772E-02 7.93215E+01 0.00000E+00
 -1      1968-9.91327E-02 7.87431E+01 0.00000E+00
 -1      1969-9.90859E-02 7.81650E+01 0.00000E+00
 -1      1970-9.90368E-02 7.75871E+01 0.00000E+00
 -1      1971-9.89853E-02 7.70095E+01 0.00000E+00
 -1      1972-9.89315E-02 7.64323E+01 0.00000E+00
 -1      1973-9.88752E-02 7.58553E+01 0.00000E+00
 -1      1974-9.88164E-02 7.52787E+01 0.00000E+00
 -1      1975-9.87551E-02 7.47024E+01 0.00000E+00
 -1      1976-9.86912E-02 7.41265E+01 0.00000E+00
 -1      1977-9.86246E-02 7.35510E+01 0.00000E+00
 -1      1978-9.85554E-02 7.29759E+01 0.00000E+00
 -1      1979-9.84834E-02 7.24012E+01 0.00000E+00
 -1      1980-9.84087E-02 7.18269E+01 0.00000E+00
 -1      1981-9.83311E-02 7.12530E+01 0.00000E+00
 -1      1982-9.82507E-02 7.06797E+01 0.00000E+00
 -1      1983-9.81673E-02 7.01068E+01 0.00000E+00
 -1      1984-9.80810E-02 6.95344E+01 0.00000E+00
 -1      1985-9.79916E-02 6.89625E+01 0.00000E+00
 -1      1986-9.78993E-02 6.83911E+01 0.00000E+00
 -1      1987-9.78038E-02 6.78203E+01 0.00000E+00
 -1      1988-9.77052E-02 6.72500E+01 0.00000E+00
 -1      1989-9.76034E-02 6.66804E+01 0.00000E+00
 -1      1990-9.74984E-02 6.61113E+01 0.00000E+00
 -1      1991-9.73901E-02 6.55429E+01 0.00000E+00
 -1      1992-9.72785E-02 6.49751E+01 0.00000E+00
 -1      1993-9.71635E-02 6.44079E+01 0.00000E+00
 -1      1994-9.70452E-02 6.38415E+01 0.00000E+00
 -1      1995-9.69234E-02 6.32757E+01 0.00000E+00
 -1      1996-9.67982E-02 6.27107E+01 0.00000E+00
 -1      1997-9.66694E-02 6.21464E+01 0.00000E+00
 -1      1998-9.65371E-02 6.15828E+01 0.00000E+00
 -1      1999-9.64012E-02 6.10201E+01 0.00000E+00
 -1      2000-9.62617E-02 6.04581E+01 0.00000E+00
 -1      2001-9.61185E-02 5.98970E+01 0.00000E+00
 -1      2002-9.59715E-02 5.93368E+01 0.00000E+00
 -1      2003-9.58209E-02 5.87773E+01 0.00000E+00
 -1      2004-9.56664E-02 5.82188E+01 0.00000E+00
 -1      2005-9.55081E-02 5.76612E+01 0.00000E+00
 -1      2006-9.53460E-02 5.71045E+01 0.00000E+00
 -1      2007-9.51800E-02 5.65488E+01 0.00000E+00
 -1      2008-9.50100E-02 5.59941E+01 0.00000E+00
 -1      2009-9.48361E-02 5.54403E+01 0.00000E+00
 -1      2010-9.46581E-02 5.48876E+01 0.00000E+00
 -1      2011-9.44761E-02 5.43360E+01 0.00000E+00
 -1      2012-9.42901E-02 5.37854E+01 0.00000E+00
 -1      2013-9.40999E-02 5.32359E+01 0.00000E+00
 -1      2014-9.39056E-02 5.26876E+01 0.00000E+00
 -1      2015-9.37071E-02 5.21403E+01 0.00000E+00
 -1      2016-9.35044E-02 5.15943E+01 0.00000E+00
 -1      2017-9.32975E-02 5.10494E+01 0.00000E+00
 -1      2018-9.30863E-02 5.05058E+01 0.00000E+00
 -1      2019-9.28707E-02 4.99634E+01 0.00000E+00
 -1      2020-9.26509E-02 4.94223E+01 0.00000E+00
 -1      2021-9.24266E-02 4.88825E+01 0.00000E+00
 -1      2022-9.21979E-02 4.83440E+01 0.00000E+00
 -1      2023-9.19648E-02 4.78068E+01 0.00000E+00
 -1      2024-9.17273E-02 4.72710E+01 0.00000E+00
 -1      2025-9.14852E-02 4.67366E+01 0.00000E+00
 -1      2026-9.12386E-02 4.62037E+01 0.00000E+00
 -1      2027-9.09875E-02 4.56722E+01 0.00000E+00
 -1      2028-9.07318E-02 4.51421E+01 0.00000E+00
 -1      2029-9.04714E-02 4.46136E+01 0.00000E+00
 -1      2030-9.02064E-02 4.40866E+01 0.00000E+00
 -1      2031-8.99368E-02 4.35612E+01 0.00000E+00
 -1      2032-8.96624E-02 4.30374E+01 0.00000E+00
 -1      2033-8.93833E-02 4.25151E+01 0.00000E+00
 -1      2034-8.90995E-02 4.19945E+01 0.00000E+00
 -1      2035-8.88108E-02 4.14756E+01 0.00000E+00
 -1      2036-8.85174E-02 4.09584E+01 0.00000E+00
 -1      2037-8.82191E-02 4.04429E+01 0.00000E+00
 -1      2038-8.79160E-02 3.99292E+01 0.00000E+00
 -1      2039-8.76079E-02 3.94172E+01 0.00000E+00
 -1      2040-8.72950E-02 3.89070E+01 0.00000E+00
 -1      2041-8.69771E-02 3.83987E+01 0.00000E+00
 -1      2042-8.66542E-02 3.78923E+01 0.00000E+00
 -1      2043-8.63264E-02 3.73878E+01 0.00000E+00
 -1      2044-8.59936E-02 3.68852E+01 0.00000E+00
 -1      2045-8.56557E-02 3.63845E+01 0.00000E+00
 -1      2046-8.53128E-02 3.58858E+01 0.00000E+00
 -1      2047-8.49647E-02 3.53892E+01 0.00000E+00
 -1      2048-8.46116E-02 3.48946E+01 0.00000E+00
 -1      2049-8.42533E-02 3.44020E+01 0.00000E+00
 -1      2050-8.38899E-02 3.39116E+01 0.00000E+00
 -1      2051-8.35213E-02 3.34233E+01 0.00000E+00
 -1      2052-8.31476E-02 3.29372E+01 0.00000E+00
 -1      2053-8.27686E-02 3.24532E+01 0.00000E+00
 -1      2054-8.23844E-02 3.19715E+01 0.00000E+00
 -1      2055-8.19949E-02 3.14921E+01 0.00000E+00
 -1      2056-8.16002E-02 3.10149E+01 0.00000E+00
 -1      2057-8.12001E-02 3.05400E+01 0.00000E+00
 -1      2058-8.07947E-02 3.00676E+01 0.00000E+00
 -1      2059-8.03840E-02 2.95974E+01 0.00000E+00
 -1      2060-7.99680E-02 2.91297E+01 0.00000E+00
 -1      2061-7.95466E-02 2.86645E+01 0.00000E+00
 -1      2062-7.91197E-02 2.82017E+01 0.00000E+00
 -1      2063-7.86875E-02 2.77414E+01 0.00000E+00
 -1      2064-7.82499E-02 2.72836E+01 0.00000E+00
 -1      2065-7.78067E-02 2.68285E+01 0.00000E+00
 -1      2066-7.73582E-02 2.63759E+01 0.00000E+00
 -1      2067-7.69041E-02 2.59259E+01 0.00000E+00
 -1      2068-7.64446E-02 2.54787E+01 0.00000E+00
 -1      2069-7.59795E-02 2.50341E+01 0.00000E+00
 -1      2070-7.55090E-02 2.45922E+01 0.00000E+00
 -1      2071-7.50329E-02 2.41531E+01 0.00000E+00
 -1      2072-7.45512E-02 2.37168E+01 0.00000E+00
 -1      2073-7.40639E-02 2.32834E+01 0.00000E+00
 -1      2074-7.35711E-02 2.28527E+01 0.00000E+00
 -1      2075-7.30726E-02 2.24250E+01 0.00000E+00
 -1      2076-7.25685E-02 2.20002E+01 0.00000E+00
 -1      2077-7.20588E-02 2.15784E+01 0.00000E+00
 -1      2078-7.15435E-02 2.11595E+01 0.00000E+00
 -1      2079-7.10224E-02 2.07437E+01 0.00000E+00
 -1      2080-7.04957E-02 2.03309E+01 0.00000E+00
 -1      2081-6.99634E-02 1.99212E+01 0.00000E+00
 -1      2082-6.94253E-02 1.95147E+01 0.00000E+00
 -1      2083-6.88815E-02 1.91113E+01 0.00000E+00
 -1      2084-6.83319E-02 1.87111E+01 0.00000E+00
 -1      2085-6.77767E-02 1.83141E+01 0.00000E+00
 -1      2086-6.72157E-02 1.79203E+01 0.00000E+00
 -1      2087-6.66489E-02 1.75299E+01 0.00000E+00
 -1      2088-6.60763E-02 1.71428E+01 0.00000E+00
 -1      2089-6.54981E-02 1.67590E+01 0.00000E+00
 -1      2090-6.49138E-02 1.63786E+01 0.00000E+00
 -1      2091-6.43240E-02 1.60016E+01 0.00000E+00
 -1      2092-6.37282E-02 1.56281E+01 0.00000E+00
 -1      2093-6.31266E-02 1.52581E+01 0.00000E+00
 -1      2094-6.25192E-02 1.48917E+01 0.00000E+00
 -1      2095-6.19059E-02 1.45288E+01 0.00000E+00
 -1      2096-6.12868E-02 1.41694E+01 0.00000E+00
 -1      2097-6.06618E-02 1.38137E+01 0.00000E+00
 -1      2098-6.00310E-02 1.34617E+01 0.00000E+00
 -1      2099-5.93943E-02 1.31134E+01 0.00000E+00
 -1      2100-5.87516E-02 1.27688E+01 0.00000E+00
 -1      2101-5.81031E-02 1.24279E+01 0.00000E+00
 -1      2102-5.74487E-02 1.20909E+01 0.00000E+00
 -1      2103-5.67884E-02 1.17577E+01 0.00000E+00
 -1      2104-5.61221E-02 1.14284E+01 0.00000E+00
 -1      2105-5.54498E-02 1.11029E+01 0.00000E+00
 -1      2106-5.47718E-02 1.07814E+01 0.00000E+00
 -1      2107-5.40877E-02 1.04639E+01 0.00000E+00
 -1      2108-5.33976E-02 1.01504E+01 0.00000E+00
 -1      2109-5.27016E-02 9.84096E+00 0.00000E+00
 -1      2110-5.19998E-02 9.53557E+00 0.00000E+00
 -1      2111-5.12918E-02 9.23430E+00 0.00000E+00
 -1      2112-5.05779E-02 8.93717E+00 0.00000E+00
 -1      2113-4.98580E-02 8.64422E+00 0.00000E+00
 -1      2114-4.91322E-02 8.35549E+00 0.00000E+00
 -1      2115-4.84003E-02 8.07102E+00 0.00000E+00
 -1      2116-4.76624E-02 7.79083E+00 0.00000E+00
 -1      2117-4.69187E-02 7.51496E+00 0.00000E+00
 -1      2118-4.61687E-02 7.24344E+00 0.00000E+00
 -1      2119-4.54128E-02 6.97632E+00 0.00000E+00
 -1      2120-4.46510E-02 6.71362E+00 0.00000E+00
 -1      2121-4.38830E-02 6.45539E+00 0.00000E+00
 -1      2122-4.31091E-02 6.20166E+00 0.00000E+00
 -1      2123-4.23291E-02 5.95246E+00 0.00000E+00
 -1      2124-4.15431E-02 5.70782E+00 0.00000E+00
 -1      2125-4.07511E-02 5.46779E+00 0.00000E+00
 -1      2126-3.99529E-02 5.23240E+00 0.00000E+00
 -1      2127-3.91489E-02 5.00168E+00 0.00000E+00
 -1      2128-3.83387E-02 4.77567E+00 0.00000E+00
 -1      2129-3.75225E-02 4.55440E+00 0.00000E+00
 -1      2130-3.67001E-02 4.33791E+00 0.00000E+00
 -1      2131-3.58719E-02 4.12624E+00 0.00000E+00
 -1      2132-3.50373E-02 3.91941E+00 0.00000E+00
 -1      2133-3.41970E-02 3.71747E+00 0.00000E+00
 -1      2134-3.33504E-02 3.52045E+00 0.00000E+00
 -1      2135-3.24978E-02 3.32839E+00 0.00000E+00
 -1      2136-3.16392E-02 3.14131E+00 0.00000E+00
 -1      2137-3.07744E-02 2.95927E+00 0.00000E+00
 -1      2138-2.99037E-02 2.78229E+00 0.00000E+00
 -1      2139-2.90268E-02 2.61040E+00 0.00000E+00
 -1      2140-2.81438E-02 2.44365E+00 0.00000E+00
 -1      2141-2.72548E-02 2.28206E+00 0.00000E+00
 -1      2142-2.63596E-02 2.12568E+00 0.00000E+00
 -1      2143-2.54585E-02 1.97454E+00 0.00000E+00
 -1      2144-2.45513E-02 1.82868E+00 0.00000E+00
 -1      2145-2.36377E-02 1.68812E+00 0.00000E+00
 -1      2146-2.27185E-02 1.55291E+00 0.00000E+00
 -1      2147-2.17928E-02 1.42308E+00 0.00000E+00
 -1      2148-2.08612E-02 1.29867E+00 0.00000E+00
 -1      2149-1.99235E-02 1.17971E+00 0.00000E+00
 -1      2150-1.89798E-02 1.06624E+00 0.00000E+00
 -1      2151-1.80298E-02 9.58289E-01 0.00000E+00
 -1      2152-1.70739E-02 8.55899E-01 0.00000E+00
 -1      2153-1.61117E-02 7.59105E-01 0.00000E+00
 -1      2154-1.51437E-02 6.67940E-01 0.00000E+00
 -1      2155-1.41693E-02 5.82440E-01 0.00000E+00
 -1      2156-1.31891E-02 5.02642E-01 0.00000E+00
 -1      2157-1.22026E-02 4.28580E-01 0.00000E+00
 -1      2158-1.12103E-02 3.60290E-01 0.00000E+00
 -1      2159-1.02112E-02 2.97807E-01 0.00000E+00
 -1      2160-9.20704E-03 2.41168E-01 0.00000E+00
 -1      2161-8.19564E-03 1.90408E-01 0.00000E+00
 -1      2162-7.17952E-03 1.45562E-01 0.00000E+00
 -1      2163-6.15553E-03 1.06666E-01 0.00000E+00
 -1      2164-5.12759E-03 7.37552E-02 0.00000E+00
 -1      2165-4.09152E-03 4.68644E-02 0.00000E+00
 -1      2166-3.04946E-03 2.60361E-02 0.00000E+00
 -1      2167-2.01011E-03 1.12740E-02 0.00000E+00
 -1      2168-9.20973E-04 2.73760E-03 0.00000E+00
 -1      2169 0.00000E+00 0.00000E+00 0.00000E+00
 -1      2170-9.97383E-02 1.01399E+02 0.00000E+00
 -1      2171-9.97383E-02 1.00818E+02 0.00000E+00
 -1      2172-9.97382E-02 1.00236E+02 0.00000E+00
 -1      2173-9.97380E-02 9.96538E+01 0.00000E+00
 -1      2174-9.97376E-02 9.90720E+01 0.00000E+00
 -1      2175-9.97370E-02 9.84902E+01 0.00000E+00
 -1      2176-9.97360E-02 9.79084E+01 0.00000E+00
 -1      2177-9.97346E-02 9.73266E+01 0.00000E+00
 -1      2178-9.97328E-02 9.67448E+01 0.00000E+00
 -1      2179-9.97305E-02 9.61630E+01 0.00000E+00
 -1      2180-9.97276E-02 9.55813E+01 0.00000E+00
 -1      2181-9.97241E-02 9.49995E+01 0.00000E+00
 -1      2182-9.97199E-02 9.44178E+01 0.00000E+00
 -1      2183-9.97150E-02 9.38361E+01 0.00000E+00
 -1      2184-9.97092E-02 9.32544E+01 0.00000E+00
 -1      2185-9.97026E-02 9.26728E+01 0.00000E+00
 -1      2186-9.96950E-02 9.20912E+01 0.00000E+00
 -1      2187-9.96864E-02 9.15096E+01 0.00000E+00
 -1      2188-9.96768E-02 9.09281E+01 0.00000E+00
 -1      2189-9.96661E-02 9.03467E+01 0.00000E+00
 -1      2190-9.96542E-02 8.97653E+01 0.00000E+00
 -1      2191-9.96411E-02 8.91841E+01 0.00000E+00
 -1      2192-9.96267E-02 8.86028E+01 0.00000E+00
 -1      2193-9.96110E-02 8.80217E+01 0.00000E+00
 -1      2194-9.95939E-02 8.74407E+01 0.00000E+00
 -1      2195-9.95753E-02 8.68598E+01 0.00000E+00
 -1      2196-9.95553E-02 8.62789E+01 0.00000E+00
 -1      2197-9.95336E-02 8.56982E+01 0.00000E+00
 -1      2198-9.95104E-02 8.51177E+01 0.00000E+00
 -1      2199-9.94855E-02 8.45373E+01 0.00000E+00
 -1      2200-9.94588E-02 8.39570E+01 0.00000E+00
 -1      2201-9.94304E-02 8.33769E+01 0.00000E+00
 -1      2202-9.94002E-02 8.27970E+01 0.00000E+00
 -1      2203-9.93680E-02 8.22172E+01 0.00000E+00
 -1      2204-9.93339E-02 8.16376E+01 0.00000E+00
 -1      2205-9.92979E-02 8.10583E+01 0.00000E+00
 -1      2206-9.92598E-02 8.04791E+01 0.00000E+00
 -1      2207-9.92196E-02 7.99002E+01 0.00000E+00
 -1      2208-9.91772E-02 7.93215E+01 0.00000E+00
 -1      2209-9.91326E-02 7.87431E+01 0.00000E+00
 -1      2210-9.90859E-02 7.81650E+01 0.00000E+00
 -1      2211-9.90368E-02 7.75871E+01 0.00000E+00
 -1      2212-9.89853E-02 7.70095E+01 0.00000E+00
 -1      2213-9.89315E-02 7.64323E+01 0.00000E+00
 -1      2214-9.88752E-02 7.58553E+01 0.00000E+00
 -1      2215-9.88164E-02 7.52787E+01 0.00000E+00
 -1      2216-9.87551E-02 7.47024E+01 0.00000E+00
 -1      2217-9.86912E-02 7.41265E+01 0.00000E+00
 -1      2218-9.86246E-02 7.35510E+01 0.00000E+00
 -1      2219-9.85554E-02 7.29759E+01 0.00000E+00
 -1      2220-9.84834E-02 7.24012E+01 0.00000E+00
 -1      2221-9.84087E-02 7.18269E+01 0.00000E+00
 -1      2222-9.83311E-02 7.12530E+01 0.00000E+00
 -1      2223-9.82507E-02 7.06797E+01 0.00000E+00
 -1      2224-9.81673E-02 7.01068E+01 0.00000E+00
 -1      2225-9.80810E-02 6.95344E+01 0.00000E+00
 -1      2226-9.79916E-02 6.89625E+01 0.00000E+00
 -1      2227-9.78993E-02 6.83911E+01 0.00000E+00
 -1      2228-9.78038E-02 6.78203E+01 0.00000E+00
 -1      2229-9.77052E-02 6.72500E+01 0.00000E+00
 -1      2230-9.76034E-02 6.66804E+01 0.00000E+00
 -1      2231-9.74984E-02 6.61113E+01 0.00000E+00
 -1      2232-9.73901E-02 6.55429E+01 0.00000E+00
 -1      2233-9.72785E-02 6.49751E+01 0.00000E+00
 -1      2234-9.71635E-02 6.44079E+01 0.00000E+00
 -1      2235-9.70452E-02 6.38415E+01 0.00000E+00
 -1      2236-9.69234E-02 6.32757E+01 0.00000E+00
 -1      2237-9.67982E-02 6.27107E+01 0.00000E+00
 -1      2238-9.66694E-02 6.21464E+01 0.00000E+00
 -1      2239-9.65371E-02 6.15828E+01 0.00000E+00
 -1      2240-9.64012E-02 6.10201E+01 0.00000E+00
 -1      2241-9.62617E-02 6.04581E+01 0.00000E+00
 -1      2242-9.61185E-02 5.98970E+01 0.00000E+00
 -1      2243-9.59716E-02 5.93368E+01 0.00000E+00
 -1      2244-9.58209E-02 5.87773E+01 0.00000E+00
 -1      2245-9.56664E-02 5.82188E+01 0.00000E+00
 -1      2246-9.55081E-02 5.76612E+01 0.00000E+00
 -1      2247-9.53460E-02 5.71045E+01 0.00000E+00
 -1      2248-9.51800E-02 5.65488E+01 0.00000E+00
 -1      2249-9.50100E-02 5.59941E+01 0.00000E+00
 -1      2250-9.48361E-02 5.54403E+01 0.00000E+00
 -1      2251-9.46581E-02 5.48876E+01 0.00000E+00
 -1      2252-9.44761E-02 5.43360E+01 0.00000E+00
 -1      2253-9.42901E-02 5.37854E+01 0.00000E+00
 -1      2254-9.40999E-02 5.32359E+01 0.00000E+00
 -1      2255-9.39056E-02 5.26876E+01 0.00000E+00
 -1      2256-9.37071E-02 5.21403E+01 0.00000E+00
 -1      2257-9.35044E-02 5.15943E+01 0.00000E+00
 -1      2258-9.32975E-02 5.10494E+01 0.00000E+00
 -1      2259-9.30863E-02 5.05058E+01 0.00000E+00
 -1      2260-9.28707E-02 4.99634E+01 0.00000E+00
 -1      2261-9.26509E-02 4.94223E+01 0.00000E+00
 -1      2262-9.24266E-02 4.88825E+01 0.00000E+00
 -1      2263-9.21979E-02 4.83440E+01 0.00000E+00
 -1      2264-9.19648E-02 4.78068E+01 0.00000E+00
 -1      2265-9.17273E-02 4.72710E+01 0.00000E+00
 -1      2266-9.14852E-02 4.67366E+01 0.00000E+00
 -1      2267-9.12386E-02 4.62037E+01 0.00000E+00
 -1      2268-9.09875E-02 4.56722E+01 0.00000E+00
 -1      2269-9.07318E-02 4.51421E+01 0.00000E+00
 -1      2270-9.04714E-02 4.46136E+01 0.00000E+00
 -1      2271-9.02064E-02 4.40866E+01 0.00000E+00
 -1      2272-8.99368E-02 4.35612E+01 0.00000E+00
 -1      2273-8.96624E-02 4.30374E+01 0.00000E+00
 -1      2274-8.93833E-02 4.25151E+01 0.00000E+00
 -1      2275-8.90995E-02 4.19945E+01 0.00000E+00
 -1      2276-8.88108E-02 4.14756E+01 0.00000E+00
 -1      2277-8.85174E-02 4.09584E+01 0.00000E+00
 -1      2278-8.82191E-02 4.04429E+01 0.00000E+00
 -1      2279-8.79160E-02 3.99292E+01 0.00000E+00
 -1      2280-8.76079E-02 3.94172E+01 0.00000E+00
 -1      2281-8.72950E-02 3.89070E+01 0.00000E+00
 -1      2282-8.69771E-02 3.83987E+01 0.00000E+00
 -1      2283-8.66542E-02 3.78923E+01 0.00000E+00
 -1      2284-8.63264E-02 3.73878E+01 0.00000E+00
 -1      2285-8.59936E-02 3.68852E+01 0.00000E+00
 -1      2286-8.56557E-02 3.63845E+01 0.00000E+00
 -1      2287-8.53128E-02 3.58858E+01 0.00000E+00
 -1      2288-8.49647E-02 3.53892E+01 0.00000E+00
 -1      2289-8.46116E-02 3.48946E+01 0.00000E+00
 -1      2290-8.42533E-02 3.44020E+01 0.00000E+00
 -1      2291-8.38899E-02 3.39116E+01 0.00000E+00
 -1      2292-8.35213E-02 3.34233E+01 0.00000E+00
 -1      2293-8.31476E-02 3.29372E+01 0.00000E+00
 -1      2294-8.27686E-02 3.24532E+01 0.00000E+00
 -1      2295-8.23844E-02 3.19715E+01 0.00000E+00
 -1      2296-8.19949E-02 3.14921E+01 0.00000E+00
 -1      2297-8.16002E-02 3.10149E+01 0.00000E+00
 -1      2298-8.12001E-02 3.05400E+01 0.00000E+00
 -1      2299-8.07947E-02 3.00676E+01 0.00000E+00
 -1      2300-8.03840E-02 2.95974E+01 0.00000E+00
 -1      2301-7.99680E-02 2.91297E+01 0.00000E+00
 -1      2302-7.95466E-02 2.86645E+01 0.00000E+00
 -1      2303-7.91197E-02 2.82017E+01 0.00000E+00
 -1      2304-7.86875E-02 2.77414E+01 0.00000E+00
 -1      2305-7.82499E-02 2.72836E+01 0.00000E+00
 -1      2306-7.78067E-02 2.68285E+01 0.00000E+00
 -1      2307-7.73582E-02 2.63759E+01 0.00000E+00
 -1      2308-7.69041E-02 2.59259E+01 0.00000E+00
 -1      2309-7.64446E-02 2.54787E+01 0.00000E+00
 -1      2310-7.59795E-02 2.50341E+01 0.00000E+00
 -1      2311-7.55090E-02 2.45922E+01 0.00000E+00
 -1      2312-7.50329E-02 2.41531E+01 0.00000E+00
 -1      2313-7.45512E-02 2.37168E+01 0.00000E+00
 -1      2314-7.40639E-02 2.32834E+01 0.00000E+00
 -1      2315-7.35711E-02 2.28527E+01 0.00000E+00
 -1      2316-7.30726E-02 2.24250E+01 0.00000E+00
 -1      2317-7.25685E-02 2.20002E+01 0.00000E+00
 -1      2318-7.20588E-02 2.15784E+01 0.00000E+00
 -1      2319-7.15435E-02 2.11595E+01 0.00000E+00
 -1      2320-7.10224E-02 2.07437E+01 0.00000E+00
 -1      2321-7.04957E-02 2.03309E+01 0.00000E+00
 -1      2322-6.99634E-02 1.99212E+01 0.00000E+00
 -1      2323-6.94253E-02 1.95147E+01 0.00000E+00
 -1      2324-6.88815E-02 1.91113E+01 0.00000E+00
 -1      2325-6.83319E-02 1.87111E+01 0.00000E+00
 -1      2326-6.77767E-02 1.83141E+01 0.00000E+00
 -1      2327-6.72157E-02 1.79203E+01 0.00000E+00
 -1      2328-6.66489E-02 1.75299E+01 0.00000E+00
 -1      2329-6.60763E-02 1.71428E+01 0.00000E+00
 -1      2330-6.54981E-02 1.67590E+01 0.00000E+00
 -1      2331-6.49138E-02 1.63786E+01 0.00000E+00
 -1      2332-6.43240E-02 1.60016E+01 0.00000E+00
 -1      2333-6.37282E-02 1.56281E+01 0.00000E+00
 -1      2334-6.31266E-02 1.52581E+01 0.00000E+00
 -1      2335-6.25192E-02 1.48917E+01 0.00000E+00
 -1      2336-6.19059E-02 1.45288E+01 0.00000E+00
 -1      2337-6.12868E-02 1.41694E+01 0.00000E+00
 -1      2338-6.06618E-02 1.38137E+01 0.00000E+00
 -1      2339-6.00310E-02 1.34617E+01 0.00000E+00
 -1      2340-5.93943E-02 1.31134E+01 0.00000E+00
 -1      2341-5.87516E-02 1.27688E+01 0.00000E+00
 -1      2342-5.81031E-02 1.24279E+01 0.00000E+00
 -1      2343-5.74487E-02 1.20909E+01 0.00000E+00
 -1      2344-5.67884E-02 1.17577E+01 0.00000E+00
 -1      2345-5.61221E-02 1.14284E+01 0.00000E+00
 -1      2346-5.54498E-02 1.11029E+01 0.00000E+00
 -1      2347-5.47718E-02 1.07814E+01 0.00000E+00
 -1      2348-5.40877E-02 1.04639E+01 0.00000E+00
 -1      2349-5.33977E-02 1.01504E+01 0.00000E+00
 -1      2350-5.27016E-02 9.84096E+00 0.00000E+00
 -1      2351-5.19998E-02 9.53557E+00 0.00000E+00
 -1      2352-5.12918E-02 9.23430E+00 0.00000E+00
 -1      2353-5.05779E-02 8.93717E+00 0.00000E+00
 -1      2354-4.98580E-02 8.64422E+00 0.00000E+00
 -1      2355-4.91322E-02 8.35549E+00 0.00000E+00
 -1      2356-4.84003E-02 8.07102E+00 0.00000E+00
 -1      2357-4.76624E-02 7.79083E+00 0.00000E+00
 -1      2358-4.69187E-02 7.51496E+00 0.00000E+00
 -1      2359-4.61687E-02 7.24344E+00 0.00000E+00
 -1      2360-4.54128E-02 6.97632E+00 0.00000E+00
 -1      2361-4.46510E-02 6.71362E+00 0.00000E+00
 -1      2362-4.38830E-02 6.45539E+00 0.00000E+00
 -1      2363-4.31091E-02 6.20166E+00 0.00000E+00
 -1      2364-4.23291E-02 5.95246E+00 0.00000E+00
 -1      2365-4.15431E-02 5.70782E+00 0.00000E+00
 -1      2366-4.07511E-02 5.46779E+00 0.00000E+00
 -1      2367-3.99529E-02 5.23240E+00 0.00000E+00
 -1      2368-3.91489E-02 5.00168E+00 0.00000E+00
 -1      2369-3.83387E-02 4.77567E+00 0.00000E+00
 -1      2370-3.75225E-02 4.55440E+00 0.00000E+00
 -1      2371-3.67001E-02 4.33791E+00 0.00000E+00
 -1      2372-3.58719E-02 4.12624E+00 0.00000E+00
 -1      2373-3.50373E-02 3.91941E+00 0.00000E+00
 -1      2374-3.41970E-02 3.71747E+00 0.00000E+00
 -1      2375-3.33504E-02 3.52045E+00 0.00000E+00
 -1      2376-3.24978E-02 3.32839E+00 0.00000E+00
 -1      2377-3.16392E-02 3.14131E+00 0.00000E+00
 -1      2378-3.07744E-02 2.95927E+00 0.00000E+00
 -1      2379-2.99037E-02 2.78229E+00 0.00000E+00
 -1      2380-2.90268E-02 2.61040E+00 0.00000E+00
 -1      2381-2.81438E-02 2.44365E+00 0.00000E+00
 -1      2382-2.72548E-02 2.28206E+00 0.00000E+00
 -1      2383-2.63596E-02 2.12568E+00 0.00000E+00
 -1      2384-2.54585E-02 1.97454E+00 0.00000E+00
 -1      2385-2.45513E-02 1.82868E+00 0.00000E+00
 -1      2386-2.36377E-02 1.68812E+00 0.00000E+00
 -1      2387-2.27185E-02 1.55291E+00 0.00000E+00
 -1      2388-2.17928E-02 1.42308E+00 0.00000E+00
 -1      2389-2.08612E-02 1.29867E+00 0.00000E+00
 -1      2390-1.99235E-02 1.17971E+00 0.00000E+00
 -1      2391-1.89798E-02 1.06624E+00 0.00000E+00
 -1      2392-1.80298E-02 9.58289E-01 0.00000E+00
 -1      2393-1.70739E-02 8.55899E-01 0.00000E+00
 -1      2394-1.61117E-02 7.59105E-01 0.00000E+00
 -1      2395-1.51437E-02 6.67940E-01 0.00000E+00
 -1      2396-1.41693E-02 5.82440E-01 0.00000E+00
 -1      2397-1.31891E-02 5.02642E-01 0.00000E+00
 -1      2398-1.22026E-02 4.28580E-01 0.00000E+00
 -1      2399-1.12103E-02 3.60290E-01 0.00000E+00
 -1      2400-1.02112E-02 2.97807E-01 0.00000E+00
 -1      2401-9.20704E-03 2.41168E-01 0.00000E+00
 -1      2402-8.19564E-03 1.90408E-01 0.00000E+00
 -1      2403-7.17952E-03 1.45562E-01 0.00000E+00
 -1      2404-6.15553E-03 1.06666E-01 0.00000E+00
 -1      2405-5.12759E-03 7.37552E-02 0.00000E+00
 -1      2406-4.09152E-03 4.68644E-02 0.00000E+00
 -1      2407-3.04946E-03 2.60361E-02 0.00000E+00
 -1      2408-2.01011E-03 1.12740E-02 0.00000E+00
 -1      2409-9.20973E-04 2.73760E-03 0.00000E+00
 -1      2410 0.00000E+00 0.00000E+00 0.00000E+00
 -3
    1PSTEP                         2           1           1          
    1PGM                1.000000E+00                                  
    1PGK                6.946942E+03                                  
    1PHID                         -1                                  
    1PSUBC                         0                                  
    1PMODE                         1                                  
  100CL  101 13.26529687        2410                     2    1MODAL      1
 -4  STRESS      6    1
 -5  SXX         1    4    1    1
 -5  SYY         1    4    2    2
 -5  SZZ         1    4    3    3
 -5  SXY         1    4    1    2
 -5  SYZ         1    4    2    3
 -5  SZX         1    4    3    1
 -1         1 3.98109E+05 1.99495E+05 2.27017E+05-1.89150E+04-7.81082E+07-5.77862E+04
 -1         2 1.66792E+06 1.89320E+05 7.05607E+05 8.97975E+04-7.78834E+07-5.77863E+04
 -1         3 5.40170E+06 1.99348E+05 2.12818E+06 1.76964E+05-7.74339E+07-5.77868E+04
 -1         4 1.15981E+07 1.86468E+05 4.47797E+06 2.66209E+05-7.69845E+07-5.77870E+04
 -1         5 2.02552E+07 1.90274E+05 7.76930E+06 3.53044E+05-7.65350E+07-5.77869E+04
 -1         6 3.13452E+07 1.96601E+05 1.19862E+07 4.40548E+05-7.60855E+07-5.77862E+04
 -1         7 4.48738E+07 1.81729E+05 1.71217E+07 5.26749E+05-7.56360E+07-5.77846E+04
 -1         8 6.07994E+07 1.87250E+05 2.31757E+07 6.11690E+05-7.51866E+07-5.77823E+04
 -1         9 7.91403E+07 1.94621E+05 3.01482E+07 6.98894E+05-7.47371E+07-5.77793E+04
 -1        10 9.98558E+07 1.48631E+05 3.80027E+07 7.81676E+05-7.42877E+07-5.77758E+04
 -1        11 1.22939E+08 2.43718E+05 4.68105E+07 8.68937E+05-7.38383E+07-5.77719E+04
 -1        12 1.48396E+08 1.30153E+05 5.64407E+07 9.48640E+05-7.33889E+07-5.77676E+04
 -1        13 1.76166E+08 2.06258E+05 6.70220E+07 1.03517E+06-7.29396E+07-5.77634E+04
 -1        14 2.06274E+08 1.92321E+05 7.84578E+07 1.11479E+06-7.24903E+07-5.77590E+04
 -1        15 2.38707E+08 6.74503E+04 9.07349E+07 1.20337E+06-7.20410E+07-5.77544E+04
 -1        16 2.73406E+08 3.72213E+05 1.04036E+08 1.28132E+06-7.15918E+07-5.77496E+04
 -1        17 3.10415E+08 3.81892E+04 1.17973E+08 1.35917E+06-7.11426E+07-5.77439E+04
 -1        18 3.49698E+08 2.25378E+05 1.32972E+08 1.44773E+06-7.06934E+07-5.77375E+04
 -1        19 3.91202E+08 1.71585E+05 1.48723E+08 1.51703E+06-7.02443E+07-5.77299E+04
 -1        20 4.34985E+08 8.94743E+04 1.65330E+08 1.61302E+06-6.97952E+07-5.77211E+04
 -1        21 4.80956E+08 3.22859E+05 1.82887E+08 1.67586E+06-6.93463E+07-5.77112E+04
 -1        22 5.29165E+08 6.90228E+04 2.01110E+08 1.76559E+06-6.88974E+07-5.77001E+04
 -1        23 5.79588E+08 2.04635E+05 2.20323E+08 1.83610E+06-6.84485E+07-5.76881E+04
 -1        24 6.32135E+08 1.15582E+05 2.40257E+08 1.91835E+06-6.79998E+07-5.76749E+04
 -1        25 6.86909E+08 2.04316E+05 2.61105E+08 1.99896E+06-6.75512E+07-5.76606E+04
 -1        26 7.43806E+08 2.06019E+05 2.82726E+08 2.06608E+06-6.71026E+07-5.76457E+04
 -1        27 8.02860E+08 1.29631E+05 3.05137E+08 2.14882E+06-6.66542E+07-5.76304E+04
 -1        28 8.64045E+08 1.05365E+05 3.28378E+08 2.22085E+06-6.62059E+07-5.76151E+04
 -1        29 9.27306E+08 2.14906E+05 3.52459E+08 2.30289E+06-6.57577E+07-5.75998E+04
 -1        30 9.92688E+08 2.29551E+05 3.77309E+08 2.36841E+06-6.53096E+07-5.75843E+04
 -1        31 1.06018E+09 7.24172E+04 4.02896E+08 2.44809E+06-6.48617E+07-5.75685E+04
 -1        32 1.12970E+09 2.12088E+05 4.29367E+08 2.51693E+06-6.44139E+07-5.75521E+04
 -1        33 1.20128E+09 5.19975E+04 4.56504E+08 2.59555E+06-6.39661E+07-5.75354E+04
 -1        34 1.27491E+09 2.59663E+05 4.84565E+08 2.67203E+06-6.35186E+07-5.75180E+04
 -1        35 1.35057E+09 1.39244E+05 5.13268E+08 2.73419E+06-6.30712E+07-5.74996E+04
 -1        36 1.42823E+09 1.11435E+05 5.42768E+08 2.81678E+06-6.26239E+07-5.74798E+04
 -1        37 1.50788E+09 3.37719E+05 5.73123E+08 2.87421E+06-6.21768E+07-5.74585E+04
 -1        38 1.58955E+09-1.19879E+05 6.03983E+08 2.95440E+06-6.17298E+07-5.74357E+04
 -1        39 1.67316E+09 2.90268E+05 6.35910E+08 3.02629E+06-6.12831E+07-5.74116E+04
 -1        40 1.75870E+09 2.60829E+05 6.68405E+08 3.08759E+06-6.08365E+07-5.73861E+04
 -1        41 1.84622E+09 7.79251E+03 7.01567E+08 3.15608E+06-6.03901E+07-5.73593E+04
 -1        42 1.93568E+09 1.81705E+05 7.35626E+08 3.23242E+06-5.99440E+07-5.73313E+04
 -1        43 2.02702E+09 1.78761E+05 7.70335E+08 3.29284E+06-5.94981E+07-5.73024E+04
 -1        44 2.12024E+09-6.00361E+03 8.05687E+08 3.36460E+06-5.90524E+07-5.72727E+04
 -1        45 2.21538E+09 2.60139E+05 8.41943E+08 3.44460E+06-5.86069E+07-5.72424E+04
 -1        46 2.31239E+09 3.09153E+05 8.78823E+08 3.48606E+06-5.81617E+07-5.72113E+04
 -1        47 2.41122E+09-8.51517E+04 9.16231E+08 3.56396E+06-5.77168E+07-5.71791E+04
 -1        48 2.51189E+09 3.42161E+05 9.54647E+08 3.62377E+06-5.72721E+07-5.71459E+04
 -1        49 2.61447E+09-3.07156E+05 9.93379E+08 3.70523E+06-5.68276E+07-5.71117E+04
 -1        50 2.71877E+09 4.47359E+05 1.03330E+09 3.77584E+06-5.63835E+07-5.70763E+04
 -1        51 2.82485E+09 5.33329E+05 1.07364E+09 3.80688E+06-5.59396E+07-5.70396E+04
 -1        52 2.93283E+09-3.48716E+05 1.11434E+09 3.88206E+06-5.54961E+07-5.70017E+04
 -1        53 3.04251E+09 3.59544E+05 1.15629E+09 3.94550E+06-5.50528E+07-5.69622E+04
 -1        54 3.15391E+09-1.85508E+05 1.19841E+09 4.01651E+06-5.46099E+07-5.69210E+04
 -1        55 3.26707E+09 3.85959E+05 1.24163E+09 4.08364E+06-5.41673E+07-5.68779E+04
 -1        56 3.38201E+09 3.12890E+05 1.28528E+09 4.13133E+06-5.37251E+07-5.68328E+04
 -1        57 3.49867E+09-1.16029E+05 1.32945E+09 4.18566E+06-5.32832E+07-5.67859E+04
 -1        58 3.61692E+09 1.79378E+05 1.37450E+09 4.25841E+06-5.28418E+07-5.67373E+04
 -1        59 3.73690E+09 2.04729E+05 1.42010E+09 4.31343E+06-5.24007E+07-5.66867E+04
 -1        60 3.85869E+09-1.50637E+05 1.46624E+09 4.38582E+06-5.19600E+07-5.66343E+04
 -1        61 3.98195E+09 2.87654E+05 1.51325E+09 4.44204E+06-5.15197E+07-5.65803E+04
 -1        62 4.10685E+09 5.60584E+05 1.56082E+09 4.48182E+06-5.10799E+07-5.65245E+04
 -1        63 4.23356E+09-6.30276E+05 1.60851E+09 4.55333E+06-5.06406E+07-5.64668E+04
 -1        64 4.36178E+09 6.38079E+05 1.65772E+09 4.62353E+06-5.02017E+07-5.64071E+04
 -1        65 4.49157E+09-4.66818E+04 1.70678E+09 4.65683E+06-4.97632E+07-5.63450E+04
 -1        66 4.62289E+09 1.11160E+05 1.75674E+09 4.72701E+06-4.93253E+07-5.62806E+04
 -1        67 4.75597E+09 5.27621E+05 1.80747E+09 4.78066E+06-4.88879E+07-5.62139E+04
 -1        68 4.89055E+09-4.03701E+05 1.85825E+09 4.81274E+06-4.84511E+07-5.61448E+04
 -1        69 5.02646E+09 5.05298E+05 1.91025E+09 4.89028E+06-4.80147E+07-5.60730E+04
 -1        70 5.16425E+09-4.52129E+05 1.96224E+09 4.95680E+06-4.75790E+07-5.59984E+04
 -1        71 5.30332E+09 4.78659E+05 2.01544E+09 5.00436E+06-4.71439E+07-5.59209E+04
 -1        72 5.44388E+09 4.84551E+05 2.06886E+09 5.04490E+06-4.67093E+07-5.58403E+04
 -1        73 5.58605E+09-3.89748E+05 2.12255E+09 5.08519E+06-4.62755E+07-5.57568E+04
 -1        74 5.72970E+09 4.43502E+05 2.17745E+09 5.16984E+06-4.58422E+07-5.56704E+04
 -1        75 5.87477E+09-5.18444E+05 2.23222E+09 5.19765E+06-4.54097E+07-5.55811E+04
 -1        76 6.02119E+09 6.72583E+05 2.28831E+09 5.29106E+06-4.49778E+07-5.54890E+04
 -1        77 6.16905E+09-1.47836E+04 2.34423E+09 5.28264E+06-4.45467E+07-5.53944E+04
 -1        78 6.31865E+09 4.60894E+04 2.40110E+09 5.40484E+06-4.41163E+07-5.52973E+04
 -1        79 6.46935E+09 5.03339E+05 2.45855E+09 5.36449E+06-4.36867E+07-5.51978E+04
 -1        80 6.62132E+09-1.57301E+05 2.51604E+09 5.45764E+06-4.32578E+07-5.50958E+04
 -1        81 6.77512E+09-3.50432E+05 2.57441E+09 5.52572E+06-4.28298E+07-5.49916E+04
 -1        82 6.92991E+09 4.44538E+05 2.63354E+09 5.56730E+06-4.24025E+07-5.48848E+04
 -1        83 7.08612E+09 6.39522E+05 2.69297E+09 5.60031E+06-4.19761E+07-5.47756E+04
 -1        84 7.24374E+09-5.75511E+05 2.75240E+09 5.62608E+06-4.15506E+07-5.46638E+04
 -1        85 7.40275E+09 5.12475E+05 2.81324E+09 5.72126E+06-4.11259E+07-5.45497E+04
 -1        86 7.56304E+09-6.57708E+05 2.87371E+09 5.73616E+06-4.07021E+07-5.44333E+04
 -1        87 7.72431E+09 6.88509E+05 2.93550E+09 5.81840E+06-4.02792E+07-5.43145E+04
 -1        88 7.88731E+09 5.39730E+05 2.99739E+09 5.83764E+06-3.98572E+07-5.41936E+04
 -1        89 8.05151E+09-6.32723E+05 3.05933E+09 5.84953E+06-3.94362E+07-5.40704E+04
 -1        90 8.21664E+09 6.90498E+05 3.12259E+09 5.93763E+06-3.90161E+07-5.39451E+04
 -1        91 8.38331E+09-1.33792E+06 3.18515E+09 5.97237E+06-3.85970E+07-5.38174E+04
 -1        92 8.55118E+09 1.19482E+06 3.24990E+09 6.10984E+06-3.81790E+07-5.36875E+04
 -1        93 8.72025E+09 1.14235E+06 3.31413E+09 5.98509E+06-3.77619E+07-5.35555E+04
 -1        94 8.89042E+09-1.39368E+06 3.37783E+09 6.08268E+06-3.73458E+07-5.34214E+04
 -1        95 9.06180E+09 8.18729E+05 3.44379E+09 6.14322E+06-3.69309E+07-5.32854E+04
 -1        96 9.23464E+09-7.99374E+05 3.50886E+09 6.20769E+06-3.65169E+07-5.31472E+04
 -1        97 9.40832E+09 5.69721E+05 3.57538E+09 6.24396E+06-3.61041E+07-5.30069E+04
 -1        98 9.58302E+09 8.64592E+05 3.64187E+09 6.24689E+06-3.56923E+07-5.28643E+04
 -1        99 9.75943E+09-7.88188E+05 3.70828E+09 6.30952E+06-3.52817E+07-5.27193E+04
 -1       100 9.93657E+09 2.57546E+05 3.77599E+09 6.32958E+06-3.48722E+07-5.25718E+04
 -1       101 1.01147E+10 3.30053E+05 3.84371E+09 6.40056E+06-3.44639E+07-5.24215E+04
 -1       102 1.02942E+10-7.60449E+05 3.91152E+09 6.41989E+06-3.40567E+07-5.22683E+04
 -1       103 1.04747E+10 6.24712E+05 3.98062E+09 6.52725E+06-3.36508E+07-5.21123E+04
 -1       104 1.06563E+10 1.05267E+06 4.04981E+09 6.46004E+06-3.32461E+07-5.19535E+04
 -1       105 1.08389E+10-1.74974E+06 4.11810E+09 6.52589E+06-3.28426E+07-5.17918E+04
 -1       106 1.10225E+10 1.33326E+06 4.18905E+09 6.63530E+06-3.24404E+07-5.16274E+04
 -1       107 1.12075E+10-2.64178E+05 4.25875E+09 6.59778E+06-3.20395E+07-5.14600E+04
 -1       108 1.13930E+10-1.56831E+05 4.32929E+09 6.65825E+06-3.16399E+07-5.12897E+04
 -1       109 1.15795E+10 1.23449E+06 4.40069E+09 6.66534E+06-3.12416E+07-5.11163E+04
 -1       110 1.17677E+10-1.16001E+06 4.47128E+09 6.72431E+06-3.08447E+07-5.09399E+04
 -1       111 1.19563E+10 7.38455E+05 4.54367E+09 6.72966E+06-3.04492E+07-5.07605E+04
 -1       112 1.21459E+10-1.03874E+06 4.61506E+09 6.82556E+06-3.00551E+07-5.05783E+04
 -1       113 1.23364E+10 9.26513E+05 4.68818E+09 6.84145E+06-2.96624E+07-5.03933E+04
 -1       114 1.25283E+10 8.40513E+05 4.76106E+09 6.87343E+06-2.92711E+07-5.02055E+04
 -1       115 1.27208E+10-1.18001E+06 4.83347E+09 6.82670E+06-2.88813E+07-5.00149E+04
 -1       116 1.29139E+10 9.94514E+05 4.90768E+09 6.94425E+06-2.84931E+07-4.98215E+04
 -1       117 1.31087E+10-1.44247E+06 4.98075E+09 6.97973E+06-2.81063E+07-4.96252E+04
 -1       118 1.33039E+10 1.40925E+06 5.05600E+09 7.02092E+06-2.77211E+07-4.94260E+04
 -1       119 1.34997E+10-2.93177E+05 5.12976E+09 6.98781E+06-2.73374E+07-4.92237E+04
 -1       120 1.36970E+10-1.15335E+05 5.20482E+09 7.10668E+06-2.69553E+07-4.90184E+04
 -1       121 1.38949E+10 1.13038E+06 5.28049E+09 7.03831E+06-2.65748E+07-4.88100E+04
 -1       122 1.40935E+10-7.70164E+05 5.35526E+09 7.08249E+06-2.61960E+07-4.85986E+04
 -1       123 1.42932E+10-7.80236E+05 5.43110E+09 7.15733E+06-2.58188E+07-4.83842E+04
 -1       124 1.44932E+10 8.79605E+05 5.50776E+09 7.21749E+06-2.54433E+07-4.81667E+04
 -1       125 1.46948E+10 1.13266E+06 5.58444E+09 7.19087E+06-2.50695E+07-4.79461E+04
 -1       126 1.48968E+10-1.56536E+06 5.66020E+09 7.17311E+06-2.46974E+07-4.77224E+04
 -1       127 1.50992E+10 1.20762E+06 5.73814E+09 7.25687E+06-2.43270E+07-4.74956E+04
 -1       128 1.53032E+10-1.56061E+06 5.81462E+09 7.33024E+06-2.39585E+07-4.72658E+04
 -1       129 1.55074E+10 1.07751E+06 5.89321E+09 7.32152E+06-2.35917E+07-4.70329E+04
 -1       130 1.57122E+10 1.09494E+06 5.97106E+09 7.33819E+06-2.32268E+07-4.67973E+04
 -1       131 1.59182E+10-1.13558E+06 6.04847E+09 7.29126E+06-2.28637E+07-4.65588E+04
 -1       132 1.61248E+10-2.23637E+05 6.12734E+09 7.44455E+06-2.25024E+07-4.63177E+04
 -1       133 1.63322E+10-6.76998E+05 6.20599E+09 7.46777E+06-2.21431E+07-4.60736E+04
 -1       134 1.65397E+10 2.34179E+06 6.28598E+09 7.44745E+06-2.17856E+07-4.58266E+04
 -1       135 1.67486E+10-3.48945E+05 6.36434E+09 7.42724E+06-2.14301E+07-4.55764E+04
 -1       136 1.69583E+10-8.17905E+05 6.44383E+09 7.43795E+06-2.10766E+07-4.53231E+04
 -1       137 1.71678E+10 2.18031E+05 6.52385E+09 7.51887E+06-2.07250E+07-4.50667E+04
 -1       138 1.73785E+10 3.94474E+05 6.60400E+09 7.53114E+06-2.03754E+07-4.48073E+04
 -1       139 1.75903E+10-1.34919E+06 6.68379E+09 7.59156E+06-2.00279E+07-4.45446E+04
 -1       140 1.78019E+10 1.01717E+06 6.76513E+09 7.61988E+06-1.96824E+07-4.42788E+04
 -1       141 1.80144E+10 1.37196E+06 6.84601E+09 7.58358E+06-1.93391E+07-4.40096E+04
 -1       142 1.82277E+10-1.63333E+06 6.92590E+09 7.56232E+06-1.89978E+07-4.37370E+04
 -1       143 1.84417E+10 1.02662E+06 7.00825E+09 7.69302E+06-1.86586E+07-4.34611E+04
 -1       144 1.86562E+10-1.87417E+06 7.08866E+09 7.64657E+06-1.83216E+07-4.31819E+04
 -1       145 1.88707E+10 1.90350E+06 7.17157E+09 7.75039E+06-1.79868E+07-4.28996E+04
 -1       146 1.90866E+10-4.36592E+05 7.25273E+09 7.70833E+06-1.76542E+07-4.26141E+04
 -1       147 1.93030E+10-4.08934E+05 7.33499E+09 7.74817E+06-1.73239E+07-4.23254E+04
 -1       148 1.95193E+10 2.18108E+06 7.41816E+09 7.70588E+06-1.69958E+07-4.20335E+04
 -1       149 1.97366E+10-3.22524E+06 7.49867E+09 7.72056E+06-1.66699E+07-4.17384E+04
 -1       150 1.99545E+10 1.79148E+06 7.58337E+09 7.91442E+06-1.63464E+07-4.14402E+04
 -1       151 2.01728E+10 1.03044E+06 7.66606E+09 7.72413E+06-1.60252E+07-4.11386E+04
 -1       152 2.03913E+10-1.53443E+06 7.74809E+09 7.76963E+06-1.57064E+07-4.08337E+04
 -1       153 2.06109E+10 1.01141E+06 7.83252E+09 7.90172E+06-1.53900E+07-4.05256E+04
 -1       154 2.08309E+10-1.82787E+06 7.91504E+09 7.80983E+06-1.50760E+07-4.02142E+04
 -1       155 2.10506E+10 1.28436E+06 7.99971E+09 7.98342E+06-1.47644E+07-3.98995E+04
 -1       156 2.12713E+10 1.48979E+06 8.08367E+09 7.82429E+06-1.44552E+07-3.95816E+04
 -1       157 2.14931E+10-1.62738E+06 8.16676E+09 7.90515E+06-1.41486E+07-3.92602E+04
 -1       158 2.17145E+10 7.13518E+04 8.25154E+09 7.87859E+06-1.38445E+07-3.89356E+04
 -1       159 2.19364E+10 1.14668E+06 8.33626E+09 7.98259E+06-1.35429E+07-3.86076E+04
 -1       160 2.21590E+10-3.53675E+06 8.41906E+09 7.90580E+06-1.32438E+07-3.82763E+04
 -1       161 2.23821E+10 2.71821E+06 8.50623E+09 8.25261E+06-1.29474E+07-3.79418E+04
 -1       162 2.26055E+10 2.75055E+06 8.59115E+09 7.78724E+06-1.26536E+07-3.76040E+04
 -1       163 2.28288E+10-3.52256E+06 8.67360E+09 7.91984E+06-1.23624E+07-3.72628E+04
 -1       164 2.30535E+10 1.61091E+06 8.76093E+09 8.07707E+06-1.20739E+07-3.69182E+04
 -1       165 2.32781E+10-2.28683E+06 8.84481E+09 7.97480E+06-1.17881E+07-3.65701E+04
 -1       166 2.35025E+10 1.58352E+06 8.93155E+09 8.16595E+06-1.15050E+07-3.62186E+04
 -1       167 2.37277E+10 1.64791E+06 9.01717E+09 7.97106E+06-1.12246E+07-3.58636E+04
 -1       168 2.39540E+10-2.12736E+06 9.10172E+09 8.06336E+06-1.09471E+07-3.55051E+04
 -1       169 2.41798E+10 1.09605E+06 9.18873E+09 8.03392E+06-1.06723E+07-3.51432E+04
 -1       170 2.44058E+10-1.94365E+06 9.27346E+09 8.10606E+06-1.04004E+07-3.47779E+04
 -1       171 2.46327E+10 1.50098E+06 9.36099E+09 8.23428E+06-1.01313E+07-3.44092E+04
 -1       172 2.48598E+10 1.48972E+06 9.44730E+09 8.01770E+06-9.86509E+06-3.40371E+04
 -1       173 2.50869E+10-1.70864E+06 9.53237E+09 8.08282E+06-9.60179E+06-3.36615E+04
 -1       174 2.53143E+10-4.62262E+05 9.61926E+09 8.11475E+06-9.34143E+06-3.32826E+04
 -1       175 2.55428E+10-9.92459E+05 9.70589E+09 8.34614E+06-9.08404E+06-3.29002E+04
 -1       176 2.57708E+10 3.39980E+06 9.79421E+09 8.10642E+06-8.82962E+06-3.25145E+04
 -1       177 2.59988E+10-4.83217E+05 9.87935E+09 8.08558E+06-8.57823E+06-3.21253E+04
 -1       178 2.62279E+10-1.44692E+06 9.96605E+09 8.11438E+06-8.32988E+06-3.17327E+04
 -1       179 2.64571E+10 4.75722E+05 1.00539E+10 8.23308E+06-8.08459E+06-3.13368E+04
 -1       180 2.66863E+10 2.09469E+05 1.01409E+10 8.15230E+06-7.84240E+06-3.09376E+04
 -1       181 2.69155E+10-1.73132E+06 1.02272E+10 8.19425E+06-7.60332E+06-3.05348E+04
 -1       182 2.71455E+10 1.34830E+06 1.03158E+10 8.38306E+06-7.36740E+06-3.01287E+04
 -1       183 2.73757E+10 1.94371E+06 1.04035E+10 8.09132E+06-7.13464E+06-2.97190E+04
 -1       184 2.76057E+10-2.58616E+06 1.04892E+10 8.20338E+06-6.90509E+06-2.93058E+04
 -1       185 2.78359E+10 1.67927E+06 1.05783E+10 8.20700E+06-6.67877E+06-2.88891E+04
 -1       186 2.80672E+10-2.65095E+06 1.06645E+10 8.31624E+06-6.45570E+06-2.84688E+04
 -1       187 2.82978E+10 1.97997E+06 1.07539E+10 8.28677E+06-6.23592E+06-2.80450E+04
 -1       188 2.85281E+10 2.84242E+05 1.08408E+10 8.20728E+06-6.01944E+06-2.76177E+04
 -1       189 2.87605E+10-1.29712E+06 1.09285E+10 8.39769E+06-5.80631E+06-2.71869E+04
 -1       190 2.89917E+10 3.40888E+06 1.10182E+10 8.11694E+06-5.59654E+06-2.67524E+04
 -1       191 2.92230E+10-4.87759E+06 1.11029E+10 8.26464E+06-5.39016E+06-2.63144E+04
 -1       192 2.94546E+10 2.51074E+06 1.11937E+10 8.37572E+06-5.18720E+06-2.58729E+04
 -1       193 2.96870E+10 1.85725E+06 1.12818E+10 8.29662E+06-4.98769E+06-2.54277E+04
 -1       194 2.99193E+10-2.82164E+06 1.13683E+10 8.13989E+06-4.79166E+06-2.49789E+04
 -1       195 3.01511E+10 1.77002E+06 1.14581E+10 8.36453E+06-4.59913E+06-2.45266E+04
 -1       196 3.03836E+10-2.93623E+06 1.15446E+10 8.25596E+06-4.41013E+06-2.40708E+04
 -1       197 3.06165E+10 2.26949E+06 1.16351E+10 8.51400E+06-4.22469E+06-2.36116E+04
 -1       198 3.08490E+10 1.50206E+06 1.17232E+10 8.16744E+06-4.04284E+06-2.31488E+04
 -1       199 3.10815E+10-2.00317E+06 1.18102E+10 8.25770E+06-3.86460E+06-2.26825E+04
 -1       200 3.13149E+10 1.22043E+05 1.18997E+10 8.38658E+06-3.68999E+06-2.22128E+04
 -1       201 3.15480E+10 1.24472E+06 1.19887E+10 8.27058E+06-3.51906E+06-2.17396E+04
 -1       202 3.17809E+10-4.80548E+06 1.20749E+10 8.34294E+06-3.35181E+06-2.12629E+04
 -1       203 3.20138E+10 3.74349E+06 1.21667E+10 8.61269E+06-3.18829E+06-2.07828E+04
 -1       204 3.22480E+10 4.07670E+06 1.22558E+10 8.22720E+06-3.02852E+06-2.02991E+04
 -1       205 3.24814E+10-5.51982E+06 1.23408E+10 8.12309E+06-2.87252E+06-1.98120E+04
 -1       206 3.27142E+10 2.74300E+06 1.24324E+10 8.38917E+06-2.72032E+06-1.93214E+04
 -1       207 3.29488E+10-3.57072E+06 1.25192E+10 8.40746E+06-2.57195E+06-1.88274E+04
 -1       208 3.31823E+10 2.44217E+06 1.26102E+10 8.40596E+06-2.42744E+06-1.83299E+04
 -1       209 3.34155E+10 2.01773E+06 1.26987E+10 8.33340E+06-2.28681E+06-1.78289E+04
 -1       210 3.36499E+10-2.90266E+06 1.27859E+10 8.22686E+06-2.15010E+06-1.73244E+04
 -1       211 3.38839E+10 1.70625E+06 1.28765E+10 8.43724E+06-2.01732E+06-1.68163E+04
 -1       212 3.41183E+10-3.07103E+06 1.29638E+10 8.31069E+06-1.88850E+06-1.63048E+04
 -1       213 3.43515E+10 1.93140E+06 1.30543E+10 8.50420E+06-1.76368E+06-1.57898E+04
 -1       214 3.45857E+10 3.17979E+06 1.31438E+10 8.30718E+06-1.64288E+06-1.52712E+04
 -1       215 3.48206E+10-5.83637E+06 1.32296E+10 8.26883E+06-1.52612E+06-1.47491E+04
 -1       216 3.50548E+10 3.59901E+06 1.33222E+10 8.57991E+06-1.41344E+06-1.42235E+04
 -1       217 3.52885E+10-5.53602E+05 1.34094E+10 8.18386E+06-1.30486E+06-1.36944E+04
 -1       218 3.55232E+10-9.04766E+05 1.34985E+10 8.56115E+06-1.20041E+06-1.31617E+04
 -1       219 3.57576E+10 3.14694E+06 1.35891E+10 8.21236E+06-1.10012E+06-1.26256E+04
 -1       220 3.59919E+10-2.96557E+06 1.36758E+10 8.35506E+06-1.00401E+06-1.20858E+04
 -1       221 3.62259E+10 6.37267E+05 1.37661E+10 8.29835E+06-9.12118E+05-1.15426E+04
 -1       222 3.64612E+10 7.48800E+05 1.38555E+10 8.51672E+06-8.24461E+05-1.09959E+04
 -1       223 3.66956E+10-3.19101E+06 1.39431E+10 8.20589E+06-7.41070E+05-1.04456E+04
 -1       224 3.69297E+10 2.37794E+06 1.40342E+10 8.68194E+06-6.61974E+05-9.89175E+03
 -1       225 3.71635E+10 2.51779E+06 1.41231E+10 8.13547E+06-5.87200E+05-9.33441E+03
 -1       226 3.74000E+10-3.25817E+06 1.42108E+10 8.51240E+06-5.16774E+05-8.77351E+03
 -1       227 3.76329E+10 1.15969E+06 1.43010E+10 8.11681E+06-4.50725E+05-8.20908E+03
 -1       228 3.78686E+10-1.68736E+06 1.43894E+10 8.66878E+06-3.89080E+05-7.64113E+03
 -1       229 3.81014E+10-1.30569E+06 1.44781E+10 8.20525E+06-3.31866E+05-7.06965E+03
 -1       230 3.83391E+10 5.40779E+06 1.45709E+10 8.92958E+06-2.79111E+05-6.49464E+03
 -1       231 3.85699E+10-1.98732E+06 1.46558E+10 7.56763E+06-2.30842E+05-5.91609E+03
 -1       232 3.88087E+10 2.29238E+05 1.47474E+10 9.06266E+06-1.87087E+05-5.33400E+03
 -1       233 3.90383E+10-3.78525E+06 1.48331E+10 7.48764E+06-1.47874E+05-4.74837E+03
 -1       234 3.92803E+10 1.94880E+06 1.49272E+10 9.71738E+06-1.13229E+05-4.15921E+03
 -1       235 3.95045E+10 8.25525E+06 1.50148E+10 6.78520E+06-8.31812E+04-3.56653E+03
 -1       236 3.97506E+10-2.88886E+07 1.50943E+10 9.93099E+06-5.77563E+04-2.97029E+03
 -1       237 3.99797E+10 1.01099E+08 1.52307E+10 7.71205E+06-3.69836E+04-2.37052E+03
 -1       238 4.01922E+10-3.75735E+08 1.51303E+10 3.94196E+06-2.08886E+04-1.76715E+03
 -1       239 4.05566E+10 1.38259E+09 1.59369E+10 3.33708E+07-9.50124E+03-1.16053E+03
 -1       240 4.02557E+10-5.07093E+09 1.33702E+10-9.37597E+07-2.84693E+03-5.49324E+02
 -1       241 3.97573E+10 1.88979E+10 2.22890E+10 3.74096E+08-7.02899E+02-2.42122E+02
 -1       242 3.97307E+05 1.99140E+05 2.26723E+05-1.85602E+04 7.81052E+07 5.77907E+04
 -1       243 1.66672E+06 1.89068E+05 7.05342E+05 9.00920E+04 7.78805E+07 5.77905E+04
 -1       244 5.39994E+06 1.98991E+05 2.12781E+06 1.76974E+05 7.74310E+07 5.77901E+04
 -1       245 1.15969E+07 1.86269E+05 4.47774E+06 2.65909E+05 7.69816E+07 5.77894E+04
 -1       246 2.02555E+07 1.90307E+05 7.76937E+06 3.52493E+05 7.65322E+07 5.77891E+04
 -1       247 3.13478E+07 1.97238E+05 1.19868E+07 4.39944E+05 7.60827E+07 5.77891E+04
 -1       248 4.48785E+07 1.82757E+05 1.71227E+07 5.26230E+05 7.56333E+07 5.77895E+04
 -1       249 6.08058E+07 1.88752E+05 2.31772E+07 6.11312E+05 7.51839E+07 5.77902E+04
 -1       250 7.91479E+07 1.96375E+05 3.01499E+07 6.98639E+05 7.47344E+07 5.77911E+04
 -1       251 9.98642E+07 1.50564E+05 3.80046E+07 7.81518E+05 7.42850E+07 5.77919E+04
 -1       252 1.22947E+08 2.45507E+05 4.68123E+07 8.69160E+05 7.38356E+07 5.77926E+04
 -1       253 1.48403E+08 1.31885E+05 5.64424E+07 9.49020E+05 7.33861E+07 5.77926E+04
 -1       254 1.76172E+08 2.07699E+05 6.70234E+07 1.03542E+06 7.29367E+07 5.77919E+04
 -1       255 2.06279E+08 1.93547E+05 7.84591E+07 1.11498E+06 7.24873E+07 5.77906E+04
 -1       256 2.38712E+08 6.84852E+04 9.07360E+07 1.20359E+06 7.20379E+07 5.77885E+04
 -1       257 2.73410E+08 3.73240E+05 1.04037E+08 1.28135E+06 7.15885E+07 5.77859E+04
 -1       258 3.10420E+08 3.92793E+04 1.17974E+08 1.35881E+06 7.11392E+07 5.77825E+04
 -1       259 3.49704E+08 2.26921E+05 1.32973E+08 1.44713E+06 7.06898E+07 5.77790E+04
 -1       260 3.91211E+08 1.73684E+05 1.48725E+08 1.51645E+06 7.02405E+07 5.77754E+04
 -1       261 4.34995E+08 9.18138E+04 1.65332E+08 1.61254E+06 6.97913E+07 5.77718E+04
 -1       262 4.80968E+08 3.25643E+05 1.82890E+08 1.67551E+06 6.93420E+07 5.77681E+04
 -1       263 5.29178E+08 7.21529E+04 2.01113E+08 1.76539E+06 6.88929E+07 5.77638E+04
 -1       264 5.79602E+08 2.08118E+05 2.20326E+08 1.83569E+06 6.84437E+07 5.77592E+04
 -1       265 6.32151E+08 1.19204E+05 2.40261E+08 1.91802E+06 6.79946E+07 5.77542E+04
 -1       266 6.86925E+08 2.07987E+05 2.61109E+08 1.99913E+06 6.75455E+07 5.77486E+04
 -1       267 7.43820E+08 2.09379E+05 2.82729E+08 2.06660E+06 6.70965E+07 5.77420E+04
 -1       268 8.02872E+08 1.32326E+05 3.05140E+08 2.14971E+06 6.66476E+07 5.77340E+04
 -1       269 8.64054E+08 1.07377E+05 3.28380E+08 2.22183E+06 6.61987E+07 5.77242E+04
 -1       270 9.27311E+08 2.16079E+05 3.52460E+08 2.30364E+06 6.57500E+07 5.77126E+04
 -1       271 9.92690E+08 2.30083E+05 3.77309E+08 2.36899E+06 6.53013E+07 5.76992E+04
 -1       272 1.06018E+09 7.24526E+04 4.02896E+08 2.44861E+06 6.48527E+07 5.76841E+04
 -1       273 1.12970E+09 2.11697E+05 4.29367E+08 2.51750E+06 6.44043E+07 5.76675E+04
 -1       274 1.20127E+09 5.10860E+04 4.56503E+08 2.59613E+06 6.39560E+07 5.76492E+04
 -1       275 1.27491E+09 2.58586E+05 4.84564E+08 2.67214E+06 6.35078E+07 5.76294E+04
 -1       276 1.35056E+09 1.38322E+05 5.13267E+08 2.73379E+06 6.30598E+07 5.76082E+04
 -1       277 1.42822E+09 1.10573E+05 5.42767E+08 2.81649E+06 6.26120E+07 5.75863E+04
 -1       278 1.50788E+09 3.37133E+05 5.73123E+08 2.87405E+06 6.21644E+07 5.75634E+04
 -1       279 1.58955E+09-1.20170E+05 6.03983E+08 2.95423E+06 6.17169E+07 5.75395E+04
 -1       280 1.67316E+09 2.90004E+05 6.35910E+08 3.02620E+06 6.12696E+07 5.75146E+04
 -1       281 1.75870E+09 2.60528E+05 6.68405E+08 3.08754E+06 6.08225E+07 5.74884E+04
 -1       282 1.84622E+09 7.43772E+03 7.01567E+08 3.15624E+06 6.03756E+07 5.74609E+04
 -1       283 1.93568E+09 1.81063E+05 7.35626E+08 3.23281E+06 5.99289E+07 5.74320E+04
 -1       284 2.02701E+09 1.77666E+05 7.70334E+08 3.29346E+06 5.94825E+07 5.74013E+04
 -1       285 2.12023E+09-7.62087E+03 8.05685E+08 3.36544E+06 5.90363E+07 5.73686E+04
 -1       286 2.21537E+09 2.57903E+05 8.41941E+08 3.44517E+06 5.85904E+07 5.73337E+04
 -1       287 2.31238E+09 3.06464E+05 8.78821E+08 3.48653E+06 5.81447E+07 5.72968E+04
 -1       288 2.41121E+09-8.83902E+04 9.16228E+08 3.56444E+06 5.76993E+07 5.72578E+04
 -1       289 2.51188E+09 3.38522E+05 9.54643E+08 3.62418E+06 5.72543E+07 5.72169E+04
 -1       290 2.61445E+09-3.11048E+05 9.93375E+08 3.70560E+06 5.68095E+07 5.71740E+04
 -1       291 2.71876E+09 4.43210E+05 1.03330E+09 3.77618E+06 5.63651E+07 5.71293E+04
 -1       292 2.82483E+09 5.28784E+05 1.07364E+09 3.80737E+06 5.59210E+07 5.70826E+04
 -1       293 2.93281E+09-3.53405E+05 1.11434E+09 3.88215E+06 5.54773E+07 5.70337E+04
 -1       294 3.04249E+09 3.54729E+05 1.15628E+09 3.94528E+06 5.50340E+07 5.69832E+04
 -1       295 3.15389E+09-1.90115E+05 1.19841E+09 4.01632E+06 5.45910E+07 5.69313E+04
 -1       296 3.26705E+09 3.81614E+05 1.24163E+09 4.08345E+06 5.41485E+07 5.68779E+04
 -1       297 3.38199E+09 3.08557E+05 1.28528E+09 4.13136E+06 5.37064E+07 5.68229E+04
 -1       298 3.49865E+09-1.20317E+05 1.32944E+09 4.18563E+06 5.32647E+07 5.67661E+04
 -1       299 3.61690E+09 1.75251E+05 1.37449E+09 4.25826E+06 5.28234E+07 5.67078E+04
 -1       300 3.73688E+09 2.00518E+05 1.42009E+09 4.31342E+06 5.23826E+07 5.66477E+04
 -1       301 3.85867E+09-1.54805E+05 1.46624E+09 4.38601E+06 5.19422E+07 5.65858E+04
 -1       302 3.98193E+09 2.83315E+05 1.51324E+09 4.44233E+06 5.15023E+07 5.65219E+04
 -1       303 4.10684E+09 5.56209E+05 1.56081E+09 4.48181E+06 5.10630E+07 5.64560E+04
 -1       304 4.23354E+09-6.34582E+05 1.60851E+09 4.55308E+06 5.06241E+07 5.63881E+04
 -1       305 4.36176E+09 6.34050E+05 1.65771E+09 4.62324E+06 5.01857E+07 5.63186E+04
 -1       306 4.49155E+09-5.05016E+04 1.70677E+09 4.65648E+06 4.97479E+07 5.62474E+04
 -1       307 4.62288E+09 1.07666E+05 1.75674E+09 4.72670E+06 4.93107E+07 5.61747E+04
 -1       308 4.75596E+09 5.24457E+05 1.80746E+09 4.78036E+06 4.88740E+07 5.61003E+04
 -1       309 4.89053E+09-4.06458E+05 1.85825E+09 4.81219E+06 4.84379E+07 5.60242E+04
 -1       310 5.02646E+09 5.03242E+05 1.91025E+09 4.88947E+06 4.80023E+07 5.59467E+04
 -1       311 5.16424E+09-4.53579E+05 1.96224E+09 4.95589E+06 4.75674E+07 5.58680E+04
 -1       312 5.30332E+09 4.78000E+05 2.01544E+09 5.00353E+06 4.71331E+07 5.57881E+04
 -1       313 5.44388E+09 4.84650E+05 2.06886E+09 5.04418E+06 4.66994E+07 5.57070E+04
 -1       314 5.58605E+09-3.89010E+05 2.12255E+09 5.08441E+06 4.62664E+07 5.56245E+04
 -1       315 5.72970E+09 4.44921E+05 2.17746E+09 5.16908E+06 4.58340E+07 5.55406E+04
 -1       316 5.87478E+09-5.16427E+05 2.23222E+09 5.19712E+06 4.54023E+07 5.54554E+04
 -1       317 6.02120E+09 6.75022E+05 2.28831E+09 5.29074E+06 4.49712E+07 5.53685E+04
 -1       318 6.16906E+09-1.21352E+04 2.34424E+09 5.28239E+06 4.45408E+07 5.52797E+04
 -1       319 6.31866E+09 4.88588E+04 2.40111E+09 5.40468E+06 4.41112E+07 5.51889E+04
 -1       320 6.46937E+09 5.06290E+05 2.45855E+09 5.36442E+06 4.36822E+07 5.50960E+04
 -1       321 6.62133E+09-1.54268E+05 2.51605E+09 5.45755E+06 4.32540E+07 5.50009E+04
 -1       322 6.77513E+09-3.47274E+05 2.57442E+09 5.52555E+06 4.28265E+07 5.49036E+04
 -1       323 6.92992E+09 4.47806E+05 2.63354E+09 5.56711E+06 4.23998E+07 5.48042E+04
 -1       324 7.08613E+09 6.42808E+05 2.69297E+09 5.60018E+06 4.19740E+07 5.47026E+04
 -1       325 7.24376E+09-5.72131E+05 2.75241E+09 5.62611E+06 4.15489E+07 5.45987E+04
 -1       326 7.40276E+09 5.15852E+05 2.81324E+09 5.72131E+06 4.11246E+07 5.44924E+04
 -1       327 7.56305E+09-6.54413E+05 2.87371E+09 5.73614E+06 4.07012E+07 5.43837E+04
 -1       328 7.72432E+09 6.91585E+05 2.93550E+09 5.81870E+06 4.02786E+07 5.42725E+04
 -1       329 7.88732E+09 5.42676E+05 2.99739E+09 5.83800E+06 3.98569E+07 5.41585E+04
 -1       330 8.05152E+09-6.30041E+05 3.05934E+09 5.84966E+06 3.94362E+07 5.40418E+04
 -1       331 8.21665E+09 6.93056E+05 3.12259E+09 5.93776E+06 3.90163E+07 5.39224E+04
 -1       332 8.38332E+09-1.33561E+06 3.18515E+09 5.97262E+06 3.85974E+07 5.38003E+04
 -1       333 8.55119E+09 1.19683E+06 3.24991E+09 6.11028E+06 3.81795E+07 5.36755E+04
 -1       334 8.72026E+09 1.14392E+06 3.31413E+09 5.98563E+06 3.77625E+07 5.35476E+04
 -1       335 8.89043E+09-1.39256E+06 3.37783E+09 6.08319E+06 3.73466E+07 5.34166E+04
 -1       336 9.06180E+09 8.19347E+05 3.44379E+09 6.14370E+06 3.69317E+07 5.32826E+04
 -1       337 9.23465E+09-7.99043E+05 3.50886E+09 6.20808E+06 3.65178E+07 5.31454E+04
 -1       338 9.40832E+09 5.69644E+05 3.57538E+09 6.24429E+06 3.61051E+07 5.30053E+04
 -1       339 9.58301E+09 8.64265E+05 3.64187E+09 6.24720E+06 3.56934E+07 5.28622E+04
 -1       340 9.75943E+09-7.88606E+05 3.70828E+09 6.30964E+06 3.52828E+07 5.27161E+04
 -1       341 9.93656E+09 2.57088E+05 3.77599E+09 6.32947E+06 3.48734E+07 5.25672E+04
 -1       342 1.01147E+10 3.29621E+05 3.84371E+09 6.40037E+06 3.44652E+07 5.24158E+04
 -1       343 1.02942E+10-7.60712E+05 3.91152E+09 6.41968E+06 3.40581E+07 5.22619E+04
 -1       344 1.04747E+10 6.24509E+05 3.98062E+09 6.52718E+06 3.36523E+07 5.21055E+04
 -1       345 1.06563E+10 1.05257E+06 4.04981E+09 6.46008E+06 3.32477E+07 5.19464E+04
 -1       346 1.08389E+10-1.74974E+06 4.11810E+09 6.52578E+06 3.28443E+07 5.17845E+04
 -1       347 1.10225E+10 1.33331E+06 4.18905E+09 6.63513E+06 3.24422E+07 5.16201E+04
 -1       348 1.12075E+10-2.63910E+05 4.25875E+09 6.59760E+06 3.20414E+07 5.14530E+04
 -1       349 1.13930E+10-1.56443E+05 4.32929E+09 6.65807E+06 3.16419E+07 5.12833E+04
 -1       350 1.15795E+10 1.23507E+06 4.40069E+09 6.66512E+06 3.12437E+07 5.11110E+04
 -1       351 1.17677E+10-1.15926E+06 4.47128E+09 6.72411E+06 3.08469E+07 5.09361E+04
 -1       352 1.19563E+10 7.39254E+05 4.54367E+09 6.72967E+06 3.04515E+07 5.07585E+04
 -1       353 1.21459E+10-1.03797E+06 4.61506E+09 6.82559E+06 3.00574E+07 5.05781E+04
 -1       354 1.23364E+10 9.27236E+05 4.68818E+09 6.84157E+06 2.96648E+07 5.03948E+04
 -1       355 1.25283E+10 8.41114E+05 4.76106E+09 6.87360E+06 2.92736E+07 5.02085E+04
 -1       356 1.27208E+10-1.17941E+06 4.83347E+09 6.82672E+06 2.88839E+07 5.00191E+04
 -1       357 1.29139E+10 9.94957E+05 4.90768E+09 6.94428E+06 2.84956E+07 4.98268E+04
 -1       358 1.31087E+10-1.44195E+06 4.98075E+09 6.97972E+06 2.81089E+07 4.96315E+04
 -1       359 1.33039E+10 1.40979E+06 5.05600E+09 7.02080E+06 2.77236E+07 4.94334E+04
 -1       360 1.34997E+10-2.92552E+05 5.12976E+09 6.98769E+06 2.73400E+07 4.92324E+04
 -1       361 1.36970E+10-1.14683E+05 5.20482E+09 7.10667E+06 2.69579E+07 4.90286E+04
 -1       362 1.38949E+10 1.13112E+06 5.28049E+09 7.03830E+06 2.65774E+07 4.88218E+04
 -1       363 1.40936E+10-7.69433E+05 5.35526E+09 7.08240E+06 2.61986E+07 4.86119E+04
 -1       364 1.42932E+10-7.79408E+05 5.43110E+09 7.15723E+06 2.58213E+07 4.83992E+04
 -1       365 1.44932E+10 8.80489E+05 5.50776E+09 7.21740E+06 2.54458E+07 4.81837E+04
 -1       366 1.46948E+10 1.13359E+06 5.58445E+09 7.19085E+06 2.50719E+07 4.79651E+04
 -1       367 1.48968E+10-1.56435E+06 5.66020E+09 7.17305E+06 2.46998E+07 4.77435E+04
 -1       368 1.50992E+10 1.20864E+06 5.73814E+09 7.25679E+06 2.43294E+07 4.75190E+04
 -1       369 1.53032E+10-1.55969E+06 5.81462E+09 7.33033E+06 2.39607E+07 4.72914E+04
 -1       370 1.55074E+10 1.07833E+06 5.89321E+09 7.32176E+06 2.35938E+07 4.70607E+04
 -1       371 1.57122E+10 1.09550E+06 5.97106E+09 7.33857E+06 2.32288E+07 4.68267E+04
 -1       372 1.59182E+10-1.13533E+06 6.04847E+09 7.29163E+06 2.28656E+07 4.65891E+04
 -1       373 1.61248E+10-2.23584E+05 6.12734E+09 7.44472E+06 2.25042E+07 4.63481E+04
 -1       374 1.63322E+10-6.77113E+05 6.20599E+09 7.46784E+06 2.21447E+07 4.61039E+04
 -1       375 1.65397E+10 2.34163E+06 6.28598E+09 7.44753E+06 2.17872E+07 4.58564E+04
 -1       376 1.67486E+10-3.49185E+05 6.36434E+09 7.42730E+06 2.14315E+07 4.56057E+04
 -1       377 1.69583E+10-8.18184E+05 6.44383E+09 7.43800E+06 2.10779E+07 4.53518E+04
 -1       378 1.71678E+10 2.17712E+05 6.52385E+09 7.51892E+06 2.07262E+07 4.50946E+04
 -1       379 1.73785E+10 3.94140E+05 6.60399E+09 7.53116E+06 2.03765E+07 4.48343E+04
 -1       380 1.75903E+10-1.34949E+06 6.68379E+09 7.59150E+06 2.00289E+07 4.45708E+04
 -1       381 1.78019E+10 1.01692E+06 6.76513E+09 7.61975E+06 1.96833E+07 4.43042E+04
 -1       382 1.80144E+10 1.37186E+06 6.84601E+09 7.58340E+06 1.93398E+07 4.40345E+04
 -1       383 1.82277E+10-1.63331E+06 6.92590E+09 7.56219E+06 1.89984E+07 4.37618E+04
 -1       384 1.84417E+10 1.02667E+06 7.00825E+09 7.69299E+06 1.86592E+07 4.34859E+04
 -1       385 1.86562E+10-1.87408E+06 7.08866E+09 7.64662E+06 1.83221E+07 4.32069E+04
 -1       386 1.88707E+10 1.90348E+06 7.17157E+09 7.75049E+06 1.79872E+07 4.29247E+04
 -1       387 1.90866E+10-4.36631E+05 7.25273E+09 7.70840E+06 1.76545E+07 4.26391E+04
 -1       388 1.93030E+10-4.09077E+05 7.33499E+09 7.74823E+06 1.73240E+07 4.23501E+04
 -1       389 1.95193E+10 2.18091E+06 7.41816E+09 7.70596E+06 1.69958E+07 4.20578E+04
 -1       390 1.97366E+10-3.22543E+06 7.49867E+09 7.72060E+06 1.66699E+07 4.17622E+04
 -1       391 1.99545E+10 1.79123E+06 7.58337E+09 7.91442E+06 1.63463E+07 4.14633E+04
 -1       392 2.01728E+10 1.03021E+06 7.66605E+09 7.72413E+06 1.60250E+07 4.11612E+04
 -1       393 2.03913E+10-1.53467E+06 7.74809E+09 7.76968E+06 1.57061E+07 4.08557E+04
 -1       394 2.06109E+10 1.01113E+06 7.83252E+09 7.90177E+06 1.53896E+07 4.05469E+04
 -1       395 2.08309E+10-1.82817E+06 7.91503E+09 7.80983E+06 1.50755E+07 4.02347E+04
 -1       396 2.10506E+10 1.28405E+06 7.99971E+09 7.98344E+06 1.47638E+07 3.99193E+04
 -1       397 2.12713E+10 1.48947E+06 8.08367E+09 7.82431E+06 1.44546E+07 3.96005E+04
 -1       398 2.14931E+10-1.62771E+06 8.16676E+09 7.90511E+06 1.41479E+07 3.92783E+04
 -1       399 2.17145E+10 7.10524E+04 8.25154E+09 7.87858E+06 1.38437E+07 3.89529E+04
 -1       400 2.19364E+10 1.14633E+06 8.33626E+09 7.98268E+06 1.35421E+07 3.86241E+04
 -1       401 2.21590E+10-3.53718E+06 8.41906E+09 7.90592E+06 1.32430E+07 3.82919E+04
 -1       402 2.23821E+10 2.71773E+06 8.50623E+09 8.25267E+06 1.29465E+07 3.79563E+04
 -1       403 2.26055E+10 2.75003E+06 8.59114E+09 7.78725E+06 1.26527E+07 3.76172E+04
 -1       404 2.28288E+10-3.52306E+06 8.67360E+09 7.91980E+06 1.23615E+07 3.72747E+04
 -1       405 2.30535E+10 1.61050E+06 8.76093E+09 8.07699E+06 1.20729E+07 3.69289E+04
 -1       406 2.32781E+10-2.28718E+06 8.84481E+09 7.97468E+06 1.17871E+07 3.65799E+04
 -1       407 2.35025E+10 1.58327E+06 8.93155E+09 8.16584E+06 1.15040E+07 3.62276E+04
 -1       408 2.37277E+10 1.64772E+06 9.01717E+09 7.97100E+06 1.12236E+07 3.58720E+04
 -1       409 2.39540E+10-2.12753E+06 9.10172E+09 8.06336E+06 1.09460E+07 3.55131E+04
 -1       410 2.41798E+10 1.09590E+06 9.18873E+09 8.03394E+06 1.06713E+07 3.51507E+04
 -1       411 2.44058E+10-1.94381E+06 9.27346E+09 8.10604E+06 1.03993E+07 3.47850E+04
 -1       412 2.46327E+10 1.50082E+06 9.36099E+09 8.23426E+06 1.01302E+07 3.44159E+04
 -1       413 2.48598E+10 1.48957E+06 9.44729E+09 8.01773E+06 9.86403E+06 3.40433E+04
 -1       414 2.50869E+10-1.70879E+06 9.53237E+09 8.08283E+06 9.60074E+06 3.36673E+04
 -1       415 2.53143E+10-4.62412E+05 9.61926E+09 8.11474E+06 9.34038E+06 3.32879E+04
 -1       416 2.55428E+10-9.92646E+05 9.70589E+09 8.34617E+06 9.08298E+06 3.29051E+04
 -1       417 2.57708E+10 3.39957E+06 9.79421E+09 8.10647E+06 8.82858E+06 3.25188E+04
 -1       418 2.59988E+10-4.83491E+05 9.87935E+09 8.08565E+06 8.57719E+06 3.21290E+04
 -1       419 2.62279E+10-1.44724E+06 9.96605E+09 8.11446E+06 8.32885E+06 3.17357E+04
 -1       420 2.64571E+10 4.75339E+05 1.00539E+10 8.23314E+06 8.08358E+06 3.13389E+04
 -1       421 2.66863E+10 2.09058E+05 1.01409E+10 8.15232E+06 7.84141E+06 3.09386E+04
 -1       422 2.69155E+10-1.73174E+06 1.02272E+10 8.19425E+06 7.60236E+06 3.05348E+04
 -1       423 2.71455E+10 1.34790E+06 1.03158E+10 8.38304E+06 7.36647E+06 3.01276E+04
 -1       424 2.73757E+10 1.94333E+06 1.04035E+10 8.09126E+06 7.13375E+06 2.97169E+04
 -1       425 2.76057E+10-2.58646E+06 1.04892E+10 8.20331E+06 6.90424E+06 2.93028E+04
 -1       426 2.78359E+10 1.67904E+06 1.05783E+10 8.20693E+06 6.67797E+06 2.88854E+04
 -1       427 2.80672E+10-2.65114E+06 1.06645E+10 8.31619E+06 6.45495E+06 2.84645E+04
 -1       428 2.82978E+10 1.97983E+06 1.07539E+10 8.28673E+06 6.23522E+06 2.80403E+04
 -1       429 2.85281E+10 2.84150E+05 1.08408E+10 8.20722E+06 6.01881E+06 2.76126E+04
 -1       430 2.87605E+10-1.29716E+06 1.09285E+10 8.39762E+06 5.80573E+06 2.71815E+04
 -1       431 2.89917E+10 3.40893E+06 1.10182E+10 8.11686E+06 5.59601E+06 2.67469E+04
 -1       432 2.92230E+10-4.87747E+06 1.11029E+10 8.26455E+06 5.38969E+06 2.63090E+04
 -1       433 2.94546E+10 2.51095E+06 1.11937E+10 8.37562E+06 5.18679E+06 2.58677E+04
 -1       434 2.96870E+10 1.85754E+06 1.12818E+10 8.29652E+06 4.98733E+06 2.54230E+04
 -1       435 2.99193E+10-2.82129E+06 1.13683E+10 8.13983E+06 4.79135E+06 2.49749E+04
 -1       436 3.01511E+10 1.77038E+06 1.14581E+10 8.36452E+06 4.59887E+06 2.45234E+04
 -1       437 3.03836E+10-2.93585E+06 1.15446E+10 8.25597E+06 4.40991E+06 2.40684E+04
 -1       438 3.06165E+10 2.26985E+06 1.16351E+10 8.51402E+06 4.22450E+06 2.36099E+04
 -1       439 3.08490E+10 1.50239E+06 1.17232E+10 8.16746E+06 4.04268E+06 2.31478E+04
 -1       440 3.10815E+10-2.00285E+06 1.18102E+10 8.25771E+06 3.86446E+06 2.26822E+04
 -1       441 3.13149E+10 1.22338E+05 1.18997E+10 8.38659E+06 3.68988E+06 2.22131E+04
 -1       442 3.15480E+10 1.24500E+06 1.19887E+10 8.27060E+06 3.51896E+06 2.17405E+04
 -1       443 3.17809E+10-4.80523E+06 1.20749E+10 8.34297E+06 3.35173E+06 2.12643E+04
 -1       444 3.20138E+10 3.74371E+06 1.21667E+10 8.61273E+06 3.18821E+06 2.07846E+04
 -1       445 3.22480E+10 4.07687E+06 1.22558E+10 8.22724E+06 3.02845E+06 2.03014E+04
 -1       446 3.24814E+10-5.51969E+06 1.23408E+10 8.12314E+06 2.87245E+06 1.98145E+04
 -1       447 3.27142E+10 2.74309E+06 1.24324E+10 8.38922E+06 2.72026E+06 1.93241E+04
 -1       448 3.29488E+10-3.57065E+06 1.25192E+10 8.40749E+06 2.57189E+06 1.88302E+04
 -1       449 3.31823E+10 2.44221E+06 1.26102E+10 8.40597E+06 2.42738E+06 1.83327E+04
 -1       450 3.34155E+10 2.01775E+06 1.26987E+10 8.33341E+06 2.28675E+06 1.78317E+04
 -1       451 3.36499E+10-2.90264E+06 1.27859E+10 8.22687E+06 2.15003E+06 1.73271E+04
 -1       452 3.38839E+10 1.70625E+06 1.28765E+10 8.43725E+06 2.01725E+06 1.68190E+04
 -1       453 3.41183E+10-3.07104E+06 1.29638E+10 8.31071E+06 1.88843E+06 1.63074E+04
 -1       454 3.43515E+10 1.93138E+06 1.30543E+10 8.50421E+06 1.76361E+06 1.57922E+04
 -1       455 3.45857E+10 3.17977E+06 1.31438E+10 8.30718E+06 1.64281E+06 1.52735E+04
 -1       456 3.48206E+10-5.83640E+06 1.32296E+10 8.26883E+06 1.52605E+06 1.47513E+04
 -1       457 3.50548E+10 3.59899E+06 1.33222E+10 8.57992E+06 1.41337E+06 1.42256E+04
 -1       458 3.52885E+10-5.53630E+05 1.34094E+10 8.18387E+06 1.30479E+06 1.36963E+04
 -1       459 3.55232E+10-9.04798E+05 1.34985E+10 8.56115E+06 1.20035E+06 1.31635E+04
 -1       460 3.57576E+10 3.14691E+06 1.35891E+10 8.21236E+06 1.10006E+06 1.26272E+04
 -1       461 3.59919E+10-2.96560E+06 1.36758E+10 8.35505E+06 1.00395E+06 1.20873E+04
 -1       462 3.62259E+10 6.37240E+05 1.37661E+10 8.29834E+06 9.12056E+05 1.15439E+04
 -1       463 3.64612E+10 7.48774E+05 1.38555E+10 8.51672E+06 8.24401E+05 1.09970E+04
 -1       464 3.66956E+10-3.19104E+06 1.39431E+10 8.20589E+06 7.41013E+05 1.04466E+04
 -1       465 3.69297E+10 2.37792E+06 1.40342E+10 8.68193E+06 6.61920E+05 9.89264E+03
 -1       466 3.71635E+10 2.51778E+06 1.41231E+10 8.13547E+06 5.87149E+05 9.33517E+03
 -1       467 3.74000E+10-3.25818E+06 1.42108E+10 8.51240E+06 5.16727E+05 8.77416E+03
 -1       468 3.76329E+10 1.15968E+06 1.43010E+10 8.11681E+06 4.50682E+05 8.20962E+03
 -1       469 3.78686E+10-1.68737E+06 1.43894E+10 8.66878E+06 3.89040E+05 7.64157E+03
 -1       470 3.81014E+10-1.30570E+06 1.44781E+10 8.20524E+06 3.31830E+05 7.06999E+03
 -1       471 3.83391E+10 5.40779E+06 1.45709E+10 8.92958E+06 2.79079E+05 6.49488E+03
 -1       472 3.85699E+10-1.98732E+06 1.46558E+10 7.56762E+06 2.30815E+05 5.91624E+03
 -1       473 3.88087E+10 2.29244E+05 1.47474E+10 9.06266E+06 1.87064E+05 5.33407E+03
 -1       474 3.90383E+10-3.78524E+06 1.48331E+10 7.48763E+06 1.47854E+05 4.74838E+03
 -1       475 3.92803E+10 1.94882E+06 1.49272E+10 9.71737E+06 1.13213E+05 4.15916E+03
 -1       476 3.95045E+10 8.25528E+06 1.50148E+10 6.78519E+06 8.31691E+04 3.56644E+03
 -1       477 3.97506E+10-2.88886E+07 1.50943E+10 9.93099E+06 5.77476E+04 2.97018E+03
 -1       478 3.99797E+10 1.01099E+08 1.52307E+10 7.71204E+06 3.69778E+04 2.37040E+03
 -1       479 4.01922E+10-3.75735E+08 1.51303E+10 3.94195E+06 2.08852E+04 1.76704E+03
 -1       480 4.05566E+10 1.38259E+09 1.59369E+10 3.33708E+07 9.49968E+03 1.16044E+03
 -1       481 4.02557E+10-5.07093E+09 1.33702E+10-9.37597E+07 2.84653E+03 5.49276E+02
 -1       482 3.97573E+10 1.88979E+10 2.22890E+10 3.74097E+08 7.02899E+02 2.42115E+02
 -1       483 2.34768E+05 1.25009E+05 1.36666E+05-1.46220E+02-7.81082E+07-3.85232E+04
 -1       484 8.36760E+05 1.23768E+05 3.64903E+05 1.42281E+05-7.78834E+07-3.85232E+04
 -1       485 2.69841E+06 1.25527E+05 1.07295E+06 2.84013E+05-7.74340E+07-3.85235E+04
 -1       486 5.80050E+06 1.21839E+05 2.25039E+06 4.25152E+05-7.69845E+07-3.85236E+04
 -1       487 1.01262E+07 1.25432E+05 3.89564E+06 5.64420E+05-7.65350E+07-3.85234E+04
 -1       488 1.56783E+07 1.13006E+05 6.00091E+06 7.04358E+05-7.60855E+07-3.85230E+04
 -1       489 2.24326E+07 1.35007E+05 8.57606E+06 8.42513E+05-7.56360E+07-3.85221E+04
 -1       490 3.04080E+07 1.07213E+05 1.15963E+07 9.78909E+05-7.51866E+07-3.85208E+04
 -1       491 3.95703E+07 1.28350E+05 1.50861E+07 1.11716E+06-7.47371E+07-3.85192E+04
 -1       492 4.99312E+07 1.16666E+05 1.90188E+07 1.25085E+06-7.42877E+07-3.85172E+04
 -1       493 6.14855E+07 1.05408E+05 2.34052E+07 1.38689E+06-7.38383E+07-3.85149E+04
 -1       494 7.41914E+07 1.40725E+05 2.82468E+07 1.52355E+06-7.33890E+07-3.85125E+04
 -1       495 8.80985E+07 1.06557E+05 3.35184E+07 1.65003E+06-7.29396E+07-3.85100E+04
 -1       496 1.03152E+08 9.54849E+04 3.92345E+07 1.79141E+06-7.24903E+07-3.85073E+04
 -1       497 1.19346E+08 1.39572E+05 4.54047E+07 1.91438E+06-7.20410E+07-3.85045E+04
 -1       498 1.36737E+08 1.26632E+05 5.20087E+07 2.04830E+06-7.15918E+07-3.85013E+04
 -1       499 1.55217E+08 6.15487E+04 5.90062E+07 2.18674E+06-7.11426E+07-3.84978E+04
 -1       500 1.74853E+08 1.86950E+05 6.65158E+07 2.30330E+06-7.06934E+07-3.84938E+04
 -1       501 1.95632E+08 5.11243E+04 7.43601E+07 2.44184E+06-7.02443E+07-3.84890E+04
 -1       502 2.17497E+08 1.49075E+05 8.27063E+07 2.55992E+06-6.97953E+07-3.84836E+04
 -1       503 2.40522E+08 9.42084E+04 9.14351E+07 2.69196E+06-6.93463E+07-3.84774E+04
 -1       504 2.64608E+08 6.92869E+04 1.00578E+08 2.82348E+06-6.88974E+07-3.84707E+04
 -1       505 2.89798E+08 2.05004E+05 1.10202E+08 2.93993E+06-6.84486E+07-3.84633E+04
 -1       506 3.16116E+08 1.81336E+04 1.20132E+08 3.06704E+06-6.79998E+07-3.84551E+04
 -1       507 3.43481E+08 1.58906E+05 1.30585E+08 3.18861E+06-6.75512E+07-3.84464E+04
 -1       508 3.71947E+08 8.64285E+04 1.41374E+08 3.31551E+06-6.71027E+07-3.84371E+04
 -1       509 4.01465E+08 1.08134E+05 1.52599E+08 3.43689E+06-6.66542E+07-3.84275E+04
 -1       510 4.32043E+08 1.40165E+05 1.64230E+08 3.55335E+06-6.62059E+07-3.84178E+04
 -1       511 4.63714E+08 7.77433E+04 1.76241E+08 3.67084E+06-6.57577E+07-3.84078E+04
 -1       512 4.96410E+08 6.93524E+04 1.88662E+08 3.80144E+06-6.53097E+07-3.83977E+04
 -1       513 5.30115E+08 1.39449E+05 2.01497E+08 3.91726E+06-6.48617E+07-3.83872E+04
 -1       514 5.64902E+08 1.43970E+05 2.14717E+08 4.02896E+06-6.44139E+07-3.83763E+04
 -1       515 6.00703E+08 1.08550E+04 2.28271E+08 4.14867E+06-6.39662E+07-3.83650E+04
 -1       516 6.37520E+08 1.64822E+05 2.42320E+08 4.26198E+06-6.35186E+07-3.83532E+04
 -1       517 6.75341E+08 7.73807E+04 2.56659E+08 4.38498E+06-6.30712E+07-3.83407E+04
 -1       518 7.14180E+08 1.18129E+05 2.71433E+08 4.49155E+06-6.26239E+07-3.83273E+04
 -1       519 7.54031E+08 7.99672E+04 2.86562E+08 4.61368E+06-6.21768E+07-3.83129E+04
 -1       520 7.94818E+08 1.02973E+05 3.02070E+08 4.72701E+06-6.17299E+07-3.82977E+04
 -1       521 8.36655E+08 1.55614E+05 3.17988E+08 4.81981E+06-6.12831E+07-3.82815E+04
 -1       522 8.79464E+08 4.54076E+04 3.34213E+08 4.95554E+06-6.08365E+07-3.82645E+04
 -1       523 9.23198E+08 4.24618E+04 3.50831E+08 5.05579E+06-6.03902E+07-3.82466E+04
 -1       524 9.67911E+08 1.45784E+05 3.67862E+08 5.17057E+06-5.99440E+07-3.82279E+04
 -1       525 1.01359E+09 1.79798E+05 3.85234E+08 5.26861E+06-5.94981E+07-3.82085E+04
 -1       526 1.06023E+09-6.77922E+04 4.02863E+08 5.38136E+06-5.90524E+07-3.81884E+04
 -1       527 1.10780E+09 1.83882E+05 4.21033E+08 5.48329E+06-5.86070E+07-3.81678E+04
 -1       528 1.15630E+09 1.40975E+05 4.39445E+08 5.60280E+06-5.81618E+07-3.81466E+04
 -1       529 1.20572E+09 4.77199E+04 4.58190E+08 5.70073E+06-5.77168E+07-3.81246E+04
 -1       530 1.25611E+09 1.10953E+04 4.77325E+08 5.80601E+06-5.72721E+07-3.81018E+04
 -1       531 1.30729E+09 8.60494E+04 4.96802E+08 5.91729E+06-5.68277E+07-3.80783E+04
 -1       532 1.35952E+09 2.77843E+05 5.16721E+08 5.98278E+06-5.63835E+07-3.80539E+04
 -1       533 1.41264E+09-7.67974E+04 5.36771E+08 6.14063E+06-5.59397E+07-3.80286E+04
 -1       534 1.46650E+09 1.48005E+05 5.57323E+08 6.22526E+06-5.54961E+07-3.80024E+04
 -1       535 1.52138E+09 1.56057E+05 5.78181E+08 6.31008E+06-5.50529E+07-3.79752E+04
 -1       536 1.57711E+09 2.33624E+04 5.99307E+08 6.41672E+06-5.46100E+07-3.79468E+04
 -1       537 1.63374E+09-1.69070E+04 6.20813E+08 6.49864E+06-5.41674E+07-3.79172E+04
 -1       538 1.69117E+09 1.68696E+05 6.42707E+08 6.64509E+06-5.37252E+07-3.78863E+04
 -1       539 1.74943E+09 2.00480E+05 6.64857E+08 6.70276E+06-5.32833E+07-3.78543E+04
 -1       540 1.80866E+09-1.20199E+04 6.87286E+08 6.80980E+06-5.28418E+07-3.78210E+04
 -1       541 1.86869E+09-4.68135E+04 7.10084E+08 6.90389E+06-5.24007E+07-3.77865E+04
 -1       542 1.92942E+09 2.04619E+05 7.33258E+08 7.01187E+06-5.19600E+07-3.77508E+04
 -1       543 1.99117E+09 2.42637E+05 7.56737E+08 7.06136E+06-5.15198E+07-3.77139E+04
 -1       544 2.05374E+09-2.26376E+05 7.80332E+08 7.21128E+06-5.10800E+07-3.76759E+04
 -1       545 2.11690E+09 1.25472E+05 8.04468E+08 7.29233E+06-5.06406E+07-3.76366E+04
 -1       546 2.18107E+09 2.91825E+05 8.28917E+08 7.35000E+06-5.02017E+07-3.75960E+04
 -1       547 2.24598E+09 1.19787E+05 8.53516E+08 7.47628E+06-4.97633E+07-3.75538E+04
 -1       548 2.31176E+09-2.40165E+05 8.78378E+08 7.52696E+06-4.93254E+07-3.75102E+04
 -1       549 2.37820E+09 2.28303E+05 9.03800E+08 7.68714E+06-4.88880E+07-3.74651E+04
 -1       550 2.44539E+09 3.21433E+05 9.29371E+08 7.71669E+06-4.84511E+07-3.74184E+04
 -1       551 2.51362E+09-3.79063E+05 9.55031E+08 7.82094E+06-4.80148E+07-3.73701E+04
 -1       552 2.58225E+09 3.41210E+05 9.81382E+08 7.92287E+06-4.75791E+07-3.73201E+04
 -1       553 2.65191E+09 1.95220E+05 1.00780E+09 7.94825E+06-4.71439E+07-3.72681E+04
 -1       554 2.72230E+09-8.89745E+04 1.03444E+09 8.11104E+06-4.67094E+07-3.72144E+04
 -1       555 2.79328E+09-6.81086E+04 1.06142E+09 8.16350E+06-4.62755E+07-3.71588E+04
 -1       556 2.86509E+09 2.24325E+05 1.08882E+09 8.26508E+06-4.58423E+07-3.71014E+04
 -1       557 2.93756E+09 2.35110E+05 1.11636E+09 8.31403E+06-4.54097E+07-3.70422E+04
 -1       558 3.01096E+09-2.54847E+04 1.14416E+09 8.37839E+06-4.49779E+07-3.69812E+04
 -1       559 3.08497E+09-3.75212E+05 1.17215E+09 8.52906E+06-4.45468E+07-3.69186E+04
 -1       560 3.15947E+09 4.45562E+05 1.20077E+09 8.57676E+06-4.41164E+07-3.68545E+04
 -1       561 3.23494E+09 5.31336E+05 1.22948E+09 8.65964E+06-4.36868E+07-3.67887E+04
 -1       562 3.31115E+09-7.24694E+05 1.25796E+09 8.73063E+06-4.32579E+07-3.67213E+04
 -1       563 3.38771E+09 4.78807E+05 1.28751E+09 8.83368E+06-4.28298E+07-3.66524E+04
 -1       564 3.46531E+09 1.68269E+05 1.31688E+09 8.83190E+06-4.24026E+07-3.65818E+04
 -1       565 3.54350E+09-1.05373E+05 1.34649E+09 9.00869E+06-4.19762E+07-3.65096E+04
 -1       566 3.62223E+09-1.13843E+05 1.37640E+09 9.04269E+06-4.15506E+07-3.64357E+04
 -1       567 3.70168E+09 1.85018E+05 1.40671E+09 9.14046E+06-4.11259E+07-3.63604E+04
 -1       568 3.78171E+09 4.84711E+05 1.43724E+09 9.17224E+06-4.07022E+07-3.62834E+04
 -1       569 3.86277E+09-6.18783E+05 1.46762E+09 9.22186E+06-4.02793E+07-3.62048E+04
 -1       570 3.94403E+09 3.82312E+05 1.49888E+09 9.41165E+06-3.98573E+07-3.61248E+04
 -1       571 4.02594E+09 3.34131E+05 1.52998E+09 9.38830E+06-3.94363E+07-3.60432E+04
 -1       572 4.10887E+09-1.77312E+05 1.56130E+09 9.48526E+06-3.90162E+07-3.59601E+04
 -1       573 4.19201E+09-4.32300E+05 1.59280E+09 9.54889E+06-3.85971E+07-3.58755E+04
 -1       574 4.27602E+09 5.49529E+05 1.62510E+09 9.58034E+06-3.81790E+07-3.57893E+04
 -1       575 4.36053E+09 5.09029E+05 1.65720E+09 9.75044E+06-3.77620E+07-3.57017E+04
 -1       576 4.44560E+09-4.34938E+05 1.68916E+09 9.75642E+06-3.73459E+07-3.56125E+04
 -1       577 4.53150E+09-1.98591E+05 1.72189E+09 9.83030E+06-3.69309E+07-3.55220E+04
 -1       578 4.61754E+09 3.58278E+05 1.75480E+09 9.92427E+06-3.65170E+07-3.54300E+04
 -1       579 4.70460E+09 4.31111E+05 1.78791E+09 9.88258E+06-3.61042E+07-3.53365E+04
 -1       580 4.79228E+09-7.68697E+05 1.82077E+09 1.00838E+07-3.56924E+07-3.52413E+04
 -1       581 4.87996E+09 5.61523E+05 1.85460E+09 1.01228E+07-3.52818E+07-3.51446E+04
 -1       582 4.96867E+09 2.68320E+05 1.88820E+09 1.01272E+07-3.48723E+07-3.50461E+04
 -1       583 5.05800E+09-2.43131E+05 1.92195E+09 1.02218E+07-3.44640E+07-3.49458E+04
 -1       584 5.14753E+09-1.88421E+05 1.95599E+09 1.02809E+07-3.40568E+07-3.48437E+04
 -1       585 5.23790E+09 2.85462E+05 1.99051E+09 1.03156E+07-3.36509E+07-3.47396E+04
 -1       586 5.32865E+09 4.41010E+05 2.02505E+09 1.04413E+07-3.32462E+07-3.46337E+04
 -1       587 5.41992E+09-5.67050E+05 2.05935E+09 1.04591E+07-3.28427E+07-3.45259E+04
 -1       588 5.51197E+09-5.45945E+04 2.09453E+09 1.04974E+07-3.24405E+07-3.44163E+04
 -1       589 5.60401E+09 7.31639E+05 2.12980E+09 1.06514E+07-3.20396E+07-3.43048E+04
 -1       590 5.69705E+09 1.59969E+05 2.16494E+09 1.05435E+07-3.16400E+07-3.41913E+04
 -1       591 5.79070E+09-8.92380E+05 2.20013E+09 1.07661E+07-3.12417E+07-3.40758E+04
 -1       592 5.88412E+09 6.52992E+05 2.23622E+09 1.07900E+07-3.08448E+07-3.39583E+04
 -1       593 5.97868E+09 2.52686E+05 2.27199E+09 1.07795E+07-3.04493E+07-3.38389E+04
 -1       594 6.07349E+09-1.79927E+05 2.30786E+09 1.08611E+07-3.00552E+07-3.37176E+04
 -1       595 6.16907E+09-3.72114E+05 2.34411E+09 1.08533E+07-2.96625E+07-3.35944E+04
 -1       596 6.26466E+09 3.31572E+05 2.38070E+09 1.10886E+07-2.92712E+07-3.34693E+04
 -1       597 6.36079E+09 6.95584E+05 2.41737E+09 1.09863E+07-2.88814E+07-3.33424E+04
 -1       598 6.45792E+09-1.12068E+06 2.45359E+09 1.10827E+07-2.84932E+07-3.32136E+04
 -1       599 6.55469E+09 7.10134E+05 2.49105E+09 1.11648E+07-2.81064E+07-3.30828E+04
 -1       600 6.65253E+09 4.66551E+05 2.52814E+09 1.10746E+07-2.77212E+07-3.29501E+04
 -1       601 6.75081E+09-9.16390E+05 2.56496E+09 1.13092E+07-2.73375E+07-3.28153E+04
 -1       602 6.84906E+09 1.73508E+05 2.60271E+09 1.12404E+07-2.69554E+07-3.26786E+04
 -1       603 6.94805E+09 7.68661E+05 2.64055E+09 1.14178E+07-2.65749E+07-3.25398E+04
 -1       604 7.04739E+09-1.09263E+05 2.67797E+09 1.13384E+07-2.61961E+07-3.23990E+04
 -1       605 7.14714E+09-8.83160E+04 2.71588E+09 1.14224E+07-2.58189E+07-3.22562E+04
 -1       606 7.24769E+09-5.05064E+05 2.75393E+09 1.13885E+07-2.54434E+07-3.21114E+04
 -1       607 7.34800E+09 3.84400E+05 2.79239E+09 1.16559E+07-2.50696E+07-3.19645E+04
 -1       608 7.44883E+09 8.07109E+05 2.83086E+09 1.15174E+07-2.46975E+07-3.18156E+04
 -1       609 7.55073E+09-1.32526E+06 2.86878E+09 1.16062E+07-2.43271E+07-3.16646E+04
 -1       610 7.65199E+09 8.15331E+05 2.90807E+09 1.16995E+07-2.39586E+07-3.15116E+04
 -1       611 7.75441E+09 4.02092E+05 2.94683E+09 1.15647E+07-2.35918E+07-3.13565E+04
 -1       612 7.85715E+09-4.75441E+05 2.98554E+09 1.18316E+07-2.32269E+07-3.11996E+04
 -1       613 7.95984E+09-2.09922E+05 3.02466E+09 1.17798E+07-2.28638E+07-3.10407E+04
 -1       614 8.06308E+09-2.19796E+05 3.06389E+09 1.18636E+07-2.25025E+07-3.08800E+04
 -1       615 8.16657E+09 1.32083E+06 3.10380E+09 1.17757E+07-2.21432E+07-3.07173E+04
 -1       616 8.27112E+09-9.07392E+05 3.14268E+09 1.18587E+07-2.17857E+07-3.05525E+04
 -1       617 8.37514E+09 1.27551E+05 3.18260E+09 1.20879E+07-2.14302E+07-3.03857E+04
 -1       618 8.47952E+09 7.17846E+05 3.22249E+09 1.19315E+07-2.10767E+07-3.02168E+04
 -1       619 8.58499E+09-5.07157E+05 3.26211E+09 1.20207E+07-2.07251E+07-3.00458E+04
 -1       620 8.69032E+09-5.77686E+05 3.30210E+09 1.20546E+07-2.03755E+07-2.98728E+04
 -1       621 8.79557E+09 7.14067E+05 3.34259E+09 1.21435E+07-2.00280E+07-2.96977E+04
 -1       622 8.90192E+09 4.30070E+05 3.38289E+09 1.19797E+07-1.96825E+07-2.95204E+04
 -1       623 9.00832E+09-4.99704E+05 3.42297E+09 1.22725E+07-1.93392E+07-2.93408E+04
 -1       624 9.11477E+09-3.68021E+05 3.46347E+09 1.21956E+07-1.89979E+07-2.91591E+04
 -1       625 9.22162E+09 3.16883E+05 3.50434E+09 1.22913E+07-1.86587E+07-2.89752E+04
 -1       626 9.32864E+09 9.79358E+05 3.54526E+09 1.22110E+07-1.83217E+07-2.87891E+04
 -1       627 9.43681E+09-1.38971E+06 3.58546E+09 1.21989E+07-1.79869E+07-2.86009E+04
 -1       628 9.54420E+09 9.56107E+04 3.62683E+09 1.24918E+07-1.76543E+07-2.84106E+04
 -1       629 9.65202E+09 1.18244E+06 3.66822E+09 1.22625E+07-1.73240E+07-2.82182E+04
 -1       630 9.76087E+09-8.78567E+04 3.70910E+09 1.24636E+07-1.69959E+07-2.80235E+04
 -1       631 9.86918E+09-1.05721E+06 3.74989E+09 1.24079E+07-1.66700E+07-2.78268E+04
 -1       632 9.97822E+09 5.38708E+05 3.79193E+09 1.24119E+07-1.63465E+07-2.76279E+04
 -1       633 1.00873E+10 9.00389E+05 3.83351E+09 1.25553E+07-1.60253E+07-2.74268E+04
 -1       634 1.01968E+10-1.52869E+06 3.87422E+09 1.25008E+07-1.57065E+07-2.72235E+04
 -1       635 1.03064E+10 7.45804E+05 3.91670E+09 1.26110E+07-1.53901E+07-2.70181E+04
 -1       636 1.04160E+10 7.56842E+05 3.95835E+09 1.25141E+07-1.50761E+07-2.68104E+04
 -1       637 1.05267E+10-6.61814E+05 3.99990E+09 1.24760E+07-1.47645E+07-2.66006E+04
 -1       638 1.06371E+10-7.04221E+05 4.04184E+09 1.27520E+07-1.44553E+07-2.63885E+04
 -1       639 1.07471E+10 8.63523E+05 4.08422E+09 1.27159E+07-1.41487E+07-2.61743E+04
 -1       640 1.08582E+10 4.51628E+05 4.12629E+09 1.26132E+07-1.38446E+07-2.59578E+04
 -1       641 1.09695E+10-4.22924E+05 4.16825E+09 1.27054E+07-1.35430E+07-2.57391E+04
 -1       642 1.10805E+10-1.27956E+06 4.21011E+09 1.27125E+07-1.32439E+07-2.55181E+04
 -1       643 1.11921E+10 1.16368E+06 4.25345E+09 1.26344E+07-1.29475E+07-2.52951E+04
 -1       644 1.13038E+10 1.57798E+06 4.29603E+09 1.29248E+07-1.26537E+07-2.50698E+04
 -1       645 1.14158E+10-2.54061E+06 4.33703E+09 1.27747E+07-1.23625E+07-2.48422E+04
 -1       646 1.15277E+10 1.15996E+06 4.38097E+09 1.28959E+07-1.20740E+07-2.46124E+04
 -1       647 1.16397E+10 6.07637E+05 4.42332E+09 1.27700E+07-1.17882E+07-2.43803E+04
 -1       648 1.17528E+10-6.15618E+05 4.46583E+09 1.27276E+07-1.15051E+07-2.41459E+04
 -1       649 1.18655E+10-7.84082E+05 4.50859E+09 1.30236E+07-1.12247E+07-2.39091E+04
 -1       650 1.19776E+10 7.72127E+05 4.55178E+09 1.29698E+07-1.09472E+07-2.36701E+04
 -1       651 1.20910E+10 9.66661E+05 4.59494E+09 1.28615E+07-1.06724E+07-2.34288E+04
 -1       652 1.22043E+10-1.86765E+06 4.63692E+09 1.29233E+07-1.04005E+07-2.31853E+04
 -1       653 1.23176E+10 1.03017E+06 4.68108E+09 1.29020E+07-1.01314E+07-2.29395E+04
 -1       654 1.24310E+10 5.18210E+05 4.72397E+09 1.30661E+07-9.86518E+06-2.26914E+04
 -1       655 1.25447E+10-2.58421E+05 4.76688E+09 1.29820E+07-9.60189E+06-2.24410E+04
 -1       656 1.26587E+10-1.83477E+06 4.80961E+09 1.30075E+07-9.34153E+06-2.21883E+04
 -1       657 1.27722E+10 1.61560E+06 4.85403E+09 1.30309E+07-9.08413E+06-2.19334E+04
 -1       658 1.28866E+10 1.48788E+06 4.89748E+09 1.29254E+07-8.82972E+06-2.16762E+04
 -1       659 1.30011E+10-1.79863E+06 4.93975E+09 1.32043E+07-8.57832E+06-2.14167E+04
 -1       660 1.31152E+10-3.50835E+05 4.98364E+09 1.30657E+07-8.32997E+06-2.11549E+04
 -1       661 1.32296E+10 5.90410E+05 5.02748E+09 1.31766E+07-8.08468E+06-2.08910E+04
 -1       662 1.33443E+10 1.10791E+06 5.07126E+09 1.30384E+07-7.84248E+06-2.06247E+04
 -1       663 1.34593E+10-2.02876E+06 5.11375E+09 1.31042E+07-7.60341E+06-2.03561E+04
 -1       664 1.35741E+10 1.11631E+06 5.15860E+09 1.30700E+07-7.36748E+06-2.00853E+04
 -1       665 1.36890E+10 6.08193E+05 5.20207E+09 1.32405E+07-7.13473E+06-1.98121E+04
 -1       666 1.38042E+10-5.87548E+05 5.24536E+09 1.31464E+07-6.90518E+06-1.95366E+04
 -1       667 1.39197E+10-9.34904E+05 5.28915E+09 1.31753E+07-6.67885E+06-1.92587E+04
 -1       668 1.40344E+10 8.37354E+05 5.33337E+09 1.32625E+07-6.45578E+06-1.89785E+04
 -1       669 1.41503E+10 1.39362E+06 5.37763E+09 1.29687E+07-6.23600E+06-1.86959E+04
 -1       670 1.42664E+10-3.44897E+06 5.41990E+09 1.33556E+07-6.01953E+06-1.84110E+04
 -1       671 1.43810E+10 2.37232E+06 5.46568E+09 1.32324E+07-5.80639E+06-1.81238E+04
 -1       672 1.44971E+10 1.24644E+06 5.50939E+09 1.32458E+07-5.59662E+06-1.78342E+04
 -1       673 1.46129E+10-1.57336E+06 5.55229E+09 1.32168E+07-5.39024E+06-1.75422E+04
 -1       674 1.47293E+10-6.96728E+05 5.59687E+09 1.30799E+07-5.18728E+06-1.72478E+04
 -1       675 1.48449E+10 6.94919E+05 5.64133E+09 1.35329E+07-4.98777E+06-1.69511E+04
 -1       676 1.49606E+10 1.07294E+06 5.68542E+09 1.31738E+07-4.79174E+06-1.66520E+04
 -1       677 1.50774E+10-1.03310E+06 5.72901E+09 1.32798E+07-4.59921E+06-1.63505E+04
 -1       678 1.51933E+10-7.21178E+05 5.77319E+09 1.32657E+07-4.41021E+06-1.60468E+04
 -1       679 1.53096E+10 7.69142E+05 5.81793E+09 1.32182E+07-4.22476E+06-1.57406E+04
 -1       680 1.54261E+10 1.24131E+06 5.86237E+09 1.34082E+07-4.04291E+06-1.54322E+04
 -1       681 1.55425E+10-2.42082E+06 5.90524E+09 1.32817E+07-3.86467E+06-1.51214E+04
 -1       682 1.56588E+10 1.30085E+06 5.95083E+09 1.34137E+07-3.69006E+06-1.48083E+04
 -1       683 1.57753E+10 9.93423E+05 5.99500E+09 1.32400E+07-3.51912E+06-1.44929E+04
 -1       684 1.58919E+10-1.82071E+06 6.03822E+09 1.32875E+07-3.35188E+06-1.41752E+04
 -1       685 1.60092E+10-1.52676E+05 6.08345E+09 1.30853E+07-3.18836E+06-1.38551E+04
 -1       686 1.61253E+10 1.68447E+06 6.12826E+09 1.37344E+07-3.02858E+06-1.35327E+04
 -1       687 1.62417E+10 5.21769E+05 6.17204E+09 1.32245E+07-2.87258E+06-1.32080E+04
 -1       688 1.63595E+10-2.73703E+06 6.21559E+09 1.33563E+07-2.72038E+06-1.28810E+04
 -1       689 1.64753E+10 1.72957E+06 6.26127E+09 1.34310E+07-2.57201E+06-1.25517E+04
 -1       690 1.65927E+10 7.24825E+05 6.30550E+09 1.30902E+07-2.42750E+06-1.22200E+04
 -1       691 1.67101E+10-1.14154E+06 6.34940E+09 1.35650E+07-2.28687E+06-1.18860E+04
 -1       692 1.68264E+10-5.37540E+05 6.39381E+09 1.33449E+07-2.15015E+06-1.15497E+04
 -1       693 1.69436E+10 5.18194E+05 6.43877E+09 1.34773E+07-2.01737E+06-1.12110E+04
 -1       694 1.70600E+10 1.30850E+06 6.48331E+09 1.32729E+07-1.88855E+06-1.08700E+04
 -1       695 1.71781E+10-1.10458E+06 6.52725E+09 1.31814E+07-1.76373E+06-1.05266E+04
 -1       696 1.72952E+10-8.28581E+05 6.57186E+09 1.35873E+07-1.64292E+06-1.01809E+04
 -1       697 1.74113E+10-1.75400E+05 6.61621E+09 1.34602E+07-1.52617E+06-9.83283E+03
 -1       698 1.75289E+10 2.38428E+06 6.66189E+09 1.32117E+07-1.41349E+06-9.48244E+03
 -1       699 1.76464E+10-1.69369E+06 6.70498E+09 1.34834E+07-1.30490E+06-9.12967E+03
 -1       700 1.77632E+10 1.74707E+05 6.75009E+09 1.32824E+07-1.20045E+06-8.77457E+03
 -1       701 1.78806E+10 1.11826E+06 6.79505E+09 1.35182E+07-1.10016E+06-8.41712E+03
 -1       702 1.79976E+10-8.23810E+05 6.83876E+09 1.33726E+07-1.00405E+06-8.05731E+03
 -1       703 1.81153E+10-1.27693E+06 6.88334E+09 1.33983E+07-9.12152E+05-7.69515E+03
 -1       704 1.82319E+10 1.21418E+06 6.92860E+09 1.35113E+07-8.24493E+05-7.33064E+03
 -1       705 1.83491E+10 9.39286E+05 6.97301E+09 1.32852E+07-7.41101E+05-6.96378E+03
 -1       706 1.84670E+10-8.43117E+05 7.01712E+09 1.31913E+07-6.62003E+05-6.59456E+03
 -1       707 1.85848E+10-1.51775E+06 7.06166E+09 1.36247E+07-5.87226E+05-6.22298E+03
 -1       708 1.87002E+10 1.66300E+06 7.10672E+09 1.35062E+07-5.16799E+05-5.84906E+03
 -1       709 1.88191E+10 6.90440E+05 7.15153E+09 1.32959E+07-4.50747E+05-5.47279E+03
 -1       710 1.89353E+10-1.73542E+06 7.19477E+09 1.33901E+07-3.89100E+05-5.09414E+03
 -1       711 1.90542E+10-7.55206E+05 7.24030E+09 1.32815E+07-3.31884E+05-4.71315E+03
 -1       712 1.91693E+10 3.19855E+06 7.28553E+09 1.34647E+07-2.79127E+05-4.32981E+03
 -1       713 1.92895E+10-1.43294E+06 7.32945E+09 1.34912E+07-2.30856E+05-3.94411E+03
 -1       714 1.94033E+10-5.18831E+05 7.37307E+09 1.34107E+07-1.87098E+05-3.55605E+03
 -1       715 1.95248E+10-1.15299E+06 7.41898E+09 1.34863E+07-1.47883E+05-3.16563E+03
 -1       716 1.96362E+10 4.12646E+06 7.46331E+09 1.31037E+07-1.13236E+05-2.77287E+03
 -1       717 1.97627E+10-3.09423E+06 7.50864E+09 1.36729E+07-8.31852E+04-2.37773E+03
 -1       718 1.98683E+10-1.11206E+07 7.54573E+09 1.32677E+07-5.77582E+04-1.98025E+03
 -1       719 1.99972E+10 6.36995E+07 7.62316E+09 1.43136E+07-3.69826E+04-1.58042E+03
 -1       720 2.01080E+10-2.48901E+08 7.54647E+09 9.55963E+06-2.08856E+04-1.17818E+03
 -1       721 2.02080E+10 9.22480E+08 8.02959E+09 2.75651E+07-9.49508E+03-7.73790E+02
 -1       722 2.04383E+10-3.38425E+09 6.48055E+09-3.89981E+07-2.83871E+03-3.66244E+02
 -1       723 2.05673E+10 1.25978E+10 1.26027E+10 2.09127E+08-6.96771E+02-1.61359E+02
 -1       724 2.34383E+05 1.24832E+05 1.36551E+05 1.83053E+02 7.81052E+07 3.85311E+04
 -1       725 8.36321E+05 1.23838E+05 3.64958E+05 1.42544E+05 7.78805E+07 3.85310E+04
 -1       726 2.69766E+06 1.25491E+05 1.07295E+06 2.84024E+05 7.74310E+07 3.85308E+04
 -1       727 5.80004E+06 1.21964E+05 2.25046E+06 4.24879E+05 7.69816E+07 3.85305E+04
 -1       728 1.01263E+07 1.25456E+05 3.89565E+06 5.63920E+05 7.65322E+07 3.85302E+04
 -1       729 1.56794E+07 1.13040E+05 6.00092E+06 7.03805E+05 7.60827E+07 3.85302E+04
 -1       730 2.24345E+07 1.35011E+05 8.57604E+06 8.42041E+05 7.56333E+07 3.85303E+04
 -1       731 3.04107E+07 1.07272E+05 1.15963E+07 9.78562E+05 7.51839E+07 3.85305E+04
 -1       732 3.95734E+07 1.28264E+05 1.50860E+07 1.11693E+06 7.47345E+07 3.85308E+04
 -1       733 4.99347E+07 1.16694E+05 1.90189E+07 1.25071E+06 7.42850E+07 3.85310E+04
 -1       734 6.14888E+07 1.05304E+05 2.34051E+07 1.38709E+06 7.38356E+07 3.85310E+04
 -1       735 7.41944E+07 1.40839E+05 2.82468E+07 1.52390E+06 7.33862E+07 3.85307E+04
 -1       736 8.81010E+07 1.06534E+05 3.35184E+07 1.65026E+06 7.29367E+07 3.85300E+04
 -1       737 1.03154E+08 9.55437E+04 3.92345E+07 1.79159E+06 7.24873E+07 3.85288E+04
 -1       738 1.19347E+08 1.39528E+05 4.54047E+07 1.91458E+06 7.20379E+07 3.85273E+04
 -1       739 1.36739E+08 1.26754E+05 5.20087E+07 2.04832E+06 7.15885E+07 3.85253E+04
 -1       740 1.55219E+08 6.16269E+04 5.90063E+07 2.18642E+06 7.11392E+07 3.85229E+04
 -1       741 1.74856E+08 1.86898E+05 6.65158E+07 2.30275E+06 7.06898E+07 3.85203E+04
 -1       742 1.95635E+08 5.12343E+04 7.43602E+07 2.44131E+06 7.02406E+07 3.85176E+04
 -1       743 2.17501E+08 1.48965E+05 8.27063E+07 2.55949E+06 6.97913E+07 3.85147E+04
 -1       744 2.40527E+08 9.41626E+04 9.14351E+07 2.69164E+06 6.93421E+07 3.85117E+04
 -1       745 2.64613E+08 6.93175E+04 1.00578E+08 2.82330E+06 6.88929E+07 3.85083E+04
 -1       746 2.89804E+08 2.05082E+05 1.10202E+08 2.93956E+06 6.84437E+07 3.85047E+04
 -1       747 3.16123E+08 1.81012E+04 1.20132E+08 3.06675E+06 6.79946E+07 3.85006E+04
 -1       748 3.43488E+08 1.58785E+05 1.30584E+08 3.18877E+06 6.75456E+07 3.84962E+04
 -1       749 3.71953E+08 8.63534E+04 1.41374E+08 3.31599E+06 6.70966E+07 3.84911E+04
 -1       750 4.01469E+08 1.08080E+05 1.52599E+08 3.43771E+06 6.66476E+07 3.84851E+04
 -1       751 4.32047E+08 1.40178E+05 1.64230E+08 3.55424E+06 6.61988E+07 3.84782E+04
 -1       752 4.63716E+08 7.77286E+04 1.76241E+08 3.67152E+06 6.57500E+07 3.84701E+04
 -1       753 4.96411E+08 6.93156E+04 1.88662E+08 3.80197E+06 6.53013E+07 3.84610E+04
 -1       754 5.30116E+08 1.39382E+05 2.01497E+08 3.91773E+06 6.48528E+07 3.84509E+04
 -1       755 5.64901E+08 1.43924E+05 2.14717E+08 4.02948E+06 6.44043E+07 3.84398E+04
 -1       756 6.00701E+08 1.08453E+04 2.28271E+08 4.14919E+06 6.39560E+07 3.84278E+04
 -1       757 6.37518E+08 1.64975E+05 2.42320E+08 4.26208E+06 6.35079E+07 3.84148E+04
 -1       758 6.75339E+08 7.74536E+04 2.56659E+08 4.38462E+06 6.30599E+07 3.84009E+04
 -1       759 7.14179E+08 1.18053E+05 2.71433E+08 4.49128E+06 6.26121E+07 3.83864E+04
 -1       760 7.54030E+08 7.99830E+04 2.86562E+08 4.61353E+06 6.21644E+07 3.83713E+04
 -1       761 7.94817E+08 1.02957E+05 3.02070E+08 4.72685E+06 6.17169E+07 3.83555E+04
 -1       762 8.36654E+08 1.55651E+05 3.17988E+08 4.81972E+06 6.12696E+07 3.83389E+04
 -1       763 8.79463E+08 4.54458E+04 3.34213E+08 4.95550E+06 6.08225E+07 3.83215E+04
 -1       764 9.23198E+08 4.23728E+04 3.50831E+08 5.05594E+06 6.03756E+07 3.83033E+04
 -1       765 9.67910E+08 1.45758E+05 3.67862E+08 5.17093E+06 5.99290E+07 3.82841E+04
 -1       766 1.01359E+09 1.79705E+05 3.85234E+08 5.26917E+06 5.94825E+07 3.82637E+04
 -1       767 1.06023E+09-6.78093E+04 4.02863E+08 5.38211E+06 5.90363E+07 3.82421E+04
 -1       768 1.10780E+09 1.83957E+05 4.21033E+08 5.48380E+06 5.85904E+07 3.82193E+04
 -1       769 1.15629E+09 1.40969E+05 4.39445E+08 5.60322E+06 5.81448E+07 3.81951E+04
 -1       770 1.20571E+09 4.77467E+04 4.58190E+08 5.70115E+06 5.76994E+07 3.81697E+04
 -1       771 1.25610E+09 1.10542E+04 4.77325E+08 5.80637E+06 5.72543E+07 3.81430E+04
 -1       772 1.30729E+09 8.61220E+04 4.96802E+08 5.91761E+06 5.68096E+07 3.81152E+04
 -1       773 1.35951E+09 2.77827E+05 5.16721E+08 5.98308E+06 5.63652E+07 3.80861E+04
 -1       774 1.41263E+09-7.67858E+04 5.36771E+08 6.14105E+06 5.59211E+07 3.80558E+04
 -1       775 1.46649E+09 1.48070E+05 5.57323E+08 6.22534E+06 5.54774E+07 3.80242E+04
 -1       776 1.52137E+09 1.56009E+05 5.78181E+08 6.30987E+06 5.50340E+07 3.79915E+04
 -1       777 1.57710E+09 2.33171E+04 5.99307E+08 6.41652E+06 5.45911E+07 3.79577E+04
 -1       778 1.63373E+09-1.69431E+04 6.20813E+08 6.49846E+06 5.41486E+07 3.79229E+04
 -1       779 1.69116E+09 1.68654E+05 6.42707E+08 6.64509E+06 5.37064E+07 3.78871E+04
 -1       780 1.74942E+09 2.00509E+05 6.64857E+08 6.70271E+06 5.32647E+07 3.78501E+04
 -1       781 1.80866E+09-1.19426E+04 6.87286E+08 6.80966E+06 5.28234E+07 3.78120E+04
 -1       782 1.86869E+09-4.68994E+04 7.10084E+08 6.90386E+06 5.23826E+07 3.77727E+04
 -1       783 1.92942E+09 2.04640E+05 7.33258E+08 7.01203E+06 5.19423E+07 3.77322E+04
 -1       784 1.99117E+09 2.42666E+05 7.56737E+08 7.06161E+06 5.15024E+07 3.76905E+04
 -1       785 2.05373E+09-2.26329E+05 7.80332E+08 7.21126E+06 5.10630E+07 3.76473E+04
 -1       786 2.11689E+09 1.25475E+05 8.04468E+08 7.29208E+06 5.06241E+07 3.76030E+04
 -1       787 2.18106E+09 2.91855E+05 8.28917E+08 7.34971E+06 5.01858E+07 3.75574E+04
 -1       788 2.24597E+09 1.19754E+05 8.53516E+08 7.47595E+06 4.97480E+07 3.75107E+04
 -1       789 2.31176E+09-2.40125E+05 8.78378E+08 7.52666E+06 4.93107E+07 3.74629E+04
 -1       790 2.37819E+09 2.28301E+05 9.03800E+08 7.68684E+06 4.88740E+07 3.74140E+04
 -1       791 2.44539E+09 3.21446E+05 9.29371E+08 7.71617E+06 4.84379E+07 3.73639E+04
 -1       792 2.51362E+09-3.78958E+05 9.55032E+08 7.82019E+06 4.80024E+07 3.73127E+04
 -1       793 2.58224E+09 3.41133E+05 9.81382E+08 7.92204E+06 4.75675E+07 3.72605E+04
 -1       794 2.65191E+09 1.95236E+05 1.00780E+09 7.94749E+06 4.71332E+07 3.72075E+04
 -1       795 2.72230E+09-8.89406E+04 1.03444E+09 8.11039E+06 4.66995E+07 3.71534E+04
 -1       796 2.79328E+09-6.81425E+04 1.06142E+09 8.16279E+06 4.62665E+07 3.70983E+04
 -1       797 2.86509E+09 2.24315E+05 1.08882E+09 8.26440E+06 4.58341E+07 3.70422E+04
 -1       798 2.93757E+09 2.35106E+05 1.11636E+09 8.31356E+06 4.54023E+07 3.69850E+04
 -1       799 3.01096E+09-2.54397E+04 1.14416E+09 8.37810E+06 4.49713E+07 3.69266E+04
 -1       800 3.08498E+09-3.75225E+05 1.17215E+09 8.52884E+06 4.45409E+07 3.68669E+04
 -1       801 3.15947E+09 4.45543E+05 1.20077E+09 8.57663E+06 4.41112E+07 3.68059E+04
 -1       802 3.23494E+09 5.31351E+05 1.22948E+09 8.65959E+06 4.36823E+07 3.67434E+04
 -1       803 3.31116E+09-7.24682E+05 1.25796E+09 8.73056E+06 4.32541E+07 3.66795E+04
 -1       804 3.38772E+09 4.78859E+05 1.28751E+09 8.83354E+06 4.28266E+07 3.66140E+04
 -1       805 3.46531E+09 1.68216E+05 1.31688E+09 8.83175E+06 4.23999E+07 3.65471E+04
 -1       806 3.54350E+09-1.05364E+05 1.34649E+09 9.00859E+06 4.19740E+07 3.64787E+04
 -1       807 3.62223E+09-1.13851E+05 1.37640E+09 9.04273E+06 4.15489E+07 3.64088E+04
 -1       808 3.70169E+09 1.84966E+05 1.40671E+09 9.14052E+06 4.11247E+07 3.63373E+04
 -1       809 3.78172E+09 4.84719E+05 1.43724E+09 9.17225E+06 4.07013E+07 3.62642E+04
 -1       810 3.86277E+09-6.18904E+05 1.46762E+09 9.22215E+06 4.02787E+07 3.61893E+04
 -1       811 3.94403E+09 3.82359E+05 1.49888E+09 9.41199E+06 3.98570E+07 3.61128E+04
 -1       812 4.02594E+09 3.34161E+05 1.52998E+09 9.38844E+06 3.94363E+07 3.60345E+04
 -1       813 4.10888E+09-1.77343E+05 1.56130E+09 9.48539E+06 3.90164E+07 3.59543E+04
 -1       814 4.19202E+09-4.32309E+05 1.59280E+09 9.54913E+06 3.85975E+07 3.58725E+04
 -1       815 4.27602E+09 5.49512E+05 1.62510E+09 9.58076E+06 3.81796E+07 3.57888E+04
 -1       816 4.36053E+09 5.08988E+05 1.65720E+09 9.75093E+06 3.77626E+07 3.57032E+04
 -1       817 4.44560E+09-4.34928E+05 1.68916E+09 9.75690E+06 3.73467E+07 3.56156E+04
 -1       818 4.53150E+09-1.98606E+05 1.72189E+09 9.83074E+06 3.69318E+07 3.55261E+04
 -1       819 4.61754E+09 3.58283E+05 1.75480E+09 9.92463E+06 3.65179E+07 3.54346E+04
 -1       820 4.70460E+09 4.31118E+05 1.78791E+09 9.88289E+06 3.61051E+07 3.53411E+04
 -1       821 4.79228E+09-7.68726E+05 1.82077E+09 1.00841E+07 3.56935E+07 3.52457E+04
 -1       822 4.87996E+09 5.61583E+05 1.85460E+09 1.01229E+07 3.52829E+07 3.51484E+04
 -1       823 4.96867E+09 2.68385E+05 1.88820E+09 1.01271E+07 3.48735E+07 3.50493E+04
 -1       824 5.05800E+09-2.43160E+05 1.92195E+09 1.02216E+07 3.44653E+07 3.49485E+04
 -1       825 5.14753E+09-1.88472E+05 1.95599E+09 1.02807E+07 3.40582E+07 3.48459E+04
 -1       826 5.23790E+09 2.85404E+05 1.99051E+09 1.03155E+07 3.36524E+07 3.47416E+04
 -1       827 5.32865E+09 4.41000E+05 2.02505E+09 1.04414E+07 3.32478E+07 3.46356E+04
 -1       828 5.41992E+09-5.67011E+05 2.05935E+09 1.04590E+07 3.28444E+07 3.45277E+04
 -1       829 5.51197E+09-5.45735E+04 2.09453E+09 1.04973E+07 3.24423E+07 3.44181E+04
 -1       830 5.60401E+09 7.31663E+05 2.12980E+09 1.06512E+07 3.20415E+07 3.43066E+04
 -1       831 5.69705E+09 1.59957E+05 2.16494E+09 1.05434E+07 3.16420E+07 3.41934E+04
 -1       832 5.79070E+09-8.92350E+05 2.20013E+09 1.07659E+07 3.12438E+07 3.40784E+04
 -1       833 5.88413E+09 6.52956E+05 2.23622E+09 1.07898E+07 3.08470E+07 3.39617E+04
 -1       834 5.97868E+09 2.52682E+05 2.27199E+09 1.07796E+07 3.04516E+07 3.38431E+04
 -1       835 6.07349E+09-1.79973E+05 2.30786E+09 1.08612E+07 3.00575E+07 3.37227E+04
 -1       836 6.16908E+09-3.72132E+05 2.34411E+09 1.08534E+07 2.96649E+07 3.36003E+04
 -1       837 6.26466E+09 3.31575E+05 2.38070E+09 1.10888E+07 2.92737E+07 3.34760E+04
 -1       838 6.36079E+09 6.95655E+05 2.41737E+09 1.09864E+07 2.88839E+07 3.33496E+04
 -1       839 6.45792E+09-1.12068E+06 2.45359E+09 1.10827E+07 2.84957E+07 3.32213E+04
 -1       840 6.55469E+09 7.10165E+05 2.49105E+09 1.11648E+07 2.81090E+07 3.30910E+04
 -1       841 6.65253E+09 4.66560E+05 2.52814E+09 1.10745E+07 2.77237E+07 3.29588E+04
 -1       842 6.75081E+09-9.16392E+05 2.56496E+09 1.13091E+07 2.73401E+07 3.28247E+04
 -1       843 6.84906E+09 1.73437E+05 2.60271E+09 1.12404E+07 2.69580E+07 3.26886E+04
 -1       844 6.94805E+09 7.68702E+05 2.64055E+09 1.14178E+07 2.65775E+07 3.25506E+04
 -1       845 7.04740E+09-1.09243E+05 2.67797E+09 1.13383E+07 2.61986E+07 3.24106E+04
 -1       846 7.14714E+09-8.83316E+04 2.71588E+09 1.14223E+07 2.58214E+07 3.22686E+04
 -1       847 7.24769E+09-5.05074E+05 2.75393E+09 1.13885E+07 2.54459E+07 3.21247E+04
 -1       848 7.34800E+09 3.84413E+05 2.79239E+09 1.16559E+07 2.50720E+07 3.19788E+04
 -1       849 7.44883E+09 8.07122E+05 2.83086E+09 1.15174E+07 2.46999E+07 3.18309E+04
 -1       850 7.55074E+09-1.32525E+06 2.86878E+09 1.16062E+07 2.43295E+07 3.16810E+04
 -1       851 7.65199E+09 8.15297E+05 2.90807E+09 1.16996E+07 2.39608E+07 3.15291E+04
 -1       852 7.75441E+09 4.02066E+05 2.94683E+09 1.15649E+07 2.35939E+07 3.13751E+04
 -1       853 7.85715E+09-4.75442E+05 2.98554E+09 1.18319E+07 2.32289E+07 3.12188E+04
 -1       854 7.95984E+09-2.09933E+05 3.02466E+09 1.17801E+07 2.28657E+07 3.10604E+04
 -1       855 8.06308E+09-2.19770E+05 3.06389E+09 1.18638E+07 2.25043E+07 3.08997E+04
 -1       856 8.16657E+09 1.32082E+06 3.10380E+09 1.17758E+07 2.21448E+07 3.07369E+04
 -1       857 8.27112E+09-9.07420E+05 3.14268E+09 1.18588E+07 2.17873E+07 3.05719E+04
 -1       858 8.37514E+09 1.27574E+05 3.18260E+09 1.20879E+07 2.14316E+07 3.04048E+04
 -1       859 8.47952E+09 7.17846E+05 3.22249E+09 1.19316E+07 2.10780E+07 3.02355E+04
 -1       860 8.58499E+09-5.07153E+05 3.26211E+09 1.20208E+07 2.07263E+07 3.00641E+04
 -1       861 8.69032E+09-5.77685E+05 3.30210E+09 1.20546E+07 2.03766E+07 2.98906E+04
 -1       862 8.79556E+09 7.14087E+05 3.34259E+09 1.21435E+07 2.00290E+07 2.97150E+04
 -1       863 8.90192E+09 4.30067E+05 3.38289E+09 1.19796E+07 1.96834E+07 2.95373E+04
 -1       864 9.00832E+09-4.99683E+05 3.42297E+09 1.22723E+07 1.93399E+07 2.93575E+04
 -1       865 9.11477E+09-3.68032E+05 3.46347E+09 1.21955E+07 1.89985E+07 2.91757E+04
 -1       866 9.22162E+09 3.16856E+05 3.50434E+09 1.22913E+07 1.86593E+07 2.89918E+04
 -1       867 9.32864E+09 9.79354E+05 3.54526E+09 1.22110E+07 1.83222E+07 2.88057E+04
 -1       868 9.43681E+09-1.38974E+06 3.58546E+09 1.21990E+07 1.79873E+07 2.86175E+04
 -1       869 9.54420E+09 9.56160E+04 3.62683E+09 1.24919E+07 1.76546E+07 2.84271E+04
 -1       870 9.65202E+09 1.18241E+06 3.66822E+09 1.22626E+07 1.73241E+07 2.82345E+04
 -1       871 9.76087E+09-8.78658E+04 3.70910E+09 1.24636E+07 1.69959E+07 2.80396E+04
 -1       872 9.86918E+09-1.05718E+06 3.74989E+09 1.24080E+07 1.66700E+07 2.78426E+04
 -1       873 9.97822E+09 5.38691E+05 3.79193E+09 1.24119E+07 1.63464E+07 2.76433E+04
 -1       874 1.00873E+10 9.00374E+05 3.83351E+09 1.25553E+07 1.60252E+07 2.74419E+04
 -1       875 1.01968E+10-1.52869E+06 3.87422E+09 1.25008E+07 1.57062E+07 2.72383E+04
 -1       876 1.03064E+10 7.45817E+05 3.91670E+09 1.26110E+07 1.53897E+07 2.70324E+04
 -1       877 1.04160E+10 7.56861E+05 3.95835E+09 1.25141E+07 1.50756E+07 2.68244E+04
 -1       878 1.05267E+10-6.61832E+05 3.99990E+09 1.24760E+07 1.47639E+07 2.66141E+04
 -1       879 1.06371E+10-7.04200E+05 4.04184E+09 1.27520E+07 1.44547E+07 2.64016E+04
 -1       880 1.07471E+10 8.63521E+05 4.08422E+09 1.27158E+07 1.41480E+07 2.61869E+04
 -1       881 1.08582E+10 4.51638E+05 4.12629E+09 1.26132E+07 1.38438E+07 2.59700E+04
 -1       882 1.09695E+10-4.22940E+05 4.16825E+09 1.27054E+07 1.35422E+07 2.57508E+04
 -1       883 1.10805E+10-1.27956E+06 4.21011E+09 1.27126E+07 1.32431E+07 2.55294E+04
 -1       884 1.11921E+10 1.16368E+06 4.25345E+09 1.26344E+07 1.29466E+07 2.53057E+04
 -1       885 1.13038E+10 1.57800E+06 4.29603E+09 1.29248E+07 1.26528E+07 2.50797E+04
 -1       886 1.14158E+10-2.54061E+06 4.33703E+09 1.27746E+07 1.23616E+07 2.48515E+04
 -1       887 1.15277E+10 1.15998E+06 4.38097E+09 1.28958E+07 1.20730E+07 2.46211E+04
 -1       888 1.16397E+10 6.07637E+05 4.42332E+09 1.27699E+07 1.17872E+07 2.43884E+04
 -1       889 1.17528E+10-6.15622E+05 4.46583E+09 1.27275E+07 1.15041E+07 2.41536E+04
 -1       890 1.18655E+10-7.84085E+05 4.50859E+09 1.30236E+07 1.12237E+07 2.39165E+04
 -1       891 1.19776E+10 7.72123E+05 4.55178E+09 1.29698E+07 1.09461E+07 2.36773E+04
 -1       892 1.20910E+10 9.66659E+05 4.59494E+09 1.28615E+07 1.06714E+07 2.34357E+04
 -1       893 1.22043E+10-1.86763E+06 4.63692E+09 1.29233E+07 1.03994E+07 2.31919E+04
 -1       894 1.23176E+10 1.03015E+06 4.68108E+09 1.29020E+07 1.01303E+07 2.29458E+04
 -1       895 1.24310E+10 5.18206E+05 4.72397E+09 1.30661E+07 9.86412E+06 2.26974E+04
 -1       896 1.25447E+10-2.58411E+05 4.76688E+09 1.29820E+07 9.60083E+06 2.24468E+04
 -1       897 1.26587E+10-1.83476E+06 4.80961E+09 1.30075E+07 9.34047E+06 2.21939E+04
 -1       898 1.27722E+10 1.61559E+06 4.85403E+09 1.30309E+07 9.08307E+06 2.19387E+04
 -1       899 1.28866E+10 1.48787E+06 4.89748E+09 1.29254E+07 8.82867E+06 2.16812E+04
 -1       900 1.30011E+10-1.79864E+06 4.93975E+09 1.32044E+07 8.57728E+06 2.14213E+04
 -1       901 1.31152E+10-3.50836E+05 4.98364E+09 1.30658E+07 8.32894E+06 2.11591E+04
 -1       902 1.32296E+10 5.90404E+05 5.02748E+09 1.31766E+07 8.08367E+06 2.08946E+04
 -1       903 1.33443E+10 1.10793E+06 5.07126E+09 1.30384E+07 7.84150E+06 2.06278E+04
 -1       904 1.34593E+10-2.02875E+06 5.11375E+09 1.31041E+07 7.60245E+06 2.03587E+04
 -1       905 1.35741E+10 1.11632E+06 5.15860E+09 1.30700E+07 7.36655E+06 2.00872E+04
 -1       906 1.36890E+10 6.08202E+05 5.20207E+09 1.32405E+07 7.13384E+06 1.98135E+04
 -1       907 1.38042E+10-5.87537E+05 5.24536E+09 1.31463E+07 6.90433E+06 1.95375E+04
 -1       908 1.39197E+10-9.34897E+05 5.28915E+09 1.31752E+07 6.67805E+06 1.92592E+04
 -1       909 1.40344E+10 8.37340E+05 5.33337E+09 1.32624E+07 6.45504E+06 1.89787E+04
 -1       910 1.41503E+10 1.39363E+06 5.37763E+09 1.29686E+07 6.23530E+06 1.86958E+04
 -1       911 1.42664E+10-3.44896E+06 5.41990E+09 1.33556E+07 6.01889E+06 1.84107E+04
 -1       912 1.43810E+10 2.37232E+06 5.46568E+09 1.32324E+07 5.80581E+06 1.81233E+04
 -1       913 1.44971E+10 1.24646E+06 5.50939E+09 1.32458E+07 5.59609E+06 1.78336E+04
 -1       914 1.46129E+10-1.57336E+06 5.55229E+09 1.32168E+07 5.38977E+06 1.75416E+04
 -1       915 1.47293E+10-6.96719E+05 5.59687E+09 1.30798E+07 5.18687E+06 1.72473E+04
 -1       916 1.48449E+10 6.94913E+05 5.64133E+09 1.35328E+07 4.98741E+06 1.69508E+04
 -1       917 1.49606E+10 1.07293E+06 5.68542E+09 1.31737E+07 4.79143E+06 1.66520E+04
 -1       918 1.50774E+10-1.03311E+06 5.72901E+09 1.32798E+07 4.59894E+06 1.63509E+04
 -1       919 1.51933E+10-7.21173E+05 5.77319E+09 1.32657E+07 4.40998E+06 1.60474E+04
 -1       920 1.53096E+10 7.69143E+05 5.81793E+09 1.32182E+07 4.22457E+06 1.57417E+04
 -1       921 1.54261E+10 1.24130E+06 5.86237E+09 1.34082E+07 4.04275E+06 1.54335E+04
 -1       922 1.55425E+10-2.42082E+06 5.90524E+09 1.32817E+07 3.86453E+06 1.51230E+04
 -1       923 1.56588E+10 1.30085E+06 5.95083E+09 1.34137E+07 3.68994E+06 1.48102E+04
 -1       924 1.57753E+10 9.93428E+05 5.99500E+09 1.32401E+07 3.51902E+06 1.44951E+04
 -1       925 1.58919E+10-1.82071E+06 6.03822E+09 1.32876E+07 3.35179E+06 1.41775E+04
 -1       926 1.60092E+10-1.52681E+05 6.08345E+09 1.30854E+07 3.18828E+06 1.38577E+04
 -1       927 1.61253E+10 1.68447E+06 6.12826E+09 1.37345E+07 3.02851E+06 1.35354E+04
 -1       928 1.62417E+10 5.21759E+05 6.17204E+09 1.32246E+07 2.87251E+06 1.32108E+04
 -1       929 1.63595E+10-2.73703E+06 6.21559E+09 1.33563E+07 2.72032E+06 1.28839E+04
 -1       930 1.64753E+10 1.72958E+06 6.26127E+09 1.34310E+07 2.57195E+06 1.25545E+04
 -1       931 1.65927E+10 7.24824E+05 6.30550E+09 1.30902E+07 2.42743E+06 1.22228E+04
 -1       932 1.67101E+10-1.14154E+06 6.34940E+09 1.35650E+07 2.28680E+06 1.18888E+04
 -1       933 1.68264E+10-5.37539E+05 6.39381E+09 1.33449E+07 2.15008E+06 1.15524E+04
 -1       934 1.69436E+10 5.18193E+05 6.43877E+09 1.34773E+07 2.01730E+06 1.12136E+04
 -1       935 1.70600E+10 1.30850E+06 6.48331E+09 1.32729E+07 1.88848E+06 1.08725E+04
 -1       936 1.71781E+10-1.10458E+06 6.52725E+09 1.31814E+07 1.76366E+06 1.05290E+04
 -1       937 1.72952E+10-8.28580E+05 6.57186E+09 1.35873E+07 1.64286E+06 1.01832E+04
 -1       938 1.74113E+10-1.75401E+05 6.61621E+09 1.34603E+07 1.52610E+06 9.83504E+03
 -1       939 1.75289E+10 2.38428E+06 6.66189E+09 1.32117E+07 1.41342E+06 9.48454E+03
 -1       940 1.76464E+10-1.69370E+06 6.70498E+09 1.34834E+07 1.30484E+06 9.13166E+03
 -1       941 1.77632E+10 1.74706E+05 6.75009E+09 1.32824E+07 1.20039E+06 8.77643E+03
 -1       942 1.78806E+10 1.11826E+06 6.79505E+09 1.35182E+07 1.10009E+06 8.41886E+03
 -1       943 1.79976E+10-8.23810E+05 6.83876E+09 1.33726E+07 1.00399E+06 8.05893E+03
 -1       944 1.81153E+10-1.27693E+06 6.88334E+09 1.33983E+07 9.12090E+05 7.69666E+03
 -1       945 1.82319E+10 1.21418E+06 6.92860E+09 1.35113E+07 8.24434E+05 7.33203E+03
 -1       946 1.83491E+10 9.39287E+05 6.97301E+09 1.32852E+07 7.41044E+05 6.96506E+03
 -1       947 1.84670E+10-8.43117E+05 7.01712E+09 1.31913E+07 6.61949E+05 6.59573E+03
 -1       948 1.85848E+10-1.51775E+06 7.06166E+09 1.36247E+07 5.87176E+05 6.22404E+03
 -1       949 1.87002E+10 1.66300E+06 7.10672E+09 1.35062E+07 5.16751E+05 5.85002E+03
 -1       950 1.88191E+10 6.90440E+05 7.15153E+09 1.32959E+07 4.50704E+05 5.47365E+03
 -1       951 1.89353E+10-1.73542E+06 7.19477E+09 1.33901E+07 3.89060E+05 5.09491E+03
 -1       952 1.90542E+10-7.55207E+05 7.24030E+09 1.32815E+07 3.31848E+05 4.71383E+03
 -1       953 1.91693E+10 3.19855E+06 7.28553E+09 1.34647E+07 2.79095E+05 4.33040E+03
 -1       954 1.92895E+10-1.43293E+06 7.32945E+09 1.34912E+07 2.30828E+05 3.94461E+03
 -1       955 1.94033E+10-5.18830E+05 7.37307E+09 1.34107E+07 1.87075E+05 3.55646E+03
 -1       956 1.95248E+10-1.15299E+06 7.41898E+09 1.34863E+07 1.47863E+05 3.16597E+03
 -1       957 1.96362E+10 4.12646E+06 7.46331E+09 1.31037E+07 1.13220E+05 2.77315E+03
 -1       958 1.97627E+10-3.09423E+06 7.50864E+09 1.36729E+07 8.31731E+04 2.37794E+03
 -1       959 1.98683E+10-1.11206E+07 7.54573E+09 1.32677E+07 5.77494E+04 1.98041E+03
 -1       960 1.99972E+10 6.36995E+07 7.62316E+09 1.43136E+07 3.69768E+04 1.58053E+03
 -1       961 2.01080E+10-2.48901E+08 7.54647E+09 9.55962E+06 2.08822E+04 1.17825E+03
 -1       962 2.02080E+10 9.22480E+08 8.02959E+09 2.75651E+07 9.49351E+03 7.73830E+02
 -1       963 2.04383E+10-3.38425E+09 6.48055E+09-3.89981E+07 2.83830E+03 3.66261E+02
 -1       964 2.05673E+10 1.25978E+10 1.26027E+10 2.09127E+08 6.96771E+02 1.61368E+02
 -1       965 2.18085E+01 1.64282E+01 1.06332E+01 1.86309E+04-7.81082E+07 2.61358E+00
 -1       966 3.84720E+01 9.29506E+00 1.39682E+01 1.94771E+05-7.78834E+07 2.61760E+00
 -1       967 2.53757E+02 6.29891E+01 1.17458E+02 3.91251E+05-7.74340E+07 2.62347E+00
 -1       968 4.32946E+02-5.82666E+01 1.46171E+02 5.83251E+05-7.69845E+07 2.62325E+00
 -1       969 8.09930E+02 1.80262E+01 3.17653E+02 7.77690E+05-7.65350E+07 2.61995E+00
 -1       970 1.29175E+03 7.19191E+01 5.20012E+02 9.67002E+05-7.60855E+07 2.62124E+00
 -1       971 1.76715E+03-5.56440E+01 6.60676E+02 1.15714E+06-7.56360E+07 2.62367E+00
 -1       972 2.39150E+03-4.52167E+01 8.99629E+02 1.34896E+06-7.51866E+07 2.62435E+00
 -1       973 3.18508E+03 3.19330E+01 1.22296E+03 1.53178E+06-7.47371E+07 2.62535E+00
 -1       974 3.94755E+03-4.11450E+01 1.48196E+03 1.72476E+06-7.42877E+07 2.62795E+00
 -1       975 4.91562E+03 2.21145E+00 1.86827E+03 1.90530E+06-7.38383E+07 2.63374E+00
 -1       976 5.88233E+03-4.33136E+01 2.22110E+03 2.08795E+06-7.33890E+07 2.64112E+00
 -1       977 7.05469E+03 4.88771E+01 2.69799E+03 2.28133E+06-7.29396E+07 2.64986E+00
 -1       978 8.21988E+03-3.12275E+01 3.10884E+03 2.44890E+06-7.24903E+07 2.65952E+00
 -1       979 9.54475E+03 3.08806E+01 3.64274E+03 2.64177E+06-7.20410E+07 2.67026E+00
 -1       980 1.09259E+04-1.81032E+00 4.15885E+03 2.82272E+06-7.15918E+07 2.68163E+00
 -1       981 1.23942E+04-3.79726E+00 4.70937E+03 2.98571E+06-7.11426E+07 2.68928E+00
 -1       982 1.40254E+04 6.73658E+01 5.35463E+03 3.18273E+06-7.06934E+07 2.69498E+00
 -1       983 1.55725E+04-7.68081E+01 5.89322E+03 3.34892E+06-7.02443E+07 2.69974E+00
 -1       984 1.74143E+04 5.05819E+01 6.64086E+03 3.52687E+06-6.97953E+07 2.70740E+00
 -1       985 1.91927E+04-3.42435E+01 7.28787E+03 3.70879E+06-6.93463E+07 2.71821E+00
 -1       986 2.11695E+04 5.01537E+01 8.07502E+03 3.85753E+06-6.88974E+07 2.72855E+00
 -1       987 2.31620E+04-1.16918E+01 8.80229E+03 4.05649E+06-6.84486E+07 2.73726E+00
 -1       988 2.52858E+04 1.93783E+01 9.61777E+03 4.21564E+06-6.79998E+07 2.74429E+00
 -1       989 2.74350E+04-4.55659E+01 1.04107E+04 4.38698E+06-6.75512E+07 2.75128E+00
 -1       990 2.97482E+04 8.23981E+00 1.13089E+04 4.55611E+06-6.71027E+07 2.76066E+00
 -1       991 3.20917E+04-1.23209E+00 1.21961E+04 4.71631E+06-6.66543E+07 2.77290E+00
 -1       992 3.45463E+04 2.07410E+01 1.31371E+04 4.89559E+06-6.62060E+07 2.78709E+00
 -1       993 3.70823E+04 2.10436E+01 1.40993E+04 5.06053E+06-6.57578E+07 2.79990E+00
 -1       994 3.97068E+04 2.33002E+01 1.50980E+04 5.21216E+06-6.53097E+07 2.81122E+00
 -1       995 4.23940E+04 4.85817E+01 1.61267E+04 5.37438E+06-6.48617E+07 2.82521E+00
 -1       996 4.52167E+04 9.09213E+01 1.72096E+04 5.55374E+06-6.44139E+07 2.83994E+00
 -1       997 4.80247E+04-2.69534E+01 1.82334E+04 5.70191E+06-6.39662E+07 2.84876E+00
 -1       998 5.10003E+04 1.53491E+01 1.93896E+04 5.86708E+06-6.35186E+07 2.85193E+00
 -1       999 5.40095E+04-4.10931E+01 2.05104E+04 6.02083E+06-6.30712E+07 2.85193E+00
 -1      1000 5.71608E+04 4.94561E+01 2.17345E+04 6.18326E+06-6.26240E+07 2.85077E+00
 -1      1001 6.03137E+04-1.73701E+01 2.29044E+04 6.33737E+06-6.21768E+07 2.84833E+00
 -1      1002 6.36262E+04 5.86646E+01 2.41910E+04 6.47916E+06-6.17299E+07 2.84389E+00
 -1      1003 6.69359E+04-2.30978E+01 2.54240E+04 6.67305E+06-6.12831E+07 2.83771E+00
 -1      1004 7.03791E+04-5.26225E+00 2.67405E+04 6.78420E+06-6.08366E+07 2.82811E+00
 -1      1005 7.38932E+04 3.27382E+01 2.80800E+04 6.95393E+06-6.03902E+07 2.81620E+00
 -1      1006 7.74513E+04-4.86613E+00 2.94159E+04 7.08804E+06-5.99441E+07 2.80431E+00
 -1      1007 8.11242E+04-4.46364E+00 3.08170E+04 7.26674E+06-5.94982E+07 2.79222E+00
 -1      1008 8.48212E+04-1.15338E+01 3.22218E+04 7.39828E+06-5.90525E+07 2.78147E+00
 -1      1009 8.86443E+04-1.01489E+01 3.36750E+04 7.54806E+06-5.86070E+07 2.77182E+00
 -1      1010 9.25276E+04 1.50608E+01 3.51638E+04 7.69368E+06-5.81618E+07 2.76186E+00
 -1      1011 9.64726E+04-2.90762E+00 3.66588E+04 7.83767E+06-5.77169E+07 2.75298E+00
 -1      1012 1.00524E+05 1.83437E+01 3.82075E+04 7.98842E+06-5.72722E+07 2.74649E+00
 -1      1013 1.04585E+05-1.01611E+01 3.97415E+04 8.09822E+06-5.68277E+07 2.74101E+00
 -1      1014 1.08760E+05-2.11986E+01 4.13189E+04 8.31745E+06-5.63836E+07 2.73690E+00
 -1      1015 1.13022E+05 2.93494E+00 4.29438E+04 8.37900E+06-5.59397E+07 2.73452E+00
 -1      1016 1.17329E+05 5.40838E+00 4.45776E+04 8.53360E+06-5.54962E+07 2.73094E+00
 -1      1017 1.21734E+05 2.15388E+01 4.62574E+04 8.70827E+06-5.50529E+07 2.72685E+00
 -1      1018 1.26206E+05 6.09167E+01 4.79730E+04 8.81907E+06-5.46100E+07 2.72279E+00
 -1      1019 1.30711E+05 5.98334E+00 4.96625E+04 8.98894E+06-5.41674E+07 2.71846E+00
 -1      1020 1.35305E+05 1.12064E+01 5.14180E+04 9.04327E+06-5.37252E+07 2.71529E+00
 -1      1021 1.39963E+05-6.47182E+00 5.31898E+04 9.25963E+06-5.32833E+07 2.71222E+00
 -1      1022 1.44695E+05-1.87125E+01 5.49772E+04 9.35913E+06-5.28419E+07 2.70625E+00
 -1      1023 1.49506E+05 1.46993E+01 5.68134E+04 9.49919E+06-5.24008E+07 2.70058E+00
 -1      1024 1.54353E+05-2.42852E+01 5.86512E+04 9.59091E+06-5.19601E+07 2.69750E+00
 -1      1025 1.59310E+05 8.77147E+00 6.05479E+04 9.81734E+06-5.15199E+07 2.69434E+00
 -1      1026 1.64305E+05 5.75036E+00 6.24372E+04 9.85053E+06-5.10800E+07 2.68917E+00
 -1      1027 1.69356E+05-1.21092E+01 6.43486E+04 9.98110E+06-5.06407E+07 2.68364E+00
 -1      1028 1.74472E+05-3.04550E+01 6.62823E+04 1.01755E+07-5.02018E+07 2.68012E+00
 -1      1029 1.79715E+05 7.95857E+01 6.83136E+04 1.02479E+07-4.97634E+07 2.67991E+00
 -1      1030 1.84930E+05 7.05308E+00 7.02701E+04 1.04346E+07-4.93254E+07 2.67972E+00
 -1      1031 1.90277E+05 2.19373E+01 7.23075E+04 1.04265E+07-4.88880E+07 2.67991E+00
 -1      1032 1.95649E+05 5.00800E+01 7.43582E+04 1.06824E+07-4.84512E+07 2.67989E+00
 -1      1033 2.01076E+05-3.54904E+01 7.63922E+04 1.07488E+07-4.80149E+07 2.67800E+00
 -1      1034 2.06609E+05 5.65744E+01 7.85292E+04 1.08261E+07-4.75791E+07 2.67678E+00
 -1      1035 2.12151E+05-2.13649E+01 8.06028E+04 1.10806E+07-4.71440E+07 2.67673E+00
 -1      1036 2.17795E+05 2.82115E+01 8.27660E+04 1.10540E+07-4.67095E+07 2.67424E+00
 -1      1037 2.23462E+05 9.83969E+00 8.49128E+04 1.12386E+07-4.62756E+07 2.67269E+00
 -1      1038 2.29188E+05-2.36233E+01 8.70805E+04 1.12959E+07-4.58424E+07 2.67366E+00
 -1      1039 2.35030E+05 3.34201E+01 8.93310E+04 1.14955E+07-4.54098E+07 2.67664E+00
 -1      1040 2.40839E+05-4.18328E+01 9.15079E+04 1.16093E+07-4.49780E+07 2.68034E+00
 -1      1041 2.46794E+05 3.05594E+01 9.37875E+04 1.16357E+07-4.45468E+07 2.68364E+00
 -1      1042 2.52754E+05 3.77056E+00 9.60420E+04 1.17491E+07-4.41165E+07 2.68841E+00
 -1      1043 2.58790E+05-1.47336E+01 9.83359E+04 1.19491E+07-4.36868E+07 2.69290E+00
 -1      1044 2.64857E+05-2.60790E+01 1.00639E+05 1.20100E+07-4.32580E+07 2.69496E+00
 -1      1045 2.71044E+05 3.91133E+01 1.03013E+05 1.20593E+07-4.28299E+07 2.69457E+00
 -1      1046 2.77219E+05-2.67720E+01 1.05336E+05 1.23382E+07-4.24027E+07 2.69459E+00
 -1      1047 2.83485E+05 2.39531E+01 1.07738E+05 1.22586E+07-4.19763E+07 2.69634E+00
 -1      1048 2.89749E+05-1.94616E+01 1.10096E+05 1.24551E+07-4.15507E+07 2.69797E+00
 -1      1049 2.96181E+05 5.71439E+01 1.12567E+05 1.24789E+07-4.11260E+07 2.69792E+00
 -1      1050 3.02502E+05-4.06853E+01 1.14931E+05 1.26923E+07-4.07022E+07 2.69591E+00
 -1      1051 3.09036E+05 2.39444E+01 1.17434E+05 1.28069E+07-4.02793E+07 2.69351E+00
 -1      1052 3.15484E+05-3.05464E+01 1.19867E+05 1.27105E+07-3.98574E+07 2.69125E+00
 -1      1053 3.22109E+05 1.84595E+01 1.22407E+05 1.30214E+07-3.94364E+07 2.68902E+00
 -1      1054 3.28659E+05-8.90421E+00 1.24879E+05 1.30306E+07-3.90163E+07 2.68751E+00
 -1      1055 3.35390E+05 3.67183E+01 1.27455E+05 1.31309E+07-3.85972E+07 2.68589E+00
 -1      1056 3.41996E+05-9.92971E+01 1.29917E+05 1.32492E+07-3.81791E+07 2.68472E+00
 -1      1057 3.48958E+05 1.21872E+02 1.32644E+05 1.33124E+07-3.77621E+07 2.68398E+00
 -1      1058 3.55500E+05-1.14822E+02 1.35041E+05 1.34332E+07-3.73460E+07 2.68083E+00
 -1      1059 3.62654E+05 1.19959E+02 1.37849E+05 1.35206E+07-3.69310E+07 2.67471E+00
 -1      1060 3.69243E+05-1.25995E+02 1.40257E+05 1.35257E+07-3.65171E+07 2.66892E+00
 -1      1061 3.76559E+05 1.87925E+02 1.43156E+05 1.38550E+07-3.61043E+07 2.66459E+00
 -1      1062 3.83119E+05-2.26611E+02 1.45493E+05 1.37028E+07-3.56925E+07 2.66097E+00
 -1      1063 3.90675E+05 2.75650E+02 1.48557E+05 1.38145E+07-3.52819E+07 2.65790E+00
 -1      1064 3.97153E+05-3.03447E+02 1.50798E+05 1.40506E+07-3.48724E+07 2.65429E+00
 -1      1065 4.05019E+05 3.59927E+02 1.54037E+05 1.40373E+07-3.44641E+07 2.64991E+00
 -1      1066 4.11325E+05-3.62451E+02 1.56156E+05 1.41388E+07-3.40569E+07 2.64537E+00
 -1      1067 4.19597E+05 4.90539E+02 1.59623E+05 1.42320E+07-3.36510E+07 2.63991E+00
 -1      1068 4.25610E+05-5.77349E+02 1.61501E+05 1.42982E+07-3.32463E+07 2.63335E+00
 -1      1069 4.34392E+05 7.04360E+02 1.65326E+05 1.43930E+07-3.28428E+07 2.62510E+00
 -1      1070 4.39956E+05-8.16695E+02 1.66863E+05 1.44870E+07-3.24406E+07 2.61385E+00
 -1      1071 4.49541E+05 9.68234E+02 1.71181E+05 1.44451E+07-3.20397E+07 2.60039E+00
 -1      1072 4.54322E+05-1.11109E+03 1.72207E+05 1.48252E+07-3.16401E+07 2.58568E+00
 -1      1073 4.64966E+05 1.26010E+03 1.77153E+05 1.46075E+07-3.12418E+07 2.57046E+00
 -1      1074 4.68628E+05-1.47949E+03 1.77502E+05 1.47122E+07-3.08449E+07 2.55554E+00
 -1      1075 4.80867E+05 1.79140E+03 1.83395E+05 1.49705E+07-3.04494E+07 2.53962E+00
 -1      1076 4.82808E+05-2.24245E+03 1.82599E+05 1.49036E+07-3.00552E+07 2.52195E+00
 -1      1077 4.97097E+05 3.12371E+03 1.90067E+05 1.51441E+07-2.96626E+07 2.50332E+00
 -1      1078 4.97356E+05-5.06159E+03 1.87056E+05 1.48649E+07-2.92713E+07 2.48286E+00
 -1      1079 5.12140E+05 9.87047E+03 1.98349E+05 1.53085E+07-2.88815E+07 2.45943E+00
 -1      1080 5.16407E+05-2.15193E+04 1.88040E+05 1.52043E+07-2.84933E+07 2.43513E+00
 -1      1081 5.32647E+05 4.46702E+04 2.19362E+05 1.52066E+07-2.81065E+07 2.72622E+00
 -1      1082 5.23242E+05-4.37043E+04 1.82209E+05 1.55820E+07-2.77213E+07 3.32981E+00
 -1      1083 5.41039E+05 1.95954E+04 2.13024E+05 1.53092E+07-2.73376E+07 3.61836E+00
 -1      1084 5.44607E+05-9.26757E+03 2.03410E+05 1.55466E+07-2.69555E+07 3.59236E+00
 -1      1085 5.59576E+05 5.02136E+03 2.14529E+05 1.54775E+07-2.65750E+07 3.56490E+00
 -1      1086 5.60353E+05-3.11967E+03 2.11729E+05 1.57476E+07-2.61962E+07 3.53539E+00
 -1      1087 5.74737E+05 2.35819E+03 2.19273E+05 1.56911E+07-2.58190E+07 3.50586E+00
 -1      1088 5.77368E+05-1.99682E+03 2.18618E+05 1.59041E+07-2.54435E+07 3.47686E+00
 -1      1089 5.89938E+05 1.51424E+03 2.24732E+05 1.55976E+07-2.50697E+07 3.44713E+00
 -1      1090 5.94138E+05-1.07706E+03 2.25345E+05 1.60415E+07-2.46976E+07 3.41656E+00
 -1      1091 6.05545E+05 7.95583E+02 2.30392E+05 1.59647E+07-2.43272E+07 3.38596E+00
 -1      1092 6.10932E+05-7.01068E+02 2.31872E+05 1.58739E+07-2.39587E+07 3.35624E+00
 -1      1093 6.21353E+05 7.57810E+02 2.36384E+05 1.63568E+07-2.35919E+07 3.32727E+00
 -1      1094 6.27792E+05-8.40943E+02 2.38220E+05 1.59670E+07-2.32270E+07 3.29852E+00
 -1      1095 6.37452E+05 6.23667E+02 2.42447E+05 1.62534E+07-2.28639E+07 3.26931E+00
 -1      1096 6.44492E+05-4.87984E+02 2.44700E+05 1.61121E+07-2.25026E+07 3.23985E+00
 -1      1097 6.53761E+05 6.54861E+02 2.48657E+05 1.64483E+07-2.21433E+07 3.21045E+00
 -1      1098 6.61396E+05-6.20236E+02 2.51073E+05 1.64735E+07-2.17858E+07 3.18040E+00
 -1      1099 6.70329E+05 3.03374E+02 2.54820E+05 1.61681E+07-2.14303E+07 3.14928E+00
 -1      1100 6.78053E+05-7.47595E+01 2.57614E+05 1.66241E+07-2.10768E+07 3.11876E+00
 -1      1101 6.87052E+05 1.04153E+02 2.61100E+05 1.65120E+07-2.07252E+07 3.08951E+00
 -1      1102 6.95065E+05-2.78887E+02 2.63997E+05 1.65835E+07-2.03756E+07 3.06036E+00
 -1      1103 7.03773E+05 3.62891E+02 2.67549E+05 1.64873E+07-2.00281E+07 3.03101E+00
 -1      1104 7.12036E+05-1.27708E+02 2.70502E+05 1.69645E+07-1.96826E+07 3.00135E+00
 -1      1105 7.20824E+05-1.00250E+02 2.73854E+05 1.65504E+07-1.93393E+07 2.97058E+00
 -1      1106 7.29066E+05-9.52175E-01 2.77021E+05 1.68177E+07-1.89980E+07 2.93975E+00
 -1      1107 7.37831E+05 2.98102E+01 2.80363E+05 1.66829E+07-1.86588E+07 2.90962E+00
 -1      1108 7.46161E+05 2.35252E+02 2.83609E+05 1.69944E+07-1.83218E+07 2.87950E+00
 -1      1109 7.55083E+05-3.04477E+02 2.86795E+05 1.70650E+07-1.79870E+07 2.84972E+00
 -1      1110 7.63481E+05 1.46010E+01 2.90106E+05 1.66434E+07-1.76544E+07 2.82004E+00
 -1      1111 7.72179E+05 2.57906E+02 2.93502E+05 1.72081E+07-1.73241E+07 2.78939E+00
 -1      1112 7.80892E+05-2.05917E+02 2.96637E+05 1.69925E+07-1.69960E+07 2.75777E+00
 -1      1113 7.89519E+05 1.08200E+02 3.00037E+05 1.71076E+07-1.66701E+07 2.72579E+00
 -1      1114 7.98267E+05-7.56074E+01 3.03291E+05 1.71334E+07-1.63466E+07 2.69403E+00
 -1      1115 8.07010E+05 8.03692E+01 3.06672E+05 1.71501E+07-1.60254E+07 2.66387E+00
 -1      1116 8.15730E+05-1.35556E+02 3.09906E+05 1.72448E+07-1.57066E+07 2.63476E+00
 -1      1117 8.24530E+05 5.30691E+01 3.13322E+05 1.70830E+07-1.53902E+07 2.60501E+00
 -1      1118 8.33199E+05 2.18116E+02 3.16680E+05 1.74371E+07-1.50762E+07 2.57433E+00
 -1      1119 8.42195E+05-1.80293E+02 3.19945E+05 1.74734E+07-1.47646E+07 2.54379E+00
 -1      1120 8.51011E+05-2.28121E+02 3.23275E+05 1.71941E+07-1.44554E+07 2.51377E+00
 -1      1121 8.59722E+05 2.72871E+02 3.26776E+05 1.72591E+07-1.41488E+07 2.48283E+00
 -1      1122 8.68639E+05 4.58630E+01 3.30078E+05 1.76162E+07-1.38447E+07 2.45153E+00
 -1      1123 8.77599E+05-1.46385E+02 3.33410E+05 1.74283E+07-1.35431E+07 2.42100E+00
 -1      1124 8.86381E+05 7.09548E+01 3.36829E+05 1.74987E+07-1.32440E+07 2.39086E+00
 -1      1125 8.95413E+05-2.02709E+01 3.40225E+05 1.75531E+07-1.29476E+07 2.36114E+00
 -1      1126 9.04314E+05 2.52937E+01 3.43625E+05 1.75462E+07-1.26538E+07 2.33195E+00
 -1      1127 9.13242E+05-1.15674E+02 3.46965E+05 1.76155E+07-1.23626E+07 2.30237E+00
 -1      1128 9.22219E+05 5.83317E+01 3.50442E+05 1.74565E+07-1.20741E+07 2.27231E+00
 -1      1129 9.31108E+05 2.64500E+02 3.53898E+05 1.78240E+07-1.17883E+07 2.24193E+00
 -1      1130 9.40270E+05-2.08371E+02 3.57200E+05 1.78455E+07-1.15052E+07 2.21080E+00
 -1      1131 9.49289E+05-2.49522E+02 3.60611E+05 1.75342E+07-1.12248E+07 2.17931E+00
 -1      1132 9.58139E+05 2.76997E+02 3.64175E+05 1.75856E+07-1.09473E+07 2.14748E+00
 -1      1133 9.67271E+05 6.59193E+01 3.67564E+05 1.79730E+07-1.06725E+07 2.11544E+00
 -1      1134 9.76340E+05-1.36729E+02 3.70931E+05 1.77483E+07-1.04006E+07 2.08356E+00
 -1      1135 9.85410E+05 4.82621E+01 3.74449E+05 1.78536E+07-1.01315E+07 2.05138E+00
 -1      1136 9.94501E+05-3.57432E+01 3.77873E+05 1.78075E+07-9.86528E+06 2.01849E+00
 -1      1137 1.00353E+06 8.97885E+01 3.81350E+05 1.79046E+07-9.60198E+06 1.98539E+00
 -1      1138 1.01272E+06-2.45909E+02 3.84715E+05 1.78848E+07-9.34162E+06 1.95211E+00
 -1      1139 1.02170E+06 3.15420E+02 3.88342E+05 1.77317E+07-9.08422E+06 1.91804E+00
 -1      1140 1.03097E+06-2.93149E+01 3.91730E+05 1.83303E+07-8.82981E+06 1.88342E+00
 -1      1141 1.04012E+06-2.30197E+02 3.95131E+05 1.77209E+07-8.57841E+06 1.84896E+00
 -1      1142 1.04918E+06 6.06914E+01 3.98685E+05 1.80334E+07-8.33006E+06 1.81472E+00
 -1      1143 1.05836E+06 5.10967E+01 4.02171E+05 1.78074E+07-8.08477E+06 1.78050E+00
 -1      1144 1.06751E+06 1.50936E+02 4.05684E+05 1.82296E+07-7.84257E+06 1.74638E+00
 -1      1145 1.07674E+06-1.80002E+02 4.09067E+05 1.80142E+07-7.60350E+06 1.71254E+00
 -1      1146 1.08593E+06 6.87698E+01 4.12652E+05 1.80698E+07-7.36757E+06 1.67893E+00
 -1      1147 1.09514E+06-5.88901E+01 4.16108E+05 1.80770E+07-7.13482E+06 1.64500E+00
 -1      1148 1.10428E+06 1.04319E+02 4.19640E+05 1.80895E+07-6.90526E+06 1.61077E+00
 -1      1149 1.11362E+06-2.70517E+02 4.23047E+05 1.81524E+07-6.67894E+06 1.57688E+00
 -1      1150 1.12266E+06 3.36271E+02 4.26714E+05 1.78685E+07-6.45587E+06 1.54353E+00
 -1      1151 1.13201E+06 5.36295E+01 4.30159E+05 1.86345E+07-6.23608E+06 1.51023E+00
 -1      1152 1.14138E+06-5.42288E+02 4.33495E+05 1.78608E+07-6.01961E+06 1.47721E+00
 -1      1153 1.15038E+06 4.62559E+02 4.37294E+05 1.80406E+07-5.80647E+06 1.44510E+00
 -1      1154 1.15980E+06-7.26228E+01 4.40671E+05 1.84110E+07-5.59670E+06 1.41366E+00
 -1      1155 1.16894E+06 1.36425E+02 4.44223E+05 1.81329E+07-5.39032E+06 1.38231E+00
 -1      1156 1.17839E+06-3.02622E+02 4.47649E+05 1.84989E+07-5.18736E+06 1.35122E+00
 -1      1157 1.18760E+06-2.88069E+01 4.51254E+05 1.77306E+07-4.98785E+06 1.32061E+00
 -1      1158 1.19673E+06 3.77629E+02 4.54876E+05 1.85499E+07-4.79181E+06 1.29044E+00
 -1      1159 1.20623E+06-2.90611E+02 4.58233E+05 1.81952E+07-4.59928E+06 1.26068E+00
 -1      1160 1.21538E+06 1.10080E+02 4.61863E+05 1.82756E+07-4.41028E+06 1.23137E+00
 -1      1161 1.22478E+06-5.97683E+01 4.65368E+05 1.82846E+07-4.22484E+06 1.20226E+00
 -1      1162 1.23406E+06 8.12460E+01 4.68951E+05 1.82773E+07-4.04298E+06 1.17304E+00
 -1      1163 1.24338E+06-2.22490E+02 4.72377E+05 1.83155E+07-3.86474E+06 1.14386E+00
 -1      1164 1.25265E+06 1.95069E+02 4.76056E+05 1.80709E+07-3.69013E+06 1.11495E+00
 -1      1165 1.26200E+06 5.04477E+01 4.79552E+05 1.85802E+07-3.51919E+06 1.08621E+00
 -1      1166 1.27125E+06 9.12922E+01 4.83086E+05 1.82520E+07-3.35194E+06 1.05741E+00
 -1      1167 1.28079E+06-3.14426E+02 4.86558E+05 1.86239E+07-3.18842E+06 1.02839E+00
 -1      1168 1.29006E+06-4.94748E+01 4.90178E+05 1.77944E+07-3.02864E+06 9.99346E-01
 -1      1169 1.29916E+06 5.01118E+02 4.93847E+05 1.86976E+07-2.87264E+06 9.70471E-01
 -1      1170 1.30886E+06-6.27934E+02 4.97104E+05 1.82931E+07-2.72044E+06 9.41608E-01
 -1      1171 1.31786E+06 5.29021E+02 5.00965E+05 1.81062E+07-2.57207E+06 9.12990E-01
 -1      1172 1.32742E+06-7.79393E+01 5.04366E+05 1.89178E+07-2.42756E+06 8.84732E-01
 -1      1173 1.33684E+06-3.26037E+02 5.07852E+05 1.80118E+07-2.28693E+06 8.56662E-01
 -1      1174 1.34602E+06 1.41469E+02 5.11517E+05 1.84735E+07-2.15020E+06 8.28710E-01
 -1      1175 1.35547E+06-5.29044E+01 5.15036E+05 1.81383E+07-2.01742E+06 8.00878E-01
 -1      1176 1.36467E+06 4.37405E+02 5.18716E+05 1.86044E+07-1.88860E+06 7.73122E-01
 -1      1177 1.37427E+06-3.24646E+02 5.22076E+05 1.86599E+07-1.76378E+06 7.45413E-01
 -1      1178 1.38367E+06-3.57560E+02 5.25636E+05 1.80980E+07-1.64297E+06 7.17679E-01
 -1      1179 1.39273E+06 4.09284E+02 5.29367E+05 1.82081E+07-1.52621E+06 6.90027E-01
 -1      1180 1.40230E+06 9.40036E+01 5.32886E+05 1.86806E+07-1.41353E+06 6.62468E-01
 -1      1181 1.41169E+06-2.21720E+02 5.36333E+05 1.83576E+07-1.30495E+06 6.34864E-01
 -1      1182 1.42100E+06 1.05485E+02 5.39996E+05 1.84236E+07-1.20049E+06 6.07244E-01
 -1      1183 1.43044E+06-8.06528E+01 5.43511E+05 1.84262E+07-1.10020E+06 5.79795E-01
 -1      1184 1.43973E+06 1.13512E+02 5.47115E+05 1.83903E+07-1.00409E+06 5.52544E-01
 -1      1185 1.44920E+06-2.58850E+02 5.50574E+05 1.84760E+07-9.12187E+05 5.25332E-01
 -1      1186 1.45853E+06 1.45613E+02 5.54272E+05 1.80979E+07-8.24526E+05 4.98168E-01
 -1      1187 1.46775E+06 3.65087E+02 5.57859E+05 1.87730E+07-7.41132E+05 4.71123E-01
 -1      1188 1.47742E+06-2.92298E+02 5.61286E+05 1.85735E+07-6.62031E+05 4.44185E-01
 -1      1189 1.48678E+06-4.41900E+02 5.64785E+05 1.82523E+07-5.87253E+05 4.17351E-01
 -1      1190 1.49592E+06 5.25073E+02 5.68625E+05 1.80469E+07-5.16823E+05 3.90597E-01
 -1      1191 1.50541E+06-6.49286E+00 5.72030E+05 1.89523E+07-4.50769E+05 3.63889E-01
 -1      1192 1.51487E+06-1.17397E+02 5.75580E+05 1.80881E+07-3.89120E+05 3.37291E-01
 -1      1193 1.52416E+06-2.82875E+01 5.79146E+05 1.88076E+07-3.31901E+05 3.10745E-01
 -1      1194 1.53368E+06 7.09455E+01 5.82799E+05 1.79796E+07-2.79142E+05 2.84232E-01
 -1      1195 1.54292E+06-3.38724E+01 5.86274E+05 1.89970E+07-2.30869E+05 2.57835E-01
 -1      1196 1.55244E+06-1.70152E+02 5.89837E+05 1.77349E+07-1.87110E+05 2.31547E-01
 -1      1197 1.56160E+06 2.56406E+02 5.93482E+05 1.90478E+07-1.47891E+05 2.05361E-01
 -1      1198 1.57113E+06 2.24912E+02 5.97091E+05 1.78568E+07-1.13242E+05 1.79259E-01
 -1      1199 1.58077E+06-6.82684E+02 6.00407E+05 1.96312E+07-8.31892E+04 1.53239E-01
 -1      1200 1.58958E+06-1.44634E+02 6.03962E+05 1.61736E+07-5.77600E+04 1.27348E-01
 -1      1201 1.59987E+06 3.02813E+03 6.09077E+05 2.13585E+07-3.69816E+04 1.01569E-01
 -1      1202 1.60638E+06-1.10915E+04 6.06184E+05 1.51527E+07-2.08826E+04 7.58839E-02
 -1      1203 1.62698E+06 3.93299E+04 6.33172E+05 2.20307E+07-9.48891E+03 5.02136E-02
 -1      1204 1.59409E+06-1.42363E+05 5.51628E+05 1.55276E+07-2.83048E+03 2.52226E-02
 -1      1205 1.54188E+06 5.30320E+05 7.87406E+05 4.41222E+07-6.90642E+02 1.31315E-02
 -1      1206 7.76250E+00-2.87544E+01-4.08014E+00 1.89329E+04 7.81052E+07 8.77765E+00
 -1      1207 9.56792E+01 5.33884E+01 6.08289E+01 1.95010E+05 7.78805E+07 8.78168E+00
 -1      1208 1.64105E+02-1.13788E+02 2.20264E+01 3.91263E+05 7.74310E+07 8.78754E+00
 -1      1209 5.02492E+02 9.02581E+01 2.21453E+02 5.82998E+05 7.69816E+07 8.78729E+00
 -1      1210 7.99386E+02 1.30018E+01 3.05678E+02 7.77229E+05 7.65322E+07 8.78397E+00
 -1      1211 1.23434E+03-4.07984E+01 4.51726E+02 9.66488E+05 7.60827E+07 8.78523E+00
 -1      1212 1.80091E+03 8.63835E+00 6.77324E+02 1.15671E+06 7.56333E+07 8.78760E+00
 -1      1213 2.44779E+03 5.56046E+01 9.43249E+02 1.34863E+06 7.51839E+07 8.78820E+00
 -1      1214 3.14762E+03-3.54768E+01 1.18212E+03 1.53157E+06 7.47345E+07 8.78907E+00
 -1      1215 4.02550E+03 5.88363E+01 1.55453E+03 1.72464E+06 7.42850E+07 8.79153E+00
 -1      1216 4.91385E+03-4.16633E+01 1.85194E+03 1.90548E+06 7.38356E+07 8.79714E+00
 -1      1217 5.98054E+03 7.50969E+01 2.29886E+03 2.08827E+06 7.33862E+07 8.80430E+00
 -1      1218 7.03135E+03-4.56503E+01 2.65593E+03 2.28154E+06 7.29367E+07 8.81278E+00
 -1      1219 8.28225E+03 1.24912E+01 3.15485E+03 2.44907E+06 7.24873E+07 8.82214E+00
 -1      1220 9.55417E+03-1.84173E+01 3.61959E+03 2.64195E+06 7.20379E+07 8.83253E+00
 -1      1221 1.09559E+04 2.78225E+00 4.15659E+03 2.82273E+06 7.15885E+07 8.84348E+00
 -1      1222 1.24461E+04 4.91139E+01 4.74717E+03 2.98541E+06 7.11392E+07 8.85066E+00
 -1      1223 1.39343E+04-1.09381E+02 5.25408E+03 3.18223E+06 7.06899E+07 8.85583E+00
 -1      1224 1.57256E+04 1.53328E+02 6.02914E+03 3.34843E+06 7.02406E+07 8.86000E+00
 -1      1225 1.73743E+04-6.53054E+01 6.57321E+03 3.52648E+06 6.97913E+07 8.86700E+00
 -1      1226 1.92808E+04 5.75890E+01 7.34094E+03 3.70850E+06 6.93421E+07 8.87706E+00
 -1      1227 2.11539E+04-1.15665E+01 8.02253E+03 3.85736E+06 6.88929E+07 8.88660E+00
 -1      1228 2.32059E+04 2.50730E+01 8.82262E+03 4.05615E+06 6.84437E+07 8.89441E+00
 -1      1229 2.53016E+04 1.56810E+01 9.61875E+03 4.21537E+06 6.79946E+07 8.90047E+00
 -1      1230 2.75118E+04 4.02329E+01 1.04670E+04 4.38712E+06 6.75456E+07 8.90640E+00
 -1      1231 2.97411E+04-5.87794E+01 1.12778E+04 4.55656E+06 6.70966E+07 8.91464E+00
 -1      1232 3.21494E+04 1.86420E+01 1.22221E+04 4.71707E+06 6.66477E+07 8.92564E+00
 -1      1233 3.45562E+04-4.01140E+01 1.31145E+04 4.89641E+06 6.61988E+07 8.93849E+00
 -1      1234 3.71242E+04 2.97254E+01 1.41185E+04 5.06116E+06 6.57500E+07 8.94986E+00
 -1      1235 3.97112E+04-3.12556E+01 1.50778E+04 5.21265E+06 6.53014E+07 8.95965E+00
 -1      1236 4.24265E+04 9.60225E+00 1.61272E+04 5.37482E+06 6.48528E+07 8.97199E+00
 -1      1237 4.51700E+04-6.51445E+01 1.71472E+04 5.55422E+06 6.44044E+07 8.98497E+00
 -1      1238 4.80790E+04 3.06355E+01 1.82875E+04 5.70239E+06 6.39561E+07 8.99192E+00
 -1      1239 5.09964E+04 1.24635E+01 1.93797E+04 5.86717E+06 6.35079E+07 8.99309E+00
 -1      1240 5.40277E+04 5.15213E+00 2.05301E+04 6.02050E+06 6.30599E+07 8.99098E+00
 -1      1241 5.71054E+04-3.47510E+01 2.16923E+04 6.18301E+06 6.26121E+07 8.98759E+00
 -1      1242 6.03162E+04 2.52241E+00 2.29293E+04 6.33724E+06 6.21644E+07 8.98280E+00
 -1      1243 6.35542E+04-3.48460E+01 2.41466E+04 6.47902E+06 6.17169E+07 8.97587E+00
 -1      1244 6.69271E+04 8.77076E+00 2.54385E+04 6.67297E+06 6.12697E+07 8.96707E+00
 -1      1245 7.03440E+04 1.06905E+01 2.67363E+04 6.78416E+06 6.08226E+07 8.95472E+00
 -1      1246 7.38281E+04-1.26683E+01 2.80617E+04 6.95407E+06 6.03757E+07 8.93992E+00
 -1      1247 7.74367E+04 2.97785E+01 2.94510E+04 7.08837E+06 5.99290E+07 8.92499E+00
 -1      1248 8.10610E+04-4.16695E+01 3.07958E+04 7.26726E+06 5.94826E+07 8.90972E+00
 -1      1249 8.48109E+04 2.87487E+01 3.22449E+04 7.39896E+06 5.90364E+07 8.89563E+00
 -1      1250 8.86072E+04-1.34815E+01 3.36716E+04 7.54854E+06 5.85905E+07 8.88250E+00
 -1      1251 9.24989E+04 3.49806E+01 3.51653E+04 7.69407E+06 5.81448E+07 8.86892E+00
 -1      1252 9.64633E+04 3.59183E+01 3.66694E+04 7.83806E+06 5.76994E+07 8.85625E+00
 -1      1253 1.00479E+05-7.89326E+00 3.81776E+04 7.98876E+06 5.72544E+07 8.84580E+00
 -1      1254 1.04602E+05 6.53486E+01 3.97707E+04 8.09852E+06 5.68096E+07 8.83622E+00
 -1      1255 1.08779E+05 3.62757E+01 4.13516E+04 8.31773E+06 5.63652E+07 8.82783E+00
 -1      1256 1.13010E+05 2.98051E+00 4.29506E+04 8.37938E+06 5.59211E+07 8.82099E+00
 -1      1257 1.17309E+05-6.95249E-01 4.45867E+04 8.53367E+06 5.54774E+07 8.81279E+00
 -1      1258 1.21709E+05 1.28985E+00 4.62596E+04 8.70808E+06 5.50341E+07 8.80391E+00
 -1      1259 1.26145E+05-1.10273E+01 4.79392E+04 8.81888E+06 5.45911E+07 8.79488E+00
 -1      1260 1.30662E+05-4.72472E+01 4.96433E+04 8.98877E+06 5.41486E+07 8.78540E+00
 -1      1261 1.35278E+05-1.00323E+01 5.14041E+04 9.04327E+06 5.37065E+07 8.77689E+00
 -1      1262 1.39945E+05 1.45646E+01 5.31785E+04 9.25958E+06 5.32648E+07 8.76829E+00
 -1      1263 1.44682E+05 1.97746E+01 5.49862E+04 9.35900E+06 5.28235E+07 8.75661E+00
 -1      1264 1.49474E+05-1.98344E+00 5.68039E+04 9.49916E+06 5.23827E+07 8.74505E+00
 -1      1265 1.54353E+05 1.56713E+01 5.86540E+04 9.59106E+06 5.19423E+07 8.73587E+00
 -1      1266 1.59288E+05 2.67797E+01 6.05327E+04 9.81756E+06 5.15024E+07 8.72641E+00
 -1      1267 1.64282E+05 2.04922E+01 6.24356E+04 9.85051E+06 5.10631E+07 8.71475E+00
 -1      1268 1.69334E+05-2.75801E-01 6.43490E+04 9.98087E+06 5.06242E+07 8.70252E+00
 -1      1269 1.74490E+05 1.92346E+01 6.63188E+04 1.01752E+07 5.01859E+07 8.69211E+00
 -1      1270 1.79646E+05-2.85854E+01 6.82628E+04 1.02476E+07 4.97480E+07 8.68479E+00
 -1      1271 1.84949E+05 5.51045E+01 7.03074E+04 1.04343E+07 4.93108E+07 8.67728E+00
 -1      1272 1.90256E+05-6.91775E+00 7.23008E+04 1.04262E+07 4.88741E+07 8.66996E+00
 -1      1273 1.95632E+05 3.95665E+01 7.43626E+04 1.06819E+07 4.84380E+07 8.66220E+00
 -1      1274 2.01089E+05 2.00914E+01 7.64246E+04 1.07481E+07 4.80025E+07 8.65235E+00
 -1      1275 2.06539E+05-4.19671E+01 7.84725E+04 1.08253E+07 4.75675E+07 8.64295E+00
 -1      1276 2.12167E+05 2.59510E+01 8.06398E+04 1.10799E+07 4.71332E+07 8.63450E+00
 -1      1277 2.17751E+05-9.75759E+00 8.27486E+04 1.10534E+07 4.66996E+07 8.62338E+00
 -1      1278 2.23443E+05-4.05382E+00 8.49131E+04 1.12380E+07 4.62665E+07 8.61298E+00
 -1      1279 2.29212E+05 2.41967E+01 8.71117E+04 1.12953E+07 4.58341E+07 8.60485E+00
 -1      1280 2.34996E+05-7.08169E+00 8.92887E+04 1.14951E+07 4.54024E+07 8.59853E+00
 -1      1281 2.40892E+05 5.94104E+01 9.15565E+04 1.16091E+07 4.49713E+07 8.59269E+00
 -1      1282 2.46777E+05 9.10954E-01 9.37814E+04 1.16355E+07 4.45410E+07 8.58621E+00
 -1      1283 2.52747E+05-1.94728E+01 9.60426E+04 1.17490E+07 4.41113E+07 8.58096E+00
 -1      1284 2.58811E+05 3.05897E+01 9.83582E+04 1.19490E+07 4.36823E+07 8.57519E+00
 -1      1285 2.64846E+05-7.65101E+00 1.00635E+05 1.20100E+07 4.32541E+07 8.56674E+00
 -1      1286 2.71014E+05 2.63240E+01 1.02994E+05 1.20591E+07 4.28267E+07 8.55560E+00
 -1      1287 2.77194E+05-3.51704E+01 1.05317E+05 1.23381E+07 4.24000E+07 8.54463E+00
 -1      1288 2.83475E+05 3.25035E+01 1.07728E+05 1.22585E+07 4.19741E+07 8.53512E+00
 -1      1289 2.89741E+05-7.78588E+00 1.10100E+05 1.24551E+07 4.15490E+07 8.52526E+00
 -1      1290 2.96133E+05 1.61273E+01 1.12540E+05 1.24789E+07 4.11248E+07 8.51345E+00
 -1      1291 3.02501E+05-2.10643E-01 1.14955E+05 1.26923E+07 4.07013E+07 8.49943E+00
 -1      1292 3.09005E+05 9.42554E+00 1.17434E+05 1.28072E+07 4.02788E+07 8.48476E+00
 -1      1293 3.15463E+05-2.23581E+01 1.19872E+05 1.27108E+07 3.98571E+07 8.46998E+00
 -1      1294 3.22121E+05 8.13169E+01 1.22439E+05 1.30216E+07 3.94363E+07 8.45495E+00
 -1      1295 3.28604E+05-6.33706E+01 1.24853E+05 1.30307E+07 3.90165E+07 8.44037E+00
 -1      1296 3.35379E+05 5.61473E+01 1.27472E+05 1.31312E+07 3.85976E+07 8.42544E+00
 -1      1297 3.41990E+05-7.05461E+01 1.29932E+05 1.32495E+07 3.81796E+07 8.41069E+00
 -1      1298 3.48895E+05 5.55394E+01 1.32607E+05 1.33129E+07 3.77627E+07 8.39609E+00
 -1      1299 3.55499E+05-5.34359E+01 1.35075E+05 1.34336E+07 3.73468E+07 8.37881E+00
 -1      1300 3.62590E+05 9.11206E+01 1.37824E+05 1.35210E+07 3.69318E+07 8.35828E+00
 -1      1301 3.69195E+05-1.46145E+02 1.40246E+05 1.35261E+07 3.65180E+07 8.33781E+00
 -1      1302 3.76518E+05 1.75283E+02 1.43151E+05 1.38553E+07 3.61052E+07 8.31852E+00
 -1      1303 3.83092E+05-2.17301E+02 1.45498E+05 1.37031E+07 3.56936E+07 8.29966E+00
 -1      1304 3.90627E+05 2.53139E+02 1.48539E+05 1.38146E+07 3.52830E+07 8.28108E+00
 -1      1305 3.97131E+05-2.76016E+02 1.50810E+05 1.40505E+07 3.48736E+07 8.26167E+00
 -1      1306 4.04967E+05 3.37363E+02 1.54022E+05 1.40371E+07 3.44654E+07 8.24118E+00
 -1      1307 4.11256E+05-4.13121E+02 1.56129E+05 1.41386E+07 3.40583E+07 8.22026E+00
 -1      1308 4.19557E+05 4.93540E+02 1.59630E+05 1.42319E+07 3.36525E+07 8.19813E+00
 -1      1309 4.25542E+05-6.15430E+02 1.61483E+05 1.42982E+07 3.32479E+07 8.17463E+00
 -1      1310 4.34341E+05 7.11325E+02 1.65331E+05 1.43929E+07 3.28445E+07 8.14914E+00
 -1      1311 4.39893E+05-8.10154E+02 1.66862E+05 1.44869E+07 3.24424E+07 8.12034E+00
 -1      1312 4.49470E+05 9.66817E+02 1.71179E+05 1.44450E+07 3.20416E+07 8.08904E+00
 -1      1313 4.54237E+05-1.12939E+03 1.72195E+05 1.48251E+07 3.16421E+07 8.05620E+00
 -1      1314 4.64929E+05 1.32052E+03 1.77188E+05 1.46073E+07 3.12439E+07 8.02254E+00
 -1      1315 4.68529E+05-1.52165E+03 1.77477E+05 1.47120E+07 3.08471E+07 7.98888E+00
 -1      1316 4.80805E+05 1.82122E+03 1.83413E+05 1.49705E+07 3.04517E+07 7.95392E+00
 -1      1317 4.82698E+05-2.28426E+03 1.82573E+05 1.49037E+07 3.00576E+07 7.91691E+00
 -1      1318 4.97012E+05 3.12728E+03 1.90070E+05 1.51442E+07 2.96650E+07 7.87863E+00
 -1      1319 4.97232E+05-5.10183E+03 1.87026E+05 1.48650E+07 2.92738E+07 7.83821E+00
 -1      1320 5.12062E+05 9.92575E+03 1.98370E+05 1.53085E+07 2.88840E+07 7.79455E+00
 -1      1321 5.16320E+05-2.14906E+04 1.88052E+05 1.52043E+07 2.84958E+07 7.74959E+00
 -1      1322 5.32547E+05 4.46619E+04 2.19358E+05 1.52066E+07 2.81090E+07 7.39392E+00
 -1      1323 5.23147E+05-4.36985E+04 1.82206E+05 1.55819E+07 2.77238E+07 6.72668E+00
 -1      1324 5.40951E+05 1.96105E+04 2.13030E+05 1.53091E+07 2.73402E+07 6.37509E+00
 -1      1325 5.44489E+05-9.30379E+03 2.03390E+05 1.55466E+07 2.69581E+07 6.33769E+00
 -1      1326 5.59499E+05 5.07004E+03 2.14554E+05 1.54775E+07 2.65776E+07 6.29858E+00
 -1      1327 5.60250E+05-3.10764E+03 2.11733E+05 1.57475E+07 2.61988E+07 6.25728E+00
 -1      1328 5.74618E+05 2.33152E+03 2.19263E+05 1.56910E+07 2.58215E+07 6.21579E+00
 -1      1329 5.77267E+05-1.99203E+03 2.18627E+05 1.59041E+07 2.54460E+07 6.17468E+00
 -1      1330 5.89833E+05 1.52427E+03 2.24736E+05 1.55976E+07 2.50721E+07 6.13265E+00
 -1      1331 5.94038E+05-1.05300E+03 2.25352E+05 1.60415E+07 2.47000E+07 6.08960E+00
 -1      1332 6.05444E+05 8.17037E+02 2.30396E+05 1.59646E+07 2.43296E+07 6.04637E+00
 -1      1333 6.10825E+05-6.93192E+02 2.31866E+05 1.58739E+07 2.39609E+07 6.00385E+00
 -1      1334 6.21251E+05 7.69271E+02 2.36386E+05 1.63570E+07 2.35940E+07 5.96189E+00
 -1      1335 6.27698E+05-8.19294E+02 2.38235E+05 1.59673E+07 2.32290E+07 5.91998E+00
 -1      1336 6.37344E+05 6.23891E+02 2.42449E+05 1.62537E+07 2.28658E+07 5.87744E+00
 -1      1337 6.44380E+05-4.93873E+02 2.44699E+05 1.61122E+07 2.25044E+07 5.83449E+00
 -1      1338 6.53645E+05 6.44635E+02 2.48651E+05 1.64484E+07 2.21449E+07 5.79142E+00
 -1      1339 6.61251E+05-6.71179E+02 2.51042E+05 1.64736E+07 2.17874E+07 5.74753E+00
 -1      1340 6.70239E+05 3.48843E+02 2.54844E+05 1.61682E+07 2.14317E+07 5.70237E+00
 -1      1341 6.77950E+05-5.71302E+01 2.57617E+05 1.66242E+07 2.10781E+07 5.65765E+00
 -1      1342 6.86942E+05 1.04987E+02 2.61098E+05 1.65121E+07 2.07264E+07 5.61403E+00
 -1      1343 6.94949E+05-2.85600E+02 2.63993E+05 1.65836E+07 2.03767E+07 5.57032E+00
 -1      1344 7.03652E+05 3.42721E+02 2.67541E+05 1.64873E+07 2.00291E+07 5.52624E+00
 -1      1345 7.11928E+05-1.20613E+02 2.70510E+05 1.69644E+07 1.96835E+07 5.48167E+00
 -1      1346 7.20720E+05-7.66949E+01 2.73866E+05 1.65502E+07 1.93400E+07 5.43582E+00
 -1      1347 7.28942E+05-1.73690E+01 2.77015E+05 1.68176E+07 1.89986E+07 5.38971E+00
 -1      1348 7.37723E+05 3.77918E+01 2.80374E+05 1.66829E+07 1.86594E+07 5.34412E+00
 -1      1349 7.46051E+05 2.42442E+02 2.83613E+05 1.69944E+07 1.83223E+07 5.29839E+00
 -1      1350 7.54968E+05-3.06429E+02 2.86793E+05 1.70651E+07 1.79874E+07 5.25280E+00
 -1      1351 7.63365E+05 1.22224E+01 2.90106E+05 1.66435E+07 1.76547E+07 5.20712E+00
 -1      1352 7.72044E+05 2.30074E+02 2.93489E+05 1.72081E+07 1.73242E+07 5.16030E+00
 -1      1353 7.80773E+05-2.03522E+02 2.96640E+05 1.69926E+07 1.69960E+07 5.11233E+00
 -1      1354 7.89399E+05 1.14650E+02 3.00037E+05 1.71077E+07 1.66701E+07 5.06381E+00
 -1      1355 7.98148E+05-7.24089E+01 3.03291E+05 1.71334E+07 1.63465E+07 5.01533E+00
 -1      1356 8.06883E+05 5.86297E+01 3.06660E+05 1.71501E+07 1.60253E+07 4.96826E+00
 -1      1357 8.15623E+05-1.20378E+02 3.09911E+05 1.72448E+07 1.57063E+07 4.92206E+00
 -1      1358 8.24407E+05 5.13090E+01 3.13313E+05 1.70831E+07 1.53898E+07 4.87504E+00
 -1      1359 8.33102E+05 2.61762E+02 3.16697E+05 1.74371E+07 1.50757E+07 4.82691E+00
 -1      1360 8.42064E+05-2.00561E+02 3.19929E+05 1.74734E+07 1.47641E+07 4.77872E+00
 -1      1361 8.50900E+05-2.17009E+02 3.23282E+05 1.71941E+07 1.44548E+07 4.73087E+00
 -1      1362 8.59588E+05 2.58210E+02 3.26764E+05 1.72591E+07 1.41481E+07 4.68191E+00
 -1      1363 8.68528E+05 6.39600E+01 3.30087E+05 1.76162E+07 1.38439E+07 4.63241E+00
 -1      1364 8.77475E+05-1.53292E+02 3.33405E+05 1.74284E+07 1.35423E+07 4.58349E+00
 -1      1365 8.86262E+05 7.14544E+01 3.36830E+05 1.74988E+07 1.32432E+07 4.53477E+00
 -1      1366 8.95285E+05-3.92366E+01 3.40218E+05 1.75531E+07 1.29467E+07 4.48629E+00
 -1      1367 9.04206E+05 3.85474E+01 3.43637E+05 1.75462E+07 1.26529E+07 4.43814E+00
 -1      1368 9.13113E+05-1.30225E+02 3.46957E+05 1.76155E+07 1.23617E+07 4.38942E+00
 -1      1369 9.22099E+05 5.79483E+01 3.50443E+05 1.74564E+07 1.20731E+07 4.34003E+00
 -1      1370 9.30983E+05 2.59608E+02 3.53896E+05 1.78239E+07 1.17873E+07 4.29013E+00
 -1      1371 9.40141E+05-2.14040E+02 3.57196E+05 1.78454E+07 1.15042E+07 4.23930E+00
 -1      1372 9.49171E+05-2.36211E+02 3.60619E+05 1.75342E+07 1.12238E+07 4.18792E+00
 -1      1373 9.58012E+05 2.79765E+02 3.64174E+05 1.75856E+07 1.09462E+07 4.13598E+00
 -1      1374 9.67144E+05 6.83350E+01 3.67565E+05 1.79730E+07 1.06715E+07 4.08366E+00
 -1      1375 9.76210E+05-1.42095E+02 3.70932E+05 1.77483E+07 1.03995E+07 4.03132E+00
 -1      1376 9.85274E+05 3.79839E+01 3.74444E+05 1.78536E+07 1.01304E+07 3.97848E+00
 -1      1377 9.94370E+05-3.30761E+01 3.77872E+05 1.78075E+07 9.86422E+06 3.92475E+00
 -1      1378 1.00340E+06 9.96090E+01 3.81356E+05 1.79046E+07 9.60092E+06 3.87061E+00
 -1      1379 1.01259E+06-2.43815E+02 3.84717E+05 1.78848E+07 9.34056E+06 3.81609E+00
 -1      1380 1.02157E+06 3.27332E+02 3.88348E+05 1.77317E+07 9.08317E+06 3.76059E+00
 -1      1381 1.03083E+06-3.52399E+01 3.91727E+05 1.83303E+07 8.82876E+06 3.70435E+00
 -1      1382 1.03998E+06-2.36965E+02 3.95129E+05 1.77210E+07 8.57738E+06 3.64808E+00
 -1      1383 1.04904E+06 6.46571E+01 3.98687E+05 1.80335E+07 8.32903E+06 3.59184E+00
 -1      1384 1.05823E+06 4.81198E+01 4.02171E+05 1.78075E+07 8.08376E+06 3.53542E+00
 -1      1385 1.06738E+06 1.59180E+02 4.05690E+05 1.82296E+07 7.84158E+06 3.47891E+00
 -1      1386 1.07661E+06-1.75428E+02 4.09070E+05 1.80142E+07 7.60254E+06 3.42249E+00
 -1      1387 1.08579E+06 6.70713E+01 4.12650E+05 1.80698E+07 7.36664E+06 3.36611E+00
 -1      1388 1.09501E+06-5.00251E+01 4.16109E+05 1.80770E+07 7.13393E+06 3.30921E+00
 -1      1389 1.10414E+06 1.06607E+02 4.19637E+05 1.80894E+07 6.90442E+06 3.25182E+00
 -1      1390 1.11349E+06-2.62339E+02 4.23053E+05 1.81523E+07 6.67814E+06 3.19457E+00
 -1      1391 1.12252E+06 3.20725E+02 4.26706E+05 1.78684E+07 6.45512E+06 3.13767E+00
 -1      1392 1.13188E+06 6.56695E+01 4.30165E+05 1.86345E+07 6.23539E+06 3.08063E+00
 -1      1393 1.14125E+06-5.43665E+02 4.33491E+05 1.78607E+07 6.01897E+06 3.02367E+00
 -1      1394 1.15024E+06 4.54626E+02 4.37289E+05 1.80406E+07 5.80589E+06 2.96741E+00
 -1      1395 1.15967E+06-6.36294E+01 4.40677E+05 1.84110E+07 5.59617E+06 2.91165E+00
 -1      1396 1.16880E+06 1.29623E+02 4.44218E+05 1.81329E+07 5.38985E+06 2.85578E+00
 -1      1397 1.17826E+06-2.95454E+02 4.47653E+05 1.84988E+07 5.18695E+06 2.79996E+00
 -1      1398 1.18747E+06-3.43075E+01 4.51250E+05 1.77305E+07 4.98749E+06 2.74444E+00
 -1      1399 1.19660E+06 3.74725E+02 4.54873E+05 1.85499E+07 4.79150E+06 2.68916E+00
 -1      1400 1.20610E+06-2.92698E+02 4.58232E+05 1.81952E+07 4.59902E+06 2.63410E+00
 -1      1401 1.21526E+06 1.16845E+02 4.61869E+05 1.82756E+07 4.41005E+06 2.57928E+00
 -1      1402 1.22465E+06-5.83553E+01 4.65369E+05 1.82846E+07 4.22465E+06 2.52447E+00
 -1      1403 1.23393E+06 7.51727E+01 4.68946E+05 1.82774E+07 4.04282E+06 2.46935E+00
 -1      1404 1.24326E+06-2.14154E+02 4.72381E+05 1.83155E+07 3.86460E+06 2.41409E+00
 -1      1405 1.25251E+06 1.85190E+02 4.76050E+05 1.80709E+07 3.69001E+06 2.35888E+00
 -1      1406 1.26188E+06 5.92505E+01 4.79560E+05 1.85802E+07 3.51909E+06 2.30366E+00
 -1      1407 1.27112E+06 8.62940E+01 4.83084E+05 1.82521E+07 3.35186E+06 2.24818E+00
 -1      1408 1.28066E+06-3.12358E+02 4.86558E+05 1.86240E+07 3.18834E+06 2.19230E+00
 -1      1409 1.28993E+06-4.67685E+01 4.90179E+05 1.77944E+07 3.02857E+06 2.13617E+00
 -1      1410 1.29902E+06 4.94196E+02 4.93841E+05 1.86976E+07 2.87258E+06 2.08003E+00
 -1      1411 1.30873E+06-6.22073E+02 4.97105E+05 1.82931E+07 2.72038E+06 2.02370E+00
 -1      1412 1.31774E+06 5.37430E+02 5.00969E+05 1.81062E+07 2.57201E+06 1.96742E+00
 -1      1413 1.32729E+06-7.85485E+01 5.04365E+05 1.89178E+07 2.42749E+06 1.91130E+00
 -1      1414 1.33672E+06-3.24531E+02 5.07852E+05 1.80118E+07 2.28686E+06 1.85517E+00
 -1      1415 1.34589E+06 1.40303E+02 5.11517E+05 1.84735E+07 2.15014E+06 1.79897E+00
 -1      1416 1.35535E+06-5.23446E+01 5.15036E+05 1.81383E+07 2.01735E+06 1.74268E+00
 -1      1417 1.36454E+06 4.35409E+02 5.18715E+05 1.86044E+07 1.88854E+06 1.68628E+00
 -1      1418 1.37414E+06-3.24921E+02 5.22076E+05 1.86599E+07 1.76371E+06 1.62972E+00
 -1      1419 1.38355E+06-3.56728E+02 5.25636E+05 1.80980E+07 1.64290E+06 1.57294E+00
 -1      1420 1.39260E+06 4.10055E+02 5.29368E+05 1.82081E+07 1.52614E+06 1.51605E+00
 -1      1421 1.40217E+06 9.69306E+01 5.32888E+05 1.86806E+07 1.41346E+06 1.45906E+00
 -1      1422 1.41156E+06-2.26340E+02 5.36330E+05 1.83576E+07 1.30488E+06 1.40182E+00
 -1      1423 1.42087E+06 1.03750E+02 5.39994E+05 1.84237E+07 1.20043E+06 1.34437E+00
 -1      1424 1.43031E+06-7.90841E+01 5.43512E+05 1.84262E+07 1.10013E+06 1.28689E+00
 -1      1425 1.43960E+06 1.15886E+02 5.47117E+05 1.83903E+07 1.00402E+06 1.22942E+00
 -1      1426 1.44907E+06-2.57857E+02 5.50574E+05 1.84760E+07 9.12125E+05 1.17178E+00
 -1      1427 1.45840E+06 1.45710E+02 5.54271E+05 1.80979E+07 8.24466E+05 1.11399E+00
 -1      1428 1.46762E+06 3.66596E+02 5.57860E+05 1.87730E+07 7.41075E+05 1.05612E+00
 -1      1429 1.47729E+06-2.92901E+02 5.61285E+05 1.85735E+07 6.61977E+05 9.98175E-01
 -1      1430 1.48665E+06-4.40404E+02 5.64785E+05 1.82523E+07 5.87202E+05 9.40118E-01
 -1      1431 1.49579E+06 5.24306E+02 5.68624E+05 1.80469E+07 5.16776E+05 8.81945E-01
 -1      1432 1.50529E+06-5.57501E+00 5.72031E+05 1.89523E+07 4.50726E+05 8.23636E-01
 -1      1433 1.51474E+06-1.17431E+02 5.75581E+05 1.80881E+07 3.89080E+05 7.65233E-01
 -1      1434 1.52403E+06-2.89612E+01 5.79145E+05 1.88076E+07 3.31866E+05 7.06683E-01
 -1      1435 1.53355E+06 6.99512E+01 5.82798E+05 1.79796E+07 2.79111E+05 6.47970E-01
 -1      1436 1.54280E+06-3.31058E+01 5.86274E+05 1.89970E+07 2.30842E+05 5.89162E-01
 -1      1437 1.55231E+06-1.69717E+02 5.89837E+05 1.77349E+07 1.87086E+05 5.30279E-01
 -1      1438 1.56147E+06 2.56527E+02 5.93482E+05 1.90478E+07 1.47872E+05 4.71305E-01
 -1      1439 1.57100E+06 2.24126E+02 5.97090E+05 1.78568E+07 1.13227E+05 4.12201E-01
 -1      1440 1.58064E+06-6.82867E+02 6.00407E+05 1.96312E+07 8.31771E+04 3.52985E-01
 -1      1441 1.58946E+06-1.44154E+02 6.03963E+05 1.61736E+07 5.77513E+04 2.93712E-01
 -1      1442 1.59974E+06 3.02812E+03 6.09077E+05 2.13585E+07 3.69758E+04 2.34350E-01
 -1      1443 1.60625E+06-1.10916E+04 6.06184E+05 1.51527E+07 2.08792E+04 1.74871E-01
 -1      1444 1.62684E+06 3.93280E+04 6.33170E+05 2.20307E+07 9.48734E+03 1.15237E-01
 -1      1445 1.59397E+06-1.42344E+05 5.51645E+05 1.55276E+07 2.83007E+03 5.60200E-02
 -1      1446 1.54172E+06 5.30248E+05 7.87375E+05 4.41224E+07 6.90642E+02 2.67176E-02
 -1      1447-2.34722E+05-1.24981E+05-1.36645E+05-1.41747E+02-7.81082E+07 3.85299E+04
 -1      1448-8.36674E+05-1.23755E+05-3.64869E+05 1.42290E+05-7.78834E+07 3.85300E+04
 -1      1449-2.69792E+06-1.25446E+05-1.07273E+06 2.84032E+05-7.74340E+07 3.85302E+04
 -1      1450-5.79960E+06-1.21900E+05-2.25006E+06 4.25182E+05-7.69845E+07 3.85304E+04
 -1      1451-1.01245E+07-1.25383E+05-3.89499E+06 5.64464E+05-7.65350E+07 3.85302E+04
 -1      1452-1.56758E+07-1.12984E+05-5.99995E+06 7.04407E+05-7.60855E+07 3.85298E+04
 -1      1453-2.24290E+07-1.35097E+05-8.57473E+06 8.42571E+05-7.56360E+07 3.85289E+04
 -1      1454-3.04032E+07-1.07242E+05-1.15945E+07 9.78979E+05-7.51866E+07 3.85276E+04
 -1      1455-3.95639E+07-1.28297E+05-1.50836E+07 1.11724E+06-7.47371E+07 3.85260E+04
 -1      1456-4.99233E+07-1.16716E+05-1.90159E+07 1.25093E+06-7.42877E+07 3.85240E+04
 -1      1457-6.14756E+07-1.05371E+05-2.34014E+07 1.38698E+06-7.38383E+07 3.85217E+04
 -1      1458-7.41796E+07-1.40758E+05-2.82423E+07 1.52366E+06-7.33890E+07 3.85194E+04
 -1      1459-8.80844E+07-1.06486E+05-3.35130E+07 1.65015E+06-7.29396E+07 3.85168E+04
 -1      1460-1.03136E+08-9.55601E+04-3.92283E+07 1.79153E+06-7.24903E+07 3.85142E+04
 -1      1461-1.19327E+08-1.39555E+05-4.53974E+07 1.91451E+06-7.20410E+07 3.85113E+04
 -1      1462-1.36716E+08-1.26633E+05-5.20003E+07 2.04844E+06-7.15918E+07 3.85082E+04
 -1      1463-1.55192E+08-6.15847E+04-5.89968E+07 2.18689E+06-7.11426E+07 3.85047E+04
 -1      1464-1.74825E+08-1.86863E+05-6.65051E+07 2.30346E+06-7.06934E+07 3.85007E+04
 -1      1465-1.95600E+08-5.12344E+04-7.43483E+07 2.44201E+06-7.02443E+07 3.84960E+04
 -1      1466-2.17462E+08-1.49001E+05-8.26931E+07 2.56010E+06-6.97953E+07 3.84905E+04
 -1      1467-2.40484E+08-9.42172E+04-9.14205E+07 2.69215E+06-6.93463E+07 3.84844E+04
 -1      1468-2.64565E+08-6.92316E+04-1.00562E+08 2.82368E+06-6.88974E+07 3.84776E+04
 -1      1469-2.89751E+08-2.05043E+05-1.10185E+08 2.94013E+06-6.84486E+07 3.84703E+04
 -1      1470-3.16066E+08-1.81342E+04-1.20113E+08 3.06726E+06-6.79998E+07 3.84621E+04
 -1      1471-3.43426E+08-1.58910E+05-1.30564E+08 3.18884E+06-6.75512E+07 3.84534E+04
 -1      1472-3.71887E+08-8.63935E+04-1.41351E+08 3.31574E+06-6.71027E+07 3.84441E+04
 -1      1473-4.01400E+08-1.08160E+05-1.52574E+08 3.43713E+06-6.66542E+07 3.84346E+04
 -1      1474-4.31974E+08-1.40177E+05-1.64204E+08 3.55360E+06-6.62059E+07 3.84249E+04
 -1      1475-4.63640E+08-7.77416E+04-1.76213E+08 3.67109E+06-6.57577E+07 3.84150E+04
 -1      1476-4.96330E+08-6.92904E+04-1.88632E+08 3.80170E+06-6.53097E+07 3.84049E+04
 -1      1477-5.30031E+08-1.39373E+05-2.01465E+08 3.91753E+06-6.48617E+07 3.83944E+04
 -1      1478-5.64811E+08-1.43859E+05-2.14683E+08 4.02924E+06-6.44139E+07 3.83835E+04
 -1      1479-6.00607E+08-1.08815E+04-2.28234E+08 4.14896E+06-6.39662E+07 3.83722E+04
 -1      1480-6.37418E+08-1.64768E+05-2.42281E+08 4.26228E+06-6.35186E+07 3.83604E+04
 -1      1481-6.75233E+08-7.74510E+04-2.56618E+08 4.38529E+06-6.30712E+07 3.83479E+04
 -1      1482-7.14066E+08-1.18037E+05-2.71390E+08 4.49187E+06-6.26239E+07 3.83345E+04
 -1      1483-7.53911E+08-7.99644E+04-2.86516E+08 4.61400E+06-6.21768E+07 3.83202E+04
 -1      1484-7.94691E+08-1.02958E+05-3.02022E+08 4.72734E+06-6.17299E+07 3.83049E+04
 -1      1485-8.36521E+08-1.55637E+05-3.17937E+08 4.82015E+06-6.12831E+07 3.82888E+04
 -1      1486-8.79323E+08-4.54144E+04-3.34160E+08 4.95589E+06-6.08365E+07 3.82717E+04
 -1      1487-9.23051E+08-4.24456E+04-3.50775E+08 5.05615E+06-6.03902E+07 3.82537E+04
 -1      1488-9.67756E+08-1.45800E+05-3.67803E+08 5.17094E+06-5.99440E+07 3.82350E+04
 -1      1489-1.01343E+09-1.79773E+05-3.85172E+08 5.26898E+06-5.94981E+07 3.82156E+04
 -1      1490-1.06006E+09 6.77808E+04-4.02798E+08 5.38174E+06-5.90524E+07 3.81955E+04
 -1      1491-1.10762E+09-1.83910E+05-4.20966E+08 5.48367E+06-5.86070E+07 3.81749E+04
 -1      1492-1.15611E+09-1.40962E+05-4.39375E+08 5.60319E+06-5.81618E+07 3.81536E+04
 -1      1493-1.20553E+09-4.77372E+04-4.58117E+08 5.70113E+06-5.77168E+07 3.81316E+04
 -1      1494-1.25591E+09-1.10188E+04-4.77249E+08 5.80641E+06-5.72721E+07 3.81088E+04
 -1      1495-1.30708E+09-8.60899E+04-4.96723E+08 5.91770E+06-5.68277E+07 3.80853E+04
 -1      1496-1.35930E+09-2.77813E+05-5.16639E+08 5.98321E+06-5.63835E+07 3.80609E+04
 -1      1497-1.41241E+09 7.68032E+04-5.36685E+08 6.14106E+06-5.59397E+07 3.80356E+04
 -1      1498-1.46626E+09-1.48040E+05-5.57234E+08 6.22570E+06-5.54961E+07 3.80094E+04
 -1      1499-1.52113E+09-1.55975E+05-5.78088E+08 6.31052E+06-5.50529E+07 3.79822E+04
 -1      1500-1.57685E+09-2.33464E+04-5.99211E+08 6.41716E+06-5.46100E+07 3.79538E+04
 -1      1501-1.63348E+09 1.69335E+04-6.20714E+08 6.49910E+06-5.41674E+07 3.79241E+04
 -1      1502-1.69090E+09-1.68653E+05-6.42604E+08 6.64555E+06-5.37252E+07 3.78933E+04
 -1      1503-1.74915E+09-2.00502E+05-6.64751E+08 6.70323E+06-5.32833E+07 3.78612E+04
 -1      1504-1.80837E+09 1.19673E+04-6.87176E+08 6.81028E+06-5.28418E+07 3.78279E+04
 -1      1505-1.86839E+09 4.68718E+04-7.09970E+08 6.90438E+06-5.24007E+07 3.77934E+04
 -1      1506-1.92912E+09-2.04675E+05-7.33140E+08 7.01236E+06-5.19600E+07 3.77577E+04
 -1      1507-1.99085E+09-2.42630E+05-7.56616E+08 7.06186E+06-5.15198E+07 3.77208E+04
 -1      1508-2.05341E+09 2.26433E+05-7.80207E+08 7.21178E+06-5.10800E+07 3.76828E+04
 -1      1509-2.11656E+09-1.25522E+05-8.04340E+08 7.29284E+06-5.06406E+07 3.76435E+04
 -1      1510-2.18072E+09-2.91806E+05-8.28784E+08 7.35052E+06-5.02017E+07 3.76029E+04
 -1      1511-2.24562E+09-1.19705E+05-8.53380E+08 7.47680E+06-4.97633E+07 3.75607E+04
 -1      1512-2.31139E+09 2.40164E+05-8.78238E+08 7.52750E+06-4.93254E+07 3.75171E+04
 -1      1513-2.37781E+09-2.28256E+05-9.03655E+08 7.68768E+06-4.88880E+07 3.74720E+04
 -1      1514-2.44500E+09-3.21409E+05-9.29222E+08 7.71723E+06-4.84511E+07 3.74253E+04
 -1      1515-2.51322E+09 3.79050E+05-9.54879E+08 7.82148E+06-4.80148E+07 3.73770E+04
 -1      1516-2.58183E+09-3.41161E+05-9.81225E+08 7.92342E+06-4.75791E+07 3.73269E+04
 -1      1517-2.65148E+09-1.95239E+05-1.00764E+09 7.94881E+06-4.71439E+07 3.72750E+04
 -1      1518-2.72186E+09 8.90322E+04-1.03427E+09 8.11161E+06-4.67094E+07 3.72212E+04
 -1      1519-2.79283E+09 6.80982E+04-1.06125E+09 8.16408E+06-4.62755E+07 3.71656E+04
 -1      1520-2.86463E+09-2.24326E+05-1.08865E+09 8.26566E+06-4.58423E+07 3.71082E+04
 -1      1521-2.93709E+09-2.35152E+05-1.11619E+09 8.31462E+06-4.54097E+07 3.70490E+04
 -1      1522-3.01048E+09 2.54797E+04-1.14397E+09 8.37898E+06-4.49779E+07 3.69881E+04
 -1      1523-3.08448E+09 3.75226E+05-1.17196E+09 8.52965E+06-4.45468E+07 3.69255E+04
 -1      1524-3.15896E+09-4.45560E+05-1.20058E+09 8.57736E+06-4.41164E+07 3.68613E+04
 -1      1525-3.23442E+09-5.31260E+05-1.22928E+09 8.66024E+06-4.36868E+07 3.67955E+04
 -1      1526-3.31062E+09 7.24620E+05-1.25776E+09 8.73125E+06-4.32579E+07 3.67281E+04
 -1      1527-3.38717E+09-4.78799E+05-1.28731E+09 8.83429E+06-4.28298E+07 3.66592E+04
 -1      1528-3.46475E+09-1.68261E+05-1.31667E+09 8.83253E+06-4.24026E+07 3.65886E+04
 -1      1529-3.54293E+09 1.05442E+05-1.34627E+09 9.00932E+06-4.19762E+07 3.65164E+04
 -1      1530-3.62165E+09 1.13757E+05-1.37618E+09 9.04332E+06-4.15506E+07 3.64426E+04
 -1      1531-3.70109E+09-1.84888E+05-1.40649E+09 9.14110E+06-4.11259E+07 3.63672E+04
 -1      1532-3.78111E+09-4.84843E+05-1.43701E+09 9.17288E+06-4.07022E+07 3.62902E+04
 -1      1533-3.86215E+09 6.18912E+05-1.46738E+09 9.22252E+06-4.02793E+07 3.62116E+04
 -1      1534-3.94340E+09-3.82340E+05-1.49864E+09 9.41230E+06-3.98573E+07 3.61316E+04
 -1      1535-4.02530E+09-3.34128E+05-1.52974E+09 9.38896E+06-3.94363E+07 3.60501E+04
 -1      1536-4.10821E+09 1.77296E+05-1.56105E+09 9.48592E+06-3.90162E+07 3.59669E+04
 -1      1537-4.19134E+09 4.32272E+05-1.59255E+09 9.54956E+06-3.85971E+07 3.58823E+04
 -1      1538-4.27533E+09-5.49632E+05-1.62484E+09 9.58103E+06-3.81790E+07 3.57961E+04
 -1      1539-4.35983E+09-5.08705E+05-1.65693E+09 9.75110E+06-3.77620E+07 3.57085E+04
 -1      1540-4.44489E+09 4.34568E+05-1.68889E+09 9.75711E+06-3.73459E+07 3.56193E+04
 -1      1541-4.53077E+09 1.98902E+05-1.72162E+09 9.83099E+06-3.69309E+07 3.55288E+04
 -1      1542-4.61680E+09-3.58652E+05-1.75452E+09 9.92496E+06-3.65170E+07 3.54368E+04
 -1      1543-4.70384E+09-4.30710E+05-1.78762E+09 9.88328E+06-3.61042E+07 3.53432E+04
 -1      1544-4.79151E+09 7.68329E+05-1.82048E+09 1.00845E+07-3.56924E+07 3.52481E+04
 -1      1545-4.87918E+09-5.61089E+05-1.85430E+09 1.01235E+07-3.52818E+07 3.51513E+04
 -1      1546-4.96787E+09-2.68933E+05-1.88789E+09 1.01279E+07-3.48723E+07 3.50528E+04
 -1      1547-5.05719E+09 2.43899E+05-1.92164E+09 1.02225E+07-3.44640E+07 3.49525E+04
 -1      1548-5.14671E+09 1.87525E+05-1.95568E+09 1.02816E+07-3.40568E+07 3.48504E+04
 -1      1549-5.23706E+09-2.84351E+05-1.99019E+09 1.03163E+07-3.36509E+07 3.47463E+04
 -1      1550-5.32780E+09-4.42144E+05-2.02473E+09 1.04421E+07-3.32462E+07 3.46404E+04
 -1      1551-5.41905E+09 5.68365E+05-2.05902E+09 1.04599E+07-3.28427E+07 3.45326E+04
 -1      1552-5.51108E+09 5.29695E+04-2.09419E+09 1.04982E+07-3.24405E+07 3.44229E+04
 -1      1553-5.60311E+09-7.29585E+05-2.12946E+09 1.06521E+07-3.20396E+07 3.43114E+04
 -1      1554-5.69613E+09-1.62450E+05-2.16459E+09 1.05442E+07-3.16400E+07 3.41978E+04
 -1      1555-5.78977E+09 8.95342E+05-2.19977E+09 1.07669E+07-3.12417E+07 3.40823E+04
 -1      1556-5.88318E+09-6.56485E+05-2.23586E+09 1.07907E+07-3.08448E+07 3.39648E+04
 -1      1557-5.97773E+09-2.48605E+05-2.27163E+09 1.07804E+07-3.04493E+07 3.38454E+04
 -1      1558-6.07251E+09 1.75114E+05-2.30749E+09 1.08617E+07-3.00552E+07 3.37240E+04
 -1      1559-6.16809E+09 3.77750E+05-2.34373E+09 1.08543E+07-2.96625E+07 3.36007E+04
 -1      1560-6.26365E+09-3.38006E+05-2.38031E+09 1.10892E+07-2.92712E+07 3.34756E+04
 -1      1561-6.35978E+09-6.87978E+05-2.41698E+09 1.09870E+07-2.88814E+07 3.33487E+04
 -1      1562-6.45688E+09 1.11202E+06-2.45319E+09 1.10848E+07-2.84932E+07 3.32198E+04
 -1      1563-6.55389E+09-8.23222E+05-2.49079E+09 1.11635E+07-2.81064E+07 3.30896E+04
 -1      1564-6.65222E+09-3.56434E+05-2.52798E+09 1.10747E+07-2.77212E+07 3.29581E+04
 -1      1565-6.75076E+09 9.27839E+05-2.56494E+09 1.13106E+07-2.73375E+07 3.28239E+04
 -1      1566-6.84899E+09-1.82007E+05-2.60269E+09 1.12403E+07-2.69554E+07 3.26871E+04
 -1      1567-6.94801E+09-7.61884E+05-2.64053E+09 1.14178E+07-2.65749E+07 3.25483E+04
 -1      1568-7.04733E+09 1.03749E+05-2.67795E+09 1.13387E+07-2.61961E+07 3.24074E+04
 -1      1569-7.14709E+09 9.30120E+04-2.71586E+09 1.14224E+07-2.58189E+07 3.22645E+04
 -1      1570-7.24762E+09 5.01007E+05-2.75391E+09 1.13888E+07-2.54434E+07 3.21196E+04
 -1      1571-7.34794E+09-3.81097E+05-2.79236E+09 1.16560E+07-2.50696E+07 3.19727E+04
 -1      1572-7.44876E+09-8.09692E+05-2.83084E+09 1.15176E+07-2.46975E+07 3.18237E+04
 -1      1573-7.55068E+09 1.32732E+06-2.86875E+09 1.16063E+07-2.43271E+07 3.16726E+04
 -1      1574-7.65192E+09-8.17076E+05-2.90804E+09 1.16997E+07-2.39586E+07 3.15195E+04
 -1      1575-7.75435E+09-4.00454E+05-2.94681E+09 1.15648E+07-2.35918E+07 3.13645E+04
 -1      1576-7.85708E+09 4.73865E+05-2.98551E+09 1.18317E+07-2.32269E+07 3.12074E+04
 -1      1577-7.95978E+09 2.11150E+05-3.02464E+09 1.17799E+07-2.28638E+07 3.10485E+04
 -1      1578-8.06302E+09 2.18787E+05-3.06386E+09 1.18638E+07-2.25025E+07 3.08877E+04
 -1      1579-8.16651E+09-1.31975E+06-3.10377E+09 1.17759E+07-2.21432E+07 3.07249E+04
 -1      1580-8.27105E+09 9.06422E+05-3.14265E+09 1.18589E+07-2.17857E+07 3.05601E+04
 -1      1581-8.37507E+09-1.26943E+05-3.18258E+09 1.20880E+07-2.14302E+07 3.03932E+04
 -1      1582-8.47945E+09-7.18169E+05-3.22247E+09 1.19317E+07-2.10767E+07 3.02243E+04
 -1      1583-8.58493E+09 5.07463E+05-3.26208E+09 1.20209E+07-2.07251E+07 3.00532E+04
 -1      1584-8.69025E+09 5.77237E+05-3.30207E+09 1.20547E+07-2.03755E+07 2.98801E+04
 -1      1585-8.79550E+09-7.13565E+05-3.34256E+09 1.21437E+07-2.00280E+07 2.97049E+04
 -1      1586-8.90184E+09-4.30300E+05-3.38286E+09 1.19799E+07-1.96825E+07 2.95275E+04
 -1      1587-9.00825E+09 4.99705E+05-3.42295E+09 1.22726E+07-1.93392E+07 2.93480E+04
 -1      1588-9.11470E+09 3.67925E+05-3.46345E+09 1.21957E+07-1.89979E+07 2.91662E+04
 -1      1589-9.22155E+09-3.16775E+05-3.50431E+09 1.22915E+07-1.86587E+07 2.89822E+04
 -1      1590-9.32857E+09-9.79194E+05-3.54523E+09 1.22112E+07-1.83217E+07 2.87961E+04
 -1      1591-9.43673E+09 1.38946E+06-3.58543E+09 1.21991E+07-1.79869E+07 2.86078E+04
 -1      1592-9.54412E+09-9.56383E+04-3.62680E+09 1.24920E+07-1.76543E+07 2.84174E+04
 -1      1593-9.65194E+09-1.18215E+06-3.66819E+09 1.22627E+07-1.73240E+07 2.82249E+04
 -1      1594-9.76079E+09 8.76445E+04-3.70907E+09 1.24637E+07-1.69959E+07 2.80302E+04
 -1      1595-9.86910E+09 1.05732E+06-3.74986E+09 1.24081E+07-1.66700E+07 2.78334E+04
 -1      1596-9.97814E+09-5.38787E+05-3.79190E+09 1.24120E+07-1.63465E+07 2.76344E+04
 -1      1597-1.00872E+10-9.00287E+05-3.83348E+09 1.25555E+07-1.60253E+07 2.74332E+04
 -1      1598-1.01968E+10 1.52853E+06-3.87419E+09 1.25010E+07-1.57065E+07 2.72299E+04
 -1      1599-1.03063E+10-7.45733E+05-3.91667E+09 1.26112E+07-1.53901E+07 2.70244E+04
 -1      1600-1.04159E+10-7.56641E+05-3.95832E+09 1.25143E+07-1.50761E+07 2.68167E+04
 -1      1601-1.05266E+10 6.61642E+05-3.99987E+09 1.24761E+07-1.47645E+07 2.66067E+04
 -1      1602-1.06370E+10 7.03994E+05-4.04180E+09 1.27522E+07-1.44553E+07 2.63946E+04
 -1      1603-1.07470E+10-8.63248E+05-4.08419E+09 1.27160E+07-1.41487E+07 2.61803E+04
 -1      1604-1.08581E+10-4.51591E+05-4.12626E+09 1.26134E+07-1.38446E+07 2.59637E+04
 -1      1605-1.09694E+10 4.22790E+05-4.16822E+09 1.27055E+07-1.35430E+07 2.57449E+04
 -1      1606-1.10804E+10 1.27961E+06-4.21007E+09 1.27126E+07-1.32439E+07 2.55239E+04
 -1      1607-1.11920E+10-1.16369E+06-4.25342E+09 1.26346E+07-1.29475E+07 2.53008E+04
 -1      1608-1.13037E+10-1.57795E+06-4.29600E+09 1.29250E+07-1.26537E+07 2.50754E+04
 -1      1609-1.14157E+10 2.54049E+06-4.33700E+09 1.27748E+07-1.23625E+07 2.48478E+04
 -1      1610-1.15276E+10-1.15990E+06-4.38093E+09 1.28961E+07-1.20740E+07 2.46179E+04
 -1      1611-1.16396E+10-6.07373E+05-4.42328E+09 1.27701E+07-1.17882E+07 2.43857E+04
 -1      1612-1.17527E+10 6.15413E+05-4.46580E+09 1.27278E+07-1.15051E+07 2.41512E+04
 -1      1613-1.18654E+10 7.83836E+05-4.50856E+09 1.30238E+07-1.12247E+07 2.39144E+04
 -1      1614-1.19775E+10-7.71861E+05-4.55175E+09 1.29699E+07-1.09472E+07 2.36754E+04
 -1      1615-1.20909E+10-9.66588E+05-4.59490E+09 1.28617E+07-1.06724E+07 2.34340E+04
 -1      1616-1.22042E+10 1.86750E+06-4.63688E+09 1.29235E+07-1.04005E+07 2.31904E+04
 -1      1617-1.23175E+10-1.03012E+06-4.68104E+09 1.29021E+07-1.01314E+07 2.29445E+04
 -1      1618-1.24309E+10-5.18241E+05-4.72393E+09 1.30662E+07-9.86518E+06 2.26963E+04
 -1      1619-1.25446E+10 2.58504E+05-4.76685E+09 1.29822E+07-9.60189E+06 2.24458E+04
 -1      1620-1.26586E+10 1.83452E+06-4.80957E+09 1.30077E+07-9.34153E+06 2.21931E+04
 -1      1621-1.27721E+10-1.61529E+06-4.85400E+09 1.30311E+07-9.08413E+06 2.19381E+04
 -1      1622-1.28865E+10-1.48789E+06-4.89744E+09 1.29256E+07-8.82972E+06 2.16808E+04
 -1      1623-1.30010E+10 1.79840E+06-4.93971E+09 1.32045E+07-8.57832E+06 2.14212E+04
 -1      1624-1.31151E+10 3.50887E+05-4.98360E+09 1.30659E+07-8.32997E+06 2.11594E+04
 -1      1625-1.32295E+10-5.90347E+05-5.02744E+09 1.31767E+07-8.08468E+06 2.08954E+04
 -1      1626-1.33442E+10-1.10776E+06-5.07122E+09 1.30385E+07-7.84248E+06 2.06290E+04
 -1      1627-1.34592E+10 2.02857E+06-5.11371E+09 1.31043E+07-7.60341E+06 2.03604E+04
 -1      1628-1.35740E+10-1.11624E+06-5.15855E+09 1.30702E+07-7.36748E+06 2.00894E+04
 -1      1629-1.36889E+10-6.08240E+05-5.20203E+09 1.32407E+07-7.13473E+06 1.98162E+04
 -1      1630-1.38040E+10 5.87639E+05-5.24532E+09 1.31465E+07-6.90518E+06 1.95406E+04
 -1      1631-1.39196E+10 9.34637E+05-5.28911E+09 1.31755E+07-6.67885E+06 1.92626E+04
 -1      1632-1.40342E+10-8.37028E+05-5.33333E+09 1.32627E+07-6.45578E+06 1.89823E+04
 -1      1633-1.41502E+10-1.39356E+06-5.37759E+09 1.29688E+07-6.23600E+06 1.86997E+04
 -1      1634-1.42662E+10 3.44844E+06-5.41986E+09 1.33558E+07-6.01953E+06 1.84147E+04
 -1      1635-1.43809E+10-2.37187E+06-5.46563E+09 1.32326E+07-5.80639E+06 1.81274E+04
 -1      1636-1.44970E+10-1.24650E+06-5.50934E+09 1.32460E+07-5.59662E+06 1.78377E+04
 -1      1637-1.46128E+10 1.57348E+06-5.55225E+09 1.32170E+07-5.39024E+06 1.75456E+04
 -1      1638-1.47292E+10 6.96436E+05-5.59682E+09 1.30801E+07-5.18728E+06 1.72512E+04
 -1      1639-1.48448E+10-6.94940E+05-5.64128E+09 1.35331E+07-4.98777E+06 1.69544E+04
 -1      1640-1.49604E+10-1.07258E+06-5.68538E+09 1.31740E+07-4.79174E+06 1.66553E+04
 -1      1641-1.50772E+10 1.03282E+06-5.72896E+09 1.32800E+07-4.59921E+06 1.63537E+04
 -1      1642-1.51932E+10 7.21268E+05-5.77314E+09 1.32659E+07-4.41021E+06 1.60499E+04
 -1      1643-1.53095E+10-7.69190E+05-5.81788E+09 1.32184E+07-4.22476E+06 1.57437E+04
 -1      1644-1.54259E+10-1.24122E+06-5.86233E+09 1.34084E+07-4.04291E+06 1.54352E+04
 -1      1645-1.55424E+10 2.42059E+06-5.90520E+09 1.32819E+07-3.86467E+06 1.51243E+04
 -1      1646-1.56586E+10-1.30066E+06-5.95078E+09 1.34139E+07-3.69006E+06 1.48112E+04
 -1      1647-1.57752E+10-9.93368E+05-5.99496E+09 1.32402E+07-3.51912E+06 1.44957E+04
 -1      1648-1.58918E+10 1.82078E+06-6.03817E+09 1.32877E+07-3.35188E+06 1.41779E+04
 -1      1649-1.60091E+10 1.52374E+05-6.08340E+09 1.30855E+07-3.18836E+06 1.38577E+04
 -1      1650-1.61252E+10-1.68450E+06-6.12821E+09 1.37346E+07-3.02858E+06 1.35353E+04
 -1      1651-1.62416E+10-5.21291E+05-6.17199E+09 1.32247E+07-2.87258E+06 1.32105E+04
 -1      1652-1.63594E+10 2.73642E+06-6.21554E+09 1.33564E+07-2.72038E+06 1.28834E+04
 -1      1653-1.64752E+10-1.72906E+06-6.26122E+09 1.34312E+07-2.57201E+06 1.25540E+04
 -1      1654-1.65926E+10-7.24890E+05-6.30544E+09 1.30904E+07-2.42750E+06 1.22223E+04
 -1      1655-1.67100E+10 1.14122E+06-6.34935E+09 1.35652E+07-2.28687E+06 1.18882E+04
 -1      1656-1.68262E+10 5.37670E+05-6.39376E+09 1.33451E+07-2.15015E+06 1.15518E+04
 -1      1657-1.69435E+10-5.18241E+05-6.43872E+09 1.34775E+07-2.01737E+06 1.12130E+04
 -1      1658-1.70599E+10-1.30807E+06-6.48326E+09 1.32731E+07-1.88855E+06 1.08720E+04
 -1      1659-1.71779E+10 1.10426E+06-6.52720E+09 1.31816E+07-1.76373E+06 1.05285E+04
 -1      1660-1.72951E+10 8.28242E+05-6.57181E+09 1.35875E+07-1.64292E+06 1.01827E+04
 -1      1661-1.74111E+10 1.75777E+05-6.61616E+09 1.34604E+07-1.52617E+06 9.83461E+03
 -1      1662-1.75288E+10-2.38417E+06-6.66184E+09 1.32119E+07-1.41349E+06 9.48414E+03
 -1      1663-1.76462E+10 1.69346E+06-6.70492E+09 1.34836E+07-1.30490E+06 9.13131E+03
 -1      1664-1.77631E+10-1.74595E+05-6.75004E+09 1.32826E+07-1.20045E+06 8.77613E+03
 -1      1665-1.78804E+10-1.11834E+06-6.79500E+09 1.35184E+07-1.10016E+06 8.41861E+03
 -1      1666-1.79974E+10 8.23928E+05-6.83870E+09 1.33728E+07-1.00405E+06 8.05874E+03
 -1      1667-1.81152E+10 1.27665E+06-6.88328E+09 1.33985E+07-9.12152E+05 7.69651E+03
 -1      1668-1.82318E+10-1.21401E+06-6.92854E+09 1.35114E+07-8.24493E+05 7.33193E+03
 -1      1669-1.83489E+10-9.38965E+05-6.97296E+09 1.32854E+07-7.41101E+05 6.96500E+03
 -1      1670-1.84668E+10 8.42873E+05-7.01706E+09 1.31915E+07-6.62003E+05 6.59572E+03
 -1      1671-1.85847E+10 1.51728E+06-7.06160E+09 1.36249E+07-5.87226E+05 6.22407E+03
 -1      1672-1.87001E+10-1.66244E+06-7.10666E+09 1.35064E+07-5.16799E+05 5.85008E+03
 -1      1673-1.88190E+10-6.90501E+05-7.15147E+09 1.32961E+07-4.50747E+05 5.47373E+03
 -1      1674-1.89352E+10 1.73537E+06-7.19471E+09 1.33902E+07-3.89100E+05 5.09502E+03
 -1      1675-1.90540E+10 7.55087E+05-7.24025E+09 1.32816E+07-3.31884E+05 4.71396E+03
 -1      1676-1.91691E+10-3.19836E+06-7.28548E+09 1.34649E+07-2.79127E+05 4.33055E+03
 -1      1677-1.92893E+10 1.43277E+06-7.32939E+09 1.34914E+07-2.30856E+05 3.94478E+03
 -1      1678-1.94032E+10 5.18808E+05-7.37301E+09 1.34109E+07-1.87098E+05 3.55665E+03
 -1      1679-1.95246E+10 1.15305E+06-7.41892E+09 1.34864E+07-1.47883E+05 3.16617E+03
 -1      1680-1.96360E+10-4.12600E+06-7.46325E+09 1.31040E+07-1.13236E+05 2.77334E+03
 -1      1681-1.97625E+10 3.09331E+06-7.50858E+09 1.36729E+07-8.31852E+04 2.37814E+03
 -1      1682-1.98681E+10 1.11207E+07-7.54567E+09 1.32681E+07-5.77582E+04 1.98058E+03
 -1      1683-1.99971E+10-6.36966E+07-7.62310E+09 1.43135E+07-3.69826E+04 1.58069E+03
 -1      1684-2.01079E+10 2.48890E+08-7.54641E+09 9.56010E+06-2.08856E+04 1.17837E+03
 -1      1685-2.02079E+10-9.22439E+08-8.02952E+09 2.75652E+07-9.49508E+03 7.73922E+02
 -1      1686-2.04381E+10 3.38410E+09-6.48053E+09-3.89990E+07-2.83871E+03 3.66309E+02
 -1      1687-2.05670E+10-1.25972E+10-1.26024E+10 2.09113E+08-6.96770E+02 1.61392E+02
 -1      1688-2.34341E+05-1.24847E+05-1.36534E+05 1.85723E+02 7.81052E+07-3.85151E+04
 -1      1689-8.36145E+05-1.23768E+05-3.64860E+05 1.42554E+05 7.78805E+07-3.85150E+04
 -1      1690-2.69727E+06-1.25611E+05-1.07285E+06 2.84044E+05 7.74310E+07-3.85148E+04
 -1      1691-5.79906E+06-1.21834E+05-2.25005E+06 4.24909E+05 7.69816E+07-3.85145E+04
 -1      1692-1.01247E+07-1.25464E+05-3.89505E+06 5.63957E+05 7.65322E+07-3.85142E+04
 -1      1693-1.56769E+07-1.13028E+05-5.99996E+06 7.03855E+05 7.60827E+07-3.85142E+04
 -1      1694-2.24309E+07-1.34978E+05-8.57466E+06 8.42102E+05 7.56333E+07-3.85143E+04
 -1      1695-3.04058E+07-1.07193E+05-1.15944E+07 9.78628E+05 7.51839E+07-3.85145E+04
 -1      1696-3.95671E+07-1.28305E+05-1.50837E+07 1.11701E+06 7.47345E+07-3.85147E+04
 -1      1697-4.99267E+07-1.16655E+05-1.90158E+07 1.25079E+06 7.42850E+07-3.85149E+04
 -1      1698-6.14790E+07-1.05333E+05-2.34014E+07 1.38719E+06 7.38356E+07-3.85149E+04
 -1      1699-7.41824E+07-1.40708E+05-2.82422E+07 1.52400E+06 7.33862E+07-3.85147E+04
 -1      1700-8.80869E+07-1.06555E+05-3.35130E+07 1.65037E+06 7.29367E+07-3.85139E+04
 -1      1701-1.03138E+08-9.54987E+04-3.92282E+07 1.79171E+06 7.24873E+07-3.85127E+04
 -1      1702-1.19328E+08-1.39597E+05-4.53975E+07 1.91471E+06 7.20379E+07-3.85111E+04
 -1      1703-1.36717E+08-1.26709E+05-5.20004E+07 2.04846E+06 7.15885E+07-3.85091E+04
 -1      1704-1.55194E+08-6.15657E+04-5.89968E+07 2.18657E+06 7.11392E+07-3.85067E+04
 -1      1705-1.74828E+08-1.87018E+05-6.65052E+07 2.30292E+06 7.06898E+07-3.85042E+04
 -1      1706-1.95604E+08-5.10524E+04-7.43482E+07 2.44148E+06 7.02406E+07-3.85014E+04
 -1      1707-2.17466E+08-1.49035E+05-8.26931E+07 2.55967E+06 6.97913E+07-3.84985E+04
 -1      1708-2.40488E+08-9.40739E+04-9.14204E+07 2.69184E+06 6.93421E+07-3.84955E+04
 -1      1709-2.64571E+08-6.93268E+04-1.00562E+08 2.82350E+06 6.88929E+07-3.84921E+04
 -1      1710-2.89757E+08-2.05041E+05-1.10185E+08 2.93976E+06 6.84437E+07-3.84884E+04
 -1      1711-3.16072E+08-1.80738E+04-1.20113E+08 3.06696E+06 6.79946E+07-3.84843E+04
 -1      1712-3.43433E+08-1.58759E+05-1.30564E+08 3.18899E+06 6.75456E+07-3.84799E+04
 -1      1713-3.71893E+08-8.63999E+04-1.41351E+08 3.31622E+06 6.70966E+07-3.84748E+04
 -1      1714-4.01405E+08-1.08054E+05-1.52574E+08 3.43795E+06 6.66476E+07-3.84688E+04
 -1      1715-4.31978E+08-1.40172E+05-1.64204E+08 3.55449E+06 6.61988E+07-3.84618E+04
 -1      1716-4.63642E+08-7.76944E+04-1.76213E+08 3.67178E+06 6.57500E+07-3.84537E+04
 -1      1717-4.96332E+08-6.93722E+04-1.88632E+08 3.80224E+06 6.53013E+07-3.84446E+04
 -1      1718-5.30031E+08-1.39362E+05-2.01465E+08 3.91800E+06 6.48528E+07-3.84345E+04
 -1      1719-5.64811E+08-1.43975E+05-2.14683E+08 4.02976E+06 6.44043E+07-3.84234E+04
 -1      1720-6.00605E+08-1.08343E+04-2.28234E+08 4.14948E+06 6.39560E+07-3.84113E+04
 -1      1721-6.37416E+08-1.64970E+05-2.42281E+08 4.26238E+06 6.35079E+07-3.83983E+04
 -1      1722-6.75231E+08-7.73945E+04-2.56618E+08 4.38493E+06 6.30599E+07-3.83845E+04
 -1      1723-7.14065E+08-1.18093E+05-2.71390E+08 4.49159E+06 6.26121E+07-3.83700E+04
 -1      1724-7.53910E+08-7.99341E+04-2.86516E+08 4.61385E+06 6.21644E+07-3.83549E+04
 -1      1725-7.94690E+08-1.03017E+05-3.02022E+08 4.72718E+06 6.17169E+07-3.83391E+04
 -1      1726-8.36520E+08-1.55558E+05-3.17937E+08 4.82006E+06 6.12696E+07-3.83225E+04
 -1      1727-8.79322E+08-4.54399E+04-3.34160E+08 4.95585E+06 6.08225E+07-3.83051E+04
 -1      1728-9.23050E+08-4.23489E+04-3.50775E+08 5.05629E+06 6.03756E+07-3.82869E+04
 -1      1729-9.67756E+08-1.45741E+05-3.67803E+08 5.17130E+06 5.99290E+07-3.82677E+04
 -1      1730-1.01343E+09-1.79730E+05-3.85172E+08 5.26954E+06 5.94825E+07-3.82474E+04
 -1      1731-1.06006E+09 6.78100E+04-4.02798E+08 5.38249E+06 5.90363E+07-3.82259E+04
 -1      1732-1.10762E+09-1.83944E+05-4.20966E+08 5.48419E+06 5.85904E+07-3.82030E+04
 -1      1733-1.15611E+09-1.40911E+05-4.39375E+08 5.60361E+06 5.81448E+07-3.81789E+04
 -1      1734-1.20552E+09-4.77376E+04-4.58117E+08 5.70155E+06 5.76994E+07-3.81535E+04
 -1      1735-1.25590E+09-1.10799E+04-4.77249E+08 5.80678E+06 5.72543E+07-3.81269E+04
 -1      1736-1.30708E+09-8.60637E+04-4.96723E+08 5.91803E+06 5.68096E+07-3.80991E+04
 -1      1737-1.35929E+09-2.77770E+05-5.16639E+08 5.98351E+06 5.63652E+07-3.80700E+04
 -1      1738-1.41240E+09 7.67981E+04-5.36685E+08 6.14148E+06 5.59211E+07-3.80397E+04
 -1      1739-1.46625E+09-1.48126E+05-5.57234E+08 6.22577E+06 5.54774E+07-3.80081E+04
 -1      1740-1.52113E+09-1.55993E+05-5.78088E+08 6.31031E+06 5.50340E+07-3.79754E+04
 -1      1741-1.57684E+09-2.33840E+04-5.99211E+08 6.41697E+06 5.45911E+07-3.79416E+04
 -1      1742-1.63347E+09 1.69545E+04-6.20714E+08 6.49891E+06 5.41486E+07-3.79069E+04
 -1      1743-1.69089E+09-1.68649E+05-6.42604E+08 6.64556E+06 5.37064E+07-3.78711E+04
 -1      1744-1.74914E+09-2.00493E+05-6.64751E+08 6.70318E+06 5.32647E+07-3.78341E+04
 -1      1745-1.80837E+09 1.19948E+04-6.87176E+08 6.81014E+06 5.28234E+07-3.77960E+04
 -1      1746-1.86839E+09 4.69009E+04-7.09970E+08 6.90435E+06 5.23826E+07-3.77567E+04
 -1      1747-1.92911E+09-2.04650E+05-7.33140E+08 7.01252E+06 5.19423E+07-3.77163E+04
 -1      1748-1.99085E+09-2.42607E+05-7.56616E+08 7.06211E+06 5.15024E+07-3.76745E+04
 -1      1749-2.05340E+09 2.26359E+05-7.80208E+08 7.21175E+06 5.10630E+07-3.76314E+04
 -1      1750-2.11655E+09-1.25501E+05-8.04340E+08 7.29260E+06 5.06241E+07-3.75871E+04
 -1      1751-2.18072E+09-2.91761E+05-8.28784E+08 7.35023E+06 5.01858E+07-3.75415E+04
 -1      1752-2.24561E+09-1.19820E+05-8.53380E+08 7.47647E+06 4.97480E+07-3.74949E+04
 -1      1753-2.31139E+09 2.40150E+05-8.78238E+08 7.52719E+06 4.93107E+07-3.74471E+04
 -1      1754-2.37781E+09-2.28284E+05-9.03655E+08 7.68738E+06 4.88740E+07-3.73981E+04
 -1      1755-2.44500E+09-3.21455E+05-9.29222E+08 7.71672E+06 4.84379E+07-3.73480E+04
 -1      1756-2.51322E+09 3.78991E+05-9.54879E+08 7.82073E+06 4.80024E+07-3.72969E+04
 -1      1757-2.58183E+09-3.41223E+05-9.81225E+08 7.92259E+06 4.75675E+07-3.72448E+04
 -1      1758-2.65148E+09-1.95191E+05-1.00764E+09 7.94806E+06 4.71332E+07-3.71917E+04
 -1      1759-2.72186E+09 8.89846E+04-1.03427E+09 8.11095E+06 4.66995E+07-3.71376E+04
 -1      1760-2.79284E+09 6.80511E+04-1.06125E+09 8.16337E+06 4.62665E+07-3.70826E+04
 -1      1761-2.86463E+09-2.24261E+05-1.08865E+09 8.26497E+06 4.58341E+07-3.70265E+04
 -1      1762-2.93710E+09-2.35139E+05-1.11619E+09 8.31414E+06 4.54023E+07-3.69693E+04
 -1      1763-3.01048E+09 2.55403E+04-1.14397E+09 8.37870E+06 4.49713E+07-3.69109E+04
 -1      1764-3.08448E+09 3.75212E+05-1.17196E+09 8.52943E+06 4.45409E+07-3.68512E+04
 -1      1765-3.15897E+09-4.45581E+05-1.20058E+09 8.57723E+06 4.41112E+07-3.67902E+04
 -1      1766-3.23442E+09-5.31267E+05-1.22928E+09 8.66019E+06 4.36823E+07-3.67278E+04
 -1      1767-3.31063E+09 7.24667E+05-1.25776E+09 8.73118E+06 4.32541E+07-3.66638E+04
 -1      1768-3.38717E+09-4.78825E+05-1.28731E+09 8.83415E+06 4.28266E+07-3.65984E+04
 -1      1769-3.46476E+09-1.68250E+05-1.31667E+09 8.83237E+06 4.23999E+07-3.65315E+04
 -1      1770-3.54294E+09 1.05468E+05-1.34627E+09 9.00922E+06 4.19740E+07-3.64631E+04
 -1      1771-3.62165E+09 1.13767E+05-1.37618E+09 9.04336E+06 4.15489E+07-3.63932E+04
 -1      1772-3.70110E+09-1.84910E+05-1.40649E+09 9.14116E+06 4.11247E+07-3.63217E+04
 -1      1773-3.78111E+09-4.84800E+05-1.43701E+09 9.17289E+06 4.07013E+07-3.62486E+04
 -1      1774-3.86216E+09 6.18994E+05-1.46738E+09 9.22280E+06 4.02787E+07-3.61738E+04
 -1      1775-3.94340E+09-3.82387E+05-1.49864E+09 9.41264E+06 3.98570E+07-3.60973E+04
 -1      1776-4.02530E+09-3.34100E+05-1.52974E+09 9.38910E+06 3.94363E+07-3.60190E+04
 -1      1777-4.10822E+09 1.77309E+05-1.56105E+09 9.48605E+06 3.90164E+07-3.59389E+04
 -1      1778-4.19134E+09 4.32282E+05-1.59255E+09 9.54980E+06 3.85975E+07-3.58571E+04
 -1      1779-4.27534E+09-5.49535E+05-1.62484E+09 9.58144E+06 3.81796E+07-3.57734E+04
 -1      1780-4.35983E+09-5.08752E+05-1.65693E+09 9.75160E+06 3.77626E+07-3.56879E+04
 -1      1781-4.44489E+09 4.34647E+05-1.68889E+09 9.75759E+06 3.73467E+07-3.56003E+04
 -1      1782-4.53077E+09 1.98891E+05-1.72162E+09 9.83143E+06 3.69318E+07-3.55108E+04
 -1      1783-4.61680E+09-3.58637E+05-1.75452E+09 9.92532E+06 3.65179E+07-3.54193E+04
 -1      1784-4.70384E+09-4.30700E+05-1.78762E+09 9.88359E+06 3.61051E+07-3.53259E+04
 -1      1785-4.79151E+09 7.68337E+05-1.82048E+09 1.00848E+07 3.56935E+07-3.52305E+04
 -1      1786-4.87918E+09-5.61128E+05-1.85430E+09 1.01236E+07 3.52829E+07-3.51333E+04
 -1      1787-4.96787E+09-2.68950E+05-1.88789E+09 1.01278E+07 3.48735E+07-3.50342E+04
 -1      1788-5.05719E+09 2.43865E+05-1.92164E+09 1.02224E+07 3.44653E+07-3.49334E+04
 -1      1789-5.14671E+09 1.87521E+05-1.95568E+09 1.02814E+07 3.40582E+07-3.48309E+04
 -1      1790-5.23706E+09-2.84332E+05-1.99019E+09 1.03162E+07 3.36524E+07-3.47266E+04
 -1      1791-5.32780E+09-4.42171E+05-2.02473E+09 1.04421E+07 3.32478E+07-3.46206E+04
 -1      1792-5.41905E+09 5.68356E+05-2.05902E+09 1.04598E+07 3.28444E+07-3.45128E+04
 -1      1793-5.51108E+09 5.29422E+04-2.09419E+09 1.04980E+07 3.24423E+07-3.44032E+04
 -1      1794-5.60311E+09-7.29611E+05-2.12946E+09 1.06519E+07 3.20415E+07-3.42918E+04
 -1      1795-5.69614E+09-1.62449E+05-2.16459E+09 1.05441E+07 3.16420E+07-3.41787E+04
 -1      1796-5.78977E+09 8.95373E+05-2.19977E+09 1.07667E+07 3.12438E+07-3.40637E+04
 -1      1797-5.88318E+09-6.56493E+05-2.23586E+09 1.07905E+07 3.08470E+07-3.39471E+04
 -1      1798-5.97773E+09-2.48581E+05-2.27163E+09 1.07804E+07 3.04516E+07-3.38286E+04
 -1      1799-6.07252E+09 1.75125E+05-2.30749E+09 1.08618E+07 3.00575E+07-3.37082E+04
 -1      1800-6.16810E+09 3.77750E+05-2.34373E+09 1.08544E+07 2.96649E+07-3.35859E+04
 -1      1801-6.26365E+09-3.38039E+05-2.38031E+09 1.10894E+07 2.92737E+07-3.34616E+04
 -1      1802-6.35979E+09-6.87961E+05-2.41698E+09 1.09870E+07 2.88839E+07-3.33354E+04
 -1      1803-6.45688E+09 1.11208E+06-2.45319E+09 1.10848E+07 2.84957E+07-3.32071E+04
 -1      1804-6.55389E+09-8.23251E+05-2.49079E+09 1.11635E+07 2.81090E+07-3.30776E+04
 -1      1805-6.65222E+09-3.56469E+05-2.52798E+09 1.10746E+07 2.77237E+07-3.29467E+04
 -1      1806-6.75076E+09 9.27868E+05-2.56494E+09 1.13105E+07 2.73401E+07-3.28132E+04
 -1      1807-6.84900E+09-1.82017E+05-2.60269E+09 1.12403E+07 2.69580E+07-3.26773E+04
 -1      1808-6.94801E+09-7.61849E+05-2.64053E+09 1.14178E+07 2.65775E+07-3.25393E+04
 -1      1809-7.04733E+09 1.03739E+05-2.67795E+09 1.13387E+07 2.61986E+07-3.23994E+04
 -1      1810-7.14709E+09 9.29994E+04-2.71586E+09 1.14223E+07 2.58214E+07-3.22575E+04
 -1      1811-7.24763E+09 5.01003E+05-2.75391E+09 1.13888E+07 2.54459E+07-3.21137E+04
 -1      1812-7.34795E+09-3.81095E+05-2.79236E+09 1.16559E+07 2.50720E+07-3.19678E+04
 -1      1813-7.44877E+09-8.09692E+05-2.83084E+09 1.15176E+07 2.46999E+07-3.18200E+04
 -1      1814-7.55068E+09 1.32736E+06-2.86875E+09 1.16063E+07 2.43295E+07-3.16702E+04
 -1      1815-7.65193E+09-8.17057E+05-2.90804E+09 1.16998E+07 2.39608E+07-3.15183E+04
 -1      1816-7.75435E+09-4.00402E+05-2.94681E+09 1.15650E+07 2.35939E+07-3.13644E+04
 -1      1817-7.85708E+09 4.73913E+05-2.98551E+09 1.18321E+07 2.32289E+07-3.12082E+04
 -1      1818-7.95978E+09 2.11151E+05-3.02464E+09 1.17803E+07 2.28657E+07-3.10499E+04
 -1      1819-8.06302E+09 2.18761E+05-3.06386E+09 1.18640E+07 2.25043E+07-3.08893E+04
 -1      1820-8.16651E+09-1.31975E+06-3.10377E+09 1.17759E+07 2.21448E+07-3.07265E+04
 -1      1821-8.27105E+09 9.06391E+05-3.14265E+09 1.18590E+07 2.17873E+07-3.05616E+04
 -1      1822-8.37507E+09-1.26939E+05-3.18258E+09 1.20881E+07 2.14316E+07-3.03946E+04
 -1      1823-8.47945E+09-7.18153E+05-3.22247E+09 1.19317E+07 2.10780E+07-3.02254E+04
 -1      1824-8.58493E+09 5.07482E+05-3.26208E+09 1.20209E+07 2.07263E+07-3.00541E+04
 -1      1825-8.69025E+09 5.77210E+05-3.30207E+09 1.20547E+07 2.03766E+07-2.98807E+04
 -1      1826-8.79549E+09-7.13600E+05-3.34256E+09 1.21436E+07 2.00290E+07-2.97052E+04
 -1      1827-8.90184E+09-4.30313E+05-3.38286E+09 1.19797E+07 1.96834E+07-2.95275E+04
 -1      1828-9.00825E+09 4.99720E+05-3.42295E+09 1.22725E+07 1.93399E+07-2.93478E+04
 -1      1829-9.11470E+09 3.67928E+05-3.46345E+09 1.21956E+07 1.89985E+07-2.91661E+04
 -1      1830-9.22155E+09-3.16748E+05-3.50431E+09 1.22915E+07 1.86593E+07-2.89823E+04
 -1      1831-9.32857E+09-9.79172E+05-3.54523E+09 1.22112E+07 1.83222E+07-2.87963E+04
 -1      1832-9.43673E+09 1.38948E+06-3.58543E+09 1.21991E+07 1.79873E+07-2.86081E+04
 -1      1833-9.54412E+09-9.56467E+04-3.62680E+09 1.24920E+07 1.76546E+07-2.84178E+04
 -1      1834-9.65194E+09-1.18214E+06-3.66819E+09 1.22627E+07 1.73241E+07-2.82253E+04
 -1      1835-9.76079E+09 8.76296E+04-3.70907E+09 1.24638E+07 1.69959E+07-2.80305E+04
 -1      1836-9.86910E+09 1.05731E+06-3.74986E+09 1.24081E+07 1.66700E+07-2.78336E+04
 -1      1837-9.97814E+09-5.38777E+05-3.79190E+09 1.24120E+07 1.63464E+07-2.76344E+04
 -1      1838-1.00872E+10-9.00298E+05-3.83348E+09 1.25555E+07 1.60252E+07-2.74331E+04
 -1      1839-1.01968E+10 1.52855E+06-3.87419E+09 1.25010E+07 1.57062E+07-2.72295E+04
 -1      1840-1.03063E+10-7.45750E+05-3.91667E+09 1.26112E+07 1.53897E+07-2.70238E+04
 -1      1841-1.04159E+10-7.56619E+05-3.95832E+09 1.25143E+07 1.50756E+07-2.68158E+04
 -1      1842-1.05266E+10 6.61654E+05-3.99987E+09 1.24761E+07 1.47639E+07-2.66056E+04
 -1      1843-1.06370E+10 7.03977E+05-4.04180E+09 1.27522E+07 1.44547E+07-2.63932E+04
 -1      1844-1.07470E+10-8.63263E+05-4.08419E+09 1.27160E+07 1.41480E+07-2.61786E+04
 -1      1845-1.08581E+10-4.51573E+05-4.12626E+09 1.26134E+07 1.38438E+07-2.59618E+04
 -1      1846-1.09694E+10 4.22796E+05-4.16822E+09 1.27056E+07 1.35422E+07-2.57427E+04
 -1      1847-1.10804E+10 1.27961E+06-4.21007E+09 1.27128E+07 1.32431E+07-2.55213E+04
 -1      1848-1.11920E+10-1.16371E+06-4.25342E+09 1.26346E+07 1.29466E+07-2.52978E+04
 -1      1849-1.13037E+10-1.57795E+06-4.29600E+09 1.29250E+07 1.26528E+07-2.50719E+04
 -1      1850-1.14157E+10 2.54046E+06-4.33700E+09 1.27748E+07 1.23616E+07-2.48437E+04
 -1      1851-1.15276E+10-1.15992E+06-4.38093E+09 1.28960E+07 1.20730E+07-2.46134E+04
 -1      1852-1.16396E+10-6.07379E+05-4.42328E+09 1.27700E+07 1.17872E+07-2.43808E+04
 -1      1853-1.17527E+10 6.15418E+05-4.46580E+09 1.27277E+07 1.15041E+07-2.41461E+04
 -1      1854-1.18654E+10 7.83852E+05-4.50856E+09 1.30237E+07 1.12237E+07-2.39091E+04
 -1      1855-1.19775E+10-7.71853E+05-4.55175E+09 1.29699E+07 1.09461E+07-2.36699E+04
 -1      1856-1.20909E+10-9.66592E+05-4.59490E+09 1.28617E+07 1.06714E+07-2.34285E+04
 -1      1857-1.22042E+10 1.86749E+06-4.63688E+09 1.29235E+07 1.03994E+07-2.31847E+04
 -1      1858-1.23175E+10-1.03011E+06-4.68104E+09 1.29021E+07 1.01303E+07-2.29388E+04
 -1      1859-1.24309E+10-5.18234E+05-4.72393E+09 1.30663E+07 9.86412E+06-2.26905E+04
 -1      1860-1.25446E+10 2.58497E+05-4.76685E+09 1.29822E+07 9.60083E+06-2.24399E+04
 -1      1861-1.26586E+10 1.83452E+06-4.80957E+09 1.30077E+07 9.34047E+06-2.21871E+04
 -1      1862-1.27721E+10-1.61526E+06-4.85400E+09 1.30311E+07 9.08307E+06-2.19320E+04
 -1      1863-1.28865E+10-1.48789E+06-4.89744E+09 1.29256E+07 8.82867E+06-2.16746E+04
 -1      1864-1.30010E+10 1.79840E+06-4.93971E+09 1.32045E+07 8.57728E+06-2.14149E+04
 -1      1865-1.31151E+10 3.50893E+05-4.98360E+09 1.30660E+07 8.32894E+06-2.11528E+04
 -1      1866-1.32295E+10-5.90361E+05-5.02744E+09 1.31768E+07 8.08367E+06-2.08884E+04
 -1      1867-1.33442E+10-1.10776E+06-5.07122E+09 1.30385E+07 7.84150E+06-2.06217E+04
 -1      1868-1.34592E+10 2.02857E+06-5.11371E+09 1.31043E+07 7.60245E+06-2.03526E+04
 -1      1869-1.35740E+10-1.11624E+06-5.15855E+09 1.30702E+07 7.36655E+06-2.00813E+04
 -1      1870-1.36889E+10-6.08240E+05-5.20203E+09 1.32406E+07 7.13384E+06-1.98077E+04
 -1      1871-1.38040E+10 5.87627E+05-5.24532E+09 1.31465E+07 6.90433E+06-1.95318E+04
 -1      1872-1.39196E+10 9.34640E+05-5.28911E+09 1.31754E+07 6.67805E+06-1.92536E+04
 -1      1873-1.40342E+10-8.37035E+05-5.33333E+09 1.32626E+07 6.45504E+06-1.89732E+04
 -1      1874-1.41502E+10-1.39356E+06-5.37759E+09 1.29688E+07 6.23530E+06-1.86904E+04
 -1      1875-1.42662E+10 3.44842E+06-5.41986E+09 1.33558E+07 6.01889E+06-1.84054E+04
 -1      1876-1.43809E+10-2.37188E+06-5.46563E+09 1.32325E+07 5.80581E+06-1.81181E+04
 -1      1877-1.44970E+10-1.24651E+06-5.50934E+09 1.32459E+07 5.59609E+06-1.78285E+04
 -1      1878-1.46128E+10 1.57347E+06-5.55225E+09 1.32169E+07 5.38977E+06-1.75366E+04
 -1      1879-1.47292E+10 6.96436E+05-5.59682E+09 1.30800E+07 5.18687E+06-1.72424E+04
 -1      1880-1.48448E+10-6.94941E+05-5.64128E+09 1.35330E+07 4.98741E+06-1.69460E+04
 -1      1881-1.49604E+10-1.07258E+06-5.68538E+09 1.31739E+07 4.79143E+06-1.66473E+04
 -1      1882-1.50772E+10 1.03282E+06-5.72896E+09 1.32800E+07 4.59894E+06-1.63463E+04
 -1      1883-1.51932E+10 7.21278E+05-5.77314E+09 1.32659E+07 4.40998E+06-1.60429E+04
 -1      1884-1.53095E+10-7.69188E+05-5.81788E+09 1.32184E+07 4.22457E+06-1.57372E+04
 -1      1885-1.54259E+10-1.24122E+06-5.86233E+09 1.34084E+07 4.04275E+06-1.54292E+04
 -1      1886-1.55424E+10 2.42060E+06-5.90520E+09 1.32819E+07 3.86453E+06-1.51188E+04
 -1      1887-1.56586E+10-1.30067E+06-5.95078E+09 1.34139E+07 3.68994E+06-1.48061E+04
 -1      1888-1.57752E+10-9.93361E+05-5.99496E+09 1.32402E+07 3.51902E+06-1.44910E+04
 -1      1889-1.58918E+10 1.82079E+06-6.03817E+09 1.32877E+07 3.35179E+06-1.41736E+04
 -1      1890-1.60091E+10 1.52382E+05-6.08340E+09 1.30856E+07 3.18828E+06-1.38538E+04
 -1      1891-1.61252E+10-1.68450E+06-6.12821E+09 1.37346E+07 3.02851E+06-1.35317E+04
 -1      1892-1.62416E+10-5.21293E+05-6.17199E+09 1.32247E+07 2.87251E+06-1.32072E+04
 -1      1893-1.63594E+10 2.73642E+06-6.21554E+09 1.33565E+07 2.72032E+06-1.28803E+04
 -1      1894-1.64752E+10-1.72906E+06-6.26122E+09 1.34312E+07 2.57195E+06-1.25511E+04
 -1      1895-1.65926E+10-7.24888E+05-6.30544E+09 1.30904E+07 2.42743E+06-1.22195E+04
 -1      1896-1.67100E+10 1.14122E+06-6.34935E+09 1.35652E+07 2.28680E+06-1.18855E+04
 -1      1897-1.68262E+10 5.37670E+05-6.39376E+09 1.33451E+07 2.15008E+06-1.15492E+04
 -1      1898-1.69435E+10-5.18243E+05-6.43872E+09 1.34775E+07 2.01730E+06-1.12106E+04
 -1      1899-1.70599E+10-1.30807E+06-6.48326E+09 1.32731E+07 1.88848E+06-1.08696E+04
 -1      1900-1.71779E+10 1.10426E+06-6.52720E+09 1.31816E+07 1.76366E+06-1.05262E+04
 -1      1901-1.72951E+10 8.28240E+05-6.57181E+09 1.35875E+07 1.64286E+06-1.01805E+04
 -1      1902-1.74111E+10 1.75778E+05-6.61616E+09 1.34604E+07 1.52610E+06-9.83240E+03
 -1      1903-1.75288E+10-2.38416E+06-6.66184E+09 1.32119E+07 1.41342E+06-9.48200E+03
 -1      1904-1.76462E+10 1.69346E+06-6.70492E+09 1.34836E+07 1.30484E+06-9.12922E+03
 -1      1905-1.77631E+10-1.74596E+05-6.75004E+09 1.32826E+07 1.20039E+06-8.77410E+03
 -1      1906-1.78804E+10-1.11834E+06-6.79500E+09 1.35183E+07 1.10009E+06-8.41662E+03
 -1      1907-1.79974E+10 8.23929E+05-6.83870E+09 1.33728E+07 1.00399E+06-8.05680E+03
 -1      1908-1.81152E+10 1.27665E+06-6.88328E+09 1.33985E+07 9.12090E+05-7.69462E+03
 -1      1909-1.82318E+10-1.21401E+06-6.92854E+09 1.35114E+07 8.24434E+05-7.33010E+03
 -1      1910-1.83489E+10-9.38965E+05-6.97296E+09 1.32854E+07 7.41044E+05-6.96323E+03
 -1      1911-1.84668E+10 8.42872E+05-7.01706E+09 1.31915E+07 6.61949E+05-6.59400E+03
 -1      1912-1.85847E+10 1.51728E+06-7.06160E+09 1.36249E+07 5.87176E+05-6.22241E+03
 -1      1913-1.87001E+10-1.66244E+06-7.10666E+09 1.35064E+07 5.16751E+05-5.84849E+03
 -1      1914-1.88190E+10-6.90501E+05-7.15147E+09 1.32961E+07 4.50704E+05-5.47222E+03
 -1      1915-1.89352E+10 1.73537E+06-7.19471E+09 1.33902E+07 3.89060E+05-5.09359E+03
 -1      1916-1.90540E+10 7.55086E+05-7.24025E+09 1.32816E+07 3.31848E+05-4.71261E+03
 -1      1917-1.91691E+10-3.19836E+06-7.28548E+09 1.34649E+07 2.79095E+05-4.32928E+03
 -1      1918-1.92893E+10 1.43277E+06-7.32939E+09 1.34914E+07 2.30828E+05-3.94359E+03
 -1      1919-1.94032E+10 5.18808E+05-7.37301E+09 1.34109E+07 1.87075E+05-3.55555E+03
 -1      1920-1.95246E+10 1.15305E+06-7.41892E+09 1.34864E+07 1.47863E+05-3.16516E+03
 -1      1921-1.96360E+10-4.12601E+06-7.46325E+09 1.31040E+07 1.13220E+05-2.77243E+03
 -1      1922-1.97625E+10 3.09331E+06-7.50858E+09 1.36729E+07 8.31731E+04-2.37733E+03
 -1      1923-1.98681E+10 1.11207E+07-7.54567E+09 1.32681E+07 5.77494E+04-1.97990E+03
 -1      1924-1.99971E+10-6.36966E+07-7.62310E+09 1.43135E+07 3.69768E+04-1.58013E+03
 -1      1925-2.01079E+10 2.48890E+08-7.54641E+09 9.56010E+06 2.08822E+04-1.17794E+03
 -1      1926-2.02079E+10-9.22439E+08-8.02952E+09 2.75652E+07 9.49351E+03-7.73631E+02
 -1      1927-2.04381E+10 3.38410E+09-6.48053E+09-3.89990E+07 2.83830E+03-3.66164E+02
 -1      1928-2.05670E+10-1.25972E+10-1.26024E+10 2.09113E+08 6.96771E+02-1.61321E+02
 -1      1929-3.98117E+05-1.99467E+05-2.27015E+05-1.89140E+04-7.81082E+07 5.77945E+04
 -1      1930-1.66794E+06-1.89288E+05-7.05604E+05 8.98111E+04-7.78834E+07 5.77947E+04
 -1      1931-5.40169E+06-1.99321E+05-2.12816E+06 1.76984E+05-7.74339E+07 5.77951E+04
 -1      1932-1.15981E+07-1.86517E+05-4.47800E+06 2.66241E+05-7.69845E+07 5.77954E+04
 -1      1933-2.02551E+07-1.90160E+05-7.76924E+06 3.53095E+05-7.65350E+07 5.77953E+04
 -1      1934-3.13453E+07-1.96665E+05-1.19862E+07 4.40603E+05-7.60855E+07 5.77946E+04
 -1      1935-4.48738E+07-1.81731E+05-1.71217E+07 5.26816E+05-7.56360E+07 5.77929E+04
 -1      1936-6.07994E+07-1.87220E+05-2.31757E+07 6.11772E+05-7.51866E+07 5.77906E+04
 -1      1937-7.91403E+07-1.94608E+05-3.01481E+07 6.98983E+05-7.47371E+07 5.77876E+04
 -1      1938-9.98558E+07-1.48594E+05-3.80027E+07 7.81776E+05-7.42877E+07 5.77841E+04
 -1      1939-1.22939E+08-2.43674E+05-4.68105E+07 8.69046E+05-7.38383E+07 5.77802E+04
 -1      1940-1.48396E+08-1.30123E+05-5.64407E+07 9.48762E+05-7.33889E+07 5.77760E+04
 -1      1941-1.76166E+08-2.06204E+05-6.70220E+07 1.03531E+06-7.29396E+07 5.77718E+04
 -1      1942-2.06274E+08-1.92364E+05-7.84579E+07 1.11493E+06-7.24903E+07 5.77674E+04
 -1      1943-2.38707E+08-6.74857E+04-9.07350E+07 1.20352E+06-7.20410E+07 5.77628E+04
 -1      1944-2.73406E+08-3.72210E+05-1.04036E+08 1.28149E+06-7.15918E+07 5.77580E+04
 -1      1945-3.10415E+08-3.82148E+04-1.17973E+08 1.35934E+06-7.11426E+07 5.77524E+04
 -1      1946-3.49698E+08-2.25345E+05-1.32972E+08 1.44791E+06-7.06934E+07 5.77460E+04
 -1      1947-3.91202E+08-1.71633E+05-1.48723E+08 1.51722E+06-7.02443E+07 5.77384E+04
 -1      1948-4.34985E+08-8.94074E+04-1.65329E+08 1.61322E+06-6.97952E+07 5.77296E+04
 -1      1949-4.80956E+08-3.22820E+05-1.82887E+08 1.67608E+06-6.93463E+07 5.77197E+04
 -1      1950-5.29165E+08-6.90095E+04-2.01110E+08 1.76581E+06-6.88974E+07 5.77086E+04
 -1      1951-5.79588E+08-2.04701E+05-2.20323E+08 1.83633E+06-6.84485E+07 5.76966E+04
 -1      1952-6.32136E+08-1.15588E+05-2.40257E+08 1.91860E+06-6.79998E+07 5.76834E+04
 -1      1953-6.86909E+08-2.04286E+05-2.61105E+08 1.99921E+06-6.75512E+07 5.76692E+04
 -1      1954-7.43806E+08-2.05998E+05-2.82726E+08 2.06635E+06-6.71026E+07 5.76543E+04
 -1      1955-8.02860E+08-1.29668E+05-3.05137E+08 2.14910E+06-6.66542E+07 5.76390E+04
 -1      1956-8.64045E+08-1.05373E+05-3.28378E+08 2.22113E+06-6.62059E+07 5.76237E+04
 -1      1957-9.27306E+08-2.14874E+05-3.52459E+08 2.30319E+06-6.57577E+07 5.76085E+04
 -1      1958-9.92688E+08-2.29471E+05-3.77309E+08 2.36871E+06-6.53096E+07 5.75930E+04
 -1      1959-1.06018E+09-7.23924E+04-4.02896E+08 2.44841E+06-6.48617E+07 5.75772E+04
 -1      1960-1.12970E+09-2.12058E+05-4.29367E+08 2.51725E+06-6.44139E+07 5.75609E+04
 -1      1961-1.20128E+09-5.20129E+04-4.56504E+08 2.59588E+06-6.39661E+07 5.75441E+04
 -1      1962-1.27491E+09-2.59619E+05-4.84565E+08 2.67238E+06-6.35186E+07 5.75268E+04
 -1      1963-1.35057E+09-1.39296E+05-5.13268E+08 2.73454E+06-6.30712E+07 5.75084E+04
 -1      1964-1.42823E+09-1.11391E+05-5.42768E+08 2.81715E+06-6.26239E+07 5.74886E+04
 -1      1965-1.50788E+09-3.37668E+05-5.73123E+08 2.87457E+06-6.21768E+07 5.74672E+04
 -1      1966-1.58955E+09 1.19779E+05-6.03983E+08 2.95478E+06-6.17298E+07 5.74445E+04
 -1      1967-1.67316E+09-2.90292E+05-6.35910E+08 3.02668E+06-6.12831E+07 5.74204E+04
 -1      1968-1.75870E+09-2.60811E+05-6.68405E+08 3.08798E+06-6.08365E+07 5.73948E+04
 -1      1969-1.84622E+09-7.78936E+03-7.01567E+08 3.15649E+06-6.03901E+07 5.73680E+04
 -1      1970-1.93568E+09-1.81674E+05-7.35626E+08 3.23283E+06-5.99440E+07 5.73400E+04
 -1      1971-2.02702E+09-1.78722E+05-7.70335E+08 3.29326E+06-5.94981E+07 5.73110E+04
 -1      1972-2.12024E+09 5.96106E+03-8.05687E+08 3.36503E+06-5.90524E+07 5.72813E+04
 -1      1973-2.21538E+09-2.60150E+05-8.41943E+08 3.44504E+06-5.86069E+07 5.72510E+04
 -1      1974-2.31239E+09-3.09201E+05-8.78823E+08 3.48651E+06-5.81617E+07 5.72198E+04
 -1      1975-2.41122E+09 8.51740E+04-9.16231E+08 3.56442E+06-5.77168E+07 5.71877E+04
 -1      1976-2.51189E+09-3.42052E+05-9.54647E+08 3.62423E+06-5.72721E+07 5.71545E+04
 -1      1977-2.61447E+09 3.07082E+05-9.93379E+08 3.70570E+06-5.68276E+07 5.71202E+04
 -1      1978-2.71877E+09-4.47359E+05-1.03330E+09 3.77633E+06-5.63835E+07 5.70848E+04
 -1      1979-2.82485E+09-5.33319E+05-1.07364E+09 3.80736E+06-5.59396E+07 5.70481E+04
 -1      1980-2.93283E+09 3.48640E+05-1.11434E+09 3.88256E+06-5.54961E+07 5.70102E+04
 -1      1981-3.04251E+09-3.59401E+05-1.15629E+09 3.94600E+06-5.50528E+07 5.69707E+04
 -1      1982-3.15391E+09 1.85435E+05-1.19841E+09 4.01703E+06-5.46099E+07 5.69295E+04
 -1      1983-3.26707E+09-3.85935E+05-1.24163E+09 4.08417E+06-5.41673E+07 5.68863E+04
 -1      1984-3.38201E+09-3.12860E+05-1.28528E+09 4.13186E+06-5.37251E+07 5.68413E+04
 -1      1985-3.49867E+09 1.16032E+05-1.32945E+09 4.18620E+06-5.32832E+07 5.67944E+04
 -1      1986-3.61692E+09-1.79413E+05-1.37450E+09 4.25895E+06-5.28418E+07 5.67457E+04
 -1      1987-3.73690E+09-2.04639E+05-1.42010E+09 4.31398E+06-5.24007E+07 5.66951E+04
 -1      1988-3.85869E+09 1.50602E+05-1.46624E+09 4.38638E+06-5.19600E+07 5.66427E+04
 -1      1989-3.98195E+09-2.87594E+05-1.51325E+09 4.44260E+06-5.15197E+07 5.65887E+04
 -1      1990-4.10685E+09-5.60518E+05-1.56082E+09 4.48240E+06-5.10799E+07 5.65329E+04
 -1      1991-4.23356E+09 6.30177E+05-1.60851E+09 4.55391E+06-5.06406E+07 5.64752E+04
 -1      1992-4.36178E+09-6.37972E+05-1.65772E+09 4.62412E+06-5.02017E+07 5.64155E+04
 -1      1993-4.49157E+09 4.67239E+04-1.70678E+09 4.65742E+06-4.97632E+07 5.63534E+04
 -1      1994-4.62289E+09-1.11201E+05-1.75674E+09 4.72762E+06-4.93253E+07 5.62890E+04
 -1      1995-4.75597E+09-5.27528E+05-1.80747E+09 4.78127E+06-4.88879E+07 5.62223E+04
 -1      1996-4.89055E+09 4.03628E+05-1.85825E+09 4.81336E+06-4.84511E+07 5.61531E+04
 -1      1997-5.02646E+09-5.05277E+05-1.91025E+09 4.89091E+06-4.80147E+07 5.60814E+04
 -1      1998-5.16425E+09 4.52123E+05-1.96224E+09 4.95744E+06-4.75790E+07 5.60068E+04
 -1      1999-5.30332E+09-4.78641E+05-2.01544E+09 5.00500E+06-4.71439E+07 5.59292E+04
 -1      2000-5.44388E+09-4.84476E+05-2.06886E+09 5.04554E+06-4.67093E+07 5.58487E+04
 -1      2001-5.58605E+09 3.89685E+05-2.12255E+09 5.08585E+06-4.62755E+07 5.57651E+04
 -1      2002-5.72970E+09-4.43457E+05-2.17745E+09 5.17049E+06-4.58422E+07 5.56787E+04
 -1      2003-5.87477E+09 5.18340E+05-2.23222E+09 5.19832E+06-4.54097E+07 5.55894E+04
 -1      2004-6.02119E+09-6.72513E+05-2.28831E+09 5.29174E+06-4.49778E+07 5.54974E+04
 -1      2005-6.16905E+09 1.47676E+04-2.34423E+09 5.28331E+06-4.45467E+07 5.54027E+04
 -1      2006-6.31865E+09-4.60818E+04-2.40110E+09 5.40553E+06-4.41163E+07 5.53056E+04
 -1      2007-6.46935E+09-5.03208E+05-2.45855E+09 5.36517E+06-4.36867E+07 5.52061E+04
 -1      2008-6.62132E+09 1.57197E+05-2.51604E+09 5.45835E+06-4.32578E+07 5.51042E+04
 -1      2009-6.77512E+09 3.50424E+05-2.57441E+09 5.52642E+06-4.28298E+07 5.49999E+04
 -1      2010-6.92991E+09-4.44534E+05-2.63354E+09 5.56803E+06-4.24025E+07 5.48932E+04
 -1      2011-7.08612E+09-6.39402E+05-2.69297E+09 5.60101E+06-4.19761E+07 5.47839E+04
 -1      2012-7.24374E+09 5.75352E+05-2.75241E+09 5.62682E+06-4.15506E+07 5.46721E+04
 -1      2013-7.40275E+09-5.12339E+05-2.81324E+09 5.72198E+06-4.11259E+07 5.45580E+04
 -1      2014-7.56304E+09 6.57539E+05-2.87371E+09 5.73691E+06-4.07021E+07 5.44416E+04
 -1      2015-7.72431E+09-6.88364E+05-2.93550E+09 5.81913E+06-4.02792E+07 5.43228E+04
 -1      2016-7.88731E+09-5.39708E+05-2.99739E+09 5.83840E+06-3.98572E+07 5.42019E+04
 -1      2017-8.05151E+09 6.32656E+05-3.05933E+09 5.85026E+06-3.94362E+07 5.40787E+04
 -1      2018-8.21664E+09-6.90504E+05-3.12259E+09 5.93842E+06-3.90161E+07 5.39533E+04
 -1      2019-8.38331E+09 1.33780E+06-3.18515E+09 5.97309E+06-3.85970E+07 5.38256E+04
 -1      2020-8.55118E+09-1.19482E+06-3.24990E+09 6.11067E+06-3.81790E+07 5.36958E+04
 -1      2021-8.72025E+09-1.14194E+06-3.31413E+09 5.98579E+06-3.77619E+07 5.35637E+04
 -1      2022-8.89042E+09 1.39318E+06-3.37783E+09 6.08353E+06-3.73458E+07 5.34296E+04
 -1      2023-9.06180E+09-8.18334E+05-3.44379E+09 6.14392E+06-3.69309E+07 5.32936E+04
 -1      2024-9.23464E+09 7.98875E+05-3.50886E+09 6.20858E+06-3.65169E+07 5.31554E+04
 -1      2025-9.40832E+09-5.69283E+05-3.57538E+09 6.24464E+06-3.61041E+07 5.30151E+04
 -1      2026-9.58302E+09-8.64916E+05-3.64187E+09 6.24784E+06-3.56923E+07 5.28724E+04
 -1      2027-9.75943E+09 7.88505E+05-3.70828E+09 6.31015E+06-3.52817E+07 5.27274E+04
 -1      2028-9.93657E+09-2.58153E+05-3.77599E+09 6.33060E+06-3.48722E+07 5.25799E+04
 -1      2029-1.01147E+10-3.29255E+05-3.84371E+09 6.40112E+06-3.44639E+07 5.24296E+04
 -1      2030-1.02942E+10 7.59383E+05-3.91152E+09 6.42102E+06-3.40567E+07 5.22764E+04
 -1      2031-1.04747E+10-6.23502E+05-3.98062E+09 6.52772E+06-3.36508E+07 5.21204E+04
 -1      2032-1.06563E+10-1.05381E+06-4.04981E+09 6.46130E+06-3.32461E+07 5.19615E+04
 -1      2033-1.08389E+10 1.75097E+06-4.11810E+09 6.52621E+06-3.28426E+07 5.17998E+04
 -1      2034-1.10225E+10-1.33488E+06-4.18905E+09 6.63676E+06-3.24404E+07 5.16354E+04
 -1      2035-1.12075E+10 2.66337E+05-4.25874E+09 6.59789E+06-3.20395E+07 5.14680E+04
 -1      2036-1.13930E+10 1.54127E+05-4.32929E+09 6.65997E+06-3.16399E+07 5.12976E+04
 -1      2037-1.15795E+10-1.23110E+06-4.40069E+09 6.66517E+06-3.12416E+07 5.11242E+04
 -1      2038-1.17677E+10 1.15596E+06-4.47128E+09 6.72637E+06-3.08447E+07 5.09477E+04
 -1      2039-1.19563E+10-7.33878E+05-4.54367E+09 6.72912E+06-3.04492E+07 5.07683E+04
 -1      2040-1.21459E+10 1.03359E+06-4.61506E+09 6.82807E+06-3.00551E+07 5.05860E+04
 -1      2041-1.23364E+10-9.21521E+05-4.68818E+09 6.84037E+06-2.96624E+07 5.04010E+04
 -1      2042-1.25283E+10-8.43222E+05-4.76106E+09 6.87671E+06-2.92711E+07 5.02131E+04
 -1      2043-1.27208E+10 1.17548E+06-4.83347E+09 6.82439E+06-2.88813E+07 5.00225E+04
 -1      2044-1.29140E+10-9.68770E+05-4.90768E+09 6.94997E+06-2.84931E+07 4.98290E+04
 -1      2045-1.31082E+10 1.61965E+06-4.98050E+09 6.98850E+06-2.81063E+07 4.96333E+04
 -1      2046-1.33043E+10-1.59431E+06-5.05626E+09 7.02852E+06-2.77211E+07 4.94353E+04
 -1      2047-1.34996E+10 2.76927E+05-5.12976E+09 6.99290E+06-2.73374E+07 4.92336E+04
 -1      2048-1.36970E+10 1.16858E+05-5.20482E+09 7.10345E+06-2.69553E+07 4.90282E+04
 -1      2049-1.38949E+10-1.12686E+06-5.28049E+09 7.04076E+06-2.65748E+07 4.88197E+04
 -1      2050-1.40936E+10 7.65370E+05-5.35526E+09 7.08062E+06-2.61960E+07 4.86083E+04
 -1      2051-1.42931E+10 7.84908E+05-5.43110E+09 7.15896E+06-2.58188E+07 4.83938E+04
 -1      2052-1.44932E+10-8.83747E+05-5.50776E+09 7.21620E+06-2.54433E+07 4.81762E+04
 -1      2053-1.46948E+10-1.12907E+06-5.58444E+09 7.19204E+06-2.50695E+07 4.79556E+04
 -1      2054-1.48968E+10 1.56233E+06-5.66020E+09 7.17220E+06-2.46974E+07 4.77318E+04
 -1      2055-1.50992E+10-1.20510E+06-5.73814E+09 7.25772E+06-2.43270E+07 4.75049E+04
 -1      2056-1.53032E+10 1.55852E+06-5.81462E+09 7.32961E+06-2.39585E+07 4.72750E+04
 -1      2057-1.55074E+10-1.07575E+06-5.89320E+09 7.32214E+06-2.35917E+07 4.70421E+04
 -1      2058-1.57122E+10-1.09640E+06-5.97106E+09 7.33776E+06-2.32268E+07 4.68064E+04
 -1      2059-1.59182E+10 1.13678E+06-6.04847E+09 7.29171E+06-2.28637E+07 4.65679E+04
 -1      2060-1.61248E+10 2.22596E+05-6.12734E+09 7.44426E+06-2.25024E+07 4.63266E+04
 -1      2061-1.63322E+10 6.77841E+05-6.20599E+09 7.46810E+06-2.21431E+07 4.60825E+04
 -1      2062-1.65397E+10-2.34249E+06-6.28598E+09 7.44726E+06-2.17856E+07 4.58354E+04
 -1      2063-1.67486E+10 3.49548E+05-6.36434E+09 7.42748E+06-2.14301E+07 4.55851E+04
 -1      2064-1.69583E+10 8.17406E+05-6.44383E+09 7.43783E+06-2.10766E+07 4.53317E+04
 -1      2065-1.71678E+10-2.17630E+05-6.52385E+09 7.51905E+06-2.07250E+07 4.50753E+04
 -1      2066-1.73785E+10-3.94813E+05-6.60400E+09 7.53108E+06-2.03754E+07 4.48158E+04
 -1      2067-1.75903E+10 1.34947E+06-6.68379E+09 7.59170E+06-2.00279E+07 4.45531E+04
 -1      2068-1.78019E+10-1.01739E+06-6.76513E+09 7.61985E+06-1.96824E+07 4.42871E+04
 -1      2069-1.80144E+10-1.37174E+06-6.84601E+09 7.58369E+06-1.93391E+07 4.40179E+04
 -1      2070-1.82277E+10 1.63315E+06-6.92590E+09 7.56231E+06-1.89978E+07 4.37452E+04
 -1      2071-1.84417E+10-1.02645E+06-7.00825E+09 7.69311E+06-1.86586E+07 4.34692E+04
 -1      2072-1.86562E+10 1.87402E+06-7.08866E+09 7.64658E+06-1.83216E+07 4.31900E+04
 -1      2073-1.88707E+10-1.90338E+06-7.17157E+09 7.75048E+06-1.79868E+07 4.29076E+04
 -1      2074-1.90866E+10 4.36508E+05-7.25274E+09 7.70835E+06-1.76542E+07 4.26220E+04
 -1      2075-1.93030E+10 4.09004E+05-7.33499E+09 7.74824E+06-1.73239E+07 4.23332E+04
 -1      2076-1.95193E+10-2.18112E+06-7.41816E+09 7.70591E+06-1.69958E+07 4.20413E+04
 -1      2077-1.97366E+10 3.22524E+06-7.49867E+09 7.72063E+06-1.66699E+07 4.17461E+04
 -1      2078-1.99545E+10-1.79148E+06-7.58337E+09 7.91446E+06-1.63464E+07 4.14478E+04
 -1      2079-2.01728E+10-1.03039E+06-7.66606E+09 7.72419E+06-1.60252E+07 4.11461E+04
 -1      2080-2.03913E+10 1.53438E+06-7.74809E+09 7.76967E+06-1.57064E+07 4.08412E+04
 -1      2081-2.06109E+10-1.01139E+06-7.83252E+09 7.90178E+06-1.53900E+07 4.05330E+04
 -1      2082-2.08309E+10 1.82783E+06-7.91504E+09 7.80987E+06-1.50760E+07 4.02215E+04
 -1      2083-2.10506E+10-1.28435E+06-7.99971E+09 7.98348E+06-1.47644E+07 3.99068E+04
 -1      2084-2.12713E+10-1.48977E+06-8.08367E+09 7.82434E+06-1.44552E+07 3.95887E+04
 -1      2085-2.14931E+10 1.62738E+06-8.16676E+09 7.90520E+06-1.41486E+07 3.92673E+04
 -1      2086-2.17145E+10-7.13776E+04-8.25154E+09 7.87864E+06-1.38445E+07 3.89425E+04
 -1      2087-2.19364E+10-1.14665E+06-8.33626E+09 7.98264E+06-1.35429E+07 3.86145E+04
 -1      2088-2.21590E+10 3.53671E+06-8.41906E+09 7.90585E+06-1.32438E+07 3.82831E+04
 -1      2089-2.23821E+10-2.71819E+06-8.50623E+09 8.25266E+06-1.29474E+07 3.79486E+04
 -1      2090-2.26055E+10-2.75053E+06-8.59115E+09 7.78729E+06-1.26536E+07 3.76107E+04
 -1      2091-2.28288E+10 3.52254E+06-8.67360E+09 7.91989E+06-1.23624E+07 3.72694E+04
 -1      2092-2.30535E+10-1.61091E+06-8.76093E+09 8.07712E+06-1.20739E+07 3.69247E+04
 -1      2093-2.32781E+10 2.28683E+06-8.84481E+09 7.97485E+06-1.17881E+07 3.65766E+04
 -1      2094-2.35025E+10-1.58352E+06-8.93155E+09 8.16600E+06-1.15050E+07 3.62250E+04
 -1      2095-2.37277E+10-1.64789E+06-9.01717E+09 7.97111E+06-1.12246E+07 3.58698E+04
 -1      2096-2.39540E+10 2.12734E+06-9.10172E+09 8.06341E+06-1.09471E+07 3.55112E+04
 -1      2097-2.41798E+10-1.09604E+06-9.18873E+09 8.03397E+06-1.06723E+07 3.51493E+04
 -1      2098-2.44058E+10 1.94365E+06-9.27346E+09 8.10611E+06-1.04004E+07 3.47839E+04
 -1      2099-2.46327E+10-1.50097E+06-9.36099E+09 8.23433E+06-1.01313E+07 3.44151E+04
 -1      2100-2.48598E+10-1.48971E+06-9.44730E+09 8.01775E+06-9.86509E+06 3.40429E+04
 -1      2101-2.50869E+10 1.70862E+06-9.53237E+09 8.08288E+06-9.60179E+06 3.36673E+04
 -1      2102-2.53143E+10 4.62256E+05-9.61926E+09 8.11480E+06-9.34143E+06 3.32883E+04
 -1      2103-2.55428E+10 9.92457E+05-9.70589E+09 8.34619E+06-9.08404E+06 3.29058E+04
 -1      2104-2.57708E+10-3.39976E+06-9.79421E+09 8.10647E+06-8.82962E+06 3.25200E+04
 -1      2105-2.59988E+10 4.83215E+05-9.87935E+09 8.08563E+06-8.57823E+06 3.21307E+04
 -1      2106-2.62279E+10 1.44690E+06-9.96605E+09 8.11443E+06-8.32988E+06 3.17381E+04
 -1      2107-2.64571E+10-4.75713E+05-1.00539E+10 8.23313E+06-8.08459E+06 3.13421E+04
 -1      2108-2.66863E+10-2.09474E+05-1.01409E+10 8.15235E+06-7.84240E+06 3.09427E+04
 -1      2109-2.69155E+10 1.73129E+06-1.02272E+10 8.19431E+06-7.60332E+06 3.05399E+04
 -1      2110-2.71455E+10-1.34830E+06-1.03158E+10 8.38311E+06-7.36740E+06 3.01337E+04
 -1      2111-2.73757E+10-1.94369E+06-1.04035E+10 8.09137E+06-7.13464E+06 2.97239E+04
 -1      2112-2.76057E+10 2.58614E+06-1.04892E+10 8.20344E+06-6.90509E+06 2.93106E+04
 -1      2113-2.78359E+10-1.67926E+06-1.05783E+10 8.20705E+06-6.67877E+06 2.88938E+04
 -1      2114-2.80672E+10 2.65093E+06-1.06645E+10 8.31630E+06-6.45570E+06 2.84734E+04
 -1      2115-2.82978E+10-1.97997E+06-1.07539E+10 8.28682E+06-6.23592E+06 2.80496E+04
 -1      2116-2.85281E+10-2.84223E+05-1.08408E+10 8.20733E+06-6.01944E+06 2.76221E+04
 -1      2117-2.87605E+10 1.29711E+06-1.09285E+10 8.39774E+06-5.80631E+06 2.71912E+04
 -1      2118-2.89917E+10-3.40885E+06-1.10182E+10 8.11699E+06-5.59654E+06 2.67567E+04
 -1      2119-2.92230E+10 4.87754E+06-1.11029E+10 8.26470E+06-5.39016E+06 2.63186E+04
 -1      2120-2.94546E+10-2.51072E+06-1.11937E+10 8.37578E+06-5.18720E+06 2.58769E+04
 -1      2121-2.96870E+10-1.85723E+06-1.12818E+10 8.29667E+06-4.98769E+06 2.54317E+04
 -1      2122-2.99193E+10 2.82160E+06-1.13683E+10 8.13995E+06-4.79166E+06 2.49828E+04
 -1      2123-3.01511E+10-1.76999E+06-1.14581E+10 8.36458E+06-4.59913E+06 2.45305E+04
 -1      2124-3.03836E+10 2.93619E+06-1.15446E+10 8.25601E+06-4.41013E+06 2.40746E+04
 -1      2125-3.06165E+10-2.26946E+06-1.16351E+10 8.51405E+06-4.22469E+06 2.36152E+04
 -1      2126-3.08490E+10-1.50204E+06-1.17232E+10 8.16749E+06-4.04284E+06 2.31524E+04
 -1      2127-3.10815E+10 2.00314E+06-1.18102E+10 8.25775E+06-3.86460E+06 2.26860E+04
 -1      2128-3.13149E+10-1.22035E+05-1.18997E+10 8.38663E+06-3.68999E+06 2.22162E+04
 -1      2129-3.15480E+10-1.24471E+06-1.19887E+10 8.27064E+06-3.51906E+06 2.17429E+04
 -1      2130-3.17809E+10 4.80544E+06-1.20749E+10 8.34300E+06-3.35181E+06 2.12661E+04
 -1      2131-3.20138E+10-3.74347E+06-1.21667E+10 8.61274E+06-3.18829E+06 2.07859E+04
 -1      2132-3.22480E+10-4.07666E+06-1.22558E+10 8.22725E+06-3.02852E+06 2.03022E+04
 -1      2133-3.24814E+10 5.51977E+06-1.23408E+10 8.12314E+06-2.87252E+06 1.98150E+04
 -1      2134-3.27142E+10-2.74297E+06-1.24324E+10 8.38922E+06-2.72032E+06 1.93243E+04
 -1      2135-3.29488E+10 3.57068E+06-1.25192E+10 8.40752E+06-2.57195E+06 1.88302E+04
 -1      2136-3.31823E+10-2.44215E+06-1.26102E+10 8.40601E+06-2.42744E+06 1.83326E+04
 -1      2137-3.34155E+10-2.01772E+06-1.26987E+10 8.33345E+06-2.28681E+06 1.78315E+04
 -1      2138-3.36499E+10 2.90263E+06-1.27859E+10 8.22691E+06-2.15010E+06 1.73269E+04
 -1      2139-3.38839E+10-1.70624E+06-1.28765E+10 8.43729E+06-2.01732E+06 1.68188E+04
 -1      2140-3.41183E+10 3.07100E+06-1.29638E+10 8.31075E+06-1.88850E+06 1.63072E+04
 -1      2141-3.43515E+10-1.93139E+06-1.30543E+10 8.50426E+06-1.76368E+06 1.57921E+04
 -1      2142-3.45857E+10-3.17975E+06-1.31438E+10 8.30723E+06-1.64288E+06 1.52735E+04
 -1      2143-3.48206E+10 5.83631E+06-1.32296E+10 8.26889E+06-1.52612E+06 1.47513E+04
 -1      2144-3.50548E+10-3.59897E+06-1.33222E+10 8.57996E+06-1.41344E+06 1.42256E+04
 -1      2145-3.52885E+10 5.53581E+05-1.34094E+10 8.18392E+06-1.30486E+06 1.36964E+04
 -1      2146-3.55232E+10 9.04779E+05-1.34985E+10 8.56120E+06-1.20041E+06 1.31636E+04
 -1      2147-3.57576E+10-3.14694E+06-1.35891E+10 8.21242E+06-1.10012E+06 1.26274E+04
 -1      2148-3.59919E+10 2.96558E+06-1.36758E+10 8.35510E+06-1.00401E+06 1.20876E+04
 -1      2149-3.62259E+10-6.37303E+05-1.37661E+10 8.29841E+06-9.12118E+05 1.15443E+04
 -1      2150-3.64612E+10-7.48741E+05-1.38555E+10 8.51676E+06-8.24461E+05 1.09974E+04
 -1      2151-3.66956E+10 3.19092E+06-1.39431E+10 8.20596E+06-7.41070E+05 1.04471E+04
 -1      2152-3.69297E+10-2.37785E+06-1.40342E+10 8.68197E+06-6.61974E+05 9.89316E+03
 -1      2153-3.71635E+10-2.51786E+06-1.41231E+10 8.13555E+06-5.87200E+05 9.33574E+03
 -1      2154-3.74000E+10 3.25824E+06-1.42108E+10 8.51243E+06-5.16774E+05 8.77476E+03
 -1      2155-3.76329E+10-1.15980E+06-1.43010E+10 8.11689E+06-4.50725E+05 8.21025E+03
 -1      2156-3.78686E+10 1.68749E+06-1.43894E+10 8.66881E+06-3.89080E+05 7.64221E+03
 -1      2157-3.81014E+10 1.30551E+06-1.44781E+10 8.20533E+06-3.31866E+05 7.07065E+03
 -1      2158-3.83391E+10-5.40754E+06-1.45709E+10 8.92960E+06-2.79111E+05 6.49556E+03
 -1      2159-3.85699E+10 1.98706E+06-1.46558E+10 7.56771E+06-2.30842E+05 5.91692E+03
 -1      2160-3.88087E+10-2.28943E+05-1.47474E+10 9.06270E+06-1.87087E+05 5.33474E+03
 -1      2161-3.90383E+10 3.78486E+06-1.48331E+10 7.48769E+06-1.47874E+05 4.74903E+03
 -1      2162-3.92803E+10-1.94835E+06-1.49272E+10 9.71746E+06-1.13229E+05 4.15979E+03
 -1      2163-3.95045E+10-8.25572E+06-1.50148E+10 6.78517E+06-8.31812E+04 3.56702E+03
 -1      2164-3.97506E+10 2.88891E+07-1.50943E+10 9.93120E+06-5.77563E+04 2.97070E+03
 -1      2165-3.99797E+10-1.01099E+08-1.52307E+10 7.71183E+06-3.69836E+04 2.37085E+03
 -1      2166-4.01922E+10 3.75734E+08-1.51303E+10 3.94246E+06-2.08887E+04 1.76740E+03
 -1      2167-4.05566E+10-1.38259E+09-1.59369E+10 3.33702E+07-9.50125E+03 1.16069E+03
 -1      2168-4.02556E+10 5.07091E+09-1.33702E+10-9.37585E+07-2.84694E+03 5.49404E+02
 -1      2169-3.97573E+10-1.88978E+10-2.22889E+10 3.74095E+08-7.02898E+02 2.42161E+02
 -1      2170-3.97312E+05-1.99144E+05-2.26720E+05-1.85534E+04 7.81052E+07-5.77762E+04
 -1      2171-1.66671E+06-1.89064E+05-7.05339E+05 9.01008E+04 7.78805E+07-5.77760E+04
 -1      2172-5.39992E+06-1.98981E+05-2.12781E+06 1.76998E+05 7.74310E+07-5.77756E+04
 -1      2173-1.15968E+07-1.86175E+05-4.47771E+06 2.65944E+05 7.69816E+07-5.77750E+04
 -1      2174-2.02555E+07-1.90333E+05-7.76938E+06 3.52534E+05 7.65322E+07-5.77746E+04
 -1      2175-3.13478E+07-1.97205E+05-1.19868E+07 4.40002E+05 7.60827E+07-5.77747E+04
 -1      2176-4.48785E+07-1.82762E+05-1.71227E+07 5.26301E+05 7.56333E+07-5.77750E+04
 -1      2177-6.08058E+07-1.88725E+05-2.31772E+07 6.11386E+05 7.51839E+07-5.77757E+04
 -1      2178-7.91479E+07-1.96398E+05-3.01499E+07 6.98729E+05 7.47344E+07-5.77766E+04
 -1      2179-9.98642E+07-1.50565E+05-3.80046E+07 7.81618E+05 7.42850E+07-5.77774E+04
 -1      2180-1.22947E+08-2.45501E+05-4.68123E+07 8.69272E+05 7.38356E+07-5.77781E+04
 -1      2181-1.48403E+08-1.31879E+05-5.64424E+07 9.49141E+05 7.33861E+07-5.77781E+04
 -1      2182-1.76171E+08-2.07647E+05-6.70234E+07 1.03555E+06 7.29367E+07-5.77774E+04
 -1      2183-2.06279E+08-1.93494E+05-7.84590E+07 1.11512E+06 7.24873E+07-5.77760E+04
 -1      2184-2.38712E+08-6.85365E+04-9.07360E+07 1.20374E+06 7.20379E+07-5.77739E+04
 -1      2185-2.73410E+08-3.73214E+05-1.04037E+08 1.28151E+06 7.15885E+07-5.77713E+04
 -1      2186-3.10420E+08-3.92962E+04-1.17974E+08 1.35899E+06 7.11392E+07-5.77679E+04
 -1      2187-3.49704E+08-2.26914E+05-1.32973E+08 1.44732E+06 7.06898E+07-5.77643E+04
 -1      2188-3.91211E+08-1.73580E+05-1.48725E+08 1.51664E+06 7.02405E+07-5.77608E+04
 -1      2189-4.34995E+08-9.18787E+04-1.65332E+08 1.61275E+06 6.97913E+07-5.77571E+04
 -1      2190-4.80968E+08-3.25523E+05-1.82890E+08 1.67573E+06 6.93420E+07-5.77534E+04
 -1      2191-5.29178E+08-7.22017E+04-2.01113E+08 1.76561E+06 6.88929E+07-5.77491E+04
 -1      2192-5.79602E+08-2.07998E+05-2.20326E+08 1.83592E+06 6.84437E+07-5.77445E+04
 -1      2193-6.32151E+08-1.19190E+05-2.40261E+08 1.91826E+06 6.79946E+07-5.77394E+04
 -1      2194-6.86925E+08-2.07891E+05-2.61109E+08 1.99938E+06 6.75455E+07-5.77339E+04
 -1      2195-7.43820E+08-2.09409E+05-2.82730E+08 2.06686E+06 6.70965E+07-5.77273E+04
 -1      2196-8.02872E+08-1.32383E+05-3.05140E+08 2.14999E+06 6.66476E+07-5.77192E+04
 -1      2197-8.64054E+08-1.07290E+05-3.28380E+08 2.22211E+06 6.61987E+07-5.77094E+04
 -1      2198-9.27311E+08-2.16059E+05-3.52460E+08 2.30393E+06 6.57500E+07-5.76978E+04
 -1      2199-9.92690E+08-2.30158E+05-3.77310E+08 2.36930E+06 6.53013E+07-5.76844E+04
 -1      2200-1.06018E+09-7.24916E+04-4.02896E+08 2.44892E+06 6.48527E+07-5.76692E+04
 -1      2201-1.12970E+09-2.11705E+05-4.29367E+08 2.51782E+06 6.44043E+07-5.76526E+04
 -1      2202-1.20127E+09-5.11111E+04-4.56503E+08 2.59646E+06 6.39560E+07-5.76343E+04
 -1      2203-1.27491E+09-2.58630E+05-4.84564E+08 2.67248E+06 6.35078E+07-5.76144E+04
 -1      2204-1.35056E+09-1.38214E+05-5.13267E+08 2.73414E+06 6.30598E+07-5.75933E+04
 -1      2205-1.42822E+09-1.10604E+05-5.42767E+08 2.81685E+06 6.26120E+07-5.75714E+04
 -1      2206-1.50788E+09-3.37129E+05-5.73123E+08 2.87442E+06 6.21644E+07-5.75485E+04
 -1      2207-1.58955E+09 1.20151E+05-6.03983E+08 2.95461E+06 6.17169E+07-5.75246E+04
 -1      2208-1.67316E+09-2.89887E+05-6.35910E+08 3.02658E+06 6.12696E+07-5.74997E+04
 -1      2209-1.75870E+09-2.60554E+05-6.68405E+08 3.08794E+06 6.08225E+07-5.74736E+04
 -1      2210-1.84622E+09-7.41347E+03-7.01567E+08 3.15665E+06 6.03756E+07-5.74461E+04
 -1      2211-1.93568E+09-1.81086E+05-7.35626E+08 3.23323E+06 5.99289E+07-5.74172E+04
 -1      2212-2.02701E+09-1.77643E+05-7.70334E+08 3.29388E+06 5.94825E+07-5.73866E+04
 -1      2213-2.12023E+09 7.61472E+03-8.05685E+08 3.36587E+06 5.90363E+07-5.73539E+04
 -1      2214-2.21537E+09-2.57896E+05-8.41941E+08 3.44561E+06 5.85904E+07-5.73190E+04
 -1      2215-2.31238E+09-3.06353E+05-8.78821E+08 3.48697E+06 5.81447E+07-5.72821E+04
 -1      2216-2.41121E+09 8.83284E+04-9.16228E+08 3.56489E+06 5.76993E+07-5.72431E+04
 -1      2217-2.51188E+09-3.38566E+05-9.54643E+08 3.62464E+06 5.72543E+07-5.72022E+04
 -1      2218-2.61445E+09 3.11040E+05-9.93375E+08 3.70607E+06 5.68095E+07-5.71594E+04
 -1      2219-2.71876E+09-4.43138E+05-1.03330E+09 3.77667E+06 5.63651E+07-5.71147E+04
 -1      2220-2.82483E+09-5.28757E+05-1.07364E+09 3.80785E+06 5.59210E+07-5.70680E+04
 -1      2221-2.93281E+09 3.53298E+05-1.11434E+09 3.88265E+06 5.54773E+07-5.70191E+04
 -1      2222-3.04249E+09-3.54704E+05-1.15628E+09 3.94578E+06 5.50340E+07-5.69687E+04
 -1      2223-3.15389E+09 1.89996E+05-1.19841E+09 4.01683E+06 5.45910E+07-5.69167E+04
 -1      2224-3.26705E+09-3.81463E+05-1.24163E+09 4.08398E+06 5.41485E+07-5.68633E+04
 -1      2225-3.38199E+09-3.08484E+05-1.28528E+09 4.13188E+06 5.37064E+07-5.68084E+04
 -1      2226-3.49865E+09 1.20287E+05-1.32944E+09 4.18617E+06 5.32647E+07-5.67516E+04
 -1      2227-3.61690E+09-1.75252E+05-1.37449E+09 4.25881E+06 5.28234E+07-5.66933E+04
 -1      2228-3.73688E+09-2.00497E+05-1.42009E+09 4.31397E+06 5.23826E+07-5.66332E+04
 -1      2229-3.85867E+09 1.54760E+05-1.46624E+09 4.38657E+06 5.19422E+07-5.65713E+04
 -1      2230-3.98193E+09-2.83259E+05-1.51324E+09 4.44290E+06 5.15023E+07-5.65075E+04
 -1      2231-4.10684E+09-5.56147E+05-1.56081E+09 4.48238E+06 5.10630E+07-5.64415E+04
 -1      2232-4.23354E+09 6.34550E+05-1.60851E+09 4.55366E+06 5.06241E+07-5.63737E+04
 -1      2233-4.36176E+09-6.33910E+05-1.65771E+09 4.62383E+06 5.01857E+07-5.63042E+04
 -1      2234-4.49155E+09 5.04104E+04-1.70677E+09 4.65707E+06 4.97479E+07-5.62331E+04
 -1      2235-4.62288E+09-1.07701E+05-1.75674E+09 4.72731E+06 4.93107E+07-5.61603E+04
 -1      2236-4.75596E+09-5.24405E+05-1.80746E+09 4.78096E+06 4.88740E+07-5.60859E+04
 -1      2237-4.89053E+09 4.06381E+05-1.85825E+09 4.81281E+06 4.84379E+07-5.60099E+04
 -1      2238-5.02646E+09-5.03192E+05-1.91025E+09 4.89009E+06 4.80023E+07-5.59324E+04
 -1      2239-5.16424E+09 4.53430E+05-1.96224E+09 4.95652E+06 4.75674E+07-5.58537E+04
 -1      2240-5.30332E+09-4.77965E+05-2.01544E+09 5.00417E+06 4.71331E+07-5.57738E+04
 -1      2241-5.44388E+09-4.84544E+05-2.06886E+09 5.04482E+06 4.66994E+07-5.56927E+04
 -1      2242-5.58605E+09 3.88853E+05-2.12255E+09 5.08506E+06 4.62664E+07-5.56102E+04
 -1      2243-5.72970E+09-4.44844E+05-2.17746E+09 5.16974E+06 4.58340E+07-5.55264E+04
 -1      2244-5.87478E+09 5.16352E+05-2.23222E+09 5.19779E+06 4.54023E+07-5.54411E+04
 -1      2245-6.02120E+09-6.74903E+05-2.28831E+09 5.29142E+06 4.49712E+07-5.53542E+04
 -1      2246-6.16906E+09 1.21084E+04-2.34424E+09 5.28305E+06 4.45408E+07-5.52655E+04
 -1      2247-6.31866E+09-4.89331E+04-2.40111E+09 5.40538E+06 4.41112E+07-5.51747E+04
 -1      2248-6.46937E+09-5.06139E+05-2.45855E+09 5.36510E+06 4.36822E+07-5.50818E+04
 -1      2249-6.62133E+09 1.54256E+05-2.51605E+09 5.45826E+06 4.32540E+07-5.49867E+04
 -1      2250-6.77513E+09 3.47244E+05-2.57442E+09 5.52625E+06 4.28265E+07-5.48894E+04
 -1      2251-6.92992E+09-4.47755E+05-2.63354E+09 5.56783E+06 4.23998E+07-5.47900E+04
 -1      2252-7.08613E+09-6.42717E+05-2.69297E+09 5.60088E+06 4.19740E+07-5.46884E+04
 -1      2253-7.24376E+09 5.71952E+05-2.75241E+09 5.62685E+06 4.15489E+07-5.45845E+04
 -1      2254-7.40276E+09-5.15720E+05-2.81324E+09 5.72203E+06 4.11246E+07-5.44783E+04
 -1      2255-7.56305E+09 6.54228E+05-2.87371E+09 5.73689E+06 4.07012E+07-5.43696E+04
 -1      2256-7.72432E+09-6.91446E+05-2.93550E+09 5.81942E+06 4.02786E+07-5.42584E+04
 -1      2257-7.88732E+09-5.42673E+05-2.99739E+09 5.83876E+06 3.98569E+07-5.41445E+04
 -1      2258-8.05152E+09 6.29995E+05-3.05934E+09 5.85038E+06 3.94362E+07-5.40277E+04
 -1      2259-8.21665E+09-6.93001E+05-3.12259E+09 5.93855E+06 3.90163E+07-5.39083E+04
 -1      2260-8.38332E+09 1.33544E+06-3.18515E+09 5.97334E+06 3.85974E+07-5.37863E+04
 -1      2261-8.55119E+09-1.19676E+06-3.24991E+09 6.11111E+06 3.81795E+07-5.36615E+04
 -1      2262-8.72026E+09-1.14355E+06-3.31413E+09 5.98633E+06 3.77625E+07-5.35337E+04
 -1      2263-8.89043E+09 1.39211E+06-3.37783E+09 6.08406E+06 3.73466E+07-5.34027E+04
 -1      2264-9.06180E+09-8.18983E+05-3.44379E+09 6.14439E+06 3.69317E+07-5.32687E+04
 -1      2265-9.23465E+09 7.98599E+05-3.50886E+09 6.20897E+06 3.65178E+07-5.31316E+04
 -1      2266-9.40831E+09-5.69183E+05-3.57538E+09 6.24496E+06 3.61051E+07-5.29915E+04
 -1      2267-9.58302E+09-8.64578E+05-3.64187E+09 6.24814E+06 3.56934E+07-5.28484E+04
 -1      2268-9.75943E+09 7.89022E+05-3.70828E+09 6.31028E+06 3.52828E+07-5.27023E+04
 -1      2269-9.93657E+09-2.57663E+05-3.77599E+09 6.33050E+06 3.48734E+07-5.25535E+04
 -1      2270-1.01147E+10-3.28830E+05-3.84371E+09 6.40093E+06 3.44652E+07-5.24021E+04
 -1      2271-1.02942E+10 7.59632E+05-3.91152E+09 6.42080E+06 3.40581E+07-5.22482E+04
 -1      2272-1.04747E+10-6.23373E+05-3.98062E+09 6.52765E+06 3.36523E+07-5.20919E+04
 -1      2273-1.06563E+10-1.05370E+06-4.04981E+09 6.46134E+06 3.32477E+07-5.19328E+04
 -1      2274-1.08389E+10 1.75101E+06-4.11810E+09 6.52611E+06 3.28443E+07-5.17710E+04
 -1      2275-1.10225E+10-1.33495E+06-4.18905E+09 6.63659E+06 3.24422E+07-5.16066E+04
 -1      2276-1.12075E+10 2.66092E+05-4.25874E+09 6.59770E+06 3.20414E+07-5.14396E+04
 -1      2277-1.13930E+10 1.53722E+05-4.32929E+09 6.65979E+06 3.16419E+07-5.12699E+04
 -1      2278-1.15795E+10-1.23166E+06-4.40069E+09 6.66495E+06 3.12437E+07-5.10977E+04
 -1      2279-1.17677E+10 1.15526E+06-4.47128E+09 6.72617E+06 3.08469E+07-5.09228E+04
 -1      2280-1.19563E+10-7.34709E+05-4.54367E+09 6.72914E+06 3.04515E+07-5.07453E+04
 -1      2281-1.21459E+10 1.03283E+06-4.61506E+09 6.82810E+06 3.00574E+07-5.05649E+04
 -1      2282-1.23364E+10-9.22236E+05-4.68818E+09 6.84050E+06 2.96648E+07-5.03817E+04
 -1      2283-1.25283E+10-8.43872E+05-4.76106E+09 6.87687E+06 2.92736E+07-5.01955E+04
 -1      2284-1.27208E+10 1.17497E+06-4.83347E+09 6.82442E+06 2.88839E+07-5.00062E+04
 -1      2285-1.29140E+10-9.69243E+05-4.90768E+09 6.94999E+06 2.84956E+07-4.98139E+04
 -1      2286-1.31082E+10 1.61913E+06-4.98050E+09 6.98848E+06 2.81089E+07-4.96194E+04
 -1      2287-1.33043E+10-1.59487E+06-5.05626E+09 7.02840E+06 2.77236E+07-4.94226E+04
 -1      2288-1.34997E+10 2.76279E+05-5.12976E+09 6.99278E+06 2.73400E+07-4.92223E+04
 -1      2289-1.36970E+10 1.16182E+05-5.20482E+09 7.10345E+06 2.69579E+07-4.90185E+04
 -1      2290-1.38949E+10-1.12757E+06-5.28049E+09 7.04076E+06 2.65774E+07-4.88118E+04
 -1      2291-1.40936E+10 7.64607E+05-5.35526E+09 7.08054E+06 2.61986E+07-4.86020E+04
 -1      2292-1.42932E+10 7.84076E+05-5.43110E+09 7.15886E+06 2.58213E+07-4.83894E+04
 -1      2293-1.44932E+10-8.84646E+05-5.50776E+09 7.21611E+06 2.54458E+07-4.81739E+04
 -1      2294-1.46948E+10-1.13003E+06-5.58444E+09 7.19202E+06 2.50719E+07-4.79554E+04
 -1      2295-1.48968E+10 1.56133E+06-5.66020E+09 7.17214E+06 2.46998E+07-4.77339E+04
 -1      2296-1.50992E+10-1.20609E+06-5.73814E+09 7.25764E+06 2.43294E+07-4.75094E+04
 -1      2297-1.53032E+10 1.55757E+06-5.81463E+09 7.32970E+06 2.39607E+07-4.72819E+04
 -1      2298-1.55074E+10-1.07655E+06-5.89321E+09 7.32238E+06 2.35938E+07-4.70513E+04
 -1      2299-1.57122E+10-1.09692E+06-5.97106E+09 7.33813E+06 2.32288E+07-4.68173E+04
 -1      2300-1.59182E+10 1.13653E+06-6.04847E+09 7.29208E+06 2.28656E+07-4.65798E+04
 -1      2301-1.61248E+10 2.22562E+05-6.12734E+09 7.44443E+06 2.25042E+07-4.63389E+04
 -1      2302-1.63322E+10 6.77958E+05-6.20599E+09 7.46817E+06 2.21447E+07-4.60948E+04
 -1      2303-1.65397E+10-2.34234E+06-6.28598E+09 7.44734E+06 2.17872E+07-4.58474E+04
 -1      2304-1.67486E+10 3.49787E+05-6.36433E+09 7.42754E+06 2.14315E+07-4.55967E+04
 -1      2305-1.69583E+10 8.17672E+05-6.44383E+09 7.43788E+06 2.10779E+07-4.53429E+04
 -1      2306-1.71678E+10-2.17274E+05-6.52385E+09 7.51911E+06 2.07262E+07-4.50858E+04
 -1      2307-1.73785E+10-3.94498E+05-6.60400E+09 7.53109E+06 2.03765E+07-4.48256E+04
 -1      2308-1.75903E+10 1.34977E+06-6.68379E+09 7.59165E+06 2.00289E+07-4.45621E+04
 -1      2309-1.78019E+10-1.01717E+06-6.76513E+09 7.61972E+06 1.96833E+07-4.42956E+04
 -1      2310-1.80144E+10-1.37164E+06-6.84601E+09 7.58351E+06 1.93398E+07-4.40260E+04
 -1      2311-1.82277E+10 1.63314E+06-6.92590E+09 7.56219E+06 1.89984E+07-4.37533E+04
 -1      2312-1.84417E+10-1.02653E+06-7.00825E+09 7.69308E+06 1.86592E+07-4.34776E+04
 -1      2313-1.86562E+10 1.87395E+06-7.08866E+09 7.64663E+06 1.83221E+07-4.31986E+04
 -1      2314-1.88707E+10-1.90338E+06-7.17157E+09 7.75058E+06 1.79872E+07-4.29164E+04
 -1      2315-1.90866E+10 4.36558E+05-7.25273E+09 7.70842E+06 1.76545E+07-4.26309E+04
 -1      2316-1.93030E+10 4.09129E+05-7.33499E+09 7.74831E+06 1.73240E+07-4.23421E+04
 -1      2317-1.95193E+10-2.18095E+06-7.41816E+09 7.70598E+06 1.69958E+07-4.20499E+04
 -1      2318-1.97366E+10 3.22546E+06-7.49867E+09 7.72066E+06 1.66699E+07-4.17543E+04
 -1      2319-1.99545E+10-1.79125E+06-7.58337E+09 7.91445E+06 1.63463E+07-4.14555E+04
 -1      2320-2.01728E+10-1.03017E+06-7.66605E+09 7.72419E+06 1.60250E+07-4.11534E+04
 -1      2321-2.03913E+10 1.53463E+06-7.74809E+09 7.76972E+06 1.57061E+07-4.08480E+04
 -1      2322-2.06109E+10-1.01111E+06-7.83252E+09 7.90183E+06 1.53896E+07-4.05393E+04
 -1      2323-2.08309E+10 1.82813E+06-7.91503E+09 7.80987E+06 1.50755E+07-4.02272E+04
 -1      2324-2.10506E+10-1.28399E+06-7.99971E+09 7.98350E+06 1.47638E+07-3.99118E+04
 -1      2325-2.12713E+10-1.48948E+06-8.08367E+09 7.82436E+06 1.44546E+07-3.95931E+04
 -1      2326-2.14931E+10 1.62769E+06-8.16676E+09 7.90516E+06 1.41479E+07-3.92710E+04
 -1      2327-2.17145E+10-7.10520E+04-8.25154E+09 7.87863E+06 1.38437E+07-3.89457E+04
 -1      2328-2.19364E+10-1.14632E+06-8.33626E+09 7.98273E+06 1.35421E+07-3.86170E+04
 -1      2329-2.21590E+10 3.53714E+06-8.41906E+09 7.90597E+06 1.32430E+07-3.82849E+04
 -1      2330-2.23821E+10-2.71770E+06-8.50623E+09 8.25272E+06 1.29465E+07-3.79493E+04
 -1      2331-2.26055E+10-2.75001E+06-8.59114E+09 7.78730E+06 1.26527E+07-3.76103E+04
 -1      2332-2.28288E+10 3.52302E+06-8.67360E+09 7.91985E+06 1.23615E+07-3.72679E+04
 -1      2333-2.30535E+10-1.61049E+06-8.76093E+09 8.07704E+06 1.20729E+07-3.69222E+04
 -1      2334-2.32781E+10 2.28717E+06-8.84481E+09 7.97474E+06 1.17871E+07-3.65733E+04
 -1      2335-2.35025E+10-1.58325E+06-8.93155E+09 8.16589E+06 1.15040E+07-3.62211E+04
 -1      2336-2.37277E+10-1.64770E+06-9.01717E+09 7.97106E+06 1.12236E+07-3.58656E+04
 -1      2337-2.39540E+10 2.12751E+06-9.10172E+09 8.06341E+06 1.09460E+07-3.55067E+04
 -1      2338-2.41798E+10-1.09590E+06-9.18873E+09 8.03400E+06 1.06713E+07-3.51444E+04
 -1      2339-2.44058E+10 1.94379E+06-9.27346E+09 8.10609E+06 1.03993E+07-3.47788E+04
 -1      2340-2.46327E+10-1.50081E+06-9.36099E+09 8.23432E+06 1.01302E+07-3.44097E+04
 -1      2341-2.48598E+10-1.48956E+06-9.44729E+09 8.01778E+06 9.86403E+06-3.40373E+04
 -1      2342-2.50869E+10 1.70877E+06-9.53237E+09 8.08288E+06 9.60074E+06-3.36614E+04
 -1      2343-2.53143E+10 4.62405E+05-9.61926E+09 8.11479E+06 9.34038E+06-3.32821E+04
 -1      2344-2.55428E+10 9.92634E+05-9.70589E+09 8.34623E+06 9.08298E+06-3.28993E+04
 -1      2345-2.57708E+10-3.39955E+06-9.79421E+09 8.10653E+06 8.82858E+06-3.25132E+04
 -1      2346-2.59988E+10 4.83486E+05-9.87935E+09 8.08570E+06 8.57719E+06-3.21235E+04
 -1      2347-2.62279E+10 1.44723E+06-9.96605E+09 8.11452E+06 8.32885E+06-3.17302E+04
 -1      2348-2.64571E+10-4.75343E+05-1.00539E+10 8.23320E+06 8.08358E+06-3.13335E+04
 -1      2349-2.66863E+10-2.09051E+05-1.01409E+10 8.15237E+06 7.84141E+06-3.09333E+04
 -1      2350-2.69155E+10 1.73173E+06-1.02272E+10 8.19430E+06 7.60236E+06-3.05296E+04
 -1      2351-2.71455E+10-1.34788E+06-1.03158E+10 8.38309E+06 7.36647E+06-3.01225E+04
 -1      2352-2.73757E+10-1.94332E+06-1.04035E+10 8.09131E+06 7.13375E+06-2.97119E+04
 -1      2353-2.76057E+10 2.58644E+06-1.04892E+10 8.20336E+06 6.90424E+06-2.92979E+04
 -1      2354-2.78359E+10-1.67902E+06-1.05783E+10 8.20698E+06 6.67797E+06-2.88805E+04
 -1      2355-2.80672E+10 2.65112E+06-1.06645E+10 8.31624E+06 6.45495E+06-2.84598E+04
 -1      2356-2.82978E+10-1.97982E+06-1.07539E+10 8.28678E+06 6.23522E+06-2.80356E+04
 -1      2357-2.85281E+10-2.84149E+05-1.08408E+10 8.20728E+06 6.01881E+06-2.76080E+04
 -1      2358-2.87605E+10 1.29715E+06-1.09285E+10 8.39767E+06 5.80573E+06-2.71770E+04
 -1      2359-2.89917E+10-3.40890E+06-1.10182E+10 8.11691E+06 5.59601E+06-2.67425E+04
 -1      2360-2.92230E+10 4.87743E+06-1.11029E+10 8.26460E+06 5.38969E+06-2.63047E+04
 -1      2361-2.94546E+10-2.51093E+06-1.11937E+10 8.37568E+06 5.18679E+06-2.58635E+04
 -1      2362-2.96870E+10-1.85752E+06-1.12818E+10 8.29657E+06 4.98733E+06-2.54189E+04
 -1      2363-2.99193E+10 2.82126E+06-1.13683E+10 8.13988E+06 4.79135E+06-2.49709E+04
 -1      2364-3.01511E+10-1.77036E+06-1.14581E+10 8.36457E+06 4.59887E+06-2.45194E+04
 -1      2365-3.03836E+10 2.93582E+06-1.15446E+10 8.25603E+06 4.40991E+06-2.40645E+04
 -1      2366-3.06165E+10-2.26982E+06-1.16351E+10 8.51407E+06 4.22450E+06-2.36061E+04
 -1      2367-3.08490E+10-1.50238E+06-1.17232E+10 8.16751E+06 4.04268E+06-2.31441E+04
 -1      2368-3.10815E+10 2.00284E+06-1.18102E+10 8.25777E+06 3.86446E+06-2.26786E+04
 -1      2369-3.13149E+10-1.22344E+05-1.18997E+10 8.38664E+06 3.68988E+06-2.22096E+04
 -1      2370-3.15480E+10-1.24498E+06-1.19887E+10 8.27066E+06 3.51896E+06-2.17370E+04
 -1      2371-3.17809E+10 4.80519E+06-1.20749E+10 8.34302E+06 3.35173E+06-2.12610E+04
 -1      2372-3.20138E+10-3.74368E+06-1.21667E+10 8.61279E+06 3.18821E+06-2.07814E+04
 -1      2373-3.22480E+10-4.07684E+06-1.22558E+10 8.22729E+06 3.02845E+06-2.02982E+04
 -1      2374-3.24814E+10 5.51963E+06-1.23408E+10 8.12319E+06 2.87245E+06-1.98114E+04
 -1      2375-3.27142E+10-2.74306E+06-1.24324E+10 8.38927E+06 2.72026E+06-1.93211E+04
 -1      2376-3.29488E+10 3.57062E+06-1.25192E+10 8.40754E+06 2.57189E+06-1.88273E+04
 -1      2377-3.31823E+10-2.44218E+06-1.26102E+10 8.40602E+06 2.42738E+06-1.83299E+04
 -1      2378-3.34155E+10-2.01774E+06-1.26987E+10 8.33346E+06 2.28675E+06-1.78289E+04
 -1      2379-3.36499E+10 2.90262E+06-1.27859E+10 8.22692E+06 2.15003E+06-1.73244E+04
 -1      2380-3.38839E+10-1.70624E+06-1.28765E+10 8.43730E+06 2.01725E+06-1.68164E+04
 -1      2381-3.41183E+10 3.07102E+06-1.29638E+10 8.31076E+06 1.88843E+06-1.63049E+04
 -1      2382-3.43515E+10-1.93137E+06-1.30543E+10 8.50426E+06 1.76361E+06-1.57898E+04
 -1      2383-3.45857E+10-3.17973E+06-1.31438E+10 8.30723E+06 1.64281E+06-1.52712E+04
 -1      2384-3.48206E+10 5.83633E+06-1.32296E+10 8.26889E+06 1.52605E+06-1.47491E+04
 -1      2385-3.50548E+10-3.59894E+06-1.33222E+10 8.57996E+06 1.41337E+06-1.42234E+04
 -1      2386-3.52885E+10 5.53609E+05-1.34094E+10 8.18393E+06 1.30479E+06-1.36942E+04
 -1      2387-3.55232E+10 9.04810E+05-1.34985E+10 8.56120E+06 1.20035E+06-1.31615E+04
 -1      2388-3.57576E+10-3.14690E+06-1.35891E+10 8.21242E+06 1.10006E+06-1.26253E+04
 -1      2389-3.59919E+10 2.96561E+06-1.36758E+10 8.35509E+06 1.00395E+06-1.20855E+04
 -1      2390-3.62259E+10-6.37275E+05-1.37661E+10 8.29841E+06 9.12056E+05-1.15422E+04
 -1      2391-3.64612E+10-7.48718E+05-1.38555E+10 8.51676E+06 8.24401E+05-1.09954E+04
 -1      2392-3.66956E+10 3.19095E+06-1.39431E+10 8.20596E+06 7.41013E+05-1.04450E+04
 -1      2393-3.69297E+10-2.37783E+06-1.40342E+10 8.68196E+06 6.61920E+05-9.89117E+03
 -1      2394-3.71635E+10-2.51784E+06-1.41231E+10 8.13555E+06 5.87149E+05-9.33379E+03
 -1      2395-3.74000E+10 3.25826E+06-1.42108E+10 8.51243E+06 5.16727E+05-8.77287E+03
 -1      2396-3.76329E+10-1.15979E+06-1.43010E+10 8.11689E+06 4.50682E+05-8.20841E+03
 -1      2397-3.78686E+10 1.68750E+06-1.43894E+10 8.66880E+06 3.89040E+05-7.64044E+03
 -1      2398-3.81014E+10 1.30551E+06-1.44781E+10 8.20533E+06 3.31830E+05-7.06895E+03
 -1      2399-3.83391E+10-5.40754E+06-1.45709E+10 8.92960E+06 2.79079E+05-6.49393E+03
 -1      2400-3.85699E+10 1.98706E+06-1.46558E+10 7.56770E+06 2.30815E+05-5.91538E+03
 -1      2401-3.88087E+10-2.28949E+05-1.47474E+10 9.06270E+06 1.87064E+05-5.33329E+03
 -1      2402-3.90383E+10 3.78485E+06-1.48331E+10 7.48768E+06 1.47854E+05-4.74769E+03
 -1      2403-3.92803E+10-1.94836E+06-1.49272E+10 9.71745E+06 1.13213E+05-4.15856E+03
 -1      2404-3.95045E+10-8.25574E+06-1.50148E+10 6.78517E+06 8.31691E+04-3.56592E+03
 -1      2405-3.97506E+10 2.88890E+07-1.50943E+10 9.93120E+06 5.77476E+04-2.96975E+03
 -1      2406-3.99797E+10-1.01099E+08-1.52307E+10 7.71182E+06 3.69778E+04-2.37006E+03
 -1      2407-4.01922E+10 3.75734E+08-1.51303E+10 3.94245E+06 2.08852E+04-1.76679E+03
 -1      2408-4.05566E+10-1.38259E+09-1.59369E+10 3.33702E+07 9.49967E+03-1.16027E+03
 -1      2409-4.02556E+10 5.07091E+09-1.33702E+10-9.37585E+07 2.84652E+03-5.49193E+02
 -1      2410-3.97573E+10-1.88978E+10-2.22889E+10 3.74095E+08 7.02901E+02-2.42074E+02
 -3
    1PSTEP                         3           1           1          
    1PGM                1.000000E+00                                  
    1PGK                6.946942E+03                                  
    1PHID                         -1                                  
    1PSUBC                         0                                  
    1PMODE                         1                                  
  100CL  101 13.26529687        2410                     2    1MODAL      1
 -4  TOSTRAIN    6    1
 -5  EXX         1    4    1    1
 -5  EYY         1    4    2    2
 -5  EZZ         1    4    3    3
 -5  EXY         1    4    1    2
 -5  EYZ         1    4    2    3
 -5  EZX         1    4    3    1
 -1         1 4.91226E-05-7.91941E-06-1.51255E-08-5.43241E-06-2.24327E-02-1.65962E-05
 -1         2 2.76346E-04-1.48308E-04-2.97348E-08 2.57899E-05-2.23682E-02-1.65963E-05
 -1         3 9.40113E-04-5.54008E-04-4.50769E-08 5.08241E-05-2.22391E-02-1.65964E-05
 -1         4 2.04487E-03-1.23256E-03-3.24524E-08 7.64554E-05-2.21100E-02-1.65965E-05
 -1         5 3.58596E-03-2.17670E-03 7.12286E-09 1.01394E-04-2.19809E-02-1.65965E-05
 -1         6 5.55999E-03-3.38592E-03 6.30104E-08 1.26526E-04-2.18518E-02-1.65963E-05
 -1         7 7.97056E-03-4.86505E-03 1.16239E-07 1.51283E-04-2.17227E-02-1.65958E-05
 -1         8 1.08057E-02-6.60214E-03 1.57267E-07 1.75678E-04-2.15936E-02-1.65951E-05
 -1         9 1.40708E-02-8.60249E-03 1.86948E-07 2.00723E-04-2.14646E-02-1.65943E-05
 -1        10 1.77645E-02-1.08715E-02 2.07406E-07 2.24498E-04-2.13355E-02-1.65932E-05
 -1        11 2.18644E-02-1.33738E-02 2.04657E-07 2.49560E-04-2.12064E-02-1.65921E-05
 -1        12 2.64098E-02-1.61723E-02 1.75297E-07 2.72450E-04-2.10774E-02-1.65909E-05
 -1        13 3.13463E-02-1.91894E-02 1.45080E-07 2.97303E-04-2.09483E-02-1.65897E-05
 -1        14 3.67091E-02-2.24778E-02 1.24347E-07 3.20168E-04-2.08193E-02-1.65884E-05
 -1        15 4.24979E-02-2.60397E-02 1.04062E-07 3.45608E-04-2.06902E-02-1.65871E-05
 -1        16 4.86432E-02-2.97723E-02 9.11230E-08 3.67997E-04-2.05612E-02-1.65857E-05
 -1        17 5.52697E-02-3.38708E-02 1.05661E-07 3.90354E-04-2.04322E-02-1.65841E-05
 -1        18 6.22441E-02-3.81247E-02 1.52005E-07 4.15789E-04-2.03032E-02-1.65823E-05
 -1        19 6.96404E-02-4.26639E-02 2.10940E-07 4.35691E-04-2.01742E-02-1.65801E-05
 -1        20 7.74455E-02-4.74568E-02 2.59757E-07 4.63260E-04-2.00453E-02-1.65776E-05
 -1        21 8.56058E-02-5.24324E-02 2.97027E-07 4.81310E-04-1.99163E-02-1.65747E-05
 -1        22 9.42178E-02-5.77389E-02 3.20800E-07 5.07078E-04-1.97874E-02-1.65715E-05
 -1        23 1.03182E-01-6.32178E-02 3.46906E-07 5.27329E-04-1.96585E-02-1.65681E-05
 -1        24 1.12548E-01-6.89685E-02 3.83755E-07 5.50953E-04-1.95296E-02-1.65643E-05
 -1        25 1.22292E-01-7.49305E-02 3.94034E-07 5.74102E-04-1.94007E-02-1.65602E-05
 -1        26 1.32423E-01-8.11396E-02 3.62294E-07 5.93380E-04-1.92719E-02-1.65559E-05
 -1        27 1.42947E-01-8.75982E-02 2.95396E-07 6.17143E-04-1.91431E-02-1.65515E-05
 -1        28 1.53844E-01-9.42800E-02 2.04977E-07 6.37829E-04-1.90144E-02-1.65471E-05
 -1        29 1.65097E-01-1.01165E-01 1.22066E-07 6.61393E-04-1.88857E-02-1.65427E-05
 -1        30 1.76737E-01-1.08297E-01 6.04419E-08 6.80209E-04-1.87570E-02-1.65383E-05
 -1        31 1.88772E-01-1.15691E-01 1.09398E-08 7.03094E-04-1.86283E-02-1.65337E-05
 -1        32 2.01137E-01-1.23254E-01-3.89529E-08 7.22865E-04-1.84997E-02-1.65290E-05
 -1        33 2.13899E-01-1.31093E-01-9.53039E-08 7.45443E-04-1.83711E-02-1.65242E-05
 -1        34 2.26989E-01-1.39093E-01-1.28425E-07 7.67410E-04-1.82426E-02-1.65192E-05
 -1        35 2.40473E-01-1.47371E-01-1.13143E-07 7.85261E-04-1.81141E-02-1.65139E-05
 -1        36 2.54304E-01-1.55851E-01-7.96399E-08 8.08982E-04-1.79856E-02-1.65082E-05
 -1        37 2.68463E-01-1.64505E-01-5.87818E-08 8.25475E-04-1.78572E-02-1.65021E-05
 -1        38 2.83055E-01-1.73499E-01-4.34425E-08 8.48507E-04-1.77289E-02-1.64956E-05
 -1        39 2.97898E-01-1.82551E-01-3.20550E-08 8.69153E-04-1.76005E-02-1.64887E-05
 -1        40 3.13134E-01-1.91892E-01-2.64341E-08 8.86757E-04-1.74723E-02-1.64813E-05
 -1        41 3.28746E-01-2.01488E-01-3.13548E-08 9.06429E-04-1.73441E-02-1.64736E-05
 -1        42 3.44656E-01-2.11220E-01-5.65947E-08 9.28352E-04-1.72160E-02-1.64656E-05
 -1        43 3.60921E-01-2.21190E-01-1.01374E-07 9.45708E-04-1.70879E-02-1.64573E-05
 -1        44 3.77540E-01-2.31396E-01-1.70114E-07 9.66317E-04-1.69599E-02-1.64488E-05
 -1        45 3.94453E-01-2.41732E-01-2.37377E-07 9.89292E-04-1.68320E-02-1.64401E-05
 -1        46 4.11721E-01-2.52310E-01-2.83798E-07 1.00120E-03-1.67041E-02-1.64311E-05
 -1        47 4.29363E-01-2.63167E-01-3.26623E-07 1.02357E-03-1.65763E-02-1.64219E-05
 -1        48 4.47242E-01-2.74078E-01-3.67145E-07 1.04075E-03-1.64486E-02-1.64124E-05
 -1        49 4.65578E-01-2.85388E-01-4.01656E-07 1.06414E-03-1.63209E-02-1.64025E-05
 -1        50 4.84069E-01-2.96637E-01-4.32820E-07 1.08443E-03-1.61934E-02-1.63924E-05
 -1        51 5.02947E-01-3.08198E-01-4.72911E-07 1.09334E-03-1.60659E-02-1.63818E-05
 -1        52 5.22272E-01-3.20140E-01-5.03061E-07 1.11493E-03-1.59385E-02-1.63709E-05
 -1        53 5.41724E-01-3.31984E-01-4.94919E-07 1.13315E-03-1.58112E-02-1.63596E-05
 -1        54 5.61620E-01-3.44239E-01-4.71033E-07 1.15355E-03-1.56840E-02-1.63478E-05
 -1        55 5.81708E-01-3.56487E-01-4.50550E-07 1.17283E-03-1.55569E-02-1.63354E-05
 -1        56 6.02181E-01-3.69044E-01-4.42271E-07 1.18652E-03-1.54299E-02-1.63224E-05
 -1        57 6.23002E-01-3.81852E-01-4.42210E-07 1.20213E-03-1.53030E-02-1.63090E-05
 -1        58 6.44026E-01-3.94706E-01-4.32197E-07 1.22302E-03-1.51762E-02-1.62950E-05
 -1        59 6.65387E-01-4.07795E-01-4.21411E-07 1.23882E-03-1.50495E-02-1.62805E-05
 -1        60 6.87112E-01-4.21149E-01-4.28548E-07 1.25961E-03-1.49230E-02-1.62654E-05
 -1        61 7.09013E-01-4.34524E-01-4.52713E-07 1.27576E-03-1.47965E-02-1.62499E-05
 -1        62 7.31224E-01-4.48107E-01-4.66001E-07 1.28718E-03-1.46702E-02-1.62339E-05
 -1        63 7.53916E-01-4.62147E-01-4.51293E-07 1.30772E-03-1.45440E-02-1.62173E-05
 -1        64 7.76609E-01-4.75915E-01-4.23294E-07 1.32788E-03-1.44180E-02-1.62002E-05
 -1        65 7.99795E-01-4.90202E-01-3.92224E-07 1.33745E-03-1.42920E-02-1.61823E-05
 -1        66 8.23161E-01-5.04505E-01-3.60149E-07 1.35760E-03-1.41663E-02-1.61638E-05
 -1        67 8.46812E-01-5.18955E-01-3.31418E-07 1.37301E-03-1.40407E-02-1.61447E-05
 -1        68 8.70877E-01-5.33808E-01-2.92497E-07 1.38222E-03-1.39152E-02-1.61248E-05
 -1        69 8.94980E-01-5.48480E-01-2.27761E-07 1.40449E-03-1.37899E-02-1.61042E-05
 -1        70 9.19619E-01-5.63688E-01-1.46486E-07 1.42360E-03-1.36647E-02-1.60828E-05
 -1        71 9.44281E-01-5.78700E-01-6.51395E-08 1.43726E-03-1.35398E-02-1.60605E-05
 -1        72 9.69308E-01-5.94038E-01 7.40050E-09 1.44890E-03-1.34150E-02-1.60374E-05
 -1        73 9.94720E-01-6.09710E-01 7.76277E-08 1.46047E-03-1.32903E-02-1.60134E-05
 -1        74 1.02021E+00-6.25239E-01 1.51080E-07 1.48478E-03-1.31659E-02-1.59886E-05
 -1        75 1.04615E+00-6.41244E-01 2.11808E-07 1.49277E-03-1.30417E-02-1.59629E-05
 -1        76 1.07209E+00-6.57011E-01 2.50084E-07 1.51960E-03-1.29177E-02-1.59365E-05
 -1        77 1.09849E+00-6.73270E-01 2.75297E-07 1.51718E-03-1.27938E-02-1.59093E-05
 -1        78 1.12512E+00-6.89586E-01 2.93409E-07 1.55227E-03-1.26702E-02-1.58814E-05
 -1        79 1.15191E+00-7.05952E-01 3.03507E-07 1.54069E-03-1.25469E-02-1.58528E-05
 -1        80 1.17904E+00-7.22655E-01 3.09341E-07 1.56744E-03-1.24237E-02-1.58236E-05
 -1        81 1.20645E+00-7.39474E-01 3.19346E-07 1.58699E-03-1.23007E-02-1.57936E-05
 -1        82 1.23392E+00-7.56226E-01 3.34877E-07 1.59893E-03-1.21780E-02-1.57630E-05
 -1        83 1.26172E+00-7.73239E-01 3.49435E-07 1.60841E-03-1.20556E-02-1.57316E-05
 -1        84 1.28992E+00-7.90658E-01 3.52839E-07 1.61582E-03-1.19334E-02-1.56995E-05
 -1        85 1.31811E+00-8.07818E-01 3.46435E-07 1.64315E-03-1.18114E-02-1.56667E-05
 -1        86 1.34678E+00-8.25519E-01 3.45158E-07 1.64743E-03-1.16897E-02-1.56333E-05
 -1        87 1.37535E+00-8.42880E-01 3.32565E-07 1.67105E-03-1.15682E-02-1.55992E-05
 -1        88 1.40439E+00-8.60696E-01 2.98514E-07 1.67657E-03-1.14470E-02-1.55644E-05
 -1        89 1.43376E+00-8.78825E-01 2.73811E-07 1.67999E-03-1.13261E-02-1.55291E-05
 -1        90 1.46302E+00-8.96611E-01 2.62290E-07 1.70529E-03-1.12055E-02-1.54931E-05
 -1        91 1.49292E+00-9.15162E-01 2.45090E-07 1.71527E-03-1.10851E-02-1.54564E-05
 -1        92 1.52253E+00-9.33032E-01 2.11996E-07 1.75475E-03-1.09650E-02-1.54191E-05
 -1        93 1.55264E+00-9.51493E-01 1.64453E-07 1.71892E-03-1.08452E-02-1.53812E-05
 -1        94 1.58322E+00-9.70516E-01 1.13940E-07 1.74695E-03-1.07258E-02-1.53427E-05
 -1        95 1.61349E+00-9.88825E-01 6.61578E-08 1.76434E-03-1.06066E-02-1.53036E-05
 -1        96 1.64445E+00-1.00798E+00 2.50191E-08 1.78285E-03-1.04877E-02-1.52639E-05
 -1        97 1.67523E+00-1.02669E+00-7.96089E-09 1.79327E-03-1.03691E-02-1.52236E-05
 -1        98 1.70630E+00-1.04570E+00-3.75637E-08 1.79411E-03-1.02509E-02-1.51827E-05
 -1        99 1.73789E+00-1.06525E+00-5.79637E-08 1.81210E-03-1.01329E-02-1.51410E-05
 -1       100 1.76932E+00-1.08439E+00-5.86412E-08 1.81786E-03-1.00153E-02-1.50987E-05
 -1       101 1.80103E+00-1.10382E+00-4.43036E-08 1.83825E-03-9.89806E-03-1.50555E-05
 -1       102 1.83312E+00-1.12361E+00-2.50069E-08 1.84380E-03-9.78112E-03-1.50115E-05
 -1       103 1.86510E+00-1.14306E+00-1.18278E-08 1.87463E-03-9.66454E-03-1.49667E-05
 -1       104 1.89740E+00-1.16281E+00-1.16682E-08 1.85533E-03-9.54830E-03-1.49211E-05
 -1       105 1.93021E+00-1.18322E+00-1.02031E-08 1.87424E-03-9.43242E-03-1.48747E-05
 -1       106 1.96257E+00-1.20272E+00 2.88754E-09 1.90566E-03-9.31691E-03-1.48274E-05
 -1       107 1.99568E+00-1.22319E+00 2.03276E-08 1.89489E-03-9.20177E-03-1.47794E-05
 -1       108 2.02871E+00-1.24342E+00 3.69012E-08 1.91225E-03-9.08700E-03-1.47304E-05
 -1       109 2.06177E+00-1.26353E+00 5.49875E-08 1.91429E-03-8.97262E-03-1.46807E-05
 -1       110 2.09553E+00-1.28449E+00 7.53998E-08 1.93123E-03-8.85862E-03-1.46300E-05
 -1       111 2.12891E+00-1.30473E+00 8.44068E-08 1.93276E-03-8.74503E-03-1.45785E-05
 -1       112 2.16287E+00-1.32575E+00 8.14659E-08 1.96031E-03-8.63184E-03-1.45261E-05
 -1       113 2.19657E+00-1.34618E+00 7.35534E-08 1.96487E-03-8.51906E-03-1.44730E-05
 -1       114 2.23075E+00-1.36714E+00 5.84666E-08 1.97406E-03-8.40669E-03-1.44191E-05
 -1       115 2.26526E+00-1.38852E+00 4.88033E-08 1.96063E-03-8.29475E-03-1.43643E-05
 -1       116 2.29941E+00-1.40920E+00 4.63565E-08 1.99440E-03-8.18323E-03-1.43088E-05
 -1       117 2.33435E+00-1.43089E+00 4.51152E-08 2.00459E-03-8.07215E-03-1.42524E-05
 -1       118 2.36879E+00-1.45168E+00 5.15213E-08 2.01641E-03-7.96151E-03-1.41952E-05
 -1       119 2.40384E+00-1.47336E+00 6.28924E-08 2.00691E-03-7.85132E-03-1.41371E-05
 -1       120 2.43896E+00-1.49486E+00 6.80147E-08 2.04104E-03-7.74159E-03-1.40781E-05
 -1       121 2.47407E+00-1.51624E+00 6.78653E-08 2.02141E-03-7.63231E-03-1.40183E-05
 -1       122 2.50964E+00-1.53826E+00 7.14406E-08 2.03410E-03-7.52351E-03-1.39576E-05
 -1       123 2.54519E+00-1.56004E+00 7.99739E-08 2.05559E-03-7.41518E-03-1.38960E-05
 -1       124 2.58063E+00-1.58158E+00 8.88642E-08 2.07287E-03-7.30733E-03-1.38335E-05
 -1       125 2.61649E+00-1.60353E+00 9.27266E-08 2.06522E-03-7.19997E-03-1.37702E-05
 -1       126 2.65277E+00-1.62606E+00 9.57411E-08 2.06012E-03-7.09310E-03-1.37059E-05
 -1       127 2.68849E+00-1.64765E+00 1.02256E-07 2.08418E-03-6.98674E-03-1.36408E-05
 -1       128 2.72513E+00-1.67041E+00 1.02248E-07 2.10525E-03-6.88089E-03-1.35748E-05
 -1       129 2.76119E+00-1.69222E+00 8.71646E-08 2.10275E-03-6.77556E-03-1.35079E-05
 -1       130 2.79767E+00-1.71458E+00 5.72197E-08 2.10753E-03-6.67074E-03-1.34402E-05
 -1       131 2.83458E+00-1.73745E+00 2.09379E-08 2.09406E-03-6.56646E-03-1.33717E-05
 -1       132 2.87128E+00-1.75984E+00-4.53308E-09 2.13808E-03-6.46271E-03-1.33025E-05
 -1       133 2.90826E+00-1.78256E+00-1.53120E-08 2.14475E-03-6.35951E-03-1.32324E-05
 -1       134 2.94488E+00-1.80467E+00-2.14878E-08 2.13891E-03-6.25685E-03-1.31614E-05
 -1       135 2.98237E+00-1.82794E+00-2.76294E-08 2.13311E-03-6.15475E-03-1.30896E-05
 -1       136 3.01976E+00-1.85091E+00-3.31049E-08 2.13618E-03-6.05321E-03-1.30168E-05
 -1       137 3.05696E+00-1.87359E+00-3.79851E-08 2.15943E-03-5.95224E-03-1.29432E-05
 -1       138 3.09446E+00-1.89656E+00-4.10393E-08 2.16295E-03-5.85184E-03-1.28687E-05
 -1       139 3.13235E+00-1.91998E+00-3.97637E-08 2.18030E-03-5.75203E-03-1.27933E-05
 -1       140 3.16978E+00-1.94266E+00-3.15873E-08 2.18844E-03-5.65281E-03-1.27169E-05
 -1       141 3.20758E+00-1.96579E+00-1.64185E-08 2.17801E-03-5.55419E-03-1.26396E-05
 -1       142 3.24588E+00-1.98959E+00-1.23751E-09 2.17190E-03-5.45618E-03-1.25613E-05
 -1       143 3.28371E+00-2.01248E+00 6.17230E-09 2.20944E-03-5.35877E-03-1.24821E-05
 -1       144 3.32222E+00-2.03641E+00 4.99430E-09 2.19610E-03-5.26199E-03-1.24019E-05
 -1       145 3.35999E+00-2.05913E+00-1.69452E-09 2.22592E-03-5.16583E-03-1.23208E-05
 -1       146 3.39869E+00-2.08312E+00-9.89974E-09 2.21384E-03-5.07031E-03-1.22388E-05
 -1       147 3.43723E+00-2.10673E+00-1.67836E-08 2.22528E-03-4.97543E-03-1.21559E-05
 -1       148 3.47545E+00-2.12987E+00-2.34969E-08 2.21314E-03-4.88120E-03-1.20721E-05
 -1       149 3.51474E+00-2.15455E+00-2.80225E-08 2.21735E-03-4.78762E-03-1.19873E-05
 -1       150 3.55298E+00-2.17744E+00-2.84677E-08 2.27303E-03-4.69470E-03-1.19017E-05
 -1       151 3.59195E+00-2.20140E+00-2.71648E-08 2.21838E-03-4.60246E-03-1.18150E-05
 -1       152 3.63113E+00-2.22570E+00-2.93770E-08 2.23144E-03-4.51090E-03-1.17275E-05
 -1       153 3.66996E+00-2.24922E+00-3.47829E-08 2.26938E-03-4.42002E-03-1.16390E-05
 -1       154 3.70944E+00-2.27373E+00-3.64122E-08 2.24299E-03-4.32983E-03-1.15496E-05
 -1       155 3.74822E+00-2.29716E+00-3.66895E-08 2.29284E-03-4.24034E-03-1.14592E-05
 -1       156 3.78750E+00-2.32121E+00-3.89348E-08 2.24714E-03-4.15155E-03-1.13679E-05
 -1       157 3.82734E+00-2.34597E+00-3.74611E-08 2.27037E-03-4.06349E-03-1.12756E-05
 -1       158 3.86658E+00-2.36983E+00-3.43959E-08 2.26274E-03-3.97614E-03-1.11823E-05
 -1       159 3.90597E+00-2.39385E+00-3.80439E-08 2.29261E-03-3.88952E-03-1.10881E-05
 -1       160 3.94611E+00-2.41898E+00-4.79967E-08 2.27055E-03-3.80364E-03-1.09930E-05
 -1       161 3.98516E+00-2.44221E+00-5.64025E-08 2.37016E-03-3.71851E-03-1.08969E-05
 -1       162 4.02494E+00-2.46659E+00-5.92650E-08 2.23650E-03-3.63412E-03-1.07999E-05
 -1       163 4.06538E+00-2.49208E+00-5.73772E-08 2.27458E-03-3.55049E-03-1.07019E-05
 -1       164 4.10483E+00-2.51568E+00-5.10572E-08 2.31974E-03-3.46763E-03-1.06029E-05
 -1       165 4.14525E+00-2.54089E+00-4.11622E-08 2.29037E-03-3.38555E-03-1.05030E-05
 -1       166 4.18479E+00-2.56469E+00-3.02809E-08 2.34527E-03-3.30424E-03-1.04020E-05
 -1       167 4.22489E+00-2.58926E+00-2.26695E-08 2.28929E-03-3.22373E-03-1.03000E-05
 -1       168 4.26559E+00-2.61463E+00-2.00976E-08 2.31580E-03-3.14401E-03-1.01971E-05
 -1       169 4.30544E+00-2.63870E+00-2.15580E-08 2.30735E-03-3.06510E-03-1.00931E-05
 -1       170 4.34601E+00-2.66390E+00-2.19439E-08 2.32807E-03-2.98699E-03-9.98824E-06
 -1       171 4.38604E+00-2.68805E+00-1.98038E-08 2.36489E-03-2.90971E-03-9.88235E-06
 -1       172 4.42649E+00-2.71284E+00-2.03925E-08 2.30269E-03-2.83326E-03-9.77548E-06
 -1       173 4.46727E+00-2.73819E+00-2.22413E-08 2.32139E-03-2.75764E-03-9.66762E-06
 -1       174 4.50763E+00-2.76279E+00-2.13438E-08 2.33056E-03-2.68287E-03-9.55878E-06
 -1       175 4.54838E+00-2.78782E+00-2.17768E-08 2.39702E-03-2.60894E-03-9.44897E-06
 -1       176 4.58850E+00-2.81193E+00-2.59650E-08 2.32817E-03-2.53588E-03-9.33818E-06
 -1       177 4.62951E+00-2.83750E+00-3.17684E-08 2.32218E-03-2.46367E-03-9.22641E-06
 -1       178 4.67041E+00-2.86267E+00-3.88705E-08 2.33046E-03-2.39235E-03-9.11367E-06
 -1       179 4.71102E+00-2.88735E+00-4.57725E-08 2.36455E-03-2.32190E-03-8.99997E-06
 -1       180 4.75187E+00-2.91241E+00-4.95788E-08 2.34135E-03-2.25234E-03-8.88529E-06
 -1       181 4.79289E+00-2.93777E+00-5.04064E-08 2.35340E-03-2.18368E-03-8.76963E-06
 -1       182 4.83351E+00-2.96232E+00-4.93853E-08 2.40762E-03-2.11592E-03-8.65299E-06
 -1       183 4.87442E+00-2.98733E+00-4.49705E-08 2.32383E-03-2.04908E-03-8.53533E-06
 -1       184 4.91587E+00-3.01324E+00-3.79651E-08 2.35602E-03-1.98315E-03-8.41666E-06
 -1       185 4.95641E+00-3.03761E+00-3.09035E-08 2.35706E-03-1.91815E-03-8.29697E-06
 -1       186 4.99807E+00-3.06363E+00-2.46721E-08 2.38843E-03-1.85408E-03-8.17627E-06
 -1       187 5.03862E+00-3.08797E+00-1.99698E-08 2.37997E-03-1.79096E-03-8.05456E-06
 -1       188 5.07982E+00-3.11340E+00-1.54311E-08 2.35714E-03-1.72879E-03-7.93183E-06
 -1       189 5.12137E+00-3.13905E+00-9.50327E-09 2.41182E-03-1.66758E-03-7.80809E-06
 -1       190 5.16203E+00-3.16344E+00-2.64242E-09 2.33119E-03-1.60733E-03-7.68332E-06
 -1       191 5.20411E+00-3.19016E+00 5.53350E-09 2.37361E-03-1.54806E-03-7.55752E-06
 -1       192 5.24455E+00-3.21412E+00 1.48365E-08 2.40552E-03-1.48977E-03-7.43071E-06
 -1       193 5.28600E+00-3.23960E+00 2.41220E-08 2.38280E-03-1.43247E-03-7.30286E-06
 -1       194 5.32788E+00-3.26579E+00 3.15301E-08 2.33778E-03-1.37617E-03-7.17397E-06
 -1       195 5.36865E+00-3.29026E+00 3.47398E-08 2.40230E-03-1.32087E-03-7.04407E-06
 -1       196 5.41055E+00-3.31647E+00 3.39868E-08 2.37112E-03-1.26659E-03-6.91316E-06
 -1       197 5.45146E+00-3.34096E+00 3.18251E-08 2.44523E-03-1.21334E-03-6.78126E-06
 -1       198 5.49295E+00-3.36648E+00 2.98201E-08 2.34570E-03-1.16111E-03-6.64835E-06
 -1       199 5.53473E+00-3.39248E+00 2.76916E-08 2.37162E-03-1.10992E-03-6.51444E-06
 -1       200 5.57606E+00-3.41757E+00 2.58152E-08 2.40863E-03-1.05977E-03-6.37954E-06
 -1       201 5.61745E+00-3.44281E+00 2.39938E-08 2.37532E-03-1.01068E-03-6.24363E-06
 -1       202 5.65957E+00-3.46931E+00 2.15856E-08 2.39610E-03-9.62644E-04-6.10672E-06
 -1       203 5.70012E+00-3.49320E+00 1.80369E-08 2.47357E-03-9.15680E-04-5.96882E-06
 -1       204 5.74178E+00-3.51870E+00 1.35520E-08 2.36286E-03-8.69793E-04-5.82992E-06
 -1       205 5.78438E+00-3.54588E+00 8.98662E-09 2.33296E-03-8.24990E-04-5.69002E-06
 -1       206 5.82494E+00-3.56982E+00 4.26373E-09 2.40938E-03-7.81279E-04-5.54913E-06
 -1       207 5.86740E+00-3.59655E+00 6.64006E-10 2.41463E-03-7.38667E-04-5.40725E-06
 -1       208 5.90832E+00-3.62095E+00-1.16026E-09 2.41420E-03-6.97163E-04-5.26436E-06
 -1       209 5.94989E+00-3.64648E+00-2.39856E-09 2.39336E-03-6.56775E-04-5.12047E-06
 -1       210 5.99217E+00-3.67294E+00-3.70589E-09 2.36276E-03-6.17509E-04-4.97557E-06
 -1       211 6.03333E+00-3.69766E+00-5.04390E-09 2.42318E-03-5.79375E-04-4.82966E-06
 -1       212 6.07560E+00-3.72409E+00-6.23122E-09 2.38684E-03-5.42379E-04-4.68275E-06
 -1       213 6.11658E+00-3.74865E+00-7.01836E-09 2.44241E-03-5.06530E-04-4.53483E-06
 -1       214 6.15814E+00-3.77399E+00-7.17529E-09 2.38583E-03-4.71836E-04-4.38590E-06
 -1       215 6.20095E+00-3.80123E+00-7.13562E-09 2.37481E-03-4.38304E-04-4.23596E-06
 -1       216 6.24162E+00-3.82511E+00-7.48513E-09 2.46416E-03-4.05942E-04-4.08500E-06
 -1       217 6.28369E+00-3.85135E+00-7.88069E-09 2.35041E-03-3.74758E-04-3.93303E-06
 -1       218 6.32552E+00-3.87703E+00-8.18902E-09 2.45877E-03-3.44760E-04-3.78006E-06
 -1       219 6.36682E+00-3.90189E+00-8.40391E-09 2.35860E-03-3.15956E-04-3.62607E-06
 -1       220 6.40921E+00-3.92856E+00-8.18538E-09 2.39958E-03-2.88354E-04-3.47106E-06
 -1       221 6.45049E+00-3.95345E+00-7.93230E-09 2.38329E-03-2.61961E-04-3.31505E-06
 -1       222 6.49236E+00-3.97911E+00-7.85269E-09 2.44601E-03-2.36786E-04-3.15802E-06
 -1       223 6.53452E+00-4.00539E+00-7.56574E-09 2.35674E-03-2.12836E-04-2.99997E-06
 -1       224 6.57561E+00-4.02995E+00-7.12373E-09 2.49346E-03-1.90120E-04-2.84092E-06
 -1       225 6.61723E+00-4.05544E+00-6.71887E-09 2.33652E-03-1.68644E-04-2.68085E-06
 -1       226 6.65997E+00-4.08228E+00-6.34565E-09 2.44477E-03-1.48418E-04-2.51976E-06
 -1       227 6.70096E+00-4.10691E+00-6.05250E-09 2.33115E-03-1.29449E-04-2.35766E-06
 -1       228 6.74325E+00-4.13314E+00-5.83359E-09 2.48968E-03-1.11744E-04-2.19454E-06
 -1       229 6.78466E+00-4.15848E+00-5.61485E-09 2.35655E-03-9.53122E-05-2.03041E-06
 -1       230 6.82624E+00-4.18322E+00-5.42586E-09 2.56458E-03-8.01609E-05-1.86527E-06
 -1       231 6.86815E+00-4.20973E+00-5.14189E-09 2.17343E-03-6.62981E-05-1.69910E-06
 -1       232 6.91043E+00-4.23540E+00-4.65050E-09 2.60280E-03-5.37316E-05-1.53193E-06
 -1       233 6.95175E+00-4.26117E+00-4.07861E-09 2.15046E-03-4.24695E-05-1.36374E-06
 -1       234 6.99421E+00-4.28655E+00-3.40013E-09 2.79084E-03-3.25195E-05-1.19453E-06
 -1       235 7.03345E+00-4.30990E+00-2.69291E-09 1.94872E-03-2.38897E-05-1.02431E-06
 -1       236 7.08132E+00-4.34338E+00-2.01949E-09 2.85219E-03-1.65877E-05-8.53069E-07
 -1       237 7.10793E+00-4.34524E+00-1.32121E-09 2.21491E-03-1.06217E-05-6.80815E-07
 -1       238 7.19782E+00-4.45334E+00-6.23646E-10 1.13213E-03-5.99924E-06-5.07528E-07
 -1       239 7.07079E+00-4.18000E+00 2.39622E-12 9.58413E-03-2.72877E-06-3.33304E-07
 -1       240 7.72153E+00-5.29631E+00 1.02917E-09-2.69279E-02-8.17642E-07-1.57766E-07
 -1       241 5.01692E+00-9.73929E-01 1.78080E-09 1.07441E-01-2.01873E-07-6.95376E-08
 -1       242 4.90072E-05-7.90662E-06 1.51255E-08-5.33050E-06 2.24319E-02 1.65975E-05
 -1       243 2.76138E-04-1.48245E-04 2.97348E-08 2.58745E-05 2.23673E-02 1.65975E-05
 -1       244 9.39804E-04-5.53914E-04 4.50769E-08 5.08271E-05 2.22383E-02 1.65974E-05
 -1       245 2.04465E-03-1.23248E-03 3.24524E-08 7.63692E-05 2.21092E-02 1.65972E-05
 -1       246 3.58602E-03-2.17672E-03-7.12286E-09 1.01236E-04 2.19801E-02 1.65971E-05
 -1       247 5.56043E-03-3.38604E-03-6.30104E-08 1.26352E-04 2.18510E-02 1.65971E-05
 -1       248 7.97136E-03-4.86528E-03-1.16239E-07 1.51134E-04 2.17219E-02 1.65972E-05
 -1       249 1.08068E-02-6.60245E-03-1.57267E-07 1.75569E-04 2.15929E-02 1.65974E-05
 -1       250 1.40721E-02-8.60287E-03-1.86948E-07 2.00650E-04 2.14638E-02 1.65976E-05
 -1       251 1.77659E-02-1.08719E-02-2.07406E-07 2.24453E-04 2.13347E-02 1.65979E-05
 -1       252 2.18658E-02-1.33742E-02-2.04657E-07 2.49624E-04 2.12056E-02 1.65981E-05
 -1       253 2.64110E-02-1.61726E-02-1.75297E-07 2.72559E-04 2.10766E-02 1.65981E-05
 -1       254 3.13473E-02-1.91897E-02-1.45080E-07 2.97372E-04 2.09475E-02 1.65979E-05
 -1       255 3.67099E-02-2.24780E-02-1.24347E-07 3.20224E-04 2.08184E-02 1.65975E-05
 -1       256 4.24987E-02-2.60399E-02-1.04062E-07 3.45671E-04 2.06893E-02 1.65969E-05
 -1       257 4.86439E-02-2.97725E-02-9.11230E-08 3.68005E-04 2.05603E-02 1.65962E-05
 -1       258 5.52705E-02-3.38710E-02-1.05661E-07 3.90253E-04 2.04312E-02 1.65952E-05
 -1       259 6.22452E-02-3.81250E-02-1.52005E-07 4.15617E-04 2.03022E-02 1.65942E-05
 -1       260 6.96419E-02-4.26643E-02-2.10940E-07 4.35525E-04 2.01731E-02 1.65931E-05
 -1       261 7.74473E-02-4.74573E-02-2.59757E-07 4.63124E-04 2.00441E-02 1.65921E-05
 -1       262 8.56079E-02-5.24330E-02-2.97027E-07 4.81209E-04 1.99151E-02 1.65910E-05
 -1       263 9.42200E-02-5.77395E-02-3.20800E-07 5.07021E-04 1.97861E-02 1.65898E-05
 -1       264 1.03184E-01-6.32185E-02-3.46906E-07 5.27211E-04 1.96571E-02 1.65885E-05
 -1       265 1.12551E-01-6.89693E-02-3.83755E-07 5.50856E-04 1.95281E-02 1.65870E-05
 -1       266 1.22294E-01-7.49313E-02-3.94034E-07 5.74151E-04 1.93991E-02 1.65855E-05
 -1       267 1.32425E-01-8.11404E-02-3.62294E-07 5.93529E-04 1.92702E-02 1.65836E-05
 -1       268 1.42949E-01-8.75988E-02-2.95396E-07 6.17399E-04 1.91412E-02 1.65813E-05
 -1       269 1.53846E-01-9.42804E-02-2.04977E-07 6.38111E-04 1.90123E-02 1.65784E-05
 -1       270 1.65098E-01-1.01165E-01-1.22066E-07 6.61606E-04 1.88834E-02 1.65751E-05
 -1       271 1.76738E-01-1.08298E-01-6.04419E-08 6.80377E-04 1.87546E-02 1.65713E-05
 -1       272 1.88773E-01-1.15691E-01-1.09398E-08 7.03244E-04 1.86258E-02 1.65669E-05
 -1       273 2.01137E-01-1.23254E-01 3.89529E-08 7.23027E-04 1.84970E-02 1.65621E-05
 -1       274 2.13898E-01-1.31093E-01 9.53039E-08 7.45610E-04 1.83682E-02 1.65569E-05
 -1       275 2.26988E-01-1.39093E-01 1.28425E-07 7.67441E-04 1.82395E-02 1.65512E-05
 -1       276 2.40472E-01-1.47371E-01 1.13143E-07 7.85146E-04 1.81108E-02 1.65451E-05
 -1       277 2.54304E-01-1.55851E-01 7.96399E-08 8.08897E-04 1.79822E-02 1.65388E-05
 -1       278 2.68463E-01-1.64504E-01 5.87818E-08 8.25430E-04 1.78537E-02 1.65323E-05
 -1       279 2.83055E-01-1.73499E-01 4.34425E-08 8.48457E-04 1.77251E-02 1.65254E-05
 -1       280 2.97898E-01-1.82550E-01 3.20550E-08 8.69126E-04 1.75967E-02 1.65182E-05
 -1       281 3.13133E-01-1.91892E-01 2.64341E-08 8.86745E-04 1.74683E-02 1.65107E-05
 -1       282 3.28746E-01-2.01488E-01 3.13548E-08 9.06475E-04 1.73399E-02 1.65028E-05
 -1       283 3.44655E-01-2.11220E-01 5.65947E-08 9.28466E-04 1.72116E-02 1.64945E-05
 -1       284 3.60920E-01-2.21189E-01 1.01374E-07 9.45883E-04 1.70834E-02 1.64857E-05
 -1       285 3.77538E-01-2.31395E-01 1.70114E-07 9.66557E-04 1.69553E-02 1.64763E-05
 -1       286 3.94451E-01-2.41732E-01 2.37377E-07 9.89456E-04 1.68272E-02 1.64663E-05
 -1       287 4.11719E-01-2.52310E-01 2.83798E-07 1.00133E-03 1.66992E-02 1.64557E-05
 -1       288 4.29361E-01-2.63166E-01 3.26623E-07 1.02371E-03 1.65713E-02 1.64445E-05
 -1       289 4.47239E-01-2.74077E-01 3.67145E-07 1.04087E-03 1.64435E-02 1.64327E-05
 -1       290 4.65575E-01-2.85387E-01 4.01656E-07 1.06425E-03 1.63157E-02 1.64204E-05
 -1       291 4.84066E-01-2.96636E-01 4.32820E-07 1.08452E-03 1.61881E-02 1.64076E-05
 -1       292 5.02944E-01-3.08197E-01 4.72911E-07 1.09348E-03 1.60606E-02 1.63942E-05
 -1       293 5.22268E-01-3.20139E-01 5.03061E-07 1.11496E-03 1.59331E-02 1.63801E-05
 -1       294 5.41721E-01-3.31983E-01 4.94919E-07 1.13309E-03 1.58058E-02 1.63656E-05
 -1       295 5.61617E-01-3.44238E-01 4.71033E-07 1.15349E-03 1.56786E-02 1.63507E-05
 -1       296 5.81704E-01-3.56486E-01 4.50550E-07 1.17277E-03 1.55515E-02 1.63354E-05
 -1       297 6.02178E-01-3.69043E-01 4.42271E-07 1.18653E-03 1.54245E-02 1.63196E-05
 -1       298 6.22999E-01-3.81852E-01 4.42210E-07 1.20212E-03 1.52977E-02 1.63033E-05
 -1       299 6.44023E-01-3.94705E-01 4.32197E-07 1.22298E-03 1.51709E-02 1.62865E-05
 -1       300 6.65384E-01-4.07794E-01 4.21411E-07 1.23882E-03 1.50443E-02 1.62693E-05
 -1       301 6.87109E-01-4.21149E-01 4.28548E-07 1.25967E-03 1.49178E-02 1.62515E-05
 -1       302 7.09010E-01-4.34523E-01 4.52713E-07 1.27584E-03 1.47915E-02 1.62331E-05
 -1       303 7.31221E-01-4.48106E-01 4.66001E-07 1.28718E-03 1.46653E-02 1.62142E-05
 -1       304 7.53912E-01-4.62146E-01 4.51293E-07 1.30765E-03 1.45393E-02 1.61947E-05
 -1       305 7.76606E-01-4.75914E-01 4.23294E-07 1.32780E-03 1.44134E-02 1.61747E-05
 -1       306 7.99792E-01-4.90201E-01 3.92224E-07 1.33735E-03 1.42876E-02 1.61543E-05
 -1       307 8.23158E-01-5.04505E-01 3.60149E-07 1.35751E-03 1.41621E-02 1.61334E-05
 -1       308 8.46810E-01-5.18954E-01 3.31418E-07 1.37292E-03 1.40366E-02 1.61120E-05
 -1       309 8.70875E-01-5.33807E-01 2.92497E-07 1.38206E-03 1.39114E-02 1.60902E-05
 -1       310 8.94978E-01-5.48479E-01 2.27761E-07 1.40426E-03 1.37863E-02 1.60679E-05
 -1       311 9.19618E-01-5.63687E-01 1.46486E-07 1.42334E-03 1.36614E-02 1.60453E-05
 -1       312 9.44281E-01-5.78699E-01 6.51395E-08 1.43702E-03 1.35367E-02 1.60224E-05
 -1       313 9.69308E-01-5.94038E-01-7.40050E-09 1.44869E-03 1.34121E-02 1.59991E-05
 -1       314 9.94720E-01-6.09711E-01-7.76277E-08 1.46025E-03 1.32877E-02 1.59754E-05
 -1       315 1.02021E+00-6.25239E-01-1.51080E-07 1.48456E-03 1.31636E-02 1.59513E-05
 -1       316 1.04615E+00-6.41244E-01-2.11808E-07 1.49262E-03 1.30396E-02 1.59268E-05
 -1       317 1.07209E+00-6.57011E-01-2.50084E-07 1.51950E-03 1.29158E-02 1.59019E-05
 -1       318 1.09849E+00-6.73271E-01-2.75297E-07 1.51711E-03 1.27922E-02 1.58764E-05
 -1       319 1.12512E+00-6.89586E-01-2.93409E-07 1.55223E-03 1.26688E-02 1.58503E-05
 -1       320 1.15191E+00-7.05953E-01-3.03507E-07 1.54067E-03 1.25456E-02 1.58236E-05
 -1       321 1.17904E+00-7.22655E-01-3.09341E-07 1.56741E-03 1.24226E-02 1.57963E-05
 -1       322 1.20645E+00-7.39475E-01-3.19346E-07 1.58694E-03 1.22998E-02 1.57684E-05
 -1       323 1.23392E+00-7.56226E-01-3.34877E-07 1.59888E-03 1.21773E-02 1.57398E-05
 -1       324 1.26172E+00-7.73240E-01-3.49435E-07 1.60837E-03 1.20550E-02 1.57106E-05
 -1       325 1.28992E+00-7.90659E-01-3.52839E-07 1.61582E-03 1.19329E-02 1.56808E-05
 -1       326 1.31811E+00-8.07818E-01-3.46435E-07 1.64317E-03 1.18110E-02 1.56503E-05
 -1       327 1.34678E+00-8.25520E-01-3.45158E-07 1.64742E-03 1.16894E-02 1.56190E-05
 -1       328 1.37535E+00-8.42881E-01-3.32565E-07 1.67114E-03 1.15681E-02 1.55871E-05
 -1       329 1.40439E+00-8.60697E-01-2.98514E-07 1.67668E-03 1.14469E-02 1.55544E-05
 -1       330 1.43376E+00-8.78825E-01-2.73811E-07 1.68003E-03 1.13261E-02 1.55208E-05
 -1       331 1.46302E+00-8.96612E-01-2.62290E-07 1.70533E-03 1.12055E-02 1.54865E-05
 -1       332 1.49292E+00-9.15163E-01-2.45090E-07 1.71534E-03 1.10852E-02 1.54515E-05
 -1       333 1.52253E+00-9.33032E-01-2.11996E-07 1.75488E-03 1.09652E-02 1.54156E-05
 -1       334 1.55264E+00-9.51493E-01-1.64453E-07 1.71908E-03 1.08454E-02 1.53789E-05
 -1       335 1.58322E+00-9.70517E-01-1.13940E-07 1.74710E-03 1.07260E-02 1.53413E-05
 -1       336 1.61350E+00-9.88825E-01-6.61578E-08 1.76448E-03 1.06068E-02 1.53028E-05
 -1       337 1.64445E+00-1.00798E+00-2.50191E-08 1.78296E-03 1.04879E-02 1.52634E-05
 -1       338 1.67522E+00-1.02669E+00 7.96089E-09 1.79336E-03 1.03694E-02 1.52232E-05
 -1       339 1.70630E+00-1.04570E+00 3.75637E-08 1.79420E-03 1.02512E-02 1.51821E-05
 -1       340 1.73789E+00-1.06525E+00 5.79637E-08 1.81213E-03 1.01333E-02 1.51401E-05
 -1       341 1.76932E+00-1.08439E+00 5.86412E-08 1.81783E-03 1.00157E-02 1.50974E-05
 -1       342 1.80103E+00-1.10382E+00 4.43036E-08 1.83819E-03 9.89843E-03 1.50539E-05
 -1       343 1.83312E+00-1.12361E+00 2.50069E-08 1.84374E-03 9.78153E-03 1.50097E-05
 -1       344 1.86510E+00-1.14306E+00 1.18278E-08 1.87461E-03 9.66497E-03 1.49647E-05
 -1       345 1.89740E+00-1.16281E+00 1.16682E-08 1.85534E-03 9.54876E-03 1.49191E-05
 -1       346 1.93021E+00-1.18322E+00 1.02031E-08 1.87421E-03 9.43292E-03 1.48726E-05
 -1       347 1.96257E+00-1.20272E+00-2.88754E-09 1.90561E-03 9.31743E-03 1.48253E-05
 -1       348 1.99569E+00-1.22319E+00-2.03276E-08 1.89484E-03 9.20232E-03 1.47773E-05
 -1       349 2.02871E+00-1.24342E+00-3.69012E-08 1.91220E-03 9.08758E-03 1.47286E-05
 -1       350 2.06177E+00-1.26353E+00-5.49875E-08 1.91423E-03 8.97323E-03 1.46791E-05
 -1       351 2.09553E+00-1.28449E+00-7.53998E-08 1.93117E-03 8.85926E-03 1.46289E-05
 -1       352 2.12891E+00-1.30473E+00-8.44068E-08 1.93277E-03 8.74569E-03 1.45779E-05
 -1       353 2.16287E+00-1.32575E+00-8.14659E-08 1.96032E-03 8.63252E-03 1.45261E-05
 -1       354 2.19657E+00-1.34618E+00-7.35534E-08 1.96491E-03 8.51975E-03 1.44734E-05
 -1       355 2.23075E+00-1.36714E+00-5.84666E-08 1.97410E-03 8.40740E-03 1.44199E-05
 -1       356 2.26526E+00-1.38852E+00-4.88033E-08 1.96064E-03 8.29547E-03 1.43655E-05
 -1       357 2.29941E+00-1.40920E+00-4.63565E-08 1.99440E-03 8.18396E-03 1.43103E-05
 -1       358 2.33435E+00-1.43089E+00-4.51152E-08 2.00458E-03 8.07289E-03 1.42542E-05
 -1       359 2.36879E+00-1.45168E+00-5.15213E-08 2.01638E-03 7.96225E-03 1.41973E-05
 -1       360 2.40384E+00-1.47336E+00-6.28924E-08 2.00687E-03 7.85207E-03 1.41396E-05
 -1       361 2.43896E+00-1.49486E+00-6.80147E-08 2.04104E-03 7.74233E-03 1.40810E-05
 -1       362 2.47407E+00-1.51624E+00-6.78653E-08 2.02141E-03 7.63306E-03 1.40216E-05
 -1       363 2.50965E+00-1.53826E+00-7.14406E-08 2.03407E-03 7.52425E-03 1.39614E-05
 -1       364 2.54519E+00-1.56004E+00-7.99739E-08 2.05556E-03 7.41591E-03 1.39003E-05
 -1       365 2.58063E+00-1.58158E+00-8.88642E-08 2.07284E-03 7.30805E-03 1.38384E-05
 -1       366 2.61649E+00-1.60353E+00-9.27266E-08 2.06522E-03 7.20068E-03 1.37756E-05
 -1       367 2.65277E+00-1.62606E+00-9.57411E-08 2.06011E-03 7.09380E-03 1.37120E-05
 -1       368 2.68849E+00-1.64765E+00-1.02256E-07 2.08416E-03 6.98741E-03 1.36475E-05
 -1       369 2.72513E+00-1.67041E+00-1.02248E-07 2.10528E-03 6.88154E-03 1.35821E-05
 -1       370 2.76119E+00-1.69222E+00-8.71646E-08 2.10282E-03 6.77617E-03 1.35159E-05
 -1       371 2.79767E+00-1.71458E+00-5.72197E-08 2.10764E-03 6.67133E-03 1.34487E-05
 -1       372 2.83458E+00-1.73745E+00-2.09379E-08 2.09416E-03 6.56701E-03 1.33804E-05
 -1       373 2.87128E+00-1.75984E+00 4.53308E-09 2.13813E-03 6.46322E-03 1.33112E-05
 -1       374 2.90826E+00-1.78256E+00 1.53120E-08 2.14477E-03 6.35998E-03 1.32411E-05
 -1       375 2.94488E+00-1.80467E+00 2.14878E-08 2.13894E-03 6.25729E-03 1.31700E-05
 -1       376 2.98237E+00-1.82794E+00 2.76294E-08 2.13313E-03 6.15515E-03 1.30980E-05
 -1       377 3.01976E+00-1.85091E+00 3.31049E-08 2.13620E-03 6.05358E-03 1.30251E-05
 -1       378 3.05696E+00-1.87359E+00 3.79851E-08 2.15944E-03 5.95258E-03 1.29512E-05
 -1       379 3.09446E+00-1.89656E+00 4.10393E-08 2.16296E-03 5.85215E-03 1.28765E-05
 -1       380 3.13235E+00-1.91998E+00 3.97637E-08 2.18029E-03 5.75231E-03 1.28008E-05
 -1       381 3.16978E+00-1.94266E+00 3.15873E-08 2.18840E-03 5.65306E-03 1.27242E-05
 -1       382 3.20758E+00-1.96579E+00 1.64185E-08 2.17796E-03 5.55441E-03 1.26467E-05
 -1       383 3.24588E+00-1.98959E+00 1.23751E-09 2.17187E-03 5.45637E-03 1.25684E-05
 -1       384 3.28371E+00-2.01248E+00-6.17230E-09 2.20943E-03 5.35894E-03 1.24892E-05
 -1       385 3.32222E+00-2.03641E+00-4.99430E-09 2.19611E-03 5.26212E-03 1.24091E-05
 -1       386 3.35999E+00-2.05913E+00 1.69452E-09 2.22595E-03 5.16594E-03 1.23280E-05
 -1       387 3.39869E+00-2.08312E+00 9.89974E-09 2.21386E-03 5.07039E-03 1.22460E-05
 -1       388 3.43723E+00-2.10673E+00 1.67836E-08 2.22530E-03 4.97548E-03 1.21630E-05
 -1       389 3.47545E+00-2.12987E+00 2.34969E-08 2.21316E-03 4.88122E-03 1.20790E-05
 -1       390 3.51474E+00-2.15455E+00 2.80225E-08 2.21736E-03 4.78762E-03 1.19941E-05
 -1       391 3.55298E+00-2.17744E+00 2.84677E-08 2.27303E-03 4.69468E-03 1.19083E-05
 -1       392 3.59195E+00-2.20140E+00 2.71648E-08 2.21838E-03 4.60241E-03 1.18215E-05
 -1       393 3.63113E+00-2.22570E+00 2.93770E-08 2.23146E-03 4.51082E-03 1.17338E-05
 -1       394 3.66996E+00-2.24922E+00 3.47829E-08 2.26939E-03 4.41991E-03 1.16451E-05
 -1       395 3.70944E+00-2.27373E+00 3.64122E-08 2.24299E-03 4.32970E-03 1.15554E-05
 -1       396 3.74822E+00-2.29716E+00 3.66895E-08 2.29285E-03 4.24019E-03 1.14648E-05
 -1       397 3.78750E+00-2.32121E+00 3.89348E-08 2.24715E-03 4.15139E-03 1.13733E-05
 -1       398 3.82734E+00-2.34597E+00 3.74611E-08 2.27035E-03 4.06330E-03 1.12808E-05
 -1       399 3.86657E+00-2.36983E+00 3.43959E-08 2.26274E-03 3.97594E-03 1.11873E-05
 -1       400 3.90597E+00-2.39385E+00 3.80439E-08 2.29263E-03 3.88930E-03 1.10929E-05
 -1       401 3.94611E+00-2.41898E+00 4.79967E-08 2.27059E-03 3.80341E-03 1.09975E-05
 -1       402 3.98516E+00-2.44221E+00 5.64025E-08 2.37017E-03 3.71826E-03 1.09011E-05
 -1       403 4.02494E+00-2.46659E+00 5.92650E-08 2.23650E-03 3.63386E-03 1.08037E-05
 -1       404 4.06538E+00-2.49208E+00 5.73772E-08 2.27457E-03 3.55022E-03 1.07053E-05
 -1       405 4.10483E+00-2.51568E+00 5.10572E-08 2.31972E-03 3.46735E-03 1.06060E-05
 -1       406 4.14525E+00-2.54089E+00 4.11622E-08 2.29034E-03 3.38526E-03 1.05058E-05
 -1       407 4.18479E+00-2.56469E+00 3.02809E-08 2.34524E-03 3.30395E-03 1.04046E-05
 -1       408 4.22489E+00-2.58926E+00 2.26695E-08 2.28928E-03 3.22343E-03 1.03025E-05
 -1       409 4.26559E+00-2.61463E+00 2.00976E-08 2.31580E-03 3.14371E-03 1.01994E-05
 -1       410 4.30544E+00-2.63870E+00 2.15580E-08 2.30735E-03 3.06480E-03 1.00953E-05
 -1       411 4.34601E+00-2.66390E+00 2.19439E-08 2.32806E-03 2.98669E-03 9.99027E-06
 -1       412 4.38604E+00-2.68805E+00 1.98038E-08 2.36489E-03 2.90941E-03 9.88426E-06
 -1       413 4.42649E+00-2.71284E+00 2.03925E-08 2.30270E-03 2.83296E-03 9.77727E-06
 -1       414 4.46727E+00-2.73819E+00 2.22413E-08 2.32139E-03 2.75734E-03 9.66928E-06
 -1       415 4.50763E+00-2.76279E+00 2.13438E-08 2.33056E-03 2.68256E-03 9.56032E-06
 -1       416 4.54838E+00-2.78782E+00 2.17768E-08 2.39703E-03 2.60864E-03 9.45037E-06
 -1       417 4.58850E+00-2.81193E+00 2.59650E-08 2.32819E-03 2.53557E-03 9.33944E-06
 -1       418 4.62951E+00-2.83750E+00 3.17684E-08 2.32220E-03 2.46338E-03 9.22749E-06
 -1       419 4.67041E+00-2.86267E+00 3.88705E-08 2.33048E-03 2.39205E-03 9.11453E-06
 -1       420 4.71102E+00-2.88735E+00 4.57725E-08 2.36457E-03 2.32161E-03 9.00056E-06
 -1       421 4.75187E+00-2.91241E+00 4.95788E-08 2.34135E-03 2.25206E-03 8.88559E-06
 -1       422 4.79289E+00-2.93777E+00 5.04064E-08 2.35340E-03 2.18340E-03 8.76962E-06
 -1       423 4.83351E+00-2.96232E+00 4.93853E-08 2.40762E-03 2.11565E-03 8.65267E-06
 -1       424 4.87442E+00-2.98733E+00 4.49705E-08 2.32382E-03 2.04882E-03 8.53472E-06
 -1       425 4.91587E+00-3.01324E+00 3.79651E-08 2.35600E-03 1.98290E-03 8.41579E-06
 -1       426 4.95641E+00-3.03761E+00 3.09035E-08 2.35704E-03 1.91792E-03 8.29590E-06
 -1       427 4.99807E+00-3.06363E+00 2.46721E-08 2.38842E-03 1.85387E-03 8.17503E-06
 -1       428 5.03862E+00-3.08797E+00 1.99698E-08 2.37996E-03 1.79076E-03 8.05318E-06
 -1       429 5.07982E+00-3.11340E+00 1.54311E-08 2.35712E-03 1.72861E-03 7.93035E-06
 -1       430 5.12137E+00-3.13905E+00 9.50327E-09 2.41180E-03 1.66741E-03 7.80654E-06
 -1       431 5.16203E+00-3.16344E+00 2.64242E-09 2.33117E-03 1.60718E-03 7.68174E-06
 -1       432 5.20411E+00-3.19016E+00-5.53350E-09 2.37358E-03 1.54792E-03 7.55597E-06
 -1       433 5.24455E+00-3.21412E+00-1.48365E-08 2.40549E-03 1.48965E-03 7.42923E-06
 -1       434 5.28600E+00-3.23960E+00-2.41220E-08 2.38277E-03 1.43237E-03 7.30151E-06
 -1       435 5.32788E+00-3.26579E+00-3.15301E-08 2.33777E-03 1.37608E-03 7.17282E-06
 -1       436 5.36865E+00-3.29027E+00-3.47398E-08 2.40230E-03 1.32080E-03 7.04313E-06
 -1       437 5.41055E+00-3.31647E+00-3.39868E-08 2.37112E-03 1.26653E-03 6.91245E-06
 -1       438 5.45146E+00-3.34096E+00-3.18251E-08 2.44523E-03 1.21328E-03 6.78077E-06
 -1       439 5.49295E+00-3.36648E+00-2.98201E-08 2.34570E-03 1.16106E-03 6.64807E-06
 -1       440 5.53473E+00-3.39248E+00-2.76916E-08 2.37162E-03 1.10988E-03 6.51435E-06
 -1       441 5.57606E+00-3.41757E+00-2.58152E-08 2.40864E-03 1.05974E-03 6.37962E-06
 -1       442 5.61745E+00-3.44281E+00-2.39938E-08 2.37532E-03 1.01065E-03 6.24388E-06
 -1       443 5.65958E+00-3.46931E+00-2.15856E-08 2.39611E-03 9.62619E-04 6.10713E-06
 -1       444 5.70012E+00-3.49320E+00-1.80369E-08 2.47358E-03 9.15658E-04 5.96937E-06
 -1       445 5.74178E+00-3.51870E+00-1.35520E-08 2.36287E-03 8.69772E-04 5.83057E-06
 -1       446 5.78438E+00-3.54588E+00-8.98662E-09 2.33297E-03 8.24970E-04 5.69075E-06
 -1       447 5.82494E+00-3.56982E+00-4.26373E-09 2.40939E-03 7.81260E-04 5.54991E-06
 -1       448 5.86740E+00-3.59655E+00-6.64006E-10 2.41464E-03 7.38649E-04 5.40805E-06
 -1       449 5.90832E+00-3.62095E+00 1.16026E-09 2.41420E-03 6.97145E-04 5.26517E-06
 -1       450 5.94989E+00-3.64648E+00 2.39856E-09 2.39336E-03 6.56756E-04 5.12127E-06
 -1       451 5.99217E+00-3.67294E+00 3.70589E-09 2.36276E-03 6.17491E-04 4.97636E-06
 -1       452 6.03333E+00-3.69766E+00 5.04390E-09 2.42319E-03 5.79356E-04 4.83043E-06
 -1       453 6.07560E+00-3.72409E+00 6.23122E-09 2.38684E-03 5.42360E-04 4.68349E-06
 -1       454 6.11658E+00-3.74865E+00 7.01836E-09 2.44241E-03 5.06511E-04 4.53554E-06
 -1       455 6.15814E+00-3.77399E+00 7.17529E-09 2.38583E-03 4.71816E-04 4.38657E-06
 -1       456 6.20095E+00-3.80123E+00 7.13562E-09 2.37481E-03 4.38284E-04 4.23659E-06
 -1       457 6.24162E+00-3.82511E+00 7.48513E-09 2.46416E-03 4.05922E-04 4.08560E-06
 -1       458 6.28369E+00-3.85135E+00 7.88069E-09 2.35041E-03 3.74738E-04 3.93359E-06
 -1       459 6.32552E+00-3.87703E+00 8.18902E-09 2.45877E-03 3.44740E-04 3.78057E-06
 -1       460 6.36682E+00-3.90189E+00 8.40391E-09 2.35860E-03 3.15937E-04 3.62654E-06
 -1       461 6.40921E+00-3.92856E+00 8.18538E-09 2.39958E-03 2.88335E-04 3.47149E-06
 -1       462 6.45049E+00-3.95345E+00 7.93230E-09 2.38329E-03 2.61943E-04 3.31543E-06
 -1       463 6.49236E+00-3.97911E+00 7.85269E-09 2.44601E-03 2.36769E-04 3.15836E-06
 -1       464 6.53452E+00-4.00539E+00 7.56574E-09 2.35674E-03 2.12820E-04 3.00027E-06
 -1       465 6.57561E+00-4.02995E+00 7.12373E-09 2.49346E-03 1.90104E-04 2.84117E-06
 -1       466 6.61723E+00-4.05544E+00 6.71887E-09 2.33651E-03 1.68630E-04 2.68107E-06
 -1       467 6.65997E+00-4.08228E+00 6.34565E-09 2.44477E-03 1.48404E-04 2.51995E-06
 -1       468 6.70096E+00-4.10691E+00 6.05250E-09 2.33115E-03 1.29436E-04 2.35781E-06
 -1       469 6.74325E+00-4.13314E+00 5.83359E-09 2.48968E-03 1.11733E-04 2.19466E-06
 -1       470 6.78466E+00-4.15848E+00 5.61485E-09 2.35655E-03 9.53019E-05 2.03051E-06
 -1       471 6.82624E+00-4.18322E+00 5.42586E-09 2.56458E-03 8.01518E-05 1.86534E-06
 -1       472 6.86815E+00-4.20973E+00 5.14189E-09 2.17343E-03 6.62902E-05 1.69915E-06
 -1       473 6.91043E+00-4.23540E+00 4.65050E-09 2.60280E-03 5.37248E-05 1.53195E-06
 -1       474 6.95175E+00-4.26117E+00 4.07861E-09 2.15045E-03 4.24639E-05 1.36374E-06
 -1       475 6.99421E+00-4.28655E+00 3.40013E-09 2.79084E-03 3.25150E-05 1.19451E-06
 -1       476 7.03345E+00-4.30990E+00 2.69291E-09 1.94871E-03 2.38862E-05 1.02428E-06
 -1       477 7.08132E+00-4.34338E+00 2.01949E-09 2.85219E-03 1.65852E-05 8.53037E-07
 -1       478 7.10793E+00-4.34524E+00 1.32121E-09 2.21491E-03 1.06201E-05 6.80782E-07
 -1       479 7.19782E+00-4.45334E+00 6.23646E-10 1.13213E-03 5.99826E-06 5.07496E-07
 -1       480 7.07079E+00-4.18000E+00-2.39622E-12 9.58412E-03 2.72831E-06 3.33279E-07
 -1       481 7.72153E+00-5.29631E+00-1.02917E-09-2.69279E-02 8.17526E-07 1.57752E-07
 -1       482 5.01692E+00-9.73929E-01-1.78080E-09 1.07441E-01 2.01873E-07 6.95355E-08
 -1       483 2.81649E-05-3.35825E-06-1.03029E-08-4.19945E-08-2.24327E-02-1.10639E-05
 -1       484 1.35497E-04-6.92744E-05-2.02630E-08 4.08632E-05-2.23682E-02-1.10639E-05
 -1       485 4.66802E-04-2.72130E-04-3.07764E-08 8.15687E-05-2.22391E-02-1.10640E-05
 -1       486 1.01957E-03-6.11342E-04-2.11954E-08 1.22104E-04-2.21100E-02-1.10640E-05
 -1       487 1.78942E-03-1.08280E-03 5.85180E-09 1.62102E-04-2.19809E-02-1.10640E-05
 -1       488 2.77940E-03-1.69097E-03 4.28588E-08 2.02292E-04-2.18518E-02-1.10638E-05
 -1       489 3.97968E-03-2.42420E-03 7.86206E-08 2.41970E-04-2.17227E-02-1.10636E-05
 -1       490 5.40285E-03-3.29957E-03 1.05662E-07 2.81143E-04-2.15936E-02-1.10632E-05
 -1       491 7.03201E-03-4.29575E-03 1.24302E-07 3.20849E-04-2.14646E-02-1.10627E-05
 -1       492 8.87819E-03-5.42859E-03 1.37191E-07 3.59244E-04-2.13355E-02-1.10622E-05
 -1       493 1.09368E-02-6.69158E-03 1.36326E-07 3.98315E-04-2.12064E-02-1.10615E-05
 -1       494 1.31954E-02-8.07196E-03 1.17134E-07 4.37566E-04-2.10774E-02-1.10608E-05
 -1       495 1.56756E-02-9.59581E-03 9.60622E-08 4.73890E-04-2.09483E-02-1.10601E-05
 -1       496 1.83573E-02-1.12407E-02 8.20730E-08 5.14494E-04-2.08193E-02-1.10593E-05
 -1       497 2.12360E-02-1.30001E-02 6.99239E-08 5.49810E-04-2.06902E-02-1.10585E-05
 -1       498 2.43342E-02-1.49005E-02 6.21781E-08 5.88272E-04-2.05612E-02-1.10576E-05
 -1       499 2.76319E-02-1.69289E-02 7.09850E-08 6.28032E-04-2.04322E-02-1.10566E-05
 -1       500 3.11147E-02-1.90496E-02 1.01480E-07 6.61508E-04-2.03032E-02-1.10554E-05
 -1       501 3.48294E-02-2.13415E-02 1.40747E-07 7.01299E-04-2.01742E-02-1.10541E-05
 -1       502 3.87122E-02-2.37103E-02 1.73301E-07 7.35210E-04-2.00453E-02-1.10525E-05
 -1       503 4.28181E-02-2.62330E-02 1.98884E-07 7.73134E-04-1.99163E-02-1.10508E-05
 -1       504 4.71096E-02-2.88661E-02 2.14941E-07 8.10907E-04-1.97874E-02-1.10488E-05
 -1       505 5.15802E-02-3.15910E-02 2.32095E-07 8.44349E-04-1.96585E-02-1.10467E-05
 -1       506 5.62870E-02-3.44966E-02 2.55884E-07 8.80858E-04-1.95296E-02-1.10443E-05
 -1       507 6.11444E-02-3.74581E-02 2.62225E-07 9.15773E-04-1.94008E-02-1.10418E-05
 -1       508 6.62210E-02-4.05776E-02 2.41366E-07 9.52217E-04-1.92719E-02-1.10392E-05
 -1       509 7.14747E-02-4.37952E-02 1.96673E-07 9.87079E-04-1.91432E-02-1.10364E-05
 -1       510 7.69162E-02-4.71267E-02 1.36316E-07 1.02052E-03-1.90144E-02-1.10336E-05
 -1       511 8.25626E-02-5.05943E-02 8.09630E-08 1.05427E-03-1.88857E-02-1.10308E-05
 -1       512 8.83854E-02-5.41640E-02 4.00245E-08 1.09178E-03-1.87570E-02-1.10278E-05
 -1       513 9.43795E-02-5.78300E-02 7.03104E-09 1.12504E-03-1.86283E-02-1.10248E-05
 -1       514 1.00573E-01-6.16256E-02-2.69235E-08 1.15712E-03-1.84997E-02-1.10217E-05
 -1       515 1.06963E-01-6.55565E-02-6.43368E-08 1.19150E-03-1.83711E-02-1.10184E-05
 -1       516 1.13502E-01-6.95472E-02-8.55241E-08 1.22404E-03-1.82426E-02-1.10151E-05
 -1       517 1.20246E-01-7.36904E-02-7.54772E-08 1.25937E-03-1.81141E-02-1.10115E-05
 -1       518 1.27157E-01-7.79220E-02-5.36817E-08 1.28998E-03-1.79856E-02-1.10076E-05
 -1       519 1.34258E-01-8.22780E-02-3.97249E-08 1.32505E-03-1.78572E-02-1.10035E-05
 -1       520 1.41518E-01-8.67252E-02-3.00387E-08 1.35760E-03-1.77289E-02-1.09991E-05
 -1       521 1.48962E-01-9.12817E-02-2.16039E-08 1.38425E-03-1.76006E-02-1.09945E-05
 -1       522 1.56596E-01-9.59733E-02-1.75688E-08 1.42324E-03-1.74723E-02-1.09896E-05
 -1       523 1.64384E-01-1.00747E-01-2.18923E-08 1.45203E-03-1.73441E-02-1.09844E-05
 -1       524 1.72335E-01-1.05608E-01-3.85939E-08 1.48499E-03-1.72160E-02-1.09791E-05
 -1       525 1.80466E-01-1.10588E-01-6.83075E-08 1.51315E-03-1.70879E-02-1.09735E-05
 -1       526 1.88798E-01-1.15722E-01-1.14054E-07 1.54553E-03-1.69599E-02-1.09677E-05
 -1       527 1.97240E-01-1.20868E-01-1.59313E-07 1.57480E-03-1.68320E-02-1.09618E-05
 -1       528 2.05880E-01-1.26169E-01-1.89643E-07 1.60913E-03-1.67041E-02-1.09557E-05
 -1       529 2.14691E-01-1.31579E-01-2.17532E-07 1.63725E-03-1.65763E-02-1.09494E-05
 -1       530 2.23668E-01-1.37085E-01-2.44244E-07 1.66749E-03-1.64486E-02-1.09429E-05
 -1       531 2.32773E-01-1.42658E-01-2.67128E-07 1.69945E-03-1.63210E-02-1.09361E-05
 -1       532 2.42052E-01-1.48323E-01-2.88973E-07 1.71826E-03-1.61934E-02-1.09291E-05
 -1       533 2.51549E-01-1.54184E-01-3.15816E-07 1.76359E-03-1.60659E-02-1.09218E-05
 -1       534 2.61115E-01-1.60022E-01-3.35881E-07 1.78790E-03-1.59385E-02-1.09143E-05
 -1       535 2.70886E-01-1.66010E-01-3.30831E-07 1.81226E-03-1.58112E-02-1.09065E-05
 -1       536 2.80824E-01-1.72115E-01-3.15018E-07 1.84289E-03-1.56840E-02-1.08983E-05
 -1       537 2.90913E-01-1.78303E-01-3.01270E-07 1.86642E-03-1.55569E-02-1.08898E-05
 -1       538 3.01119E-01-1.84538E-01-2.94457E-07 1.90848E-03-1.54299E-02-1.08810E-05
 -1       539 3.11489E-01-1.90890E-01-2.93485E-07 1.92504E-03-1.53030E-02-1.08718E-05
 -1       540 3.22060E-01-1.97393E-01-2.87988E-07 1.95578E-03-1.51762E-02-1.08622E-05
 -1       541 3.32753E-01-2.03950E-01-2.81317E-07 1.98280E-03-1.50495E-02-1.08523E-05
 -1       542 3.43540E-01-2.10534E-01-2.84319E-07 2.01381E-03-1.49230E-02-1.08421E-05
 -1       543 3.54531E-01-2.17266E-01-3.00521E-07 2.02803E-03-1.47965E-02-1.08315E-05
 -1       544 3.65722E-01-2.24177E-01-3.10809E-07 2.07109E-03-1.46702E-02-1.08206E-05
 -1       545 3.76931E-01-2.31008E-01-3.01593E-07 2.09436E-03-1.45440E-02-1.08093E-05
 -1       546 3.88340E-01-2.37982E-01-2.83190E-07 2.11093E-03-1.44180E-02-1.07976E-05
 -1       547 3.99916E-01-2.45096E-01-2.62203E-07 2.14720E-03-1.42921E-02-1.07855E-05
 -1       548 4.11670E-01-2.52340E-01-2.40790E-07 2.16175E-03-1.41663E-02-1.07730E-05
 -1       549 4.23447E-01-2.59507E-01-2.21939E-07 2.20775E-03-1.40407E-02-1.07600E-05
 -1       550 4.35403E-01-2.66824E-01-1.95889E-07 2.21624E-03-1.39152E-02-1.07466E-05
 -1       551 4.47628E-01-2.74395E-01-1.52018E-07 2.24618E-03-1.37899E-02-1.07327E-05
 -1       552 4.59769E-01-2.81756E-01-9.74326E-08 2.27546E-03-1.36647E-02-1.07184E-05
 -1       553 4.72189E-01-2.89385E-01-4.33650E-08 2.28274E-03-1.35398E-02-1.07034E-05
 -1       554 4.84754E-01-2.97117E-01 4.50826E-09 2.32950E-03-1.34150E-02-1.06880E-05
 -1       555 4.97392E-01-3.04861E-01 5.09846E-08 2.34457E-03-1.32904E-02-1.06720E-05
 -1       556 5.10146E-01-3.12645E-01 1.00372E-07 2.37374E-03-1.31659E-02-1.06556E-05
 -1       557 5.23050E-01-3.20553E-01 1.41548E-07 2.38780E-03-1.30417E-02-1.06386E-05
 -1       558 5.36148E-01-3.28610E-01 1.66640E-07 2.40628E-03-1.29177E-02-1.06210E-05
 -1       559 5.49365E-01-3.36749E-01 1.82728E-07 2.44955E-03-1.27939E-02-1.06031E-05
 -1       560 5.62540E-01-3.44733E-01 1.95050E-07 2.46325E-03-1.26703E-02-1.05846E-05
 -1       561 5.75969E-01-3.52954E-01 2.02322E-07 2.48706E-03-1.25469E-02-1.05657E-05
 -1       562 5.89678E-01-3.61496E-01 2.06329E-07 2.50745E-03-1.24237E-02-1.05464E-05
 -1       563 6.03179E-01-3.69637E-01 2.12735E-07 2.53704E-03-1.23008E-02-1.05266E-05
 -1       564 6.17030E-01-3.78161E-01 2.23552E-07 2.53653E-03-1.21781E-02-1.05063E-05
 -1       565 6.30983E-01-3.86743E-01 2.33706E-07 2.58730E-03-1.20556E-02-1.04856E-05
 -1       566 6.45003E-01-3.95337E-01 2.35597E-07 2.59707E-03-1.19334E-02-1.04644E-05
 -1       567 6.59118E-01-4.03955E-01 2.31180E-07 2.62515E-03-1.18114E-02-1.04427E-05
 -1       568 6.73336E-01-4.12636E-01 2.29747E-07 2.63428E-03-1.16897E-02-1.04206E-05
 -1       569 6.87889E-01-4.21679E-01 2.20687E-07 2.64853E-03-1.15682E-02-1.03980E-05
 -1       570 7.02250E-01-4.30369E-01 1.98583E-07 2.70303E-03-1.14470E-02-1.03751E-05
 -1       571 7.16840E-01-4.39317E-01 1.82630E-07 2.69633E-03-1.13261E-02-1.03516E-05
 -1       572 7.31663E-01-4.48459E-01 1.74134E-07 2.72417E-03-1.12055E-02-1.03278E-05
 -1       573 7.46496E-01-4.57578E-01 1.62620E-07 2.74245E-03-1.10851E-02-1.03035E-05
 -1       574 7.61347E-01-4.66571E-01 1.41156E-07 2.75148E-03-1.09651E-02-1.02787E-05
 -1       575 7.76400E-01-4.75801E-01 1.09279E-07 2.80033E-03-1.08453E-02-1.02535E-05
 -1       576 7.91651E-01-4.85254E-01 7.54077E-08 2.80205E-03-1.07258E-02-1.02279E-05
 -1       577 8.06921E-01-4.94586E-01 4.36406E-08 2.82327E-03-1.06066E-02-1.02019E-05
 -1       578 8.22181E-01-5.03877E-01 1.62627E-08 2.85026E-03-1.04877E-02-1.01755E-05
 -1       579 8.37675E-01-5.13366E-01-5.77095E-09 2.83829E-03-1.03691E-02-1.01487E-05
 -1       580 8.53419E-01-5.23149E-01-2.55695E-08 2.89607E-03-1.02509E-02-1.01213E-05
 -1       581 8.68886E-01-5.32481E-01-3.91807E-08 2.90726E-03-1.01330E-02-1.00936E-05
 -1       582 8.84714E-01-5.42214E-01-3.96556E-08 2.90855E-03-1.00154E-02-1.00653E-05
 -1       583 9.00676E-01-5.52054E-01-3.02789E-08 2.93572E-03-9.89808E-03-1.00365E-05
 -1       584 9.16614E-01-5.61816E-01-1.73550E-08 2.95268E-03-9.78115E-03-1.00071E-05
 -1       585 9.32652E-01-5.71594E-01-8.73158E-09 2.96264E-03-9.66456E-03-9.97725E-06
 -1       586 9.48795E-01-5.81471E-01-8.72111E-09 2.99876E-03-9.54833E-03-9.94683E-06
 -1       587 9.65157E-01-5.91611E-01-7.33700E-09 3.00387E-03-9.43245E-03-9.91588E-06
 -1       588 9.81492E-01-6.01565E-01 1.40803E-09 3.01487E-03-9.31694E-03-9.88440E-06
 -1       589 9.97795E-01-6.11470E-01 1.25235E-08 3.05908E-03-9.20179E-03-9.85237E-06
 -1       590 1.01442E+00-6.21726E-01 2.35292E-08 3.02811E-03-9.08703E-03-9.81976E-06
 -1       591 1.03121E+00-6.32134E-01 3.58377E-08 3.09202E-03-8.97264E-03-9.78659E-06
 -1       592 1.04768E+00-6.42055E-01 4.93305E-08 3.09889E-03-8.85865E-03-9.75286E-06
 -1       593 1.06456E+00-6.52446E-01 5.51650E-08 3.09589E-03-8.74506E-03-9.71857E-06
 -1       594 1.08149E+00-6.62871E-01 5.30201E-08 3.11933E-03-8.63186E-03-9.68372E-06
 -1       595 1.09853E+00-6.73336E-01 4.77307E-08 3.11708E-03-8.51908E-03-9.64833E-06
 -1       596 1.11548E+00-6.83643E-01 3.79865E-08 3.18467E-03-8.40672E-03-9.61242E-06
 -1       597 1.13256E+00-6.94070E-01 3.16838E-08 3.15528E-03-8.29477E-03-9.57597E-06
 -1       598 1.15005E+00-7.04994E-01 2.97073E-08 3.18295E-03-8.18326E-03-9.53896E-06
 -1       599 1.16708E+00-7.15228E-01 2.87336E-08 3.20655E-03-8.07218E-03-9.50141E-06
 -1       600 1.18453E+00-7.25950E-01 3.34676E-08 3.18063E-03-7.96154E-03-9.46329E-06
 -1       601 1.20218E+00-7.36921E-01 4.10142E-08 3.24802E-03-7.85135E-03-9.42458E-06
 -1       602 1.21956E+00-7.47450E-01 4.41451E-08 3.22825E-03-7.74161E-03-9.38531E-06
 -1       603 1.23712E+00-7.58148E-01 4.40770E-08 3.27921E-03-7.63234E-03-9.34546E-06
 -1       604 1.25490E+00-7.69146E-01 4.63361E-08 3.25640E-03-7.52353E-03-9.30503E-06
 -1       605 1.27266E+00-7.80028E-01 5.15785E-08 3.28053E-03-7.41520E-03-9.26402E-06
 -1       606 1.29061E+00-7.91076E-01 5.74854E-08 3.27080E-03-7.30736E-03-9.22242E-06
 -1       607 1.30838E+00-8.01865E-01 6.04945E-08 3.34759E-03-7.20000E-03-9.18024E-06
 -1       608 1.32628E+00-8.12794E-01 6.25423E-08 3.30781E-03-7.09313E-03-9.13747E-06
 -1       609 1.34466E+00-8.24295E-01 6.71135E-08 3.33332E-03-6.98677E-03-9.09410E-06
 -1       610 1.36246E+00-8.34965E-01 6.72493E-08 3.36011E-03-6.88092E-03-9.05015E-06
 -1       611 1.38074E+00-8.46216E-01 5.66936E-08 3.32139E-03-6.77558E-03-9.00562E-06
 -1       612 1.39913E+00-8.57585E-01 3.66535E-08 3.39803E-03-6.67077E-03-8.96054E-06
 -1       613 1.41739E+00-8.68745E-01 1.26428E-08 3.38317E-03-6.56649E-03-8.91492E-06
 -1       614 1.43577E+00-8.80014E-01-4.37701E-09 3.40725E-03-6.46274E-03-8.86876E-06
 -1       615 1.45403E+00-8.91034E-01-1.15961E-08 3.38200E-03-6.35953E-03-8.82203E-06
 -1       616 1.47289E+00-9.02841E-01-1.59276E-08 3.40584E-03-6.25688E-03-8.77470E-06
 -1       617 1.49130E+00-9.14009E-01-1.98381E-08 3.47165E-03-6.15478E-03-8.72679E-06
 -1       618 1.50982E+00-9.25296E-01-2.30844E-08 3.42674E-03-6.05324E-03-8.67829E-06
 -1       619 1.52874E+00-9.37025E-01-2.65487E-08 3.45237E-03-5.95227E-03-8.62919E-06
 -1       620 1.54750E+00-9.48532E-01-2.88990E-08 3.46208E-03-5.85187E-03-8.57950E-06
 -1       621 1.56610E+00-9.59788E-01-2.81297E-08 3.48763E-03-5.75206E-03-8.52920E-06
 -1       622 1.58507E+00-9.71446E-01-2.27710E-08 3.44058E-03-5.65284E-03-8.47827E-06
 -1       623 1.60412E+00-9.83224E-01-1.23749E-08 3.52467E-03-5.55422E-03-8.42672E-06
 -1       624 1.62306E+00-9.94818E-01-2.29583E-09 3.50258E-03-5.45620E-03-8.37453E-06
 -1       625 1.64201E+00-1.00636E+00 2.44824E-09 3.53008E-03-5.35880E-03-8.32171E-06
 -1       626 1.66099E+00-1.01792E+00 1.91342E-09 3.50701E-03-5.26202E-03-8.26827E-06
 -1       627 1.68051E+00-1.03015E+00-2.59814E-09 3.50353E-03-5.16586E-03-8.21421E-06
 -1       628 1.69947E+00-1.04160E+00-8.30531E-09 3.58766E-03-5.07034E-03-8.15955E-06
 -1       629 1.71855E+00-1.05318E+00-1.29713E-08 3.52181E-03-4.97546E-03-8.10428E-06
 -1       630 1.73807E+00-1.06528E+00-1.71868E-08 3.57954E-03-4.88123E-03-8.04839E-06
 -1       631 1.75747E+00-1.07727E+00-2.01083E-08 3.56357E-03-4.78765E-03-7.99188E-06
 -1       632 1.77671E+00-1.08889E+00-2.05696E-08 3.56470E-03-4.69473E-03-7.93476E-06
 -1       633 1.79609E+00-1.10073E+00-1.97565E-08 3.60590E-03-4.60249E-03-7.87700E-06
 -1       634 1.81586E+00-1.11312E+00-2.08778E-08 3.59024E-03-4.51093E-03-7.81862E-06
 -1       635 1.83512E+00-1.12467E+00-2.41316E-08 3.62189E-03-4.42004E-03-7.75961E-06
 -1       636 1.85463E+00-1.13662E+00-2.54122E-08 3.59407E-03-4.32986E-03-7.69998E-06
 -1       637 1.87451E+00-1.14896E+00-2.58848E-08 3.58311E-03-4.24037E-03-7.63971E-06
 -1       638 1.89417E+00-1.16102E+00-2.74316E-08 3.66239E-03-4.15158E-03-7.57881E-06
 -1       639 1.91358E+00-1.17274E+00-2.64526E-08 3.65201E-03-4.06352E-03-7.51727E-06
 -1       640 1.93341E+00-1.18495E+00-2.44884E-08 3.62254E-03-3.97617E-03-7.45510E-06
 -1       641 1.95333E+00-1.19725E+00-2.68033E-08 3.64899E-03-3.88955E-03-7.39228E-06
 -1       642 1.97318E+00-1.20951E+00-3.35191E-08 3.65104E-03-3.80367E-03-7.32883E-06
 -1       643 1.99279E+00-1.22126E+00-3.93070E-08 3.62861E-03-3.71853E-03-7.26477E-06
 -1       644 2.01263E+00-1.23337E+00-4.11254E-08 3.71201E-03-3.63415E-03-7.20006E-06
 -1       645 2.03302E+00-1.24633E+00-3.98485E-08 3.66890E-03-3.55052E-03-7.13470E-06
 -1       646 2.05255E+00-1.25788E+00-3.55851E-08 3.70372E-03-3.46766E-03-7.06870E-06
 -1       647 2.07255E+00-1.27021E+00-2.90220E-08 3.66754E-03-3.38557E-03-7.00204E-06
 -1       648 2.09282E+00-1.28277E+00-2.18355E-08 3.65539E-03-3.30427E-03-6.93471E-06
 -1       649 2.11291E+00-1.29510E+00-1.68436E-08 3.74039E-03-3.22375E-03-6.86672E-06
 -1       650 2.13270E+00-1.30705E+00-1.51039E-08 3.72493E-03-3.14404E-03-6.79808E-06
 -1       651 2.15287E+00-1.31939E+00-1.59900E-08 3.69383E-03-3.06512E-03-6.72878E-06
 -1       652 2.17335E+00-1.33226E+00-1.64251E-08 3.71159E-03-2.98702E-03-6.65883E-06
 -1       653 2.19321E+00-1.34411E+00-1.49363E-08 3.70546E-03-2.90974E-03-6.58823E-06
 -1       654 2.21346E+00-1.35658E+00-1.51788E-08 3.75259E-03-2.83329E-03-6.51698E-06
 -1       655 2.23379E+00-1.36913E+00-1.65651E-08 3.72844E-03-2.75767E-03-6.44506E-06
 -1       656 2.25427E+00-1.38185E+00-1.59948E-08 3.73578E-03-2.68289E-03-6.37250E-06
 -1       657 2.27409E+00-1.39362E+00-1.61645E-08 3.74248E-03-2.60897E-03-6.29929E-06
 -1       658 2.29449E+00-1.40613E+00-1.91211E-08 3.71218E-03-2.53590E-03-6.22542E-06
 -1       659 2.31524E+00-1.41922E+00-2.30100E-08 3.79229E-03-2.46370E-03-6.15089E-06
 -1       660 2.33539E+00-1.43141E+00-2.77034E-08 3.75248E-03-2.39237E-03-6.07572E-06
 -1       661 2.35566E+00-1.44373E+00-3.23938E-08 3.78432E-03-2.32193E-03-5.99990E-06
 -1       662 2.37603E+00-1.45615E+00-3.49699E-08 3.74463E-03-2.25237E-03-5.92343E-06
 -1       663 2.39684E+00-1.46926E+00-3.53837E-08 3.76352E-03-2.18371E-03-5.84630E-06
 -1       664 2.41695E+00-1.48123E+00-3.46140E-08 3.75372E-03-2.11595E-03-5.76851E-06
 -1       665 2.43747E+00-1.49386E+00-3.16784E-08 3.80269E-03-2.04910E-03-5.69005E-06
 -1       666 2.45810E+00-1.50664E+00-2.69524E-08 3.77565E-03-1.98317E-03-5.61092E-06
 -1       667 2.47872E+00-1.51932E+00-2.23785E-08 3.78395E-03-1.91817E-03-5.53112E-06
 -1       668 2.49893E+00-1.53151E+00-1.83511E-08 3.80900E-03-1.85411E-03-5.45064E-06
 -1       669 2.51951E+00-1.54406E+00-1.51373E-08 3.72461E-03-1.79098E-03-5.36949E-06
 -1       670 2.54071E+00-1.55759E+00-1.19959E-08 3.83575E-03-1.72881E-03-5.28766E-06
 -1       671 2.56049E+00-1.56907E+00-8.05245E-09 3.80036E-03-1.66760E-03-5.20517E-06
 -1       672 2.58129E+00-1.58194E+00-3.55154E-09 3.80422E-03-1.60735E-03-5.12199E-06
 -1       673 2.60221E+00-1.59507E+00 1.94960E-09 3.79589E-03-1.54808E-03-5.03813E-06
 -1       674 2.62284E+00-1.60762E+00 8.20228E-09 3.75656E-03-1.48979E-03-4.95359E-06
 -1       675 2.64327E+00-1.61999E+00 1.44535E-08 3.88666E-03-1.43249E-03-4.86837E-06
 -1       676 2.66383E+00-1.63255E+00 1.93760E-08 3.78352E-03-1.37619E-03-4.78247E-06
 -1       677 2.68486E+00-1.64567E+00 2.14035E-08 3.81397E-03-1.32090E-03-4.69589E-06
 -1       678 2.70547E+00-1.65827E+00 2.09861E-08 3.80992E-03-1.26661E-03-4.60864E-06
 -1       679 2.72601E+00-1.67069E+00 1.96140E-08 3.79628E-03-1.21336E-03-4.52073E-06
 -1       680 2.74670E+00-1.68332E+00 1.82386E-08 3.85085E-03-1.16113E-03-4.43214E-06
 -1       681 2.76784E+00-1.69669E+00 1.68159E-08 3.81452E-03-1.10994E-03-4.34289E-06
 -1       682 2.78813E+00-1.70871E+00 1.54692E-08 3.85242E-03-1.05979E-03-4.25297E-06
 -1       683 2.80892E+00-1.72148E+00 1.41946E-08 3.80255E-03-1.01070E-03-4.16238E-06
 -1       684 2.82998E+00-1.73471E+00 1.26558E-08 3.81619E-03-9.62663E-04-4.07112E-06
 -1       685 2.85069E+00-1.74722E+00 1.03159E-08 3.75812E-03-9.15698E-04-3.97920E-06
 -1       686 2.87116E+00-1.75956E+00 7.32674E-09 3.94454E-03-8.69811E-04-3.88662E-06
 -1       687 2.89201E+00-1.77247E+00 4.38121E-09 3.79809E-03-8.25008E-04-3.79336E-06
 -1       688 2.91335E+00-1.78591E+00 1.28017E-09 3.83593E-03-7.81296E-04-3.69944E-06
 -1       689 2.93348E+00-1.79774E+00-1.19698E-09 3.85739E-03-7.38684E-04-3.60485E-06
 -1       690 2.95449E+00-1.81074E+00-2.42084E-09 3.75951E-03-6.97180E-04-3.50960E-06
 -1       691 2.97560E+00-1.82388E+00-3.25739E-09 3.89588E-03-6.56791E-04-3.41367E-06
 -1       692 2.99624E+00-1.83646E+00-4.14136E-09 3.83266E-03-6.17525E-04-3.31707E-06
 -1       693 3.01700E+00-1.84907E+00-5.01248E-09 3.87070E-03-5.79390E-04-3.21981E-06
 -1       694 3.03765E+00-1.86164E+00-5.84196E-09 3.81199E-03-5.42394E-04-3.12187E-06
 -1       695 3.05893E+00-1.87495E+00-6.37958E-09 3.78571E-03-5.06544E-04-3.02325E-06
 -1       696 3.07975E+00-1.88768E+00-6.46789E-09 3.90229E-03-4.71849E-04-2.92396E-06
 -1       697 3.10035E+00-1.90023E+00-6.46642E-09 3.86579E-03-4.38317E-04-2.82400E-06
 -1       698 3.12102E+00-1.91262E+00-6.67583E-09 3.79441E-03-4.05954E-04-2.72336E-06
 -1       699 3.14238E+00-1.92616E+00-6.95169E-09 3.87246E-03-3.74770E-04-2.62205E-06
 -1       700 3.16298E+00-1.93858E+00-7.15807E-09 3.81472E-03-3.44771E-04-2.52006E-06
 -1       701 3.18378E+00-1.95122E+00-7.27277E-09 3.88243E-03-3.15967E-04-2.41740E-06
 -1       702 3.20482E+00-1.96433E+00-7.15878E-09 3.84062E-03-2.88364E-04-2.31407E-06
 -1       703 3.22584E+00-1.97727E+00-6.98251E-09 3.84801E-03-2.61971E-04-2.21005E-06
 -1       704 3.24633E+00-1.98955E+00-6.90003E-09 3.88044E-03-2.36795E-04-2.10537E-06
 -1       705 3.26722E+00-2.00239E+00-6.73285E-09 3.81552E-03-2.12845E-04-2.00000E-06
 -1       706 3.28840E+00-2.01557E+00-6.43263E-09 3.78857E-03-1.90128E-04-1.89396E-06
 -1       707 3.30947E+00-2.02855E+00-6.15818E-09 3.91303E-03-1.68652E-04-1.78725E-06
 -1       708 3.32967E+00-2.04058E+00-5.93653E-09 3.87900E-03-1.48425E-04-1.67986E-06
 -1       709 3.35094E+00-2.05373E+00-5.73680E-09 3.81859E-03-1.29455E-04-1.57179E-06
 -1       710 3.37190E+00-2.06684E+00-5.57687E-09 3.84563E-03-1.11750E-04-1.46304E-06
 -1       711 3.39296E+00-2.07964E+00-5.44044E-09 3.81445E-03-9.53173E-05-1.35362E-06
 -1       712 3.41302E+00-2.09149E+00-5.32108E-09 3.86707E-03-8.01654E-05-1.24353E-06
 -1       713 3.43492E+00-2.10544E+00-5.11526E-09 3.87468E-03-6.63020E-05-1.13275E-06
 -1       714 3.45510E+00-2.11770E+00-4.80372E-09 3.85157E-03-5.37348E-05-1.02130E-06
 -1       715 3.47680E+00-2.13107E+00-4.42925E-09 3.87327E-03-4.24720E-05-9.09172E-07
 -1       716 3.49605E+00-2.14228E+00-3.96442E-09 3.76339E-03-3.25214E-05-7.96372E-07
 -1       717 3.51937E+00-2.15738E+00-3.49788E-09 3.92686E-03-2.38908E-05-6.82887E-07
 -1       718 3.53905E+00-2.17033E+00-3.04916E-09 3.81051E-03-1.65882E-05-5.68729E-07
 -1       719 3.55385E+00-2.17108E+00-2.58069E-09 4.11087E-03-1.06214E-05-4.53899E-07
 -1       720 3.60769E+00-2.23884E+00-2.11429E-09 2.74553E-03-5.99837E-06-3.38373E-07
 -1       721 3.49765E+00-2.04117E+00-1.68331E-09 7.91672E-03-2.72699E-06-2.22233E-07
 -1       722 4.00868E+00-2.83318E+00-1.14292E-09-1.12003E-02-8.15279E-07-1.05186E-07
 -1       723 2.28743E+00-1.41742E-03-7.99010E-10 6.00614E-02-2.00113E-07-4.63426E-08
 -1       724 2.81077E-05-3.35545E-06 1.03029E-08 5.25729E-08 2.24319E-02 1.10662E-05
 -1       725 1.35396E-04-6.92295E-05 2.02630E-08 4.09388E-05 2.23673E-02 1.10661E-05
 -1       726 4.66650E-04-2.72079E-04 3.07764E-08 8.15718E-05 2.22383E-02 1.10661E-05
 -1       727 1.01946E-03-6.11285E-04 2.11954E-08 1.22026E-04 2.21092E-02 1.10660E-05
 -1       728 1.78945E-03-1.08281E-03-5.85180E-09 1.61958E-04 2.19801E-02 1.10659E-05
 -1       729 2.77963E-03-1.69105E-03-4.28588E-08 2.02133E-04 2.18510E-02 1.10659E-05
 -1       730 3.98008E-03-2.42435E-03-7.86206E-08 2.41835E-04 2.17220E-02 1.10659E-05
 -1       731 5.40340E-03-3.29977E-03-1.05662E-07 2.81044E-04 2.15929E-02 1.10660E-05
 -1       732 7.03267E-03-4.29601E-03-1.24302E-07 3.20782E-04 2.14638E-02 1.10661E-05
 -1       733 8.87891E-03-5.42886E-03-1.37191E-07 3.59204E-04 2.13347E-02 1.10661E-05
 -1       734 1.09375E-02-6.69186E-03-1.36326E-07 3.98373E-04 2.12056E-02 1.10661E-05
 -1       735 1.31961E-02-8.07218E-03-1.17134E-07 4.37664E-04 2.10766E-02 1.10661E-05
 -1       736 1.56761E-02-9.59601E-03-9.60622E-08 4.73955E-04 2.09475E-02 1.10658E-05
 -1       737 1.83577E-02-1.12408E-02-8.20730E-08 5.14545E-04 2.08184E-02 1.10655E-05
 -1       738 2.12363E-02-1.30003E-02-6.99239E-08 5.49868E-04 2.06893E-02 1.10651E-05
 -1       739 2.43346E-02-1.49006E-02-6.21781E-08 5.88278E-04 2.05603E-02 1.10645E-05
 -1       740 2.76323E-02-1.69290E-02-7.09850E-08 6.27941E-04 2.04312E-02 1.10638E-05
 -1       741 3.11153E-02-1.90498E-02-1.01480E-07 6.61353E-04 2.03022E-02 1.10631E-05
 -1       742 3.48301E-02-2.13417E-02-1.40747E-07 7.01147E-04 2.01731E-02 1.10623E-05
 -1       743 3.87131E-02-2.37107E-02-1.73301E-07 7.35087E-04 2.00441E-02 1.10615E-05
 -1       744 4.28191E-02-2.62334E-02-1.98884E-07 7.73043E-04 1.99151E-02 1.10606E-05
 -1       745 4.71107E-02-2.88665E-02-2.14941E-07 8.10855E-04 1.97861E-02 1.10596E-05
 -1       746 5.15814E-02-3.15915E-02-2.32095E-07 8.44244E-04 1.96571E-02 1.10586E-05
 -1       747 5.62883E-02-3.44971E-02-2.55884E-07 8.80773E-04 1.95281E-02 1.10574E-05
 -1       748 6.11458E-02-3.74586E-02-2.62225E-07 9.15818E-04 1.93991E-02 1.10561E-05
 -1       749 6.62223E-02-4.05781E-02-2.41366E-07 9.52355E-04 1.92702E-02 1.10547E-05
 -1       750 7.14758E-02-4.37956E-02-1.96673E-07 9.87313E-04 1.91413E-02 1.10530E-05
 -1       751 7.69169E-02-4.71270E-02-1.36316E-07 1.02078E-03 1.90123E-02 1.10510E-05
 -1       752 8.25630E-02-5.05944E-02-8.09630E-08 1.05446E-03 1.88835E-02 1.10486E-05
 -1       753 8.83856E-02-5.41641E-02-4.00245E-08 1.09193E-03 1.87546E-02 1.10460E-05
 -1       754 9.43796E-02-5.78300E-02-7.03104E-09 1.12518E-03 1.86258E-02 1.10431E-05
 -1       755 1.00573E-01-6.16256E-02 2.69235E-08 1.15727E-03 1.84970E-02 1.10400E-05
 -1       756 1.06962E-01-6.55564E-02 6.43368E-08 1.19165E-03 1.83682E-02 1.10365E-05
 -1       757 1.13501E-01-6.95470E-02 8.55241E-08 1.22407E-03 1.82395E-02 1.10327E-05
 -1       758 1.20245E-01-7.36903E-02 7.54772E-08 1.25927E-03 1.81109E-02 1.10288E-05
 -1       759 1.27157E-01-7.79219E-02 5.36817E-08 1.28990E-03 1.79822E-02 1.10246E-05
 -1       760 1.34257E-01-8.22779E-02 3.97249E-08 1.32501E-03 1.78537E-02 1.10203E-05
 -1       761 1.41518E-01-8.67251E-02 3.00387E-08 1.35756E-03 1.77251E-02 1.10157E-05
 -1       762 1.48961E-01-9.12816E-02 2.16039E-08 1.38423E-03 1.75967E-02 1.10110E-05
 -1       763 1.56596E-01-9.59733E-02 1.75688E-08 1.42323E-03 1.74683E-02 1.10060E-05
 -1       764 1.64384E-01-1.00747E-01 2.18923E-08 1.45207E-03 1.73399E-02 1.10007E-05
 -1       765 1.72335E-01-1.05608E-01 3.85939E-08 1.48510E-03 1.72117E-02 1.09952E-05
 -1       766 1.80465E-01-1.10588E-01 6.83075E-08 1.51331E-03 1.70834E-02 1.09894E-05
 -1       767 1.88797E-01-1.15722E-01 1.14054E-07 1.54575E-03 1.69553E-02 1.09832E-05
 -1       768 1.97239E-01-1.20868E-01 1.59313E-07 1.57495E-03 1.68272E-02 1.09766E-05
 -1       769 2.05879E-01-1.26168E-01 1.89643E-07 1.60925E-03 1.66992E-02 1.09697E-05
 -1       770 2.14689E-01-1.31579E-01 2.17532E-07 1.63738E-03 1.65713E-02 1.09624E-05
 -1       771 2.23666E-01-1.37085E-01 2.44244E-07 1.66760E-03 1.64435E-02 1.09547E-05
 -1       772 2.32772E-01-1.42657E-01 2.67128E-07 1.69954E-03 1.63158E-02 1.09467E-05
 -1       773 2.42050E-01-1.48323E-01 2.88973E-07 1.71835E-03 1.61881E-02 1.09384E-05
 -1       774 2.51547E-01-1.54183E-01 3.15816E-07 1.76372E-03 1.60606E-02 1.09297E-05
 -1       775 2.61113E-01-1.60021E-01 3.35881E-07 1.78792E-03 1.59331E-02 1.09206E-05
 -1       776 2.70885E-01-1.66009E-01 3.30831E-07 1.81220E-03 1.58058E-02 1.09112E-05
 -1       777 2.80822E-01-1.72115E-01 3.15018E-07 1.84283E-03 1.56786E-02 1.09015E-05
 -1       778 2.90911E-01-1.78303E-01 3.01270E-07 1.86636E-03 1.55515E-02 1.08915E-05
 -1       779 3.01117E-01-1.84537E-01 2.94457E-07 1.90848E-03 1.54245E-02 1.08812E-05
 -1       780 3.11488E-01-1.90890E-01 2.93485E-07 1.92502E-03 1.52977E-02 1.08706E-05
 -1       781 3.22059E-01-1.97392E-01 2.87988E-07 1.95574E-03 1.51709E-02 1.08596E-05
 -1       782 3.32752E-01-2.03950E-01 2.81317E-07 1.98280E-03 1.50443E-02 1.08484E-05
 -1       783 3.43538E-01-2.10533E-01 2.84319E-07 2.01386E-03 1.49179E-02 1.08367E-05
 -1       784 3.54529E-01-2.17265E-01 3.00521E-07 2.02810E-03 1.47915E-02 1.08247E-05
 -1       785 3.65721E-01-2.24177E-01 3.10809E-07 2.07108E-03 1.46653E-02 1.08123E-05
 -1       786 3.76930E-01-2.31008E-01 3.01593E-07 2.09429E-03 1.45393E-02 1.07996E-05
 -1       787 3.88338E-01-2.37982E-01 2.83190E-07 2.11084E-03 1.44134E-02 1.07865E-05
 -1       788 3.99915E-01-2.45096E-01 2.62203E-07 2.14710E-03 1.42877E-02 1.07731E-05
 -1       789 4.11668E-01-2.52340E-01 2.40790E-07 2.16166E-03 1.41621E-02 1.07594E-05
 -1       790 4.23446E-01-2.59506E-01 2.21939E-07 2.20767E-03 1.40367E-02 1.07453E-05
 -1       791 4.35402E-01-2.66824E-01 1.95889E-07 2.21609E-03 1.39114E-02 1.07309E-05
 -1       792 4.47627E-01-2.74395E-01 1.52018E-07 2.24596E-03 1.37863E-02 1.07162E-05
 -1       793 4.59769E-01-2.81756E-01 9.74326E-08 2.27522E-03 1.36614E-02 1.07013E-05
 -1       794 4.72189E-01-2.89385E-01 4.33650E-08 2.28253E-03 1.35367E-02 1.06860E-05
 -1       795 4.84755E-01-2.97118E-01-4.50826E-09 2.32931E-03 1.34121E-02 1.06705E-05
 -1       796 4.97392E-01-3.04861E-01-5.09846E-08 2.34436E-03 1.32878E-02 1.06547E-05
 -1       797 5.10147E-01-3.12646E-01-1.00372E-07 2.37354E-03 1.31636E-02 1.06386E-05
 -1       798 5.23051E-01-3.20553E-01-1.41548E-07 2.38766E-03 1.30396E-02 1.06221E-05
 -1       799 5.36149E-01-3.28610E-01-1.66640E-07 2.40620E-03 1.29158E-02 1.06054E-05
 -1       800 5.49366E-01-3.36750E-01-1.82728E-07 2.44949E-03 1.27922E-02 1.05882E-05
 -1       801 5.62541E-01-3.44734E-01-1.95050E-07 2.46321E-03 1.26688E-02 1.05707E-05
 -1       802 5.75970E-01-3.52955E-01-2.02322E-07 2.48704E-03 1.25456E-02 1.05527E-05
 -1       803 5.89679E-01-3.61497E-01-2.06329E-07 2.50742E-03 1.24226E-02 1.05344E-05
 -1       804 6.03180E-01-3.69638E-01-2.12735E-07 2.53700E-03 1.22998E-02 1.05156E-05
 -1       805 6.17031E-01-3.78161E-01-2.23552E-07 2.53648E-03 1.21773E-02 1.04964E-05
 -1       806 6.30984E-01-3.86744E-01-2.33706E-07 2.58728E-03 1.20550E-02 1.04767E-05
 -1       807 6.45004E-01-3.95337E-01-2.35597E-07 2.59708E-03 1.19329E-02 1.04566E-05
 -1       808 6.59119E-01-4.03956E-01-2.31180E-07 2.62516E-03 1.18110E-02 1.04361E-05
 -1       809 6.73337E-01-4.12636E-01-2.29747E-07 2.63428E-03 1.16894E-02 1.04151E-05
 -1       810 6.87891E-01-4.21679E-01-2.20687E-07 2.64861E-03 1.15681E-02 1.03936E-05
 -1       811 7.02251E-01-4.30369E-01-1.98583E-07 2.70313E-03 1.14470E-02 1.03716E-05
 -1       812 7.16841E-01-4.39317E-01-1.82630E-07 2.69637E-03 1.13261E-02 1.03491E-05
 -1       813 7.31664E-01-4.48459E-01-1.74134E-07 2.72421E-03 1.12055E-02 1.03261E-05
 -1       814 7.46496E-01-4.57578E-01-1.62620E-07 2.74252E-03 1.10852E-02 1.03026E-05
 -1       815 7.61348E-01-4.66571E-01-1.41156E-07 2.75160E-03 1.09652E-02 1.02786E-05
 -1       816 7.76400E-01-4.75802E-01-1.09279E-07 2.80048E-03 1.08455E-02 1.02540E-05
 -1       817 7.91652E-01-4.85254E-01-7.54077E-08 2.80219E-03 1.07260E-02 1.02288E-05
 -1       818 8.06921E-01-4.94586E-01-4.36406E-08 2.82340E-03 1.06068E-02 1.02031E-05
 -1       819 8.22181E-01-5.03877E-01-1.62627E-08 2.85036E-03 1.04880E-02 1.01768E-05
 -1       820 8.37675E-01-5.13366E-01 5.77095E-09 2.83837E-03 1.03694E-02 1.01500E-05
 -1       821 8.53419E-01-5.23149E-01 2.55695E-08 2.89615E-03 1.02512E-02 1.01226E-05
 -1       822 8.68886E-01-5.32481E-01 3.91807E-08 2.90730E-03 1.01333E-02 1.00947E-05
 -1       823 8.84714E-01-5.42214E-01 3.96556E-08 2.90852E-03 1.00157E-02 1.00662E-05
 -1       824 9.00676E-01-5.52054E-01 3.02789E-08 2.93566E-03 9.89846E-03 1.00372E-05
 -1       825 9.16613E-01-5.61816E-01 1.73550E-08 2.95262E-03 9.78155E-03 1.00078E-05
 -1       826 9.32652E-01-5.71594E-01 8.73158E-09 2.96262E-03 9.66500E-03 9.97783E-06
 -1       827 9.48795E-01-5.81471E-01 8.72111E-09 2.99877E-03 9.54879E-03 9.94737E-06
 -1       828 9.65157E-01-5.91611E-01 7.33700E-09 3.00385E-03 9.43294E-03 9.91638E-06
 -1       829 9.81492E-01-6.01565E-01-1.40803E-09 3.01483E-03 9.31746E-03 9.88489E-06
 -1       830 9.97795E-01-6.11470E-01-1.25235E-08 3.05903E-03 9.20235E-03 9.85289E-06
 -1       831 1.01442E+00-6.21727E-01-2.35292E-08 3.02806E-03 9.08761E-03 9.82038E-06
 -1       832 1.03121E+00-6.32134E-01-3.58377E-08 3.09197E-03 8.97325E-03 9.78735E-06
 -1       833 1.04768E+00-6.42055E-01-4.93305E-08 3.09884E-03 8.85929E-03 9.75383E-06
 -1       834 1.06456E+00-6.52446E-01-5.51650E-08 3.09590E-03 8.74572E-03 9.71978E-06
 -1       835 1.08149E+00-6.62871E-01-5.30201E-08 3.11934E-03 8.63254E-03 9.68518E-06
 -1       836 1.09853E+00-6.73336E-01-4.77307E-08 3.11712E-03 8.51978E-03 9.65004E-06
 -1       837 1.11548E+00-6.83643E-01-3.79865E-08 3.18471E-03 8.40743E-03 9.61432E-06
 -1       838 1.13256E+00-6.94070E-01-3.16838E-08 3.15529E-03 8.29549E-03 9.57804E-06
 -1       839 1.15005E+00-7.04994E-01-2.97073E-08 3.18296E-03 8.18399E-03 9.54118E-06
 -1       840 1.16708E+00-7.15228E-01-2.87336E-08 3.20654E-03 8.07291E-03 9.50377E-06
 -1       841 1.18453E+00-7.25950E-01-3.34676E-08 3.18060E-03 7.96228E-03 9.46580E-06
 -1       842 1.20218E+00-7.36921E-01-4.10142E-08 3.24799E-03 7.85210E-03 9.42727E-06
 -1       843 1.21956E+00-7.47450E-01-4.41451E-08 3.22824E-03 7.74236E-03 9.38820E-06
 -1       844 1.23712E+00-7.58148E-01-4.40770E-08 3.27921E-03 7.63308E-03 9.34857E-06
 -1       845 1.25490E+00-7.69146E-01-4.63361E-08 3.25638E-03 7.52427E-03 9.30836E-06
 -1       846 1.27266E+00-7.80029E-01-5.15785E-08 3.28050E-03 7.41594E-03 9.26758E-06
 -1       847 1.29061E+00-7.91076E-01-5.74854E-08 3.27078E-03 7.30808E-03 9.22624E-06
 -1       848 1.30838E+00-8.01865E-01-6.04945E-08 3.34759E-03 7.20070E-03 9.18435E-06
 -1       849 1.32628E+00-8.12794E-01-6.25423E-08 3.30780E-03 7.09382E-03 9.14187E-06
 -1       850 1.34466E+00-8.24295E-01-6.71135E-08 3.33330E-03 6.98744E-03 9.09881E-06
 -1       851 1.36246E+00-8.34965E-01-6.72493E-08 3.36014E-03 6.88156E-03 9.05518E-06
 -1       852 1.38074E+00-8.46216E-01-5.66936E-08 3.32146E-03 6.77620E-03 9.01094E-06
 -1       853 1.39913E+00-8.57585E-01-3.66535E-08 3.39813E-03 6.67135E-03 8.96608E-06
 -1       854 1.41739E+00-8.68745E-01-1.26428E-08 3.38327E-03 6.56704E-03 8.92057E-06
 -1       855 1.43577E+00-8.80014E-01 4.37701E-09 3.40729E-03 6.46325E-03 8.87443E-06
 -1       856 1.45403E+00-8.91034E-01 1.15961E-08 3.38202E-03 6.36001E-03 8.82766E-06
 -1       857 1.47289E+00-9.02841E-01 1.59276E-08 3.40586E-03 6.25732E-03 8.78027E-06
 -1       858 1.49130E+00-9.14009E-01 1.98381E-08 3.47167E-03 6.15518E-03 8.73228E-06
 -1       859 1.50982E+00-9.25296E-01 2.30844E-08 3.42675E-03 6.05361E-03 8.68367E-06
 -1       860 1.52874E+00-9.37025E-01 2.65487E-08 3.45238E-03 5.95261E-03 8.63445E-06
 -1       861 1.54750E+00-9.48532E-01 2.88990E-08 3.46209E-03 5.85218E-03 8.58462E-06
 -1       862 1.56610E+00-9.59788E-01 2.81297E-08 3.48762E-03 5.75234E-03 8.53418E-06
 -1       863 1.58507E+00-9.71446E-01 2.27710E-08 3.44054E-03 5.65309E-03 8.48314E-06
 -1       864 1.60412E+00-9.83224E-01 1.23749E-08 3.52462E-03 5.55444E-03 8.43151E-06
 -1       865 1.62306E+00-9.94818E-01 2.29583E-09 3.50255E-03 5.45640E-03 8.37928E-06
 -1       866 1.64201E+00-1.00636E+00-2.44824E-09 3.53007E-03 5.35897E-03 8.32647E-06
 -1       867 1.66099E+00-1.01792E+00-1.91342E-09 3.50702E-03 5.26215E-03 8.27303E-06
 -1       868 1.68051E+00-1.03015E+00 2.59814E-09 3.50356E-03 5.16597E-03 8.21897E-06
 -1       869 1.69947E+00-1.04160E+00 8.30531E-09 3.58768E-03 5.07042E-03 8.16428E-06
 -1       870 1.71855E+00-1.05318E+00 1.29713E-08 3.52183E-03 4.97551E-03 8.10897E-06
 -1       871 1.73807E+00-1.06528E+00 1.71868E-08 3.57956E-03 4.88125E-03 8.05300E-06
 -1       872 1.75747E+00-1.07727E+00 2.01083E-08 3.56357E-03 4.78764E-03 7.99641E-06
 -1       873 1.77671E+00-1.08889E+00 2.05696E-08 3.56470E-03 4.69470E-03 7.93919E-06
 -1       874 1.79609E+00-1.10073E+00 1.97565E-08 3.60590E-03 4.60244E-03 7.88134E-06
 -1       875 1.81586E+00-1.11312E+00 2.08778E-08 3.59025E-03 4.51085E-03 7.82285E-06
 -1       876 1.83512E+00-1.12467E+00 2.41316E-08 3.62190E-03 4.41994E-03 7.76374E-06
 -1       877 1.85463E+00-1.13662E+00 2.54122E-08 3.59407E-03 4.32973E-03 7.70399E-06
 -1       878 1.87451E+00-1.14896E+00 2.58848E-08 3.58311E-03 4.24022E-03 7.64359E-06
 -1       879 1.89417E+00-1.16102E+00 2.74316E-08 3.66239E-03 4.15142E-03 7.58256E-06
 -1       880 1.91358E+00-1.17274E+00 2.64526E-08 3.65200E-03 4.06333E-03 7.52090E-06
 -1       881 1.93341E+00-1.18494E+00 2.44884E-08 3.62253E-03 3.97596E-03 7.45860E-06
 -1       882 1.95333E+00-1.19725E+00 2.68033E-08 3.64901E-03 3.88933E-03 7.39565E-06
 -1       883 1.97318E+00-1.20951E+00 3.35191E-08 3.65107E-03 3.80343E-03 7.33206E-06
 -1       884 1.99279E+00-1.22126E+00 3.93070E-08 3.62862E-03 3.71828E-03 7.26782E-06
 -1       885 2.01263E+00-1.23337E+00 4.11254E-08 3.71201E-03 3.63389E-03 7.20292E-06
 -1       886 2.03302E+00-1.24633E+00 3.98485E-08 3.66889E-03 3.55025E-03 7.13737E-06
 -1       887 2.05255E+00-1.25788E+00 3.55851E-08 3.70369E-03 3.46738E-03 7.07119E-06
 -1       888 2.07255E+00-1.27021E+00 2.90220E-08 3.66751E-03 3.38529E-03 7.00438E-06
 -1       889 2.09282E+00-1.28277E+00 2.18355E-08 3.65536E-03 3.30398E-03 6.93693E-06
 -1       890 2.11291E+00-1.29510E+00 1.68436E-08 3.74038E-03 3.22346E-03 6.86885E-06
 -1       891 2.13270E+00-1.30705E+00 1.51039E-08 3.72493E-03 3.14374E-03 6.80013E-06
 -1       892 2.15287E+00-1.31939E+00 1.59900E-08 3.69384E-03 3.06482E-03 6.73076E-06
 -1       893 2.17335E+00-1.33226E+00 1.64251E-08 3.71158E-03 2.98672E-03 6.66073E-06
 -1       894 2.19321E+00-1.34411E+00 1.49363E-08 3.70545E-03 2.90944E-03 6.59005E-06
 -1       895 2.21346E+00-1.35658E+00 1.51788E-08 3.75259E-03 2.83298E-03 6.51872E-06
 -1       896 2.23379E+00-1.36913E+00 1.65651E-08 3.72844E-03 2.75737E-03 6.44674E-06
 -1       897 2.25427E+00-1.38185E+00 1.59948E-08 3.73577E-03 2.68259E-03 6.37409E-06
 -1       898 2.27409E+00-1.39362E+00 1.61645E-08 3.74249E-03 2.60867E-03 6.30080E-06
 -1       899 2.29449E+00-1.40613E+00 1.91211E-08 3.71220E-03 2.53560E-03 6.22684E-06
 -1       900 2.31524E+00-1.41922E+00 2.30100E-08 3.79231E-03 2.46340E-03 6.15221E-06
 -1       901 2.33539E+00-1.43141E+00 2.77034E-08 3.75250E-03 2.39208E-03 6.07692E-06
 -1       902 2.35566E+00-1.44373E+00 3.23938E-08 3.78433E-03 2.32164E-03 6.00096E-06
 -1       903 2.37603E+00-1.45615E+00 3.49699E-08 3.74463E-03 2.25208E-03 5.92433E-06
 -1       904 2.39684E+00-1.46926E+00 3.53837E-08 3.76352E-03 2.18343E-03 5.84703E-06
 -1       905 2.41695E+00-1.48123E+00 3.46140E-08 3.75371E-03 2.11568E-03 5.76907E-06
 -1       906 2.43747E+00-1.49386E+00 3.16784E-08 3.80267E-03 2.04884E-03 5.69046E-06
 -1       907 2.45810E+00-1.50664E+00 2.69524E-08 3.77563E-03 1.98293E-03 5.61119E-06
 -1       908 2.47872E+00-1.51932E+00 2.23785E-08 3.78393E-03 1.91794E-03 5.53126E-06
 -1       909 2.49893E+00-1.53151E+00 1.83511E-08 3.80899E-03 1.85389E-03 5.45069E-06
 -1       910 2.51951E+00-1.54406E+00 1.51373E-08 3.72460E-03 1.79078E-03 5.36946E-06
 -1       911 2.54071E+00-1.55759E+00 1.19959E-08 3.83573E-03 1.72863E-03 5.28757E-06
 -1       912 2.56049E+00-1.56907E+00 8.05245E-09 3.80034E-03 1.66743E-03 5.20503E-06
 -1       913 2.58129E+00-1.58194E+00 3.55154E-09 3.80420E-03 1.60720E-03 5.12182E-06
 -1       914 2.60221E+00-1.59507E+00-1.94960E-09 3.79586E-03 1.54795E-03 5.03796E-06
 -1       915 2.62284E+00-1.60762E+00-8.20228E-09 3.75654E-03 1.48967E-03 4.95345E-06
 -1       916 2.64327E+00-1.61999E+00-1.44535E-08 3.88663E-03 1.43239E-03 4.86829E-06
 -1       917 2.66383E+00-1.63255E+00-1.93760E-08 3.78351E-03 1.37610E-03 4.78247E-06
 -1       918 2.68486E+00-1.64567E+00-2.14035E-08 3.81397E-03 1.32082E-03 4.69598E-06
 -1       919 2.70547E+00-1.65827E+00-2.09861E-08 3.80993E-03 1.26655E-03 4.60883E-06
 -1       920 2.72601E+00-1.67069E+00-1.96140E-08 3.79629E-03 1.21330E-03 4.52102E-06
 -1       921 2.74670E+00-1.68332E+00-1.82386E-08 3.85086E-03 1.16108E-03 4.43252E-06
 -1       922 2.76784E+00-1.69669E+00-1.68159E-08 3.81452E-03 1.10990E-03 4.34335E-06
 -1       923 2.78813E+00-1.70871E+00-1.54692E-08 3.85243E-03 1.05976E-03 4.25351E-06
 -1       924 2.80892E+00-1.72148E+00-1.41946E-08 3.80256E-03 1.01067E-03 4.16300E-06
 -1       925 2.82998E+00-1.73471E+00-1.26558E-08 3.81620E-03 9.62637E-04 4.07180E-06
 -1       926 2.85069E+00-1.74722E+00-1.03159E-08 3.75813E-03 9.15676E-04 3.97994E-06
 -1       927 2.87116E+00-1.75956E+00-7.32674E-09 3.94455E-03 8.69790E-04 3.88739E-06
 -1       928 2.89201E+00-1.77247E+00-4.38121E-09 3.79810E-03 8.24988E-04 3.79416E-06
 -1       929 2.91335E+00-1.78591E+00-1.28017E-09 3.83594E-03 7.81277E-04 3.70025E-06
 -1       930 2.93348E+00-1.79774E+00 1.19698E-09 3.85740E-03 7.38665E-04 3.60567E-06
 -1       931 2.95449E+00-1.81074E+00 2.42084E-09 3.75952E-03 6.97161E-04 3.51041E-06
 -1       932 2.97560E+00-1.82388E+00 3.25739E-09 3.89589E-03 6.56772E-04 3.41446E-06
 -1       933 2.99624E+00-1.83646E+00 4.14136E-09 3.83266E-03 6.17506E-04 3.31785E-06
 -1       934 3.01700E+00-1.84907E+00 5.01248E-09 3.87070E-03 5.79371E-04 3.22056E-06
 -1       935 3.03765E+00-1.86164E+00 5.84196E-09 3.81199E-03 5.42374E-04 3.12259E-06
 -1       936 3.05893E+00-1.87495E+00 6.37958E-09 3.78572E-03 5.06525E-04 3.02395E-06
 -1       937 3.07975E+00-1.88768E+00 6.46789E-09 3.90229E-03 4.71830E-04 2.92462E-06
 -1       938 3.10035E+00-1.90023E+00 6.46642E-09 3.86580E-03 4.38297E-04 2.82463E-06
 -1       939 3.12102E+00-1.91262E+00 6.67583E-09 3.79441E-03 4.05934E-04 2.72397E-06
 -1       940 3.14238E+00-1.92616E+00 6.95169E-09 3.87246E-03 3.74750E-04 2.62262E-06
 -1       941 3.16298E+00-1.93858E+00 7.15807E-09 3.81472E-03 3.44752E-04 2.52060E-06
 -1       942 3.18378E+00-1.95122E+00 7.27277E-09 3.88243E-03 3.15948E-04 2.41790E-06
 -1       943 3.20482E+00-1.96433E+00 7.15878E-09 3.84062E-03 2.88346E-04 2.31453E-06
 -1       944 3.22584E+00-1.97727E+00 6.98251E-09 3.84801E-03 2.61953E-04 2.21049E-06
 -1       945 3.24633E+00-1.98955E+00 6.90003E-09 3.88044E-03 2.36778E-04 2.10577E-06
 -1       946 3.26722E+00-2.00239E+00 6.73285E-09 3.81552E-03 2.12828E-04 2.00037E-06
 -1       947 3.28840E+00-2.01557E+00 6.43263E-09 3.78856E-03 1.90112E-04 1.89430E-06
 -1       948 3.30947E+00-2.02855E+00 6.15818E-09 3.91303E-03 1.68637E-04 1.78755E-06
 -1       949 3.32967E+00-2.04058E+00 5.93653E-09 3.87900E-03 1.48411E-04 1.68013E-06
 -1       950 3.35094E+00-2.05373E+00 5.73680E-09 3.81859E-03 1.29443E-04 1.57204E-06
 -1       951 3.37190E+00-2.06684E+00 5.57687E-09 3.84563E-03 1.11738E-04 1.46326E-06
 -1       952 3.39296E+00-2.07964E+00 5.44044E-09 3.81445E-03 9.53070E-05 1.35382E-06
 -1       953 3.41302E+00-2.09149E+00 5.32108E-09 3.86707E-03 8.01563E-05 1.24369E-06
 -1       954 3.43492E+00-2.10544E+00 5.11526E-09 3.87468E-03 6.62940E-05 1.13289E-06
 -1       955 3.45510E+00-2.11770E+00 4.80372E-09 3.85157E-03 5.37281E-05 1.02142E-06
 -1       956 3.47680E+00-2.13107E+00 4.42925E-09 3.87327E-03 4.24664E-05 9.09271E-07
 -1       957 3.49605E+00-2.14228E+00 3.96442E-09 3.76339E-03 3.25169E-05 7.96450E-07
 -1       958 3.51937E+00-2.15738E+00 3.49788E-09 3.92686E-03 2.38874E-05 6.82948E-07
 -1       959 3.53905E+00-2.17033E+00 3.04916E-09 3.81051E-03 1.65857E-05 5.68774E-07
 -1       960 3.55385E+00-2.17108E+00 2.58069E-09 4.11087E-03 1.06198E-05 4.53930E-07
 -1       961 3.60769E+00-2.23884E+00 2.11429E-09 2.74553E-03 5.99739E-06 3.38393E-07
 -1       962 3.49765E+00-2.04117E+00 1.68331E-09 7.91672E-03 2.72654E-06 2.22245E-07
 -1       963 4.00868E+00-2.83318E+00 1.14292E-09-1.12003E-02 8.15163E-07 1.05191E-07
 -1       964 2.28743E+00-1.41743E-03 7.99010E-10 6.00615E-02 2.00113E-07 4.63450E-08
 -1       965 2.39859E-09 8.53349E-10-8.10988E-10 5.35081E-06-2.24327E-02 7.50621E-10
 -1       966 6.16690E-09-2.21274E-09-8.70605E-10 5.59385E-05-2.23682E-02 7.51778E-10
 -1       967 3.85406E-08-1.62482E-08-6.04780E-10 1.12368E-04-2.22391E-02 7.53464E-10
 -1       968 8.31515E-08-5.79253E-08 7.89256E-10 1.67510E-04-2.21100E-02 7.53399E-10
 -1       969 1.42013E-07-8.54225E-08 6.30540E-10 2.23353E-04-2.19809E-02 7.52451E-10
 -1       970 2.22021E-07-1.28314E-07 3.78494E-10 2.77724E-04-2.18518E-02 7.52822E-10
 -1       971 3.19924E-07-2.03583E-07 2.14460E-09 3.32333E-04-2.17227E-02 7.53521E-10
 -1       972 4.30139E-07-2.69687E-07 1.67383E-09 3.87421E-04-2.15936E-02 7.53717E-10
 -1       973 5.63625E-07-3.41961E-07 1.03496E-10 4.39928E-04-2.14646E-02 7.54002E-10
 -1       974 7.07605E-07-4.37952E-07-5.15595E-10 4.95354E-04-2.13355E-02 7.54750E-10
 -1       975 8.75097E-07-5.36039E-07-1.06049E-10 5.47204E-04-2.12064E-02 7.56411E-10
 -1       976 1.05198E-06-6.49869E-07 4.73586E-10 5.99662E-04-2.10774E-02 7.58531E-10
 -1       977 1.25096E-06-7.61111E-07-2.84046E-10 6.55199E-04-2.09483E-02 7.61042E-10
 -1       978 1.46730E-06-9.02422E-07-5.91933E-10 7.03327E-04-2.08193E-02 7.63817E-10
 -1       979 1.69589E-06-1.03650E-06 8.31701E-10 7.58719E-04-2.06902E-02 7.66902E-10
 -1       980 1.94511E-06-1.19334E-06 1.60128E-09 8.10686E-04-2.05612E-02 7.70165E-10
 -1       981 2.20731E-06-1.35342E-06 2.08948E-10 8.57498E-04-2.04322E-02 7.72363E-10
 -1       982 2.49012E-06-1.51863E-06-1.28041E-10 9.14082E-04-2.03032E-02 7.74000E-10
 -1       983 2.78092E-06-1.71359E-06 1.00782E-09 9.61813E-04-2.01742E-02 7.75368E-10
 -1       984 3.09501E-06-1.89186E-06 8.77098E-10 1.01292E-03-2.00453E-02 7.77568E-10
 -1       985 3.42068E-06-2.10133E-06 1.59079E-09 1.06517E-03-1.99163E-02 7.80671E-10
 -1       986 3.76314E-06-2.30234E-06 2.40725E-09 1.10789E-03-1.97874E-02 7.83643E-10
 -1       987 4.12520E-06-2.53031E-06 1.07533E-09 1.16503E-03-1.96585E-02 7.86143E-10
 -1       988 4.50024E-06-2.75629E-06 3.77015E-10 1.21073E-03-1.95296E-02 7.88162E-10
 -1       989 4.88995E-06-3.00248E-06 5.70286E-10 1.25994E-03-1.94008E-02 7.90169E-10
 -1       990 5.29609E-06-3.24526E-06 3.02366E-10 1.30852E-03-1.92719E-02 7.92864E-10
 -1       991 5.71438E-06-3.50272E-06 3.65749E-10 1.35453E-03-1.91432E-02 7.96380E-10
 -1       992 6.14908E-06-3.76669E-06 3.34065E-10 1.40602E-03-1.90144E-02 8.00454E-10
 -1       993 6.60075E-06-4.04328E-06 6.00260E-12 1.45339E-03-1.88857E-02 8.04133E-10
 -1       994 7.06779E-06-4.32935E-06 1.13677E-10 1.49694E-03-1.87570E-02 8.07384E-10
 -1       995 7.54368E-06-4.61796E-06-3.07598E-10 1.54353E-03-1.86283E-02 8.11402E-10
 -1       996 8.04214E-06-4.91801E-06-1.52187E-09 1.59504E-03-1.84997E-02 8.15633E-10
 -1       997 8.55490E-06-5.24558E-06-1.20570E-09 1.63759E-03-1.83711E-02 8.18167E-10
 -1       998 9.07938E-06-5.56354E-06 7.60282E-10 1.68503E-03-1.82426E-02 8.19076E-10
 -1       999 9.62148E-06-5.90191E-06 4.98851E-10 1.72919E-03-1.81141E-02 8.19076E-10
 -1      1000 1.01733E-05-6.22908E-06-1.13322E-09 1.77584E-03-1.79857E-02 8.18743E-10
 -1      1001 1.07423E-05-6.58486E-06-1.69775E-09 1.82010E-03-1.78572E-02 8.18043E-10
 -1      1002 1.13239E-05-6.93275E-06-1.92535E-09 1.86082E-03-1.77289E-02 8.16768E-10
 -1      1003 1.19217E-05-7.30902E-06-5.95748E-10 1.91651E-03-1.76006E-02 8.14994E-10
 -1      1004 1.25327E-05-7.68173E-06-3.19769E-10 1.94843E-03-1.74723E-02 8.12237E-10
 -1      1005 1.31551E-05-8.05766E-06-2.47514E-09 1.99717E-03-1.73441E-02 8.08814E-10
 -1      1006 1.37929E-05-8.45253E-06-2.86645E-09 2.03569E-03-1.72160E-02 8.05400E-10
 -1      1007 1.44465E-05-8.85372E-06-1.76295E-09 2.08701E-03-1.70879E-02 8.01929E-10
 -1      1008 1.51054E-05-9.25866E-06-1.21479E-09 2.12479E-03-1.69599E-02 7.98839E-10
 -1      1009 1.57860E-05-9.67565E-06-1.25269E-09 2.16781E-03-1.68320E-02 7.96068E-10
 -1      1010 1.64744E-05-1.00953E-05-5.10807E-10 2.20963E-03-1.67041E-02 7.93209E-10
 -1      1011 1.71786E-05-1.05292E-05 6.83083E-11 2.25098E-03-1.65763E-02 7.90659E-10
 -1      1012 1.78976E-05-1.09677E-05 3.11927E-10 2.29428E-03-1.64486E-02 7.88795E-10
 -1      1013 1.86238E-05-1.14161E-05 6.31477E-10 2.32582E-03-1.63210E-02 7.87222E-10
 -1      1014 1.93687E-05-1.18733E-05-3.39192E-10 2.38878E-03-1.61934E-02 7.86041E-10
 -1      1015 2.01253E-05-1.23338E-05-1.17192E-09 2.40646E-03-1.60659E-02 7.85356E-10
 -1      1016 2.08923E-05-1.28031E-05-1.96318E-09 2.45086E-03-1.59386E-02 7.84328E-10
 -1      1017 2.16750E-05-1.32810E-05-2.04311E-09 2.50102E-03-1.58112E-02 7.83153E-10
 -1      1018 2.24668E-05-1.37621E-05-1.71820E-09 2.53284E-03-1.56840E-02 7.81987E-10
 -1      1019 2.32751E-05-1.42634E-05-2.05171E-09 2.58163E-03-1.55569E-02 7.80744E-10
 -1      1020 2.40920E-05-1.47645E-05-4.58599E-10 2.59723E-03-1.54299E-02 7.79834E-10
 -1      1021 2.49227E-05-1.52767E-05 1.28888E-09 2.65937E-03-1.53030E-02 7.78951E-10
 -1      1022 2.57670E-05-1.57948E-05 6.85080E-11 2.68795E-03-1.51762E-02 7.77237E-10
 -1      1023 2.66204E-05-1.63135E-05-8.96331E-10 2.72818E-03-1.50495E-02 7.75610E-10
 -1      1024 2.74869E-05-1.68503E-05 1.31355E-09 2.75452E-03-1.49230E-02 7.74723E-10
 -1      1025 2.83659E-05-1.73855E-05 1.43491E-09 2.81955E-03-1.47965E-02 7.73817E-10
 -1      1026 2.92562E-05-1.79305E-05-1.45696E-10 2.82908E-03-1.46702E-02 7.72331E-10
 -1      1027 3.01578E-05-1.84849E-05-4.48952E-10 2.86658E-03-1.45440E-02 7.70742E-10
 -1      1028 3.10710E-05-1.90462E-05-1.10881E-09 2.92240E-03-1.44180E-02 7.69733E-10
 -1      1029 3.19928E-05-1.95986E-05-1.73394E-09 2.94321E-03-1.42921E-02 7.69672E-10
 -1      1030 3.29292E-05-2.01808E-05-1.24906E-09 2.99682E-03-1.41663E-02 7.69617E-10
 -1      1031 3.38798E-05-2.07618E-05-1.30547E-09 2.99449E-03-1.40407E-02 7.69674E-10
 -1      1032 3.48333E-05-2.13429E-05-1.56847E-09 3.06799E-03-1.39152E-02 7.69667E-10
 -1      1033 3.58086E-05-2.19508E-05-6.68456E-10 3.08705E-03-1.37899E-02 7.69125E-10
 -1      1034 3.67838E-05-2.25382E-05-7.49162E-10 3.10925E-03-1.36648E-02 7.68773E-10
 -1      1035 3.77794E-05-2.31567E-05-1.36011E-09 3.18234E-03-1.35398E-02 7.68760E-10
 -1      1036 3.87791E-05-2.37638E-05-1.44964E-09 3.17472E-03-1.34150E-02 7.68045E-10
 -1      1037 3.97901E-05-2.43855E-05-1.34232E-09 3.22774E-03-1.32904E-02 7.67598E-10
 -1      1038 4.08131E-05-2.50168E-05-4.46620E-10 3.24420E-03-1.31660E-02 7.67876E-10
 -1      1039 4.18463E-05-2.56449E-05 1.43959E-09 3.30153E-03-1.30417E-02 7.68733E-10
 -1      1040 4.28891E-05-2.62921E-05 1.02197E-09 3.33421E-03-1.29177E-02 7.69797E-10
 -1      1041 4.39424E-05-2.69283E-05-1.23339E-09 3.34179E-03-1.27939E-02 7.70745E-10
 -1      1042 4.50067E-05-2.75835E-05-1.27097E-09 3.37435E-03-1.26703E-02 7.72115E-10
 -1      1043 4.60827E-05-2.82461E-05 3.14815E-10 3.43179E-03-1.25469E-02 7.73405E-10
 -1      1044 4.71641E-05-2.89104E-05 7.50861E-10 3.44929E-03-1.24237E-02 7.73994E-10
 -1      1045 4.82590E-05-2.95739E-05 1.75935E-10 3.46343E-03-1.23008E-02 7.73884E-10
 -1      1046 4.93655E-05-3.02597E-05 6.75063E-10 3.54355E-03-1.21781E-02 7.73889E-10
 -1      1047 5.04757E-05-3.09346E-05 8.84277E-10 3.52067E-03-1.20556E-02 7.74390E-10
 -1      1048 5.15962E-05-3.16255E-05-2.68111E-10 3.57711E-03-1.19334E-02 7.74860E-10
 -1      1049 5.27334E-05-3.23137E-05-6.85055E-10 3.58394E-03-1.18114E-02 7.74846E-10
 -1      1050 5.38698E-05-3.30209E-05-1.01003E-09 3.64523E-03-1.16897E-02 7.74268E-10
 -1      1051 5.50264E-05-3.37221E-05-1.75843E-09 3.67815E-03-1.15683E-02 7.73578E-10
 -1      1052 5.61803E-05-3.44358E-05-1.07989E-09 3.65046E-03-1.14471E-02 7.72929E-10
 -1      1053 5.73544E-05-3.51504E-05-4.06205E-10 3.73977E-03-1.13262E-02 7.72288E-10
 -1      1054 5.85241E-05-3.58696E-05-1.63728E-09 3.74240E-03-1.12055E-02 7.71854E-10
 -1      1055 5.97177E-05-3.65962E-05-1.42849E-09 3.77121E-03-1.10852E-02 7.71389E-10
 -1      1056 6.09084E-05-3.73416E-05-6.67581E-10 3.80517E-03-1.09651E-02 7.71053E-10
 -1      1057 6.21242E-05-3.80618E-05-1.29170E-09 3.82333E-03-1.08453E-02 7.70841E-10
 -1      1058 6.33149E-05-3.88180E-05-1.14867E-09 3.85801E-03-1.07258E-02 7.69936E-10
 -1      1059 6.45631E-05-3.95569E-05-1.12221E-09 3.88312E-03-1.06066E-02 7.68178E-10
 -1      1060 6.57635E-05-4.03197E-05-1.59901E-09 3.88460E-03-1.04877E-02 7.66515E-10
 -1      1061 6.70320E-05-4.10622E-05-1.65662E-09 3.97917E-03-1.03692E-02 7.65271E-10
 -1      1062 6.82451E-05-4.18520E-05-1.26988E-09 3.93547E-03-1.02509E-02 7.64234E-10
 -1      1063 6.95357E-05-4.25874E-05-9.75359E-10 3.96754E-03-1.01330E-02 7.63351E-10
 -1      1064 7.07523E-05-4.33974E-05-1.03907E-09 4.03533E-03-1.00154E-02 7.62316E-10
 -1      1065 7.20808E-05-4.41377E-05-1.40967E-09 4.03152E-03-9.89811E-03 7.61055E-10
 -1      1066 7.32826E-05-4.49543E-05-1.90443E-09 4.06068E-03-9.78117E-03 7.59752E-10
 -1      1067 7.46627E-05-4.57051E-05-2.22910E-09 4.08744E-03-9.66459E-03 7.58183E-10
 -1      1068 7.58500E-05-4.65514E-05-2.34961E-09 4.10645E-03-9.54835E-03 7.56301E-10
 -1      1069 7.72738E-05-4.72817E-05-2.26860E-09 4.13367E-03-9.43248E-03 7.53932E-10
 -1      1070 7.84306E-05-4.81598E-05-2.17530E-09 4.16068E-03-9.31696E-03 7.50700E-10
 -1      1071 7.99427E-05-4.88878E-05-2.66980E-09 4.14865E-03-9.20182E-03 7.46835E-10
 -1      1072 8.10210E-05-4.97798E-05-2.85234E-09 4.25781E-03-9.08705E-03 7.42610E-10
 -1      1073 8.26575E-05-5.05193E-05-2.71951E-09 4.19529E-03-8.97267E-03 7.38237E-10
 -1      1074 8.36086E-05-5.14067E-05-2.98011E-09 4.22534E-03-8.85868E-03 7.33952E-10
 -1      1075 8.54311E-05-5.21599E-05-3.10919E-09 4.29955E-03-8.74508E-03 7.29380E-10
 -1      1076 8.62170E-05-5.30899E-05-3.38218E-09 4.28033E-03-8.63189E-03 7.24306E-10
 -1      1077 8.81757E-05-5.36937E-05-3.56893E-09 4.34939E-03-8.51911E-03 7.18956E-10
 -1      1078 8.91151E-05-5.51796E-05-3.35400E-09 4.26921E-03-8.40674E-03 7.13079E-10
 -1      1079 9.01179E-05-5.41343E-05-3.03199E-09 4.39661E-03-8.29480E-03 7.06351E-10
 -1      1080 9.43036E-05-6.01892E-05-3.57493E-09 4.36669E-03-8.18329E-03 6.99370E-10
 -1      1081 8.99718E-05-5.01754E-05-3.88206E-09 4.36734E-03-8.07221E-03 7.82974E-10
 -1      1082 9.79417E-05-6.48857E-05-3.14503E-09 4.47517E-03-7.96157E-03 9.56324E-10
 -1      1083 9.42026E-05-5.55564E-05-3.52624E-09 4.39681E-03-7.85138E-03 1.03920E-09
 -1      1084 9.79882E-05-6.10851E-05-3.97580E-09 4.46499E-03-7.74164E-03 1.03173E-09
 -1      1085 9.90941E-05-6.01746E-05-3.67786E-09 4.44514E-03-7.63237E-03 1.02384E-09
 -1      1086 1.00121E-04-6.17088E-05-4.04490E-09 4.52272E-03-7.52356E-03 1.01537E-09
 -1      1087 1.02085E-04-6.23030E-05-4.73712E-09 4.50649E-03-7.41523E-03 1.00688E-09
 -1      1088 1.03029E-04-6.33656E-05-4.75425E-09 4.56768E-03-7.30738E-03 9.98558E-10
 -1      1089 1.04883E-04-6.41125E-05-4.17058E-09 4.47963E-03-7.20003E-03 9.90020E-10
 -1      1090 1.05914E-04-6.50325E-05-3.71716E-09 4.60713E-03-7.09316E-03 9.81240E-10
 -1      1091 1.07741E-04-6.59439E-05-3.57682E-09 4.58506E-03-6.98680E-03 9.72450E-10
 -1      1092 1.08863E-04-6.67985E-05-3.24169E-09 4.55899E-03-6.88095E-03 9.63916E-10
 -1      1093 1.10560E-04-6.76758E-05-3.70839E-09 4.69769E-03-6.77561E-03 9.55595E-10
 -1      1094 1.11881E-04-6.86630E-05-4.39169E-09 4.58572E-03-6.67080E-03 9.47337E-10
 -1      1095 1.13441E-04-6.94565E-05-4.46745E-09 4.66800E-03-6.56652E-03 9.38947E-10
 -1      1096 1.14816E-04-7.04227E-05-4.57973E-09 4.62741E-03-6.46277E-03 9.30488E-10
 -1      1097 1.16342E-04-7.12308E-05-4.38963E-09 4.72397E-03-6.35956E-03 9.22045E-10
 -1      1098 1.17841E-04-7.22910E-05-4.58007E-09 4.73120E-03-6.25691E-03 9.13413E-10
 -1      1099 1.19330E-04-7.31016E-05-4.30996E-09 4.64350E-03-6.15480E-03 9.04475E-10
 -1      1100 1.20747E-04-7.40121E-05-3.74463E-09 4.77446E-03-6.05327E-03 8.95710E-10
 -1      1101 1.22330E-04-7.49622E-05-4.09984E-09 4.74227E-03-5.95230E-03 8.87310E-10
 -1      1102 1.23798E-04-7.59048E-05-4.41071E-09 4.76281E-03-5.85190E-03 8.78937E-10
 -1      1103 1.25279E-04-7.67408E-05-4.72908E-09 4.73517E-03-5.75209E-03 8.70507E-10
 -1      1104 1.26804E-04-7.77299E-05-4.87004E-09 4.87222E-03-5.65287E-03 8.61990E-10
 -1      1105 1.28366E-04-7.86842E-05-4.47034E-09 4.75328E-03-5.55425E-03 8.53153E-10
 -1      1106 1.29823E-04-7.95659E-05-4.84575E-09 4.83006E-03-5.45623E-03 8.44299E-10
 -1      1107 1.31380E-04-8.05169E-05-5.07937E-09 4.79134E-03-5.35883E-03 8.35645E-10
 -1      1108 1.32841E-04-8.13896E-05-4.58272E-09 4.88080E-03-5.26205E-03 8.26996E-10
 -1      1109 1.34488E-04-8.24595E-05-4.40807E-09 4.90110E-03-5.16589E-03 8.18442E-10
 -1      1110 1.35949E-04-8.33191E-05-4.71371E-09 4.78001E-03-5.07037E-03 8.09918E-10
 -1      1111 1.37472E-04-8.42249E-05-5.09139E-09 4.94217E-03-4.97549E-03 8.01115E-10
 -1      1112 1.39074E-04-8.52585E-05-4.97838E-09 4.88026E-03-4.88125E-03 7.92034E-10
 -1      1113 1.40575E-04-8.61442E-05-4.55037E-09 4.91333E-03-4.78768E-03 7.82848E-10
 -1      1114 1.42153E-04-8.71316E-05-4.58059E-09 4.92072E-03-4.69476E-03 7.73728E-10
 -1      1115 1.43693E-04-8.80580E-05-4.62530E-09 4.92552E-03-4.60252E-03 7.65067E-10
 -1      1116 1.45269E-04-8.90483E-05-4.16476E-09 4.95271E-03-4.51095E-03 7.56706E-10
 -1      1117 1.46815E-04-8.99752E-05-3.96736E-09 4.90626E-03-4.42007E-03 7.48161E-10
 -1      1118 1.48341E-04-9.08920E-05-3.95744E-09 5.00794E-03-4.32988E-03 7.39351E-10
 -1      1119 1.49986E-04-9.19446E-05-4.27837E-09 5.01837E-03-4.24040E-03 7.30579E-10
 -1      1120 1.51562E-04-9.29151E-05-4.64243E-09 4.93816E-03-4.15161E-03 7.21958E-10
 -1      1121 1.53058E-04-9.37766E-05-4.54644E-09 4.95684E-03-4.06354E-03 7.13070E-10
 -1      1122 1.54671E-04-9.47901E-05-4.61283E-09 5.05940E-03-3.97620E-03 7.04081E-10
 -1      1123 1.56287E-04-9.58022E-05-4.65448E-09 5.00543E-03-3.88958E-03 6.95312E-10
 -1      1124 1.57827E-04-9.67219E-05-4.81023E-09 5.02563E-03-3.80370E-03 6.86657E-10
 -1      1125 1.59445E-04-9.77238E-05-4.99321E-09 5.04126E-03-3.71856E-03 6.78121E-10
 -1      1126 1.61025E-04-9.86871E-05-4.91810E-09 5.03927E-03-3.63418E-03 6.69737E-10
 -1      1127 1.62630E-04-9.96866E-05-4.84093E-09 5.05919E-03-3.55055E-03 6.61242E-10
 -1      1128 1.64210E-04-1.00635E-04-4.84022E-09 5.01353E-03-3.46769E-03 6.52609E-10
 -1      1129 1.65770E-04-1.01569E-04-4.91026E-09 5.11906E-03-3.38560E-03 6.43883E-10
 -1      1130 1.67453E-04-1.02653E-04-4.92846E-09 5.12525E-03-3.30430E-03 6.34943E-10
 -1      1131 1.69064E-04-1.03644E-04-4.92074E-09 5.03585E-03-3.22378E-03 6.25900E-10
 -1      1132 1.70582E-04-1.04517E-04-4.86236E-09 5.05061E-03-3.14406E-03 6.16759E-10
 -1      1133 1.72231E-04-1.05551E-04-4.99241E-09 5.16185E-03-3.06515E-03 6.07557E-10
 -1      1134 1.73868E-04-1.06576E-04-5.38632E-09 5.09733E-03-2.98705E-03 5.98400E-10
 -1      1135 1.75463E-04-1.07533E-04-5.28584E-09 5.12758E-03-2.90977E-03 5.89159E-10
 -1      1136 1.77091E-04-1.08541E-04-4.99556E-09 5.11432E-03-2.83332E-03 5.79713E-10
 -1      1137 1.78685E-04-1.09503E-04-5.29207E-09 5.14223E-03-2.75770E-03 5.70206E-10
 -1      1138 1.80359E-04-1.10566E-04-5.41764E-09 5.13652E-03-2.68292E-03 5.60648E-10
 -1      1139 1.81897E-04-1.11447E-04-5.24683E-09 5.09255E-03-2.60900E-03 5.50864E-10
 -1      1140 1.83584E-04-1.12519E-04-5.46156E-09 5.26447E-03-2.53593E-03 5.40919E-10
 -1      1141 1.85236E-04-1.13554E-04-5.54608E-09 5.08946E-03-2.46373E-03 5.31022E-10
 -1      1142 1.86817E-04-1.14491E-04-5.42388E-09 5.17922E-03-2.39240E-03 5.21189E-10
 -1      1143 1.88454E-04-1.15495E-04-5.54286E-09 5.11430E-03-2.32195E-03 5.11360E-10
 -1      1144 1.90071E-04-1.16475E-04-5.50144E-09 5.23555E-03-2.25239E-03 5.01562E-10
 -1      1145 1.91751E-04-1.17542E-04-5.41816E-09 5.17369E-03-2.18373E-03 4.91843E-10
 -1      1146 1.93359E-04-1.18500E-04-5.36975E-09 5.18965E-03-2.11597E-03 4.82190E-10
 -1      1147 1.95015E-04-1.19529E-04-5.08310E-09 5.19173E-03-2.04913E-03 4.72445E-10
 -1      1148 1.96623E-04-1.20496E-04-5.13857E-09 5.19532E-03-1.98320E-03 4.62616E-10
 -1      1149 1.98328E-04-1.21583E-04-5.49991E-09 5.21338E-03-1.91820E-03 4.52882E-10
 -1      1150 1.99872E-04-1.22461E-04-5.55264E-09 5.13184E-03-1.85413E-03 4.43303E-10
 -1      1151 2.01567E-04-1.23532E-04-5.28859E-09 5.35184E-03-1.79101E-03 4.33741E-10
 -1      1152 2.03301E-04-1.24661E-04-5.07453E-09 5.12964E-03-1.72884E-03 4.24256E-10
 -1      1153 2.04793E-04-1.25464E-04-5.20320E-09 5.18129E-03-1.66762E-03 4.15035E-10
 -1      1154 2.06529E-04-1.26587E-04-5.30086E-09 5.28766E-03-1.60738E-03 4.06004E-10
 -1      1155 2.08133E-04-1.27547E-04-5.16963E-09 5.20780E-03-1.54810E-03 3.97001E-10
 -1      1156 2.09865E-04-1.28657E-04-5.18075E-09 5.31290E-03-1.48981E-03 3.88071E-10
 -1      1157 2.11475E-04-1.29614E-04-5.09627E-09 5.09223E-03-1.43251E-03 3.79282E-10
 -1      1158 2.13056E-04-1.30537E-04-4.97907E-09 5.32755E-03-1.37621E-03 3.70616E-10
 -1      1159 2.14821E-04-1.31693E-04-5.12250E-09 5.22568E-03-1.32092E-03 3.62070E-10
 -1      1160 2.16407E-04-1.32621E-04-5.17351E-09 5.24877E-03-1.26664E-03 3.53652E-10
 -1      1161 2.18097E-04-1.33676E-04-5.05252E-09 5.25135E-03-1.21338E-03 3.45291E-10
 -1      1162 2.19736E-04-1.34665E-04-4.96153E-09 5.24926E-03-1.16115E-03 3.36898E-10
 -1      1163 2.21428E-04-1.35736E-04-4.98561E-09 5.26022E-03-1.10996E-03 3.28519E-10
 -1      1164 2.23033E-04-1.36673E-04-5.10101E-09 5.18997E-03-1.05981E-03 3.20214E-10
 -1      1165 2.24713E-04-1.37719E-04-5.26283E-09 5.33625E-03-1.01071E-03 3.11960E-10
 -1      1166 2.26357E-04-1.38722E-04-5.21764E-09 5.24200E-03-9.62681E-04 3.03689E-10
 -1      1167 2.28100E-04-1.39835E-04-5.03752E-09 5.34880E-03-9.15717E-04 2.95356E-10
 -1      1168 2.29720E-04-1.40799E-04-5.02503E-09 5.11057E-03-8.69829E-04 2.87013E-10
 -1      1169 2.31281E-04-1.41694E-04-4.92103E-09 5.36996E-03-8.25025E-04 2.78720E-10
 -1      1170 2.33131E-04-1.42954E-04-4.89163E-09 5.25378E-03-7.81313E-04 2.70431E-10
 -1      1171 2.34609E-04-1.43731E-04-5.03456E-09 5.20012E-03-7.38701E-04 2.62211E-10
 -1      1172 2.36377E-04-1.44882E-04-5.01531E-09 5.43321E-03-6.97196E-04 2.54096E-10
 -1      1173 2.38082E-04-1.45954E-04-4.99012E-09 5.17299E-03-6.56807E-04 2.46034E-10
 -1      1174 2.39665E-04-1.46873E-04-5.06022E-09 5.30559E-03-6.17540E-04 2.38006E-10
 -1      1175 2.41370E-04-1.47939E-04-5.07760E-09 5.20933E-03-5.79405E-04 2.30013E-10
 -1      1176 2.42953E-04-1.48855E-04-5.05819E-09 5.34319E-03-5.42408E-04 2.22041E-10
 -1      1177 2.44746E-04-1.50039E-04-5.05832E-09 5.35913E-03-5.06558E-04 2.14083E-10
 -1      1178 2.46424E-04-1.51071E-04-5.06554E-09 5.19777E-03-4.71863E-04 2.06118E-10
 -1      1179 2.47952E-04-1.51922E-04-5.08006E-09 5.22939E-03-4.38330E-04 1.98176E-10
 -1      1180 2.49692E-04-1.53023E-04-5.06906E-09 5.36510E-03-4.05967E-04 1.90261E-10
 -1      1181 2.51398E-04-1.54104E-04-5.05237E-09 5.27233E-03-3.74782E-04 1.82333E-10
 -1      1182 2.53020E-04-1.55062E-04-5.02501E-09 5.29129E-03-3.44783E-04 1.74401E-10
 -1      1183 2.54721E-04-1.56125E-04-5.06657E-09 5.29203E-03-3.15978E-04 1.66518E-10
 -1      1184 2.56354E-04-1.57104E-04-5.10821E-09 5.28172E-03-2.88375E-04 1.58691E-10
 -1      1185 2.58081E-04-1.58205E-04-5.06955E-09 5.30631E-03-2.61981E-04 1.50876E-10
 -1      1186 2.59698E-04-1.59151E-04-5.06127E-09 5.19773E-03-2.36805E-04 1.43074E-10
 -1      1187 2.61316E-04-1.60118E-04-5.07023E-09 5.39164E-03-2.12854E-04 1.35307E-10
 -1      1188 2.63111E-04-1.61291E-04-5.06250E-09 5.33433E-03-1.90136E-04 1.27570E-10
 -1      1189 2.64793E-04-1.62339E-04-5.06537E-09 5.24206E-03-1.68659E-04 1.19863E-10
 -1      1190 2.66315E-04-1.63164E-04-5.07229E-09 5.18308E-03-1.48432E-04 1.12180E-10
 -1      1191 2.68063E-04-1.64294E-04-5.09466E-09 5.44310E-03-1.29461E-04 1.04509E-10
 -1      1192 2.69759E-04-1.65346E-04-5.10682E-09 5.19491E-03-1.11756E-04 9.68703E-11
 -1      1193 2.71404E-04-1.66344E-04-5.08286E-09 5.40156E-03-9.53224E-05 8.92461E-11
 -1      1194 2.73087E-04-1.67365E-04-5.09056E-09 5.16377E-03-8.01699E-05 8.16318E-11
 -1      1195 2.74746E-04-1.68393E-04-5.10016E-09 5.45595E-03-6.63058E-05 7.40504E-11
 -1      1196 2.76455E-04-1.69456E-04-5.10684E-09 5.09348E-03-5.37381E-05 6.65004E-11
 -1      1197 2.78040E-04-1.70380E-04-5.11092E-09 5.47053E-03-4.24745E-05 5.89800E-11
 -1      1198 2.79740E-04-1.71425E-04-5.08784E-09 5.12848E-03-3.25233E-05 5.14832E-11
 -1      1199 2.81555E-04-1.72639E-04-5.10056E-09 5.63809E-03-2.38920E-05 4.40103E-11
 -1      1200 2.83066E-04-1.73505E-04-5.10993E-09 4.64507E-03-1.65887E-05 3.65743E-11
 -1      1201 2.84552E-04-1.74063E-04-5.09852E-09 6.13418E-03-1.06212E-05 2.91707E-11
 -1      1202 2.87251E-04-1.77287E-04-5.10006E-09 4.35187E-03-5.99750E-06 2.17939E-11
 -1      1203 2.85416E-04-1.70557E-04-5.05678E-09 6.32722E-03-2.72522E-06 1.44214E-11
 -1      1204 2.99389E-04-1.99320E-04-5.48291E-09 4.45955E-03-8.12916E-07 7.24394E-12
 -1      1205 2.16679E-04-7.38412E-05-5.95501E-09 1.26719E-02-1.98353E-07 3.77137E-12
 -1      1206 4.21220E-09-6.27549E-09 8.10988E-10 5.43754E-06 2.24319E-02 2.52095E-09
 -1      1207 1.08796E-08-1.26633E-09 8.70605E-10 5.60070E-05 2.23673E-02 2.52210E-09
 -1      1208 4.14098E-08-3.84011E-08 6.04780E-10 1.12371E-04 2.22383E-02 2.52379E-09
 -1      1209 7.99255E-08-3.84685E-08-7.89256E-10 1.67438E-04 2.21092E-02 2.52372E-09
 -1      1210 1.41163E-07-8.46873E-08-6.30540E-10 2.23221E-04 2.19801E-02 2.52276E-09
 -1      1211 2.24388E-07-1.41832E-07-3.78494E-10 2.77576E-04 2.18510E-02 2.52312E-09
 -1      1212 3.20551E-07-1.94192E-07-2.14460E-09 3.32208E-04 2.17220E-02 2.52381E-09
 -1      1213 4.30433E-07-2.56606E-07-1.67383E-09 3.87328E-04 2.15929E-02 2.52398E-09
 -1      1214 5.64391E-07-3.49798E-07-1.03496E-10 4.39867E-04 2.14638E-02 2.52423E-09
 -1      1215 7.10182E-07-4.29048E-07 5.15595E-10 4.95319E-04 2.13347E-02 2.52493E-09
 -1      1216 8.79489E-07-5.43738E-07 1.06049E-10 5.47257E-04 2.12056E-02 2.52654E-09
 -1      1217 1.05691E-06-6.39141E-07-4.73586E-10 5.99752E-04 2.10766E-02 2.52860E-09
 -1      1218 1.25691E-06-7.75612E-07 2.84046E-10 6.55259E-04 2.09475E-02 2.53104E-09
 -1      1219 1.47319E-06-9.01895E-07 5.91933E-10 7.03375E-04 2.08184E-02 2.53373E-09
 -1      1220 1.70358E-06-1.04567E-06-8.31701E-10 7.58772E-04 2.06893E-02 2.53671E-09
 -1      1221 1.95116E-06-1.19458E-06-1.60128E-09 8.10691E-04 2.05603E-02 2.53985E-09
 -1      1222 2.21092E-06-1.34949E-06-2.08948E-10 8.57413E-04 2.04312E-02 2.54192E-09
 -1      1223 2.49309E-06-1.54026E-06 1.28041E-10 9.13940E-04 2.03022E-02 2.54340E-09
 -1      1224 2.78382E-06-1.68855E-06-1.00782E-09 9.61672E-04 2.01732E-02 2.54460E-09
 -1      1225 3.10121E-06-1.90747E-06-8.77098E-10 1.01281E-03 2.00441E-02 2.54661E-09
 -1      1226 3.42755E-06-2.09338E-06-1.59079E-09 1.06508E-03 1.99151E-02 2.54950E-09
 -1      1227 3.76894E-06-2.30981E-06-2.40725E-09 1.10784E-03 1.97861E-02 2.55224E-09
 -1      1228 4.12983E-06-2.52774E-06-1.07533E-09 1.16493E-03 1.96571E-02 2.55448E-09
 -1      1229 4.50375E-06-2.75839E-06-3.77015E-10 1.21066E-03 1.95281E-02 2.55622E-09
 -1      1230 4.89470E-06-2.99516E-06-5.70286E-10 1.25998E-03 1.93991E-02 2.55793E-09
 -1      1231 5.30236E-06-3.25618E-06-3.02366E-10 1.30865E-03 1.92702E-02 2.56029E-09
 -1      1232 5.72278E-06-3.50521E-06-3.65749E-10 1.35475E-03 1.91413E-02 2.56345E-09
 -1      1233 6.15774E-06-3.77836E-06-3.34065E-10 1.40625E-03 1.90124E-02 2.56714E-09
 -1      1234 6.60727E-06-4.04631E-06-6.00260E-12 1.45357E-03 1.88835E-02 2.57041E-09
 -1      1235 7.07462E-06-4.33946E-06-1.13677E-10 1.49708E-03 1.87546E-02 2.57322E-09
 -1      1236 7.55348E-06-4.62867E-06 3.07598E-10 1.54365E-03 1.86258E-02 2.57676E-09
 -1      1237 8.04971E-06-4.94187E-06 1.52187E-09 1.59518E-03 1.84970E-02 2.58049E-09
 -1      1238 8.55737E-06-5.24217E-06 1.20570E-09 1.63773E-03 1.83682E-02 2.58249E-09
 -1      1239 9.07957E-06-5.56305E-06-7.60282E-10 1.68506E-03 1.82395E-02 2.58282E-09
 -1      1240 9.62005E-06-5.89528E-06-4.98851E-10 1.72909E-03 1.81109E-02 2.58222E-09
 -1      1241 1.01718E-05-6.23889E-06 1.13322E-09 1.77576E-03 1.79822E-02 2.58124E-09
 -1      1242 1.07393E-05-6.58289E-06 1.69775E-09 1.82006E-03 1.78537E-02 2.57987E-09
 -1      1243 1.13198E-05-6.94301E-06 1.92535E-09 1.86078E-03 1.77252E-02 2.57788E-09
 -1      1244 1.19162E-05-7.30284E-06 5.95748E-10 1.91648E-03 1.75967E-02 2.57535E-09
 -1      1245 1.25245E-05-7.67530E-06 3.19769E-10 1.94842E-03 1.74683E-02 2.57180E-09
 -1      1246 1.31466E-05-8.06052E-06 2.47514E-09 1.99721E-03 1.73399E-02 2.56755E-09
 -1      1247 1.37844E-05-8.44694E-06 2.86645E-09 2.03579E-03 1.72117E-02 2.56327E-09
 -1      1248 1.44380E-05-8.85478E-06 1.76295E-09 2.08716E-03 1.70834E-02 2.55888E-09
 -1      1249 1.50982E-05-9.25129E-06 1.21479E-09 2.12499E-03 1.69553E-02 2.55483E-09
 -1      1250 1.57788E-05-9.67314E-06 1.25269E-09 2.16795E-03 1.68272E-02 2.55106E-09
 -1      1251 1.64668E-05-1.00890E-05 5.10807E-10 2.20974E-03 1.66992E-02 2.54716E-09
 -1      1252 1.71728E-05-1.05212E-05-6.83083E-11 2.25110E-03 1.65713E-02 2.54352E-09
 -1      1253 1.78927E-05-1.09672E-05-3.11927E-10 2.29438E-03 1.64435E-02 2.54052E-09
 -1      1254 1.86191E-05-1.14040E-05-6.31477E-10 2.32590E-03 1.63158E-02 2.53777E-09
 -1      1255 1.93657E-05-1.18655E-05 3.39192E-10 2.38886E-03 1.61881E-02 2.53536E-09
 -1      1256 2.01223E-05-1.23334E-05 1.17192E-09 2.40657E-03 1.60606E-02 2.53340E-09
 -1      1257 2.08880E-05-1.28036E-05 1.96318E-09 2.45088E-03 1.59332E-02 2.53104E-09
 -1      1258 2.16711E-05-1.32834E-05 2.04311E-09 2.50097E-03 1.58058E-02 2.52849E-09
 -1      1259 2.24625E-05-1.37696E-05 1.71820E-09 2.53279E-03 1.56786E-02 2.52590E-09
 -1      1260 2.32706E-05-1.42691E-05 2.05171E-09 2.58158E-03 1.55515E-02 2.52317E-09
 -1      1261 2.40892E-05-1.47657E-05 4.58599E-10 2.59723E-03 1.54245E-02 2.52073E-09
 -1      1262 2.49182E-05-1.52700E-05-1.28888E-09 2.65936E-03 1.52977E-02 2.51826E-09
 -1      1263 2.57605E-05-1.57865E-05-6.85080E-11 2.68791E-03 1.51710E-02 2.51491E-09
 -1      1264 2.66160E-05-1.63138E-05 8.96331E-10 2.72817E-03 1.50443E-02 2.51159E-09
 -1      1265 2.74837E-05-1.68423E-05-1.31355E-09 2.75456E-03 1.49179E-02 2.50895E-09
 -1      1266 2.83612E-05-1.73788E-05-1.43491E-09 2.81961E-03 1.47915E-02 2.50623E-09
 -1      1267 2.92505E-05-1.79255E-05 1.45696E-10 2.82908E-03 1.46654E-02 2.50288E-09
 -1      1268 3.01522E-05-1.84807E-05 4.48952E-10 2.86651E-03 1.45393E-02 2.49937E-09
 -1      1269 3.10679E-05-1.90402E-05 1.10881E-09 2.92232E-03 1.44134E-02 2.49638E-09
 -1      1270 3.19910E-05-1.96116E-05 1.73394E-09 2.94312E-03 1.42877E-02 2.49428E-09
 -1      1271 3.29263E-05-2.01753E-05 1.24906E-09 2.99674E-03 1.41621E-02 2.49212E-09
 -1      1272 3.38780E-05-2.07655E-05 1.30547E-09 2.99440E-03 1.40367E-02 2.49002E-09
 -1      1273 3.48302E-05-2.13441E-05 1.56847E-09 3.06786E-03 1.39114E-02 2.48779E-09
 -1      1274 3.58044E-05-2.19428E-05 6.68456E-10 3.08685E-03 1.37863E-02 2.48496E-09
 -1      1275 3.67816E-05-2.25487E-05 7.49162E-10 3.10903E-03 1.36614E-02 2.48226E-09
 -1      1276 3.77760E-05-2.31510E-05 1.36011E-09 3.18214E-03 1.35367E-02 2.47983E-09
 -1      1277 3.87742E-05-2.37668E-05 1.44964E-09 3.17454E-03 1.34122E-02 2.47664E-09
 -1      1278 3.97871E-05-2.43869E-05 1.34232E-09 3.22755E-03 1.32878E-02 2.47365E-09
 -1      1279 4.08116E-05-2.50112E-05 4.46620E-10 3.24402E-03 1.31636E-02 2.47132E-09
 -1      1280 4.18457E-05-2.56473E-05-1.43959E-09 3.30140E-03 1.30396E-02 2.46950E-09
 -1      1281 4.28882E-05-2.62791E-05-1.02197E-09 3.33414E-03 1.29158E-02 2.46783E-09
 -1      1282 4.39416E-05-2.69326E-05 1.23339E-09 3.34173E-03 1.27922E-02 2.46597E-09
 -1      1283 4.50069E-05-2.75878E-05 1.27097E-09 3.37431E-03 1.26688E-02 2.46446E-09
 -1      1284 4.60818E-05-2.82401E-05-3.14815E-10 3.43177E-03 1.25456E-02 2.46280E-09
 -1      1285 4.71609E-05-2.89054E-05-7.50861E-10 3.44927E-03 1.24226E-02 2.46037E-09
 -1      1286 4.82551E-05-2.95727E-05-1.75935E-10 3.46339E-03 1.22999E-02 2.45718E-09
 -1      1287 4.93626E-05-3.02580E-05-6.75063E-10 3.54350E-03 1.21773E-02 2.45402E-09
 -1      1288 5.04736E-05-3.09313E-05-8.84277E-10 3.52065E-03 1.20550E-02 2.45129E-09
 -1      1289 5.15933E-05-3.16228E-05 2.68111E-10 3.57712E-03 1.19329E-02 2.44846E-09
 -1      1290 5.27287E-05-3.23162E-05 6.85055E-10 3.58396E-03 1.18111E-02 2.44507E-09
 -1      1291 5.38644E-05-3.30143E-05 1.01003E-09 3.64523E-03 1.16895E-02 2.44104E-09
 -1      1292 5.50211E-05-3.37226E-05 1.75843E-09 3.67822E-03 1.15681E-02 2.43683E-09
 -1      1293 5.61747E-05-3.44328E-05 1.07989E-09 3.65055E-03 1.14470E-02 2.43259E-09
 -1      1294 5.73492E-05-3.51407E-05 4.06205E-10 3.73980E-03 1.13261E-02 2.42827E-09
 -1      1295 5.85190E-05-3.58746E-05 1.63728E-09 3.74243E-03 1.12056E-02 2.42408E-09
 -1      1296 5.97124E-05-3.65926E-05 1.42849E-09 3.77128E-03 1.10853E-02 2.41979E-09
 -1      1297 6.09037E-05-3.73363E-05 6.67581E-10 3.80528E-03 1.09652E-02 2.41556E-09
 -1      1298 6.21192E-05-3.80677E-05 1.29170E-09 3.82347E-03 1.08455E-02 2.41136E-09
 -1      1299 6.33071E-05-3.88078E-05 1.14867E-09 3.85814E-03 1.07260E-02 2.40640E-09
 -1      1300 6.45541E-05-3.95560E-05 1.12221E-09 3.88323E-03 1.06069E-02 2.40051E-09
 -1      1301 6.57558E-05-4.03192E-05 1.59901E-09 3.88470E-03 1.04880E-02 2.39463E-09
 -1      1302 6.70247E-05-4.10612E-05 1.65662E-09 3.97925E-03 1.03695E-02 2.38908E-09
 -1      1303 6.82382E-05-4.18484E-05 1.26988E-09 3.93554E-03 1.02512E-02 2.38367E-09
 -1      1304 6.95289E-05-4.25869E-05 9.75359E-10 3.96757E-03 1.01333E-02 2.37833E-09
 -1      1305 7.07446E-05-4.33909E-05 1.03907E-09 4.03530E-03 1.00157E-02 2.37276E-09
 -1      1306 7.20729E-05-4.41371E-05 1.40967E-09 4.03148E-03 9.89848E-03 2.36687E-09
 -1      1307 7.32744E-05-4.49572E-05 1.90443E-09 4.06063E-03 9.78158E-03 2.36087E-09
 -1      1308 7.46536E-05-4.57019E-05 2.22910E-09 4.08743E-03 9.66502E-03 2.35451E-09
 -1      1309 7.58402E-05-4.65526E-05 2.34961E-09 4.10646E-03 9.54882E-03 2.34776E-09
 -1      1310 7.72623E-05-4.72766E-05 2.26860E-09 4.13365E-03 9.43297E-03 2.34044E-09
 -1      1311 7.84169E-05-4.81534E-05 2.17530E-09 4.16064E-03 9.31748E-03 2.33217E-09
 -1      1312 7.99281E-05-4.88823E-05 2.66980E-09 4.14860E-03 9.20237E-03 2.32318E-09
 -1      1313 8.10056E-05-4.97759E-05 2.85234E-09 4.25777E-03 9.08764E-03 2.31375E-09
 -1      1314 8.26421E-05-5.05065E-05 2.71951E-09 4.19523E-03 8.97328E-03 2.30408E-09
 -1      1315 8.35933E-05-5.14056E-05 2.98011E-09 4.22530E-03 8.85931E-03 2.29441E-09
 -1      1316 8.54143E-05-5.21501E-05 3.10919E-09 4.29955E-03 8.74574E-03 2.28437E-09
 -1      1317 8.61993E-05-5.30879E-05 3.38218E-09 4.28034E-03 8.63257E-03 2.27374E-09
 -1      1318 8.81576E-05-5.36866E-05 3.56893E-09 4.34942E-03 8.51981E-03 2.26275E-09
 -1      1319 8.90949E-05-5.51758E-05 3.35400E-09 4.26924E-03 8.40745E-03 2.25114E-09
 -1      1320 9.00957E-05-5.41183E-05 3.03199E-09 4.39662E-03 8.29552E-03 2.23860E-09
 -1      1321 9.42823E-05-6.01773E-05 3.57493E-09 4.36670E-03 8.18401E-03 2.22569E-09
 -1      1322 8.99520E-05-5.01690E-05 3.88206E-09 4.36733E-03 8.07294E-03 2.12354E-09
 -1      1323 9.79218E-05-6.48767E-05 3.14503E-09 4.47515E-03 7.96231E-03 1.93191E-09
 -1      1324 9.41826E-05-5.55468E-05 3.52624E-09 4.39678E-03 7.85212E-03 1.83093E-09
 -1      1325 9.79681E-05-6.10817E-05 3.97580E-09 4.46499E-03 7.74239E-03 1.82019E-09
 -1      1326 9.90722E-05-6.01603E-05 3.67786E-09 4.44514E-03 7.63311E-03 1.80896E-09
 -1      1327 1.00098E-04-6.16985E-05 4.04490E-09 4.52270E-03 7.52430E-03 1.79710E-09
 -1      1328 1.02063E-04-6.22983E-05 4.73712E-09 4.50646E-03 7.41597E-03 1.78518E-09
 -1      1329 1.03006E-04-6.33573E-05 4.75425E-09 4.56766E-03 7.30811E-03 1.77337E-09
 -1      1330 1.04860E-04-6.41024E-05 4.17058E-09 4.47963E-03 7.20073E-03 1.76130E-09
 -1      1331 1.05891E-04-6.50200E-05 3.71716E-09 4.60712E-03 7.09385E-03 1.74894E-09
 -1      1332 1.07717E-04-6.59318E-05 3.57682E-09 4.58505E-03 6.98747E-03 1.73652E-09
 -1      1333 1.08841E-04-6.67878E-05 3.24169E-09 4.55901E-03 6.88159E-03 1.72431E-09
 -1      1334 1.10537E-04-6.76655E-05 3.70839E-09 4.69775E-03 6.77623E-03 1.71226E-09
 -1      1335 1.11859E-04-6.86523E-05 4.39169E-09 4.58582E-03 6.67138E-03 1.70022E-09
 -1      1336 1.13419E-04-6.94480E-05 4.46745E-09 4.66809E-03 6.56706E-03 1.68801E-09
 -1      1337 1.14793E-04-7.04149E-05 4.57973E-09 4.62745E-03 6.46328E-03 1.67567E-09
 -1      1338 1.16319E-04-7.12233E-05 4.38963E-09 4.72399E-03 6.36004E-03 1.66330E-09
 -1      1339 1.17817E-04-7.22877E-05 4.58007E-09 4.73122E-03 6.25735E-03 1.65070E-09
 -1      1340 1.19306E-04-7.30869E-05 4.30996E-09 4.64352E-03 6.15521E-03 1.63773E-09
 -1      1341 1.20724E-04-7.40005E-05 3.74463E-09 4.77447E-03 6.05364E-03 1.62488E-09
 -1      1342 1.22307E-04-7.49532E-05 4.09984E-09 4.74228E-03 5.95263E-03 1.61236E-09
 -1      1343 1.23775E-04-7.58967E-05 4.41071E-09 4.76281E-03 5.85221E-03 1.59980E-09
 -1      1344 1.25256E-04-7.67347E-05 4.72908E-09 4.73515E-03 5.75237E-03 1.58714E-09
 -1      1345 1.26780E-04-7.77205E-05 4.87004E-09 4.87219E-03 5.65312E-03 1.57434E-09
 -1      1346 1.28341E-04-7.86721E-05 4.47034E-09 4.75323E-03 5.55447E-03 1.56117E-09
 -1      1347 1.29799E-04-7.95590E-05 4.84575E-09 4.83003E-03 5.45643E-03 1.54793E-09
 -1      1348 1.31356E-04-8.05076E-05 5.07937E-09 4.79133E-03 5.35900E-03 1.53484E-09
 -1      1349 1.32817E-04-8.13798E-05 4.58272E-09 4.88081E-03 5.26218E-03 1.52170E-09
 -1      1350 1.34465E-04-8.24507E-05 4.40807E-09 4.90112E-03 5.16600E-03 1.50861E-09
 -1      1351 1.35925E-04-8.33105E-05 4.71371E-09 4.78002E-03 5.07045E-03 1.49549E-09
 -1      1352 1.37447E-04-8.42190E-05 5.09139E-09 4.94219E-03 4.97554E-03 1.48204E-09
 -1      1353 1.39048E-04-8.52488E-05 4.97838E-09 4.88028E-03 4.88128E-03 1.46827E-09
 -1      1354 1.40550E-04-8.61334E-05 4.55037E-09 4.91334E-03 4.78767E-03 1.45433E-09
 -1      1355 1.42128E-04-8.71216E-05 4.58059E-09 4.92072E-03 4.69473E-03 1.44041E-09
 -1      1356 1.43669E-04-8.80516E-05 4.62530E-09 4.92552E-03 4.60247E-03 1.42689E-09
 -1      1357 1.45245E-04-8.90371E-05 4.16476E-09 4.95272E-03 4.51088E-03 1.41362E-09
 -1      1358 1.46791E-04-8.99652E-05 3.96736E-09 4.90627E-03 4.41997E-03 1.40011E-09
 -1      1359 1.48316E-04-9.08766E-05 3.95744E-09 5.00794E-03 4.32976E-03 1.38629E-09
 -1      1360 1.49962E-04-9.19371E-05 4.27837E-09 5.01837E-03 4.24025E-03 1.37245E-09
 -1      1361 1.51537E-04-9.29044E-05 4.64243E-09 4.93816E-03 4.15144E-03 1.35871E-09
 -1      1362 1.53032E-04-9.37681E-05 4.54644E-09 4.95683E-03 4.06336E-03 1.34465E-09
 -1      1363 1.54645E-04-9.47783E-05 4.61283E-09 5.05940E-03 3.97599E-03 1.33043E-09
 -1      1364 1.56262E-04-9.57934E-05 4.65448E-09 5.00545E-03 3.88936E-03 1.31638E-09
 -1      1365 1.57802E-04-9.67125E-05 4.81023E-09 5.02566E-03 3.80346E-03 1.30239E-09
 -1      1366 1.59421E-04-9.77170E-05 4.99321E-09 5.04127E-03 3.71831E-03 1.28846E-09
 -1      1367 1.61001E-04-9.86768E-05 4.91810E-09 5.03927E-03 3.63392E-03 1.27464E-09
 -1      1368 1.62605E-04-9.96788E-05 4.84093E-09 5.05918E-03 3.55028E-03 1.26065E-09
 -1      1369 1.64185E-04-1.00626E-04 4.84022E-09 5.01350E-03 3.46741E-03 1.24646E-09
 -1      1370 1.65745E-04-1.01560E-04 4.91026E-09 5.11903E-03 3.38532E-03 1.23213E-09
 -1      1371 1.67427E-04-1.02644E-04 4.92846E-09 5.12522E-03 3.30401E-03 1.21753E-09
 -1      1372 1.69038E-04-1.03633E-04 4.92074E-09 5.03584E-03 3.22349E-03 1.20277E-09
 -1      1373 1.70556E-04-1.04506E-04 4.86236E-09 5.05061E-03 3.14377E-03 1.18786E-09
 -1      1374 1.72205E-04-1.05540E-04 4.99241E-09 5.16186E-03 3.06485E-03 1.17283E-09
 -1      1375 1.73842E-04-1.06567E-04 5.38632E-09 5.09733E-03 2.98675E-03 1.15780E-09
 -1      1376 1.75436E-04-1.07524E-04 5.28584E-09 5.12758E-03 2.90947E-03 1.14262E-09
 -1      1377 1.77064E-04-1.08530E-04 4.99556E-09 5.11433E-03 2.83301E-03 1.12719E-09
 -1      1378 1.78658E-04-1.09492E-04 5.29207E-09 5.14223E-03 2.75739E-03 1.11164E-09
 -1      1379 1.80331E-04-1.10556E-04 5.41764E-09 5.13652E-03 2.68262E-03 1.09598E-09
 -1      1380 1.81868E-04-1.11434E-04 5.24683E-09 5.09256E-03 2.60869E-03 1.08005E-09
 -1      1381 1.83555E-04-1.12509E-04 5.46156E-09 5.26448E-03 2.53563E-03 1.06389E-09
 -1      1382 1.85207E-04-1.13544E-04 5.54608E-09 5.08948E-03 2.46343E-03 1.04773E-09
 -1      1383 1.86788E-04-1.14479E-04 5.42388E-09 5.17924E-03 2.39210E-03 1.03158E-09
 -1      1384 1.88425E-04-1.15484E-04 5.54286E-09 5.11432E-03 2.32166E-03 1.01538E-09
 -1      1385 1.90042E-04-1.16463E-04 5.50144E-09 5.23556E-03 2.25211E-03 9.99146E-10
 -1      1386 1.91723E-04-1.17530E-04 5.41816E-09 5.17369E-03 2.18345E-03 9.82943E-10
 -1      1387 1.93331E-04-1.18489E-04 5.36975E-09 5.18965E-03 2.11571E-03 9.66749E-10
 -1      1388 1.94986E-04-1.19516E-04 5.08310E-09 5.19172E-03 2.04887E-03 9.50407E-10
 -1      1389 1.96594E-04-1.20484E-04 5.13857E-09 5.19530E-03 1.98295E-03 9.33926E-10
 -1      1390 1.98300E-04-1.21571E-04 5.49991E-09 5.21336E-03 1.91797E-03 9.17483E-10
 -1      1391 1.99844E-04-1.22453E-04 5.55264E-09 5.13182E-03 1.85392E-03 9.01140E-10
 -1      1392 2.01539E-04-1.23520E-04 5.28859E-09 5.35183E-03 1.79081E-03 8.84760E-10
 -1      1393 2.03273E-04-1.24650E-04 5.07453E-09 5.12962E-03 1.72865E-03 8.68400E-10
 -1      1394 2.04765E-04-1.25454E-04 5.20320E-09 5.18127E-03 1.66746E-03 8.52244E-10
 -1      1395 2.06502E-04-1.26576E-04 5.30086E-09 5.28764E-03 1.60723E-03 8.36228E-10
 -1      1396 2.08106E-04-1.27537E-04 5.16963E-09 5.20777E-03 1.54797E-03 8.20183E-10
 -1      1397 2.09837E-04-1.28646E-04 5.18075E-09 5.31287E-03 1.48970E-03 8.04152E-10
 -1      1398 2.11448E-04-1.29604E-04 5.09627E-09 5.09221E-03 1.43241E-03 7.88206E-10
 -1      1399 2.13029E-04-1.30527E-04 4.97907E-09 5.32754E-03 1.37612E-03 7.72329E-10
 -1      1400 2.14794E-04-1.31684E-04 5.12250E-09 5.22568E-03 1.32084E-03 7.56515E-10
 -1      1401 2.16380E-04-1.32610E-04 5.17351E-09 5.24878E-03 1.26657E-03 7.40772E-10
 -1      1402 2.18071E-04-1.33666E-04 5.05252E-09 5.25135E-03 1.21332E-03 7.25030E-10
 -1      1403 2.19709E-04-1.34655E-04 4.96153E-09 5.24927E-03 1.16110E-03 7.09200E-10
 -1      1404 2.21402E-04-1.35725E-04 4.98561E-09 5.26022E-03 1.10992E-03 6.93329E-10
 -1      1405 2.23006E-04-1.36664E-04 5.10101E-09 5.18998E-03 1.05977E-03 6.77473E-10
 -1      1406 2.24687E-04-1.37708E-04 5.26283E-09 5.33625E-03 1.01069E-03 6.61612E-10
 -1      1407 2.26330E-04-1.38712E-04 5.21764E-09 5.24201E-03 9.62656E-04 6.45680E-10
 -1      1408 2.28073E-04-1.39825E-04 5.03752E-09 5.34882E-03 9.15694E-04 6.29629E-10
 -1      1409 2.29694E-04-1.40788E-04 5.02503E-09 5.11058E-03 8.69808E-04 6.13510E-10
 -1      1410 2.31254E-04-1.41685E-04 4.92103E-09 5.36997E-03 8.25006E-04 5.97386E-10
 -1      1411 2.33105E-04-1.42943E-04 4.89163E-09 5.25379E-03 7.81294E-04 5.81207E-10
 -1      1412 2.34582E-04-1.43719E-04 5.03456E-09 5.20013E-03 7.38682E-04 5.65044E-10
 -1      1413 2.36350E-04-1.44872E-04 5.01531E-09 5.43321E-03 6.97178E-04 5.48928E-10
 -1      1414 2.38055E-04-1.45944E-04 4.99012E-09 5.17300E-03 6.56788E-04 5.32807E-10
 -1      1415 2.39639E-04-1.46863E-04 5.06022E-09 5.30560E-03 6.17522E-04 5.16665E-10
 -1      1416 2.41343E-04-1.47929E-04 5.07760E-09 5.20933E-03 5.79386E-04 5.00499E-10
 -1      1417 2.42927E-04-1.48845E-04 5.05819E-09 5.34319E-03 5.42389E-04 4.84300E-10
 -1      1418 2.44720E-04-1.50029E-04 5.05832E-09 5.35913E-03 5.06539E-04 4.68058E-10
 -1      1419 2.46397E-04-1.51060E-04 5.06554E-09 5.19777E-03 4.71843E-04 4.51751E-10
 -1      1420 2.47926E-04-1.51912E-04 5.08006E-09 5.22939E-03 4.38310E-04 4.35412E-10
 -1      1421 2.49665E-04-1.53013E-04 5.06906E-09 5.36510E-03 4.05947E-04 4.19044E-10
 -1      1422 2.51371E-04-1.54094E-04 5.05237E-09 5.27233E-03 3.74762E-04 4.02603E-10
 -1      1423 2.52993E-04-1.55052E-04 5.02501E-09 5.29129E-03 3.44764E-04 3.86103E-10
 -1      1424 2.54694E-04-1.56115E-04 5.06657E-09 5.29203E-03 3.15959E-04 3.69597E-10
 -1      1425 2.56327E-04-1.57094E-04 5.10821E-09 5.28172E-03 2.88356E-04 3.53089E-10
 -1      1426 2.58055E-04-1.58194E-04 5.06955E-09 5.30631E-03 2.61963E-04 3.36536E-10
 -1      1427 2.59671E-04-1.59140E-04 5.06127E-09 5.19773E-03 2.36787E-04 3.19938E-10
 -1      1428 2.61289E-04-1.60108E-04 5.07023E-09 5.39163E-03 2.12837E-04 3.03320E-10
 -1      1429 2.63084E-04-1.61281E-04 5.06250E-09 5.33433E-03 1.90120E-04 2.86677E-10
 -1      1430 2.64766E-04-1.62328E-04 5.06537E-09 5.24206E-03 1.68645E-04 2.70003E-10
 -1      1431 2.66288E-04-1.63154E-04 5.07229E-09 5.18308E-03 1.48418E-04 2.53295E-10
 -1      1432 2.68037E-04-1.64284E-04 5.09466E-09 5.44310E-03 1.29449E-04 2.36549E-10
 -1      1433 2.69732E-04-1.65336E-04 5.10682E-09 5.19491E-03 1.11744E-04 2.19776E-10
 -1      1434 2.71377E-04-1.66334E-04 5.08286E-09 5.40156E-03 9.53121E-05 2.02960E-10
 -1      1435 2.73060E-04-1.67355E-04 5.09056E-09 5.16377E-03 8.01608E-05 1.86097E-10
 -1      1436 2.74719E-04-1.68383E-04 5.10016E-09 5.45595E-03 6.62979E-05 1.69208E-10
 -1      1437 2.76428E-04-1.69445E-04 5.10684E-09 5.09348E-03 5.37313E-05 1.52297E-10
 -1      1438 2.78013E-04-1.70370E-04 5.11092E-09 5.47053E-03 4.24689E-05 1.35359E-10
 -1      1439 2.79713E-04-1.71415E-04 5.08784E-09 5.12848E-03 3.25188E-05 1.18384E-10
 -1      1440 2.81528E-04-1.72628E-04 5.10056E-09 5.63808E-03 2.38885E-05 1.01378E-10
 -1      1441 2.83039E-04-1.73495E-04 5.10993E-09 4.64507E-03 1.65862E-05 8.43543E-11
 -1      1442 2.84525E-04-1.74053E-04 5.09852E-09 6.13418E-03 1.06195E-05 6.73057E-11
 -1      1443 2.87225E-04-1.77277E-04 5.10006E-09 4.35187E-03 5.99652E-06 5.02232E-11
 -1      1444 2.85389E-04-1.70547E-04 5.05678E-09 6.32722E-03 2.72477E-06 3.30960E-11
 -1      1445 2.99363E-04-1.99309E-04 5.48291E-09 4.45955E-03 8.12799E-07 1.60890E-11
 -1      1446 2.16653E-04-7.38412E-05 5.95501E-09 1.26720E-02 1.98353E-07 7.67332E-12
 -1      1447-2.81591E-05 3.35863E-06 8.89767E-09-4.07097E-08-2.24327E-02 1.10658E-05
 -1      1448-1.35483E-04 6.92677E-05 1.94312E-08 4.08659E-05-2.23682E-02 1.10659E-05
 -1      1449-4.66726E-04 2.72092E-04 3.12215E-08 8.15741E-05-2.22391E-02 1.10659E-05
 -1      1450-1.01941E-03 6.11232E-04 2.24992E-08 1.22113E-04-2.21100E-02 1.10660E-05
 -1      1451-1.78913E-03 1.08263E-03-5.76946E-09 1.62114E-04-2.19809E-02 1.10659E-05
 -1      1452-2.77896E-03 1.69070E-03-4.24579E-08 2.02306E-04-2.18518E-02 1.10658E-05
 -1      1453-3.97904E-03 2.42379E-03-7.56823E-08 2.41987E-04-2.17227E-02 1.10655E-05
 -1      1454-5.40199E-03 3.29904E-03-1.03497E-07 2.81164E-04-2.15936E-02 1.10652E-05
 -1      1455-7.03089E-03 4.29507E-03-1.24061E-07 3.20871E-04-2.14646E-02 1.10647E-05
 -1      1456-8.87677E-03 5.42771E-03-1.37188E-07 3.59269E-04-2.13355E-02 1.10641E-05
 -1      1457-1.09351E-02 6.69051E-03-1.35246E-07 3.98342E-04-2.12064E-02 1.10635E-05
 -1      1458-1.31933E-02 8.07066E-03-1.15912E-07 4.37596E-04-2.10774E-02 1.10628E-05
 -1      1459-1.56731E-02 9.59428E-03-9.62442E-08 4.73924E-04-2.09483E-02 1.10621E-05
 -1      1460-1.83543E-02 1.12389E-02-8.24735E-08 5.14530E-04-2.08193E-02 1.10613E-05
 -1      1461-2.12326E-02 1.29980E-02-6.80061E-08 5.49849E-04-2.06902E-02 1.10605E-05
 -1      1462-2.43304E-02 1.48981E-02-5.97363E-08 5.88313E-04-2.05612E-02 1.10596E-05
 -1      1463-2.76275E-02 1.69262E-02-7.11293E-08 6.28077E-04-2.04322E-02 1.10586E-05
 -1      1464-3.11097E-02 1.90466E-02-1.01013E-07 6.61554E-04-2.03032E-02 1.10574E-05
 -1      1465-3.48238E-02 2.13380E-02-1.37630E-07 7.01348E-04-2.01742E-02 1.10561E-05
 -1      1466-3.87060E-02 2.37066E-02-1.70806E-07 7.35262E-04-2.00453E-02 1.10545E-05
 -1      1467-4.28112E-02 2.62288E-02-1.96406E-07 7.73187E-04-1.99163E-02 1.10528E-05
 -1      1468-4.71021E-02 2.88615E-02-2.10893E-07 8.10964E-04-1.97874E-02 1.10508E-05
 -1      1469-5.15720E-02 3.15860E-02-2.28768E-07 8.44408E-04-1.96585E-02 1.10487E-05
 -1      1470-5.62780E-02 3.44911E-02-2.54202E-07 8.80919E-04-1.95296E-02 1.10464E-05
 -1      1471-6.11346E-02 3.74521E-02-2.60542E-07 9.15837E-04-1.94008E-02 1.10438E-05
 -1      1472-6.62104E-02 4.05711E-02-2.39322E-07 9.52284E-04-1.92719E-02 1.10412E-05
 -1      1473-7.14633E-02 4.37882E-02-1.94610E-07 9.87148E-04-1.91432E-02 1.10384E-05
 -1      1474-7.69039E-02 4.71192E-02-1.34206E-07 1.02060E-03-1.90144E-02 1.10357E-05
 -1      1475-8.25494E-02 5.05862E-02-7.98168E-08 1.05434E-03-1.88857E-02 1.10328E-05
 -1      1476-8.83713E-02 5.41554E-02-3.97786E-08 1.09185E-03-1.87570E-02 1.10299E-05
 -1      1477-9.43644E-02 5.78208E-02-6.17817E-09 1.12512E-03-1.86283E-02 1.10269E-05
 -1      1478-1.00557E-01 6.16158E-02 2.70077E-08 1.15720E-03-1.84997E-02 1.10238E-05
 -1      1479-1.06946E-01 6.55461E-02 6.41689E-08 1.19158E-03-1.83711E-02 1.10205E-05
 -1      1480-1.13484E-01 6.95361E-02 8.82050E-08 1.22413E-03-1.82426E-02 1.10171E-05
 -1      1481-1.20227E-01 7.36786E-02 7.72186E-08 1.25946E-03-1.81141E-02 1.10135E-05
 -1      1482-1.27137E-01 7.79095E-02 5.20768E-08 1.29007E-03-1.79856E-02 1.10097E-05
 -1      1483-1.34236E-01 8.22648E-02 3.65979E-08 1.32514E-03-1.78572E-02 1.10056E-05
 -1      1484-1.41495E-01 8.67113E-02 2.69998E-08 1.35770E-03-1.77289E-02 1.10012E-05
 -1      1485-1.48938E-01 9.12671E-02 1.97563E-08 1.38435E-03-1.76006E-02 1.09966E-05
 -1      1486-1.56571E-01 9.59580E-02 1.49070E-08 1.42334E-03-1.74723E-02 1.09917E-05
 -1      1487-1.64358E-01 1.00731E-01 1.66243E-08 1.45213E-03-1.73441E-02 1.09865E-05
 -1      1488-1.72307E-01 1.05591E-01 3.38675E-08 1.48510E-03-1.72160E-02 1.09811E-05
 -1      1489-1.80437E-01 1.10570E-01 6.59968E-08 1.51326E-03-1.70879E-02 1.09755E-05
 -1      1490-1.88767E-01 1.15704E-01 1.12382E-07 1.54564E-03-1.69599E-02 1.09698E-05
 -1      1491-1.97208E-01 1.20849E-01 1.57448E-07 1.57492E-03-1.68320E-02 1.09639E-05
 -1      1492-2.05847E-01 1.26148E-01 1.88806E-07 1.60924E-03-1.67041E-02 1.09578E-05
 -1      1493-2.14656E-01 1.31558E-01 2.16786E-07 1.63737E-03-1.65763E-02 1.09514E-05
 -1      1494-2.23632E-01 1.37063E-01 2.43813E-07 1.66761E-03-1.64486E-02 1.09449E-05
 -1      1495-2.32736E-01 1.42635E-01 2.67917E-07 1.69957E-03-1.63210E-02 1.09381E-05
 -1      1496-2.42013E-01 1.48300E-01 2.88912E-07 1.71838E-03-1.61934E-02 1.09311E-05
 -1      1497-2.51509E-01 1.54159E-01 3.14287E-07 1.76372E-03-1.60659E-02 1.09238E-05
 -1      1498-2.61073E-01 1.59996E-01 3.32348E-07 1.78803E-03-1.59385E-02 1.09163E-05
 -1      1499-2.70843E-01 1.65983E-01 3.26660E-07 1.81239E-03-1.58112E-02 1.09085E-05
 -1      1500-2.80779E-01 1.72088E-01 3.12260E-07 1.84301E-03-1.56840E-02 1.09003E-05
 -1      1501-2.90867E-01 1.78275E-01 2.99055E-07 1.86655E-03-1.55569E-02 1.08918E-05
 -1      1502-3.01071E-01 1.84508E-01 2.93475E-07 1.90861E-03-1.54299E-02 1.08830E-05
 -1      1503-3.11439E-01 1.90860E-01 2.93975E-07 1.92517E-03-1.53030E-02 1.08738E-05
 -1      1504-3.22009E-01 1.97361E-01 2.87342E-07 1.95592E-03-1.51762E-02 1.08642E-05
 -1      1505-3.32700E-01 2.03918E-01 2.80354E-07 1.98294E-03-1.50495E-02 1.08543E-05
 -1      1506-3.43485E-01 2.10500E-01 2.85438E-07 2.01395E-03-1.49230E-02 1.08440E-05
 -1      1507-3.54474E-01 2.17231E-01 3.01308E-07 2.02817E-03-1.47965E-02 1.08335E-05
 -1      1508-3.65664E-01 2.24142E-01 3.10209E-07 2.07123E-03-1.46702E-02 1.08225E-05
 -1      1509-3.76871E-01 2.30971E-01 3.00657E-07 2.09451E-03-1.45440E-02 1.08112E-05
 -1      1510-3.88278E-01 2.37944E-01 2.81463E-07 2.11107E-03-1.44180E-02 1.07996E-05
 -1      1511-3.99852E-01 2.45057E-01 2.59330E-07 2.14734E-03-1.42921E-02 1.07875E-05
 -1      1512-4.11604E-01 2.52300E-01 2.38904E-07 2.16190E-03-1.41663E-02 1.07749E-05
 -1      1513-4.23380E-01 2.59465E-01 2.20521E-07 2.20791E-03-1.40407E-02 1.07620E-05
 -1      1514-4.35333E-01 2.66781E-01 1.93730E-07 2.21639E-03-1.39152E-02 1.07486E-05
 -1      1515-4.47557E-01 2.74351E-01 1.50424E-07 2.24634E-03-1.37899E-02 1.07347E-05
 -1      1516-4.59695E-01 2.81711E-01 9.50075E-08 2.27561E-03-1.36647E-02 1.07203E-05
 -1      1517-4.72114E-01 2.89338E-01 4.01110E-08 2.28290E-03-1.35398E-02 1.07054E-05
 -1      1518-4.84677E-01 2.97070E-01-7.21338E-09 2.32966E-03-1.34150E-02 1.06900E-05
 -1      1519-4.97312E-01 3.04812E-01-5.29878E-08 2.34473E-03-1.32904E-02 1.06740E-05
 -1      1520-5.10065E-01 3.12595E-01-1.00652E-07 2.37390E-03-1.31659E-02 1.06575E-05
 -1      1521-5.22967E-01 3.20502E-01-1.39814E-07 2.38797E-03-1.30417E-02 1.06405E-05
 -1      1522-5.36062E-01 3.28557E-01-1.65584E-07 2.40645E-03-1.29177E-02 1.06230E-05
 -1      1523-5.49277E-01 3.36695E-01-1.83896E-07 2.44972E-03-1.27939E-02 1.06050E-05
 -1      1524-5.62450E-01 3.44678E-01-1.96382E-07 2.46343E-03-1.26703E-02 1.05866E-05
 -1      1525-5.75877E-01 3.52898E-01-2.01601E-07 2.48723E-03-1.25469E-02 1.05677E-05
 -1      1526-5.89584E-01 3.61438E-01-2.05262E-07 2.50762E-03-1.24237E-02 1.05483E-05
 -1      1527-6.03082E-01 3.69578E-01-2.12962E-07 2.53722E-03-1.23008E-02 1.05286E-05
 -1      1528-6.16931E-01 3.78100E-01-2.23694E-07 2.53671E-03-1.21781E-02 1.05083E-05
 -1      1529-6.30882E-01 3.86681E-01-2.33652E-07 2.58748E-03-1.20556E-02 1.04875E-05
 -1      1530-6.44899E-01 3.95274E-01-2.36810E-07 2.59725E-03-1.19334E-02 1.04663E-05
 -1      1531-6.59013E-01 4.03891E-01-2.33185E-07 2.62533E-03-1.18114E-02 1.04447E-05
 -1      1532-6.73228E-01 4.12570E-01-2.32005E-07 2.63446E-03-1.16897E-02 1.04226E-05
 -1      1533-6.87779E-01 4.21611E-01-2.23382E-07 2.64872E-03-1.15682E-02 1.04000E-05
 -1      1534-7.02138E-01 4.30300E-01-2.00756E-07 2.70322E-03-1.14470E-02 1.03770E-05
 -1      1535-7.16726E-01 4.39247E-01-1.84401E-07 2.69652E-03-1.13261E-02 1.03536E-05
 -1      1536-7.31546E-01 4.48387E-01-1.77229E-07 2.72436E-03-1.12055E-02 1.03297E-05
 -1      1537-7.46376E-01 4.57505E-01-1.65049E-07 2.74264E-03-1.10851E-02 1.03054E-05
 -1      1538-7.61225E-01 4.66496E-01-1.42532E-07 2.75168E-03-1.09651E-02 1.02807E-05
 -1      1539-7.76276E-01 4.75725E-01-1.11916E-07 2.80052E-03-1.08453E-02 1.02555E-05
 -1      1540-7.91524E-01 4.85176E-01-7.79966E-08 2.80225E-03-1.07258E-02 1.02299E-05
 -1      1541-8.06792E-01 4.94507E-01-4.62367E-08 2.82347E-03-1.06066E-02 1.02039E-05
 -1      1542-8.22049E-01 5.03797E-01-1.91931E-08 2.85046E-03-1.04877E-02 1.01775E-05
 -1      1543-8.37541E-01 5.13284E-01 3.11208E-09 2.83849E-03-1.03691E-02 1.01506E-05
 -1      1544-8.53282E-01 5.23065E-01 2.31821E-08 2.89627E-03-1.02509E-02 1.01233E-05
 -1      1545-8.68747E-01 5.32396E-01 3.73899E-08 2.90747E-03-1.01330E-02 1.00955E-05
 -1      1546-8.84573E-01 5.42127E-01 3.77021E-08 2.90875E-03-1.00154E-02 1.00672E-05
 -1      1547-9.00533E-01 5.51966E-01 2.75959E-08 2.93592E-03-9.89808E-03 1.00384E-05
 -1      1548-9.16467E-01 5.61726E-01 1.40877E-08 2.95288E-03-9.78115E-03 1.00091E-05
 -1      1549-9.32503E-01 5.71503E-01 4.66552E-09 2.96285E-03-9.66456E-03 9.97917E-06
 -1      1550-9.48643E-01 5.81377E-01 4.12291E-09 2.99897E-03-9.54833E-03 9.94874E-06
 -1      1551-9.65003E-01 5.91517E-01 2.25776E-09 3.00409E-03-9.43245E-03 9.91779E-06
 -1      1552-9.81334E-01 6.01469E-01-6.45901E-09 3.01508E-03-9.31694E-03 9.88630E-06
 -1      1553-9.97636E-01 6.11373E-01-1.77641E-08 3.05929E-03-9.20179E-03 9.85425E-06
 -1      1554-1.01426E+00 6.21626E-01-2.89244E-08 3.02831E-03-9.08703E-03 9.82164E-06
 -1      1555-1.03105E+00 6.32034E-01-4.14184E-08 3.09225E-03-8.97264E-03 9.78846E-06
 -1      1556-1.04751E+00 6.41952E-01-5.54821E-08 3.09909E-03-8.85865E-03 9.75472E-06
 -1      1557-1.06439E+00 6.52343E-01-6.12300E-08 3.09615E-03-8.74506E-03 9.72041E-06
 -1      1558-1.08132E+00 6.62763E-01-5.96270E-08 3.11949E-03-8.63186E-03 9.68555E-06
 -1      1559-1.09836E+00 6.73230E-01-5.47351E-08 3.11737E-03-8.51908E-03 9.65015E-06
 -1      1560-1.11530E+00 6.83531E-01-4.49112E-08 3.18484E-03-8.40672E-03 9.61423E-06
 -1      1561-1.13238E+00 6.93961E-01-3.84241E-08 3.15546E-03-8.29477E-03 9.57776E-06
 -1      1562-1.14986E+00 7.04878E-01-3.71062E-08 3.18355E-03-8.18326E-03 9.54074E-06
 -1      1563-1.16693E+00 7.15121E-01-3.65742E-08 3.20617E-03-8.07218E-03 9.50336E-06
 -1      1564-1.18449E+00 7.25935E-01-4.03908E-08 3.18066E-03-7.96154E-03 9.46558E-06
 -1      1565-1.20217E+00 7.36919E-01-4.85379E-08 3.24843E-03-7.85135E-03 9.42704E-06
 -1      1566-1.21954E+00 7.47442E-01-5.24337E-08 3.22824E-03-7.74161E-03 9.38775E-06
 -1      1567-1.23711E+00 7.58144E-01-5.16273E-08 3.27921E-03-7.63234E-03 9.34789E-06
 -1      1568-1.25489E+00 7.69138E-01-5.42904E-08 3.25650E-03-7.52353E-03 9.30744E-06
 -1      1569-1.27265E+00 7.80024E-01-6.07383E-08 3.28052E-03-7.41520E-03 9.26640E-06
 -1      1570-1.29060E+00 7.91068E-01-6.65778E-08 3.27088E-03-7.30736E-03 9.22479E-06
 -1      1571-1.30837E+00 8.01860E-01-6.91591E-08 3.34760E-03-7.20000E-03 9.18259E-06
 -1      1572-1.32627E+00 8.12786E-01-7.05653E-08 3.30788E-03-7.09313E-03 9.13980E-06
 -1      1573-1.34465E+00 8.24289E-01-7.48866E-08 3.33334E-03-6.98677E-03 9.09641E-06
 -1      1574-1.36245E+00 8.34957E-01-7.44235E-08 3.36017E-03-6.88092E-03 9.05244E-06
 -1      1575-1.38073E+00 8.46210E-01-6.41327E-08 3.32143E-03-6.77558E-03 9.00790E-06
 -1      1576-1.39912E+00 8.57578E-01-4.52230E-08 3.39808E-03-6.67077E-03 8.96279E-06
 -1      1577-1.41738E+00 8.68739E-01-2.12401E-08 3.38321E-03-6.56649E-03 8.91715E-06
 -1      1578-1.43576E+00 8.80007E-01-4.44769E-09 3.40730E-03-6.46274E-03 8.87097E-06
 -1      1579-1.45402E+00 8.91028E-01 2.48596E-09 3.38204E-03-6.35953E-03 8.82422E-06
 -1      1580-1.47288E+00 9.02833E-01 6.89869E-09 3.40589E-03-6.25688E-03 8.77688E-06
 -1      1581-1.49129E+00 9.14002E-01 1.13326E-08 3.47169E-03-6.15478E-03 8.72895E-06
 -1      1582-1.50981E+00 9.25289E-01 1.50340E-08 3.42679E-03-6.05324E-03 8.68043E-06
 -1      1583-1.52873E+00 9.37018E-01 1.82450E-08 3.45241E-03-5.95227E-03 8.63131E-06
 -1      1584-1.54749E+00 9.48524E-01 2.02366E-08 3.46213E-03-5.85187E-03 8.58160E-06
 -1      1585-1.56609E+00 9.59781E-01 1.88552E-08 3.48767E-03-5.75206E-03 8.53128E-06
 -1      1586-1.58506E+00 9.71438E-01 1.29250E-08 3.44063E-03-5.65284E-03 8.48034E-06
 -1      1587-1.60410E+00 9.83216E-01 2.95661E-09 3.52471E-03-5.55422E-03 8.42876E-06
 -1      1588-1.62304E+00 9.94810E-01-7.33296E-09 3.50263E-03-5.45620E-03 8.37655E-06
 -1      1589-1.64200E+00 1.00635E+00-1.23054E-08 3.53013E-03-5.35880E-03 8.32371E-06
 -1      1590-1.66098E+00 1.01791E+00-1.15592E-08 3.50705E-03-5.26202E-03 8.27025E-06
 -1      1591-1.68050E+00 1.03014E+00-6.57330E-09 3.50358E-03-5.16586E-03 8.21617E-06
 -1      1592-1.69946E+00 1.04159E+00-1.03972E-09 3.58770E-03-5.07034E-03 8.16149E-06
 -1      1593-1.71854E+00 1.05317E+00 2.86370E-09 3.52185E-03-4.97546E-03 8.10620E-06
 -1      1594-1.73806E+00 1.06527E+00 7.10350E-09 3.57959E-03-4.88123E-03 8.05029E-06
 -1      1595-1.75745E+00 1.07727E+00 1.06646E-08 3.56361E-03-4.78765E-03 7.99376E-06
 -1      1596-1.77669E+00 1.08888E+00 1.14601E-08 3.56475E-03-4.69473E-03 7.93662E-06
 -1      1597-1.79608E+00 1.10072E+00 1.09644E-08 3.60594E-03-4.60249E-03 7.87885E-06
 -1      1598-1.81585E+00 1.11311E+00 1.23523E-08 3.59029E-03-4.51093E-03 7.82044E-06
 -1      1599-1.83510E+00 1.12466E+00 1.52808E-08 3.62194E-03-4.42004E-03 7.76142E-06
 -1      1600-1.85462E+00 1.13662E+00 1.66725E-08 3.59411E-03-4.32986E-03 7.70176E-06
 -1      1601-1.87449E+00 1.14896E+00 1.68127E-08 3.58316E-03-4.24037E-03 7.64147E-06
 -1      1602-1.89415E+00 1.16101E+00 1.79091E-08 3.66243E-03-4.15158E-03 7.58055E-06
 -1      1603-1.91356E+00 1.17273E+00 1.73755E-08 3.65206E-03-4.06352E-03 7.51900E-06
 -1      1604-1.93340E+00 1.18494E+00 1.51214E-08 3.62258E-03-3.97617E-03 7.45680E-06
 -1      1605-1.95331E+00 1.19724E+00 1.71430E-08 3.64904E-03-3.88955E-03 7.39396E-06
 -1      1606-1.97317E+00 1.20950E+00 2.40568E-08 3.65108E-03-3.80367E-03 7.33050E-06
 -1      1607-1.99278E+00 1.22125E+00 2.95880E-08 3.62866E-03-3.71853E-03 7.26641E-06
 -1      1608-2.01261E+00 1.23336E+00 3.13095E-08 3.71206E-03-3.63415E-03 7.20169E-06
 -1      1609-2.03301E+00 1.24632E+00 3.01346E-08 3.66895E-03-3.55052E-03 7.13631E-06
 -1      1610-2.05253E+00 1.25787E+00 2.58494E-08 3.70377E-03-3.46766E-03 7.07029E-06
 -1      1611-2.07253E+00 1.27020E+00 1.91271E-08 3.66759E-03-3.38557E-03 7.00361E-06
 -1      1612-2.09281E+00 1.28276E+00 1.19347E-08 3.65544E-03-3.30427E-03 6.93626E-06
 -1      1613-2.11289E+00 1.29509E+00 6.91674E-09 3.74044E-03-3.22375E-03 6.86825E-06
 -1      1614-2.13269E+00 1.30704E+00 5.21811E-09 3.72498E-03-3.14404E-03 6.79958E-06
 -1      1615-2.15285E+00 1.31938E+00 6.13261E-09 3.69388E-03-3.06512E-03 6.73027E-06
 -1      1616-2.17334E+00 1.33225E+00 6.12125E-09 3.71164E-03-2.98702E-03 6.66029E-06
 -1      1617-2.19320E+00 1.34410E+00 4.42254E-09 3.70551E-03-2.90974E-03 6.58967E-06
 -1      1618-2.21344E+00 1.35657E+00 4.83092E-09 3.75264E-03-2.83329E-03 6.51840E-06
 -1      1619-2.23377E+00 1.36912E+00 5.80238E-09 3.72849E-03-2.75767E-03 6.44646E-06
 -1      1620-2.25425E+00 1.38184E+00 5.12591E-09 3.73583E-03-2.68289E-03 6.37388E-06
 -1      1621-2.27407E+00 1.39361E+00 5.72946E-09 3.74253E-03-2.60897E-03 6.30064E-06
 -1      1622-2.29447E+00 1.40612E+00 8.43386E-09 3.71223E-03-2.53590E-03 6.22675E-06
 -1      1623-2.31522E+00 1.41920E+00 1.20318E-08 3.79234E-03-2.46370E-03 6.15219E-06
 -1      1624-2.33537E+00 1.43139E+00 1.66753E-08 3.75253E-03-2.39237E-03 6.07700E-06
 -1      1625-2.35564E+00 1.44372E+00 2.14508E-08 3.78437E-03-2.32193E-03 6.00116E-06
 -1      1626-2.37601E+00 1.45614E+00 2.42291E-08 3.74467E-03-2.25237E-03 5.92467E-06
 -1      1627-2.39682E+00 1.46925E+00 2.44335E-08 3.76357E-03-2.18371E-03 5.84751E-06
 -1      1628-2.41693E+00 1.48122E+00 2.35619E-08 3.75377E-03-2.11595E-03 5.76970E-06
 -1      1629-2.43745E+00 1.49385E+00 2.11505E-08 3.80274E-03-2.04910E-03 5.69122E-06
 -1      1630-2.45808E+00 1.50663E+00 1.63861E-08 3.77570E-03-1.98317E-03 5.61207E-06
 -1      1631-2.47870E+00 1.51930E+00 1.12681E-08 3.78400E-03-1.91817E-03 5.53224E-06
 -1      1632-2.49891E+00 1.53150E+00 7.38886E-09 3.80905E-03-1.85411E-03 5.45174E-06
 -1      1633-2.51949E+00 1.54405E+00 4.55614E-09 3.72466E-03-1.79098E-03 5.37057E-06
 -1      1634-2.54069E+00 1.55758E+00 1.63381E-09 3.83580E-03-1.72881E-03 5.28872E-06
 -1      1635-2.56047E+00 1.56905E+00-2.44468E-09 3.80041E-03-1.66760E-03 5.20620E-06
 -1      1636-2.58127E+00 1.58193E+00-7.10572E-09 3.80427E-03-1.60735E-03 5.12301E-06
 -1      1637-2.60218E+00 1.59506E+00-1.23806E-08 3.79594E-03-1.54808E-03 5.03912E-06
 -1      1638-2.62282E+00 1.60761E+00-1.85454E-08 3.75661E-03-1.48979E-03 4.95456E-06
 -1      1639-2.64325E+00 1.61998E+00-2.46504E-08 3.88671E-03-1.43249E-03 4.86933E-06
 -1      1640-2.66381E+00 1.63254E+00-2.93963E-08 3.78357E-03-1.37619E-03 4.78340E-06
 -1      1641-2.68483E+00 1.64566E+00-3.15824E-08 3.81402E-03-1.32090E-03 4.69680E-06
 -1      1642-2.70545E+00 1.65826E+00-3.13219E-08 3.80997E-03-1.26661E-03 4.60953E-06
 -1      1643-2.72599E+00 1.67068E+00-2.98531E-08 3.79633E-03-1.21336E-03 4.52160E-06
 -1      1644-2.74668E+00 1.68331E+00-2.82464E-08 3.85090E-03-1.16113E-03 4.43299E-06
 -1      1645-2.76782E+00 1.69667E+00-2.68925E-08 3.81457E-03-1.10994E-03 4.34372E-06
 -1      1646-2.78811E+00 1.70870E+00-2.56262E-08 3.85247E-03-1.05979E-03 4.25378E-06
 -1      1647-2.80890E+00 1.72147E+00-2.44871E-08 3.80260E-03-1.01070E-03 4.16317E-06
 -1      1648-2.82996E+00 1.73469E+00-2.30157E-08 3.81624E-03-9.62663E-04 4.07189E-06
 -1      1649-2.85067E+00 1.74720E+00-2.04349E-08 3.75817E-03-9.15698E-04 3.97995E-06
 -1      1650-2.87114E+00 1.75954E+00-1.74228E-08 3.94459E-03-8.69811E-04 3.88734E-06
 -1      1651-2.89199E+00 1.77245E+00-1.42934E-08 3.79814E-03-8.25008E-04 3.79407E-06
 -1      1652-2.91333E+00 1.78589E+00-1.11842E-08 3.83598E-03-7.81296E-04 3.70013E-06
 -1      1653-2.93345E+00 1.79773E+00-8.92310E-09 3.85744E-03-7.38684E-04 3.60552E-06
 -1      1654-2.95447E+00 1.81072E+00-7.65696E-09 3.75956E-03-6.97180E-04 3.51025E-06
 -1      1655-2.97558E+00 1.82387E+00-6.78738E-09 3.89593E-03-6.56791E-04 3.41430E-06
 -1      1656-2.99621E+00 1.83645E+00-6.00038E-09 3.83271E-03-6.17525E-04 3.31768E-06
 -1      1657-3.01697E+00 1.84906E+00-5.16308E-09 3.87075E-03-5.79390E-04 3.22039E-06
 -1      1658-3.03762E+00 1.86162E+00-4.30215E-09 3.81203E-03-5.42394E-04 3.12243E-06
 -1      1659-3.05890E+00 1.87493E+00-3.76748E-09 3.78577E-03-5.06544E-04 3.02380E-06
 -1      1660-3.07973E+00 1.88767E+00-3.63911E-09 3.90234E-03-4.71849E-04 2.92449E-06
 -1      1661-3.10032E+00 1.90022E+00-3.64952E-09 3.86584E-03-4.38317E-04 2.82451E-06
 -1      1662-3.12099E+00 1.91260E+00-3.48533E-09 3.79446E-03-4.05954E-04 2.72385E-06
 -1      1663-3.14235E+00 1.92615E+00-3.18061E-09 3.87251E-03-3.74770E-04 2.62252E-06
 -1      1664-3.16296E+00 1.93857E+00-2.93823E-09 3.81477E-03-3.44771E-04 2.52051E-06
 -1      1665-3.18375E+00 1.95121E+00-2.89443E-09 3.88248E-03-3.15967E-04 2.41783E-06
 -1      1666-3.20479E+00 1.96432E+00-3.02912E-09 3.84067E-03-2.88364E-04 2.31448E-06
 -1      1667-3.22581E+00 1.97725E+00-3.15386E-09 3.84806E-03-2.61971E-04 2.21044E-06
 -1      1668-3.24630E+00 1.98953E+00-3.23350E-09 3.88049E-03-2.36795E-04 2.10574E-06
 -1      1669-3.26719E+00 2.00237E+00-3.40044E-09 3.81557E-03-2.12845E-04 2.00036E-06
 -1      1670-3.28837E+00 2.01555E+00-3.70947E-09 3.78862E-03-1.90128E-04 1.89430E-06
 -1      1671-3.30944E+00 2.02853E+00-4.01007E-09 3.91308E-03-1.68652E-04 1.78756E-06
 -1      1672-3.32964E+00 2.04056E+00-4.22077E-09 3.87905E-03-1.48425E-04 1.68015E-06
 -1      1673-3.35092E+00 2.05371E+00-4.43806E-09 3.81864E-03-1.29455E-04 1.57206E-06
 -1      1674-3.37187E+00 2.06682E+00-4.63345E-09 3.84569E-03-1.11750E-04 1.46329E-06
 -1      1675-3.39293E+00 2.07962E+00-4.73380E-09 3.81450E-03-9.53173E-05 1.35385E-06
 -1      1676-3.41299E+00 2.09148E+00-4.85272E-09 3.86712E-03-8.01654E-05 1.24374E-06
 -1      1677-3.43490E+00 2.10542E+00-5.09663E-09 3.87473E-03-6.63020E-05 1.13294E-06
 -1      1678-3.45508E+00 2.11768E+00-5.40430E-09 3.85163E-03-5.37348E-05 1.02147E-06
 -1      1679-3.47677E+00 2.13105E+00-5.78602E-09 3.87330E-03-4.24720E-05 9.09327E-07
 -1      1680-3.49602E+00 2.14227E+00-6.22012E-09 3.76347E-03-3.25214E-05 7.96507E-07
 -1      1681-3.51934E+00 2.15736E+00-6.69119E-09 3.92687E-03-2.38908E-05 6.83003E-07
 -1      1682-3.53902E+00 2.17032E+00-7.16732E-09 3.81061E-03-1.65882E-05 5.68825E-07
 -1      1683-3.55382E+00 2.17107E+00-7.61991E-09 4.11085E-03-1.06214E-05 4.53975E-07
 -1      1684-3.60766E+00 2.23882E+00-8.08793E-09 2.74567E-03-5.99837E-06 3.38430E-07
 -1      1685-3.49763E+00 2.04116E+00-8.42278E-09 7.91675E-03-2.72700E-06 2.22271E-07
 -1      1686-4.00863E+00 2.83313E+00-9.81292E-09-1.12006E-02-8.15280E-07 1.05204E-07
 -1      1687-2.28744E+00 1.48725E-03-1.11117E-08 6.00575E-02-2.00113E-07 4.63520E-08
 -1      1688-2.80990E-05 3.34758E-06-8.89767E-09 5.33398E-08 2.24319E-02-1.10616E-05
 -1      1689-1.35373E-04 6.92225E-05-1.94312E-08 4.09417E-05 2.23673E-02-1.10615E-05
 -1      1690-4.66568E-04 2.72015E-04-3.12215E-08 8.15778E-05 2.22383E-02-1.10615E-05
 -1      1691-1.01930E-03 6.11203E-04-2.24992E-08 1.22034E-04 2.21092E-02-1.10614E-05
 -1      1692-1.78916E-03 1.08263E-03 5.76946E-09 1.61969E-04 2.19801E-02-1.10613E-05
 -1      1693-2.77918E-03 1.69078E-03 4.24579E-08 2.02148E-04 2.18510E-02-1.10613E-05
 -1      1694-3.97944E-03 2.42396E-03 7.56823E-08 2.41852E-04 2.17220E-02-1.10613E-05
 -1      1695-5.40254E-03 3.29925E-03 1.03497E-07 2.81063E-04 2.15929E-02-1.10614E-05
 -1      1696-7.03154E-03 4.29531E-03 1.24061E-07 3.20805E-04 2.14638E-02-1.10615E-05
 -1      1697-8.87749E-03 5.42799E-03 1.37188E-07 3.59229E-04 2.13347E-02-1.10615E-05
 -1      1698-1.09358E-02 6.69078E-03 1.35246E-07 3.98401E-04 2.12056E-02-1.10615E-05
 -1      1699-1.31939E-02 8.07090E-03 1.15912E-07 4.37695E-04 2.10766E-02-1.10614E-05
 -1      1700-1.56736E-02 9.59447E-03 9.62442E-08 4.73988E-04 2.09475E-02-1.10612E-05
 -1      1701-1.83548E-02 1.12390E-02 8.24735E-08 5.14581E-04 2.08184E-02-1.10609E-05
 -1      1702-2.12329E-02 1.29982E-02 6.80061E-08 5.49907E-04 2.06893E-02-1.10604E-05
 -1      1703-2.43307E-02 1.48982E-02 5.97363E-08 5.88319E-04 2.05603E-02-1.10598E-05
 -1      1704-2.76279E-02 1.69263E-02 7.11293E-08 6.27984E-04 2.04312E-02-1.10592E-05
 -1      1705-3.11103E-02 1.90467E-02 1.01013E-07 6.61400E-04 2.03022E-02-1.10584E-05
 -1      1706-3.48246E-02 2.13383E-02 1.37630E-07 7.01195E-04 2.01731E-02-1.10576E-05
 -1      1707-3.87069E-02 2.37069E-02 1.70806E-07 7.35139E-04 2.00441E-02-1.10568E-05
 -1      1708-4.28123E-02 2.62292E-02 1.96406E-07 7.73097E-04 1.99151E-02-1.10559E-05
 -1      1709-4.71032E-02 2.88619E-02 2.10893E-07 8.10911E-04 1.97861E-02-1.10550E-05
 -1      1710-5.15732E-02 3.15864E-02 2.28768E-07 8.44303E-04 1.96571E-02-1.10539E-05
 -1      1711-5.62793E-02 3.44916E-02 2.54202E-07 8.80834E-04 1.95281E-02-1.10527E-05
 -1      1712-6.11360E-02 3.74526E-02 2.60542E-07 9.15882E-04 1.93991E-02-1.10515E-05
 -1      1713-6.62117E-02 4.05716E-02 2.39322E-07 9.52421E-04 1.92702E-02-1.10500E-05
 -1      1714-7.14643E-02 4.37886E-02 1.94610E-07 9.87382E-04 1.91413E-02-1.10483E-05
 -1      1715-7.69046E-02 4.71194E-02 1.34206E-07 1.02085E-03 1.90123E-02-1.10463E-05
 -1      1716-8.25498E-02 5.05863E-02 7.98168E-08 1.05454E-03 1.88835E-02-1.10439E-05
 -1      1717-8.83715E-02 5.41554E-02 3.97786E-08 1.09201E-03 1.87546E-02-1.10413E-05
 -1      1718-9.43645E-02 5.78208E-02 6.17817E-09 1.12525E-03 1.86258E-02-1.10384E-05
 -1      1719-1.00557E-01 6.16157E-02-2.70077E-08 1.15735E-03 1.84970E-02-1.10352E-05
 -1      1720-1.06945E-01 6.55459E-02-6.41689E-08 1.19174E-03 1.83682E-02-1.10318E-05
 -1      1721-1.13483E-01 6.95359E-02-8.82050E-08 1.22416E-03 1.82395E-02-1.10280E-05
 -1      1722-1.20226E-01 7.36785E-02-7.72186E-08 1.25935E-03 1.81109E-02-1.10241E-05
 -1      1723-1.27137E-01 7.79094E-02-5.20768E-08 1.28999E-03 1.79822E-02-1.10199E-05
 -1      1724-1.34236E-01 8.22647E-02-3.65979E-08 1.32510E-03 1.78537E-02-1.10156E-05
 -1      1725-1.41495E-01 8.67112E-02-2.69998E-08 1.35765E-03 1.77251E-02-1.10110E-05
 -1      1726-1.48938E-01 9.12670E-02-1.97563E-08 1.38433E-03 1.75967E-02-1.10063E-05
 -1      1727-1.56571E-01 9.59579E-02-1.49070E-08 1.42332E-03 1.74683E-02-1.10013E-05
 -1      1728-1.64358E-01 1.00731E-01-1.66243E-08 1.45217E-03 1.73399E-02-1.09960E-05
 -1      1729-1.72307E-01 1.05591E-01-3.38675E-08 1.48520E-03 1.72117E-02-1.09905E-05
 -1      1730-1.80436E-01 1.10570E-01-6.59968E-08 1.51342E-03 1.70834E-02-1.09847E-05
 -1      1731-1.88767E-01 1.15703E-01-1.12382E-07 1.54586E-03 1.69553E-02-1.09785E-05
 -1      1732-1.97207E-01 1.20849E-01-1.57448E-07 1.57506E-03 1.68272E-02-1.09719E-05
 -1      1733-2.05846E-01 1.26148E-01-1.88806E-07 1.60936E-03 1.66992E-02-1.09650E-05
 -1      1734-2.14655E-01 1.31558E-01-2.16786E-07 1.63749E-03 1.65713E-02-1.09577E-05
 -1      1735-2.23631E-01 1.37063E-01-2.43813E-07 1.66771E-03 1.64435E-02-1.09501E-05
 -1      1736-2.32734E-01 1.42634E-01-2.67917E-07 1.69966E-03 1.63158E-02-1.09421E-05
 -1      1737-2.42012E-01 1.48299E-01-2.88912E-07 1.71847E-03 1.61881E-02-1.09337E-05
 -1      1738-2.51507E-01 1.54158E-01-3.14287E-07 1.76384E-03 1.60606E-02-1.09250E-05
 -1      1739-2.61071E-01 1.59995E-01-3.32348E-07 1.78805E-03 1.59331E-02-1.09160E-05
 -1      1740-2.70841E-01 1.65982E-01-3.26660E-07 1.81233E-03 1.58058E-02-1.09066E-05
 -1      1741-2.80777E-01 1.72087E-01-3.12260E-07 1.84296E-03 1.56786E-02-1.08969E-05
 -1      1742-2.90865E-01 1.78274E-01-2.99055E-07 1.86649E-03 1.55515E-02-1.08869E-05
 -1      1743-3.01069E-01 1.84508E-01-2.93475E-07 1.90861E-03 1.54245E-02-1.08766E-05
 -1      1744-3.11438E-01 1.90859E-01-2.93975E-07 1.92516E-03 1.52977E-02-1.08660E-05
 -1      1745-3.22007E-01 1.97361E-01-2.87342E-07 1.95588E-03 1.51709E-02-1.08550E-05
 -1      1746-3.32698E-01 2.03917E-01-2.80354E-07 1.98293E-03 1.50443E-02-1.08438E-05
 -1      1747-3.43483E-01 2.10499E-01-2.85438E-07 2.01400E-03 1.49179E-02-1.08321E-05
 -1      1748-3.54473E-01 2.17231E-01-3.01308E-07 2.02824E-03 1.47915E-02-1.08202E-05
 -1      1749-3.65662E-01 2.24141E-01-3.10209E-07 2.07122E-03 1.46653E-02-1.08078E-05
 -1      1750-3.76869E-01 2.30971E-01-3.00657E-07 2.09444E-03 1.45393E-02-1.07950E-05
 -1      1751-3.88276E-01 2.37943E-01-2.81463E-07 2.11099E-03 1.44134E-02-1.07820E-05
 -1      1752-3.99851E-01 2.45057E-01-2.59330E-07 2.14725E-03 1.42877E-02-1.07686E-05
 -1      1753-4.11602E-01 2.52299E-01-2.38904E-07 2.16182E-03 1.41621E-02-1.07548E-05
 -1      1754-4.23378E-01 2.59465E-01-2.20521E-07 2.20782E-03 1.40367E-02-1.07408E-05
 -1      1755-4.35332E-01 2.66781E-01-1.93730E-07 2.21625E-03 1.39114E-02-1.07264E-05
 -1      1756-4.47556E-01 2.74351E-01-1.50424E-07 2.24612E-03 1.37863E-02-1.07117E-05
 -1      1757-4.59695E-01 2.81711E-01-9.50075E-08 2.27537E-03 1.36614E-02-1.06967E-05
 -1      1758-4.72114E-01 2.89338E-01-4.01110E-08 2.28269E-03 1.35367E-02-1.06815E-05
 -1      1759-4.84677E-01 2.97070E-01 7.21338E-09 2.32947E-03 1.34121E-02-1.06660E-05
 -1      1760-4.97312E-01 3.04812E-01 5.29878E-08 2.34453E-03 1.32878E-02-1.06501E-05
 -1      1761-5.10065E-01 3.12596E-01 1.00652E-07 2.37371E-03 1.31636E-02-1.06340E-05
 -1      1762-5.22967E-01 3.20502E-01 1.39814E-07 2.38783E-03 1.30396E-02-1.06176E-05
 -1      1763-5.36063E-01 3.28557E-01 1.65584E-07 2.40637E-03 1.29158E-02-1.06008E-05
 -1      1764-5.49278E-01 3.36696E-01 1.83896E-07 2.44966E-03 1.27922E-02-1.05837E-05
 -1      1765-5.62451E-01 3.44678E-01 1.96382E-07 2.46339E-03 1.26688E-02-1.05662E-05
 -1      1766-5.75878E-01 3.52898E-01 2.01601E-07 2.48721E-03 1.25456E-02-1.05482E-05
 -1      1767-5.89585E-01 3.61439E-01 2.05262E-07 2.50760E-03 1.24226E-02-1.05299E-05
 -1      1768-6.03083E-01 3.69578E-01 2.12962E-07 2.53718E-03 1.22998E-02-1.05111E-05
 -1      1769-6.16932E-01 3.78101E-01 2.23694E-07 2.53666E-03 1.21773E-02-1.04919E-05
 -1      1770-6.30883E-01 3.86682E-01 2.33652E-07 2.58745E-03 1.20550E-02-1.04722E-05
 -1      1771-6.44901E-01 3.95274E-01 2.36810E-07 2.59726E-03 1.19329E-02-1.04522E-05
 -1      1772-6.59014E-01 4.03891E-01 2.33185E-07 2.62535E-03 1.18110E-02-1.04316E-05
 -1      1773-6.73229E-01 4.12570E-01 2.32005E-07 2.63446E-03 1.16894E-02-1.04106E-05
 -1      1774-6.87780E-01 4.21612E-01 2.23382E-07 2.64880E-03 1.15681E-02-1.03892E-05
 -1      1775-7.02139E-01 4.30300E-01 2.00756E-07 2.70332E-03 1.14470E-02-1.03672E-05
 -1      1776-7.16727E-01 4.39247E-01 1.84401E-07 2.69656E-03 1.13261E-02-1.03447E-05
 -1      1777-7.31547E-01 4.48387E-01 1.77229E-07 2.72440E-03 1.12055E-02-1.03217E-05
 -1      1778-7.46377E-01 4.57505E-01 1.65049E-07 2.74271E-03 1.10852E-02-1.02982E-05
 -1      1779-7.61226E-01 4.66497E-01 1.42532E-07 2.75180E-03 1.09652E-02-1.02742E-05
 -1      1780-7.76276E-01 4.75726E-01 1.11916E-07 2.80067E-03 1.08455E-02-1.02496E-05
 -1      1781-7.91525E-01 4.85176E-01 7.79966E-08 2.80239E-03 1.07260E-02-1.02244E-05
 -1      1782-8.06792E-01 4.94507E-01 4.62367E-08 2.82359E-03 1.06068E-02-1.01987E-05
 -1      1783-8.22049E-01 5.03797E-01 1.91931E-08 2.85056E-03 1.04880E-02-1.01725E-05
 -1      1784-8.37541E-01 5.13284E-01-3.11208E-09 2.83857E-03 1.03694E-02-1.01456E-05
 -1      1785-8.53282E-01 5.23065E-01-2.31821E-08 2.89635E-03 1.02512E-02-1.01182E-05
 -1      1786-8.68747E-01 5.32395E-01-3.73899E-08 2.90750E-03 1.01333E-02-1.00903E-05
 -1      1787-8.84572E-01 5.42127E-01-3.77021E-08 2.90873E-03 1.00157E-02-1.00619E-05
 -1      1788-9.00532E-01 5.51966E-01-2.75959E-08 2.93587E-03 9.89846E-03-1.00329E-05
 -1      1789-9.16467E-01 5.61726E-01-1.40877E-08 2.95283E-03 9.78155E-03-1.00035E-05
 -1      1790-9.32503E-01 5.71503E-01-4.66552E-09 2.96283E-03 9.66500E-03-9.97352E-06
 -1      1791-9.48643E-01 5.81377E-01-4.12291E-09 2.99898E-03 9.54879E-03-9.94307E-06
 -1      1792-9.65003E-01 5.91517E-01-2.25776E-09 3.00406E-03 9.43294E-03-9.91210E-06
 -1      1793-9.81334E-01 6.01469E-01 6.45901E-09 3.01504E-03 9.31746E-03-9.88062E-06
 -1      1794-9.97636E-01 6.11373E-01 1.77641E-08 3.05925E-03 9.20235E-03-9.84864E-06
 -1      1795-1.01426E+00 6.21626E-01 2.89244E-08 3.02827E-03 9.08761E-03-9.81614E-06
 -1      1796-1.03105E+00 6.32034E-01 4.14184E-08 3.09219E-03 8.97325E-03-9.78314E-06
 -1      1797-1.04751E+00 6.41952E-01 5.54821E-08 3.09904E-03 8.85929E-03-9.74963E-06
 -1      1798-1.06439E+00 6.52343E-01 6.12300E-08 3.09615E-03 8.74572E-03-9.71560E-06
 -1      1799-1.08132E+00 6.62763E-01 5.96270E-08 3.11950E-03 8.63254E-03-9.68102E-06
 -1      1800-1.09836E+00 6.73230E-01 5.47351E-08 3.11740E-03 8.51978E-03-9.64590E-06
 -1      1801-1.11530E+00 6.83531E-01 4.49112E-08 3.18488E-03 8.40743E-03-9.61021E-06
 -1      1802-1.13238E+00 6.93961E-01 3.84241E-08 3.15547E-03 8.29549E-03-9.57394E-06
 -1      1803-1.14986E+00 7.04878E-01 3.71062E-08 3.18356E-03 8.18399E-03-9.53711E-06
 -1      1804-1.16693E+00 7.15121E-01 3.65742E-08 3.20617E-03 8.07291E-03-9.49990E-06
 -1      1805-1.18449E+00 7.25935E-01 4.03908E-08 3.18063E-03 7.96228E-03-9.46231E-06
 -1      1806-1.20217E+00 7.36919E-01 4.85379E-08 3.24840E-03 7.85210E-03-9.42399E-06
 -1      1807-1.21954E+00 7.47442E-01 5.24337E-08 3.22823E-03 7.74236E-03-9.38494E-06
 -1      1808-1.23711E+00 7.58144E-01 5.16273E-08 3.27921E-03 7.63308E-03-9.34532E-06
 -1      1809-1.25489E+00 7.69138E-01 5.42904E-08 3.25648E-03 7.52427E-03-9.30513E-06
 -1      1810-1.27265E+00 7.80024E-01 6.07383E-08 3.28049E-03 7.41594E-03-9.26438E-06
 -1      1811-1.29060E+00 7.91068E-01 6.65778E-08 3.27086E-03 7.30808E-03-9.22307E-06
 -1      1812-1.30837E+00 8.01860E-01 6.91591E-08 3.34760E-03 7.20070E-03-9.18119E-06
 -1      1813-1.32627E+00 8.12787E-01 7.05653E-08 3.30786E-03 7.09382E-03-9.13874E-06
 -1      1814-1.34465E+00 8.24290E-01 7.48866E-08 3.33333E-03 6.98744E-03-9.09570E-06
 -1      1815-1.36245E+00 8.34958E-01 7.44235E-08 3.36020E-03 6.88156E-03-9.05209E-06
 -1      1816-1.38073E+00 8.46210E-01 6.41327E-08 3.32149E-03 6.77620E-03-9.00788E-06
 -1      1817-1.39912E+00 8.57578E-01 4.52230E-08 3.39818E-03 6.67135E-03-8.96303E-06
 -1      1818-1.41738E+00 8.68739E-01 2.12401E-08 3.38331E-03 6.56704E-03-8.91755E-06
 -1      1819-1.43576E+00 8.80007E-01 4.44769E-09 3.40734E-03 6.46325E-03-8.87143E-06
 -1      1820-1.45402E+00 8.91028E-01-2.48596E-09 3.38206E-03 6.36001E-03-8.82469E-06
 -1      1821-1.47288E+00 9.02833E-01-6.89869E-09 3.40591E-03 6.25732E-03-8.77732E-06
 -1      1822-1.49129E+00 9.14002E-01-1.13326E-08 3.47171E-03 6.15518E-03-8.72935E-06
 -1      1823-1.50981E+00 9.25289E-01-1.50340E-08 3.42680E-03 6.05361E-03-8.68077E-06
 -1      1824-1.52873E+00 9.37018E-01-1.82450E-08 3.45242E-03 5.95261E-03-8.63157E-06
 -1      1825-1.54749E+00 9.48524E-01-2.02366E-08 3.46213E-03 5.85218E-03-8.58176E-06
 -1      1826-1.56609E+00 9.59781E-01-1.88552E-08 3.48766E-03 5.75234E-03-8.53135E-06
 -1      1827-1.58506E+00 9.71438E-01-1.29250E-08 3.44059E-03 5.65309E-03-8.48034E-06
 -1      1828-1.60410E+00 9.83216E-01-2.95661E-09 3.52466E-03 5.55444E-03-8.42872E-06
 -1      1829-1.62304E+00 9.94810E-01 7.33296E-09 3.50259E-03 5.45640E-03-8.37652E-06
 -1      1830-1.64200E+00 1.00635E+00 1.23054E-08 3.53012E-03 5.35897E-03-8.32373E-06
 -1      1831-1.66098E+00 1.01791E+00 1.15592E-08 3.50706E-03 5.26215E-03-8.27032E-06
 -1      1832-1.68050E+00 1.03014E+00 6.57330E-09 3.50360E-03 5.16597E-03-8.21628E-06
 -1      1833-1.69946E+00 1.04159E+00 1.03972E-09 3.58772E-03 5.07042E-03-8.16162E-06
 -1      1834-1.71854E+00 1.05317E+00-2.86370E-09 3.52187E-03 4.97551E-03-8.10633E-06
 -1      1835-1.73806E+00 1.06527E+00-7.10350E-09 3.57961E-03 4.88125E-03-8.05039E-06
 -1      1836-1.75745E+00 1.07727E+00-1.06646E-08 3.56362E-03 4.78764E-03-7.99382E-06
 -1      1837-1.77669E+00 1.08888E+00-1.14601E-08 3.56474E-03 4.69470E-03-7.93663E-06
 -1      1838-1.79608E+00 1.10072E+00-1.09644E-08 3.60594E-03 4.60244E-03-7.87880E-06
 -1      1839-1.81585E+00 1.11311E+00-1.23523E-08 3.59030E-03 4.51085E-03-7.82034E-06
 -1      1840-1.83510E+00 1.12466E+00-1.52808E-08 3.62195E-03 4.41994E-03-7.76125E-06
 -1      1841-1.85462E+00 1.13662E+00-1.66725E-08 3.59411E-03 4.32973E-03-7.70152E-06
 -1      1842-1.87449E+00 1.14896E+00-1.68127E-08 3.58316E-03 4.24022E-03-7.64115E-06
 -1      1843-1.89415E+00 1.16101E+00-1.79091E-08 3.66244E-03 4.15142E-03-7.58015E-06
 -1      1844-1.91356E+00 1.17273E+00-1.73755E-08 3.65205E-03 4.06333E-03-7.51851E-06
 -1      1845-1.93340E+00 1.18494E+00-1.51214E-08 3.62258E-03 3.97596E-03-7.45624E-06
 -1      1846-1.95331E+00 1.19724E+00-1.71430E-08 3.64906E-03 3.88933E-03-7.39332E-06
 -1      1847-1.97317E+00 1.20950E+00-2.40568E-08 3.65111E-03 3.80343E-03-7.32975E-06
 -1      1848-1.99278E+00 1.22125E+00-2.95880E-08 3.62867E-03 3.71828E-03-7.26554E-06
 -1      1849-2.01261E+00 1.23336E+00-3.13095E-08 3.71206E-03 3.63389E-03-7.20066E-06
 -1      1850-2.03301E+00 1.24632E+00-3.01346E-08 3.66893E-03 3.55025E-03-7.13514E-06
 -1      1851-2.05253E+00 1.25787E+00-2.58494E-08 3.70374E-03 3.46738E-03-7.06898E-06
 -1      1852-2.07253E+00 1.27020E+00-1.91271E-08 3.66756E-03 3.38529E-03-7.00219E-06
 -1      1853-2.09281E+00 1.28276E+00-1.19347E-08 3.65541E-03 3.30398E-03-6.93477E-06
 -1      1854-2.11289E+00 1.29509E+00-6.91674E-09 3.74043E-03 3.22346E-03-6.86672E-06
 -1      1855-2.13269E+00 1.30704E+00-5.21811E-09 3.72498E-03 3.14374E-03-6.79802E-06
 -1      1856-2.15285E+00 1.31938E+00-6.13261E-09 3.69389E-03 3.06482E-03-6.72868E-06
 -1      1857-2.17334E+00 1.33225E+00-6.12125E-09 3.71163E-03 2.98672E-03-6.65868E-06
 -1      1858-2.19320E+00 1.34410E+00-4.42254E-09 3.70550E-03 2.90944E-03-6.58803E-06
 -1      1859-2.21344E+00 1.35657E+00-4.83092E-09 3.75264E-03 2.83298E-03-6.51673E-06
 -1      1860-2.23377E+00 1.36912E+00-5.80238E-09 3.72849E-03 2.75737E-03-6.44477E-06
 -1      1861-2.25425E+00 1.38184E+00-5.12591E-09 3.73582E-03 2.68259E-03-6.37216E-06
 -1      1862-2.27407E+00 1.39361E+00-5.72946E-09 3.74254E-03 2.60867E-03-6.29889E-06
 -1      1863-2.29447E+00 1.40612E+00-8.43386E-09 3.71225E-03 2.53560E-03-6.22497E-06
 -1      1864-2.31522E+00 1.41920E+00-1.20318E-08 3.79235E-03 2.46340E-03-6.15036E-06
 -1      1865-2.33537E+00 1.43139E+00-1.66753E-08 3.75255E-03 2.39208E-03-6.07510E-06
 -1      1866-2.35564E+00 1.44372E+00-2.14508E-08 3.78438E-03 2.32164E-03-5.99917E-06
 -1      1867-2.37601E+00 1.45614E+00-2.42291E-08 3.74468E-03 2.25208E-03-5.92257E-06
 -1      1868-2.39682E+00 1.46925E+00-2.44335E-08 3.76357E-03 2.18343E-03-5.84530E-06
 -1      1869-2.41693E+00 1.48122E+00-2.35619E-08 3.75376E-03 2.11568E-03-5.76737E-06
 -1      1870-2.43745E+00 1.49385E+00-2.11505E-08 3.80272E-03 2.04884E-03-5.68879E-06
 -1      1871-2.45808E+00 1.50663E+00-1.63861E-08 3.77567E-03 1.98293E-03-5.60954E-06
 -1      1872-2.47870E+00 1.51930E+00-1.12681E-08 3.78398E-03 1.91794E-03-5.52965E-06
 -1      1873-2.49891E+00 1.53150E+00-7.38886E-09 3.80903E-03 1.85389E-03-5.44911E-06
 -1      1874-2.51949E+00 1.54405E+00-4.55614E-09 3.72465E-03 1.79078E-03-5.36791E-06
 -1      1875-2.54069E+00 1.55758E+00-1.63381E-09 3.83578E-03 1.72863E-03-5.28604E-06
 -1      1876-2.56047E+00 1.56905E+00 2.44468E-09 3.80039E-03 1.66743E-03-5.20353E-06
 -1      1877-2.58127E+00 1.58193E+00 7.10572E-09 3.80425E-03 1.60720E-03-5.12036E-06
 -1      1878-2.60218E+00 1.59506E+00 1.23806E-08 3.79591E-03 1.54795E-03-5.03652E-06
 -1      1879-2.62282E+00 1.60761E+00 1.85454E-08 3.75659E-03 1.48967E-03-4.95204E-06
 -1      1880-2.64325E+00 1.61998E+00 2.46504E-08 3.88668E-03 1.43239E-03-4.86690E-06
 -1      1881-2.66381E+00 1.63254E+00 2.93963E-08 3.78356E-03 1.37610E-03-4.78111E-06
 -1      1882-2.68483E+00 1.64566E+00 3.15824E-08 3.81402E-03 1.32082E-03-4.69466E-06
 -1      1883-2.70545E+00 1.65826E+00 3.13219E-08 3.80998E-03 1.26655E-03-4.60754E-06
 -1      1884-2.72599E+00 1.67068E+00 2.98531E-08 3.79634E-03 1.21330E-03-4.51975E-06
 -1      1885-2.74668E+00 1.68331E+00 2.82464E-08 3.85091E-03 1.16108E-03-4.43128E-06
 -1      1886-2.76782E+00 1.69667E+00 2.68925E-08 3.81457E-03 1.10990E-03-4.34214E-06
 -1      1887-2.78811E+00 1.70870E+00 2.56262E-08 3.85248E-03 1.05976E-03-4.25233E-06
 -1      1888-2.80890E+00 1.72147E+00 2.44871E-08 3.80260E-03 1.01067E-03-4.16184E-06
 -1      1889-2.82996E+00 1.73469E+00 2.30157E-08 3.81625E-03 9.62637E-04-4.07068E-06
 -1      1890-2.85067E+00 1.74720E+00 2.04349E-08 3.75818E-03 9.15676E-04-3.97884E-06
 -1      1891-2.87114E+00 1.75954E+00 1.74228E-08 3.94460E-03 8.69790E-04-3.88632E-06
 -1      1892-2.89199E+00 1.77245E+00 1.42934E-08 3.79815E-03 8.24988E-04-3.79312E-06
 -1      1893-2.91333E+00 1.78589E+00 1.11842E-08 3.83600E-03 7.81277E-04-3.69924E-06
 -1      1894-2.93345E+00 1.79773E+00 8.92310E-09 3.85745E-03 7.38665E-04-3.60468E-06
 -1      1895-2.95447E+00 1.81072E+00 7.65696E-09 3.75957E-03 6.97161E-04-3.50945E-06
 -1      1896-2.97558E+00 1.82387E+00 6.78738E-09 3.89594E-03 6.56772E-04-3.41353E-06
 -1      1897-2.99621E+00 1.83645E+00 6.00038E-09 3.83271E-03 6.17506E-04-3.31695E-06
 -1      1898-3.01697E+00 1.84906E+00 5.16308E-09 3.87075E-03 5.79371E-04-3.21968E-06
 -1      1899-3.03762E+00 1.86162E+00 4.30215E-09 3.81204E-03 5.42374E-04-3.12175E-06
 -1      1900-3.05890E+00 1.87493E+00 3.76748E-09 3.78577E-03 5.06525E-04-3.02313E-06
 -1      1901-3.07973E+00 1.88767E+00 3.63911E-09 3.90234E-03 4.71830E-04-2.92384E-06
 -1      1902-3.10032E+00 1.90022E+00 3.64952E-09 3.86584E-03 4.38297E-04-2.82387E-06
 -1      1903-3.12099E+00 1.91260E+00 3.48533E-09 3.79446E-03 4.05934E-04-2.72324E-06
 -1      1904-3.14235E+00 1.92615E+00 3.18061E-09 3.87251E-03 3.74750E-04-2.62192E-06
 -1      1905-3.16296E+00 1.93857E+00 2.93823E-09 3.81478E-03 3.44752E-04-2.51993E-06
 -1      1906-3.18375E+00 1.95121E+00 2.89443E-09 3.88248E-03 3.15948E-04-2.41726E-06
 -1      1907-3.20479E+00 1.96432E+00 3.02912E-09 3.84067E-03 2.88346E-04-2.31392E-06
 -1      1908-3.22581E+00 1.97725E+00 3.15386E-09 3.84806E-03 2.61953E-04-2.20990E-06
 -1      1909-3.24630E+00 1.98953E+00 3.23350E-09 3.88049E-03 2.36778E-04-2.10521E-06
 -1      1910-3.26719E+00 2.00237E+00 3.40044E-09 3.81557E-03 2.12828E-04-1.99984E-06
 -1      1911-3.28837E+00 2.01555E+00 3.70947E-09 3.78862E-03 1.90112E-04-1.89380E-06
 -1      1912-3.30944E+00 2.02853E+00 4.01007E-09 3.91308E-03 1.68637E-04-1.78708E-06
 -1      1913-3.32964E+00 2.04056E+00 4.22077E-09 3.87905E-03 1.48411E-04-1.67969E-06
 -1      1914-3.35092E+00 2.05371E+00 4.43806E-09 3.81864E-03 1.29443E-04-1.57163E-06
 -1      1915-3.37187E+00 2.06682E+00 4.63345E-09 3.84569E-03 1.11738E-04-1.46288E-06
 -1      1916-3.39293E+00 2.07962E+00 4.73380E-09 3.81450E-03 9.53070E-05-1.35346E-06
 -1      1917-3.41299E+00 2.09148E+00 4.85272E-09 3.86712E-03 8.01563E-05-1.24337E-06
 -1      1918-3.43490E+00 2.10542E+00 5.09663E-09 3.87473E-03 6.62940E-05-1.13260E-06
 -1      1919-3.45508E+00 2.11768E+00 5.40430E-09 3.85163E-03 5.37281E-05-1.02116E-06
 -1      1920-3.47677E+00 2.13105E+00 5.78602E-09 3.87330E-03 4.24664E-05-9.09036E-07
 -1      1921-3.49602E+00 2.14227E+00 6.22012E-09 3.76347E-03 3.25169E-05-7.96245E-07
 -1      1922-3.51934E+00 2.15736E+00 6.69119E-09 3.92687E-03 2.38874E-05-6.82772E-07
 -1      1923-3.53902E+00 2.17032E+00 7.16732E-09 3.81061E-03 1.65857E-05-5.68628E-07
 -1      1924-3.55382E+00 2.17107E+00 7.61991E-09 4.11084E-03 1.06198E-05-4.53814E-07
 -1      1925-3.60766E+00 2.23882E+00 8.08793E-09 2.74567E-03 5.99739E-06-3.38307E-07
 -1      1926-3.49763E+00 2.04116E+00 8.42278E-09 7.91675E-03 2.72654E-06-2.22187E-07
 -1      1927-4.00863E+00 2.83313E+00 9.81292E-09-1.12006E-02 8.15162E-07-1.05163E-07
 -1      1928-2.28744E+00 1.48725E-03 1.11117E-08 6.00575E-02 2.00113E-07-4.63315E-08
 -1      1929-4.91267E-05 7.92574E-06 1.39371E-08-5.43212E-06-2.24327E-02 1.65986E-05
 -1      1930-2.76354E-04 1.48316E-04 2.98124E-08 2.57938E-05-2.23682E-02 1.65987E-05
 -1      1931-9.40114E-04 5.54011E-04 4.71768E-08 5.08300E-05-2.22391E-02 1.65988E-05
 -1      1932-2.04487E-03 1.23255E-03 3.34814E-08 7.64648E-05-2.21100E-02 1.65989E-05
 -1      1933-3.58596E-03 2.17671E-03-8.21927E-09 1.01409E-04-2.19809E-02 1.65988E-05
 -1      1934-5.55999E-03 3.38591E-03-6.29656E-08 1.26542E-04-2.18518E-02 1.65986E-05
 -1      1935-7.97056E-03 4.86505E-03-1.14652E-07 1.51302E-04-2.17227E-02 1.65982E-05
 -1      1936-1.08057E-02 6.60215E-03-1.56284E-07 1.75701E-04-2.15936E-02 1.65975E-05
 -1      1937-1.40708E-02 8.60250E-03-1.86673E-07 2.00749E-04-2.14646E-02 1.65967E-05
 -1      1938-1.77645E-02 1.08715E-02-2.06369E-07 2.24527E-04-2.13355E-02 1.65956E-05
 -1      1939-2.18644E-02 1.33738E-02-2.02286E-07 2.49591E-04-2.12064E-02 1.65945E-05
 -1      1940-2.64098E-02 1.61723E-02-1.73800E-07 2.72485E-04-2.10774E-02 1.65933E-05
 -1      1941-3.13463E-02 1.91894E-02-1.44876E-07 2.97341E-04-2.09483E-02 1.65921E-05
 -1      1942-3.67091E-02 2.24778E-02-1.23964E-07 3.20210E-04-2.08193E-02 1.65909E-05
 -1      1943-4.24979E-02 2.60397E-02-1.01890E-07 3.45652E-04-2.06902E-02 1.65895E-05
 -1      1944-4.86433E-02 2.97723E-02-8.94419E-08 3.68044E-04-2.05612E-02 1.65882E-05
 -1      1945-5.52697E-02 3.38708E-02-1.06368E-07 3.90404E-04-2.04322E-02 1.65865E-05
 -1      1946-6.22441E-02 3.81247E-02-1.50814E-07 4.15841E-04-2.03032E-02 1.65847E-05
 -1      1947-6.96404E-02 4.26639E-02-2.06721E-07 4.35747E-04-2.01742E-02 1.65825E-05
 -1      1948-7.74455E-02 4.74568E-02-2.56521E-07 4.63320E-04-2.00453E-02 1.65800E-05
 -1      1949-8.56058E-02 5.24324E-02-2.95252E-07 4.81370E-04-1.99163E-02 1.65772E-05
 -1      1950-9.42178E-02 5.77389E-02-3.17518E-07 5.07143E-04-1.97874E-02 1.65740E-05
 -1      1951-1.03182E-01 6.32178E-02-3.42402E-07 5.27396E-04-1.96585E-02 1.65705E-05
 -1      1952-1.12548E-01 6.89685E-02-3.81144E-07 5.51023E-04-1.95296E-02 1.65667E-05
 -1      1953-1.22292E-01 7.49305E-02-3.91809E-07 5.74175E-04-1.94007E-02 1.65626E-05
 -1      1954-1.32423E-01 8.11396E-02-3.58811E-07 5.93456E-04-1.92719E-02 1.65584E-05
 -1      1955-1.42947E-01 8.75982E-02-2.92002E-07 6.17223E-04-1.91431E-02 1.65540E-05
 -1      1956-1.53844E-01 9.42800E-02-2.01425E-07 6.37911E-04-1.90144E-02 1.65496E-05
 -1      1957-1.65097E-01 1.01165E-01-1.19786E-07 6.61477E-04-1.88857E-02 1.65452E-05
 -1      1958-1.76737E-01 1.08297E-01-6.01774E-08 6.80297E-04-1.87570E-02 1.65408E-05
 -1      1959-1.88772E-01 1.15691E-01-8.61889E-09 7.03184E-04-1.86283E-02 1.65362E-05
 -1      1960-2.01137E-01 1.23254E-01 4.21651E-08 7.22957E-04-1.84997E-02 1.65315E-05
 -1      1961-2.13899E-01 1.31093E-01 9.73795E-08 7.45538E-04-1.83711E-02 1.65267E-05
 -1      1962-2.26989E-01 1.39093E-01 1.32267E-07 7.67509E-04-1.82426E-02 1.65217E-05
 -1      1963-2.40473E-01 1.47371E-01 1.15628E-07 7.85362E-04-1.81141E-02 1.65165E-05
 -1      1964-2.54304E-01 1.55851E-01 7.86966E-08 8.09086E-04-1.79856E-02 1.65108E-05
 -1      1965-2.68463E-01 1.64505E-01 5.59234E-08 8.25580E-04-1.78572E-02 1.65046E-05
 -1      1966-2.83055E-01 1.73499E-01 4.12155E-08 8.48616E-04-1.77289E-02 1.64981E-05
 -1      1967-2.97898E-01 1.82551E-01 2.95512E-08 8.69264E-04-1.76005E-02 1.64912E-05
 -1      1968-3.13134E-01 1.91892E-01 2.17500E-08 8.86870E-04-1.74723E-02 1.64838E-05
 -1      1969-3.28746E-01 2.01488E-01 2.57689E-08 9.06545E-04-1.73441E-02 1.64761E-05
 -1      1970-3.44656E-01 2.11220E-01 5.28747E-08 9.28471E-04-1.72160E-02 1.64681E-05
 -1      1971-3.60921E-01 2.21190E-01 1.00279E-07 9.45828E-04-1.70879E-02 1.64598E-05
 -1      1972-3.77540E-01 2.31396E-01 1.69200E-07 9.66441E-04-1.69599E-02 1.64512E-05
 -1      1973-3.94453E-01 2.41732E-01 2.36152E-07 9.89419E-04-1.68320E-02 1.64425E-05
 -1      1974-4.11721E-01 2.52310E-01 2.83147E-07 1.00133E-03-1.67041E-02 1.64336E-05
 -1      1975-4.29363E-01 2.63167E-01 3.24995E-07 1.02370E-03-1.65763E-02 1.64243E-05
 -1      1976-4.47242E-01 2.74078E-01 3.65658E-07 1.04088E-03-1.64486E-02 1.64148E-05
 -1      1977-4.65578E-01 2.85388E-01 4.01971E-07 1.06428E-03-1.63209E-02 1.64050E-05
 -1      1978-4.84069E-01 2.96637E-01 4.33376E-07 1.08456E-03-1.61934E-02 1.63948E-05
 -1      1979-5.02947E-01 3.08198E-01 4.72197E-07 1.09348E-03-1.60659E-02 1.63843E-05
 -1      1980-5.22271E-01 3.20140E-01 4.99920E-07 1.11507E-03-1.59385E-02 1.63734E-05
 -1      1981-5.41724E-01 3.31984E-01 4.90664E-07 1.13330E-03-1.58112E-02 1.63620E-05
 -1      1982-5.61620E-01 3.44239E-01 4.68954E-07 1.15369E-03-1.56840E-02 1.63502E-05
 -1      1983-5.81708E-01 3.56487E-01 4.50224E-07 1.17298E-03-1.55569E-02 1.63378E-05
 -1      1984-6.02181E-01 3.69044E-01 4.41222E-07 1.18667E-03-1.54299E-02 1.63249E-05
 -1      1985-6.23002E-01 3.81852E-01 4.40612E-07 1.20228E-03-1.53030E-02 1.63114E-05
 -1      1986-6.44026E-01 3.94706E-01 4.30768E-07 1.22317E-03-1.51762E-02 1.62974E-05
 -1      1987-6.65387E-01 4.07795E-01 4.21277E-07 1.23898E-03-1.50495E-02 1.62829E-05
 -1      1988-6.87112E-01 4.21149E-01 4.28159E-07 1.25977E-03-1.49230E-02 1.62678E-05
 -1      1989-7.09013E-01 4.34524E-01 4.51417E-07 1.27592E-03-1.47965E-02 1.62523E-05
 -1      1990-7.31224E-01 4.48107E-01 4.65092E-07 1.28735E-03-1.46702E-02 1.62363E-05
 -1      1991-7.53916E-01 4.62147E-01 4.50320E-07 1.30789E-03-1.45440E-02 1.62197E-05
 -1      1992-7.76609E-01 4.75915E-01 4.22057E-07 1.32805E-03-1.44180E-02 1.62026E-05
 -1      1993-7.99795E-01 4.90202E-01 3.89947E-07 1.33762E-03-1.42920E-02 1.61847E-05
 -1      1994-8.23161E-01 5.04505E-01 3.58874E-07 1.35778E-03-1.41663E-02 1.61663E-05
 -1      1995-8.46812E-01 5.18955E-01 3.31192E-07 1.37319E-03-1.40407E-02 1.61471E-05
 -1      1996-8.70877E-01 5.33808E-01 2.91316E-07 1.38240E-03-1.39152E-02 1.61272E-05
 -1      1997-8.94980E-01 5.48480E-01 2.25911E-07 1.40467E-03-1.37899E-02 1.61066E-05
 -1      1998-9.19619E-01 5.63688E-01 1.43134E-07 1.42378E-03-1.36647E-02 1.60852E-05
 -1      1999-9.44281E-01 5.78700E-01 6.13517E-08 1.43744E-03-1.35398E-02 1.60629E-05
 -1      2000-9.69308E-01 5.94038E-01-9.91146E-09 1.44908E-03-1.34150E-02 1.60398E-05
 -1      2001-9.94720E-01 6.09710E-01-7.89495E-08 1.46066E-03-1.32903E-02 1.60158E-05
 -1      2002-1.02021E+00 6.25239E-01-1.50748E-07 1.48497E-03-1.31659E-02 1.59910E-05
 -1      2003-1.04615E+00 6.41244E-01-2.11218E-07 1.49296E-03-1.30417E-02 1.59653E-05
 -1      2004-1.07209E+00 6.57011E-01-2.50015E-07 1.51979E-03-1.29177E-02 1.59389E-05
 -1      2005-1.09849E+00 6.73270E-01-2.75166E-07 1.51737E-03-1.27938E-02 1.59117E-05
 -1      2006-1.12512E+00 6.89586E-01-2.93530E-07 1.55247E-03-1.26702E-02 1.58838E-05
 -1      2007-1.15191E+00 7.05952E-01-3.02694E-07 1.54088E-03-1.25469E-02 1.58552E-05
 -1      2008-1.17904E+00 7.22655E-01-3.08710E-07 1.56764E-03-1.24237E-02 1.58260E-05
 -1      2009-1.20645E+00 7.39474E-01-3.20151E-07 1.58719E-03-1.23007E-02 1.57960E-05
 -1      2010-1.23392E+00 7.56226E-01-3.36512E-07 1.59914E-03-1.21780E-02 1.57654E-05
 -1      2011-1.26172E+00 7.73239E-01-3.51096E-07 1.60861E-03-1.20556E-02 1.57340E-05
 -1      2012-1.28992E+00 7.90658E-01-3.54729E-07 1.61603E-03-1.19334E-02 1.57019E-05
 -1      2013-1.31811E+00 8.07818E-01-3.49073E-07 1.64336E-03-1.18114E-02 1.56691E-05
 -1      2014-1.34678E+00 8.25519E-01-3.47653E-07 1.64764E-03-1.16897E-02 1.56357E-05
 -1      2015-1.37535E+00 8.42880E-01-3.34437E-07 1.67126E-03-1.15682E-02 1.56016E-05
 -1      2016-1.40439E+00 8.60696E-01-3.00701E-07 1.67679E-03-1.14470E-02 1.55668E-05
 -1      2017-1.43376E+00 8.78825E-01-2.76540E-07 1.68020E-03-1.13261E-02 1.55315E-05
 -1      2018-1.46302E+00 8.96611E-01-2.65205E-07 1.70552E-03-1.12055E-02 1.54954E-05
 -1      2019-1.49292E+00 9.15162E-01-2.47091E-07 1.71548E-03-1.10851E-02 1.54588E-05
 -1      2020-1.52253E+00 9.33032E-01-2.13413E-07 1.75499E-03-1.09650E-02 1.54215E-05
 -1      2021-1.55264E+00 9.51493E-01-1.67142E-07 1.71912E-03-1.08452E-02 1.53835E-05
 -1      2022-1.58322E+00 9.70516E-01-1.16820E-07 1.74720E-03-1.07258E-02 1.53450E-05
 -1      2023-1.61349E+00 9.88825E-01-6.91055E-08 1.76454E-03-1.06066E-02 1.53060E-05
 -1      2024-1.64445E+00 1.00798E+00-2.76819E-08 1.78311E-03-1.04877E-02 1.52663E-05
 -1      2025-1.67522E+00 1.02669E+00 5.95637E-09 1.79346E-03-1.03691E-02 1.52260E-05
 -1      2026-1.70630E+00 1.04570E+00 3.53286E-08 1.79438E-03-1.02509E-02 1.51850E-05
 -1      2027-1.73789E+00 1.06525E+00 5.63329E-08 1.81228E-03-1.01329E-02 1.51434E-05
 -1      2028-1.76932E+00 1.08439E+00 5.68122E-08 1.81815E-03-1.00153E-02 1.51010E-05
 -1      2029-1.80103E+00 1.10382E+00 4.17568E-08 1.83841E-03-9.89806E-03 1.50578E-05
 -1      2030-1.83312E+00 1.12361E+00 2.22811E-08 1.84412E-03-9.78112E-03 1.50138E-05
 -1      2031-1.86510E+00 1.14306E+00 8.15388E-09 1.87477E-03-9.66454E-03 1.49690E-05
 -1      2032-1.89740E+00 1.16281E+00 7.17106E-09 1.85569E-03-9.54830E-03 1.49234E-05
 -1      2033-1.93021E+00 1.18322E+00 4.58187E-09 1.87433E-03-9.43242E-03 1.48770E-05
 -1      2034-1.96257E+00 1.20272E+00-8.63890E-09 1.90608E-03-9.31691E-03 1.48297E-05
 -1      2035-1.99568E+00 1.22319E+00-2.54693E-08 1.89492E-03-9.20177E-03 1.47816E-05
 -1      2036-2.02871E+00 1.24342E+00-4.19870E-08 1.91275E-03-9.08700E-03 1.47327E-05
 -1      2037-2.06177E+00 1.26353E+00-6.07099E-08 1.91424E-03-8.97262E-03 1.46829E-05
 -1      2038-2.09553E+00 1.28449E+00-8.17427E-08 1.93182E-03-8.85862E-03 1.46322E-05
 -1      2039-2.12891E+00 1.30473E+00-9.03186E-08 1.93261E-03-8.74503E-03 1.45807E-05
 -1      2040-2.16287E+00 1.32575E+00-8.79155E-08 1.96103E-03-8.63184E-03 1.45284E-05
 -1      2041-2.19657E+00 1.34618E+00-8.04244E-08 1.96456E-03-8.51906E-03 1.44752E-05
 -1      2042-2.23075E+00 1.36714E+00-6.56081E-08 1.97500E-03-8.40669E-03 1.44213E-05
 -1      2043-2.26526E+00 1.38851E+00-5.62197E-08 1.95997E-03-8.29475E-03 1.43665E-05
 -1      2044-2.29941E+00 1.40921E+00-5.40045E-08 1.99604E-03-8.18323E-03 1.43109E-05
 -1      2045-2.33428E+00 1.43087E+00-5.30323E-08 2.00710E-03-8.07215E-03 1.42547E-05
 -1      2046-2.36886E+00 1.45170E+00-5.90776E-08 2.01860E-03-7.96151E-03 1.41979E-05
 -1      2047-2.40384E+00 1.47335E+00-7.08873E-08 2.00837E-03-7.85132E-03 1.41399E-05
 -1      2048-2.43897E+00 1.49486E+00-7.66402E-08 2.04012E-03-7.74159E-03 1.40809E-05
 -1      2049-2.47406E+00 1.51624E+00-7.56102E-08 2.02211E-03-7.63231E-03 1.40211E-05
 -1      2050-2.50965E+00 1.53826E+00-7.92594E-08 2.03356E-03-7.52351E-03 1.39603E-05
 -1      2051-2.54519E+00 1.56004E+00-8.88193E-08 2.05606E-03-7.41518E-03 1.38987E-05
 -1      2052-2.58063E+00 1.58158E+00-9.75406E-08 2.07250E-03-7.30733E-03 1.38363E-05
 -1      2053-2.61649E+00 1.60353E+00-1.01715E-07 2.06556E-03-7.19997E-03 1.37729E-05
 -1      2054-2.65277E+00 1.62606E+00-1.04353E-07 2.05986E-03-7.09310E-03 1.37086E-05
 -1      2055-2.68849E+00 1.64765E+00-1.10648E-07 2.08442E-03-6.98674E-03 1.36435E-05
 -1      2056-2.72513E+00 1.67041E+00-1.10113E-07 2.10507E-03-6.88089E-03 1.35774E-05
 -1      2057-2.76119E+00 1.69222E+00-9.46260E-08 2.10293E-03-6.77556E-03 1.35105E-05
 -1      2058-2.79767E+00 1.71458E+00-6.55754E-08 2.10741E-03-6.67074E-03 1.34428E-05
 -1      2059-2.83458E+00 1.73745E+00-2.91976E-08 2.09419E-03-6.56646E-03 1.33743E-05
 -1      2060-2.87128E+00 1.75984E+00-3.95687E-09 2.13800E-03-6.46271E-03 1.33050E-05
 -1      2061-2.90826E+00 1.78256E+00 5.87095E-09 2.14485E-03-6.35951E-03 1.32349E-05
 -1      2062-2.94488E+00 1.80467E+00 1.25902E-08 2.13886E-03-6.25685E-03 1.31640E-05
 -1      2063-2.98237E+00 1.82794E+00 1.92383E-08 2.13318E-03-6.15475E-03 1.30921E-05
 -1      2064-3.01976E+00 1.85091E+00 2.44934E-08 2.13615E-03-6.05321E-03 1.30193E-05
 -1      2065-3.05696E+00 1.87359E+00 2.95773E-08 2.15948E-03-5.95224E-03 1.29457E-05
 -1      2066-3.09446E+00 1.89656E+00 3.25358E-08 2.16293E-03-5.85184E-03 1.28711E-05
 -1      2067-3.13235E+00 1.91998E+00 3.06728E-08 2.18034E-03-5.75203E-03 1.27957E-05
 -1      2068-3.16978E+00 1.94266E+00 2.16355E-08 2.18843E-03-5.65281E-03 1.27193E-05
 -1      2069-3.20758E+00 1.96579E+00 6.52251E-09 2.17804E-03-5.55419E-03 1.26420E-05
 -1      2070-3.24588E+00 1.98959E+00-8.32855E-09 2.17190E-03-5.45618E-03 1.25637E-05
 -1      2071-3.28371E+00 2.01248E+00-1.57279E-08 2.20947E-03-5.35877E-03 1.24844E-05
 -1      2072-3.32222E+00 2.03641E+00-1.51203E-08 2.19611E-03-5.26199E-03 1.24042E-05
 -1      2073-3.35999E+00 2.05913E+00-7.83224E-09 2.22594E-03-5.16583E-03 1.23231E-05
 -1      2074-3.39869E+00 2.08312E+00 6.37094E-10 2.21384E-03-5.07031E-03 1.22411E-05
 -1      2075-3.43723E+00 2.10673E+00 6.75117E-09 2.22530E-03-4.97543E-03 1.21581E-05
 -1      2076-3.47545E+00 2.12987E+00 1.32870E-08 2.21314E-03-4.88120E-03 1.20743E-05
 -1      2077-3.51474E+00 2.15455E+00 1.82359E-08 2.21737E-03-4.78762E-03 1.19895E-05
 -1      2078-3.55298E+00 2.17744E+00 1.94099E-08 2.27304E-03-4.69470E-03 1.19038E-05
 -1      2079-3.59195E+00 2.20140E+00 1.88312E-08 2.21840E-03-4.60246E-03 1.18172E-05
 -1      2080-3.63113E+00 2.22570E+00 2.06555E-08 2.23146E-03-4.51090E-03 1.17296E-05
 -1      2081-3.66996E+00 2.24922E+00 2.50160E-08 2.26940E-03-4.42002E-03 1.16411E-05
 -1      2082-3.70944E+00 2.27373E+00 2.68477E-08 2.24300E-03-4.32983E-03 1.15516E-05
 -1      2083-3.74822E+00 2.29716E+00 2.71021E-08 2.29286E-03-4.24034E-03 1.14613E-05
 -1      2084-3.78750E+00 2.32121E+00 2.91746E-08 2.24716E-03-4.15155E-03 1.13699E-05
 -1      2085-3.82734E+00 2.34597E+00 2.83998E-08 2.27038E-03-4.06349E-03 1.12776E-05
 -1      2086-3.86658E+00 2.36983E+00 2.48875E-08 2.26275E-03-3.97614E-03 1.11843E-05
 -1      2087-3.90597E+00 2.39385E+00 2.80321E-08 2.29262E-03-3.88952E-03 1.10901E-05
 -1      2088-3.94611E+00 2.41898E+00 3.86924E-08 2.27057E-03-3.80364E-03 1.09949E-05
 -1      2089-3.98516E+00 2.44221E+00 4.69510E-08 2.37017E-03-3.71851E-03 1.08989E-05
 -1      2090-4.02494E+00 2.46659E+00 4.94693E-08 2.23652E-03-3.63412E-03 1.08018E-05
 -1      2091-4.06538E+00 2.49208E+00 4.76313E-08 2.27460E-03-3.55049E-03 1.07038E-05
 -1      2092-4.10483E+00 2.51568E+00 4.12662E-08 2.31976E-03-3.46763E-03 1.06048E-05
 -1      2093-4.14525E+00 2.54089E+00 3.11930E-08 2.29038E-03-3.38555E-03 1.05048E-05
 -1      2094-4.18479E+00 2.56469E+00 2.03364E-08 2.34528E-03-3.30424E-03 1.04038E-05
 -1      2095-4.22489E+00 2.58926E+00 1.26572E-08 2.28931E-03-3.22373E-03 1.03019E-05
 -1      2096-4.26559E+00 2.61463E+00 1.00508E-08 2.31582E-03-3.14401E-03 1.01989E-05
 -1      2097-4.30544E+00 2.63870E+00 1.18280E-08 2.30736E-03-3.06510E-03 1.00949E-05
 -1      2098-4.34601E+00 2.66390E+00 1.21089E-08 2.32808E-03-2.98699E-03 9.98997E-06
 -1      2099-4.38604E+00 2.68805E+00 9.34794E-09 2.36491E-03-2.90971E-03 9.88406E-06
 -1      2100-4.42649E+00 2.71284E+00 9.68785E-09 2.30270E-03-2.83326E-03 9.77716E-06
 -1      2101-4.46727E+00 2.73819E+00 1.13001E-08 2.32141E-03-2.75764E-03 9.66927E-06
 -1      2102-4.50763E+00 2.76279E+00 1.04413E-08 2.33058E-03-2.68287E-03 9.56042E-06
 -1      2103-4.54838E+00 2.78782E+00 1.14004E-08 2.39703E-03-2.60894E-03 9.45058E-06
 -1      2104-4.58850E+00 2.81193E+00 1.55136E-08 2.32818E-03-2.53588E-03 9.33976E-06
 -1      2105-4.62951E+00 2.83750E+00 2.09042E-08 2.32220E-03-2.46367E-03 9.22796E-06
 -1      2106-4.67041E+00 2.86267E+00 2.76621E-08 2.33047E-03-2.39235E-03 9.11520E-06
 -1      2107-4.71102E+00 2.88735E+00 3.49723E-08 2.36456E-03-2.32190E-03 9.00147E-06
 -1      2108-4.75187E+00 2.91241E+00 3.91002E-08 2.34136E-03-2.25234E-03 8.88677E-06
 -1      2109-4.79289E+00 2.93777E+00 3.93424E-08 2.35341E-03-2.18368E-03 8.77108E-06
 -1      2110-4.83351E+00 2.96232E+00 3.80206E-08 2.40764E-03-2.11592E-03 8.65441E-06
 -1      2111-4.87442E+00 2.98733E+00 3.40809E-08 2.32385E-03-2.04908E-03 8.53673E-06
 -1      2112-4.91587E+00 3.01324E+00 2.71097E-08 2.35603E-03-1.98315E-03 8.41803E-06
 -1      2113-4.95641E+00 3.03761E+00 1.96826E-08 2.35707E-03-1.91815E-03 8.29832E-06
 -1      2114-4.99807E+00 3.06363E+00 1.38528E-08 2.38845E-03-1.85408E-03 8.17759E-06
 -1      2115-5.03862E+00 3.08797E+00 9.38470E-09 2.37998E-03-1.79096E-03 8.05585E-06
 -1      2116-5.07982E+00 3.11340E+00 4.85589E-09 2.35715E-03-1.72879E-03 7.93310E-06
 -1      2117-5.12137E+00 3.13905E+00-1.08458E-09 2.41184E-03-1.66758E-03 7.80933E-06
 -1      2118-5.16203E+00 3.16344E+00-8.07038E-09 2.33121E-03-1.60733E-03 7.68454E-06
 -1      2119-5.20411E+00 3.19016E+00-1.60562E-08 2.37363E-03-1.54806E-03 7.55872E-06
 -1      2120-5.24455E+00 3.21412E+00-2.51612E-08 2.40553E-03-1.48977E-03 7.43188E-06
 -1      2121-5.28600E+00 3.23960E+00-3.43232E-08 2.38281E-03-1.43247E-03 7.30400E-06
 -1      2122-5.32788E+00 3.26579E+00-4.16124E-08 2.33780E-03-1.37617E-03 7.17509E-06
 -1      2123-5.36865E+00 3.29026E+00-4.48527E-08 2.40231E-03-1.32087E-03 7.04517E-06
 -1      2124-5.41055E+00 3.31647E+00-4.43113E-08 2.37113E-03-1.26659E-03 6.91424E-06
 -1      2125-5.45146E+00 3.34096E+00-4.21982E-08 2.44524E-03-1.21334E-03 6.78231E-06
 -1      2126-5.49295E+00 3.36648E+00-3.99126E-08 2.34571E-03-1.16111E-03 6.64938E-06
 -1      2127-5.53473E+00 3.39248E+00-3.78736E-08 2.37163E-03-1.10992E-03 6.51545E-06
 -1      2128-5.57606E+00 3.41757E+00-3.59271E-08 2.40865E-03-1.05977E-03 6.38052E-06
 -1      2129-5.61745E+00 3.44281E+00-3.40532E-08 2.37533E-03-1.01068E-03 6.24459E-06
 -1      2130-5.65957E+00 3.46931E+00-3.18701E-08 2.39612E-03-9.62644E-04 6.10765E-06
 -1      2131-5.70012E+00 3.49320E+00-2.81999E-08 2.47359E-03-9.15680E-04 5.96973E-06
 -1      2132-5.74178E+00 3.51870E+00-2.36940E-08 2.36287E-03-8.69793E-04 5.83081E-06
 -1      2133-5.78438E+00 3.54588E+00-1.89690E-08 2.33297E-03-8.24990E-04 5.69088E-06
 -1      2134-5.82494E+00 3.56982E+00-1.42886E-08 2.40939E-03-7.81279E-04 5.54997E-06
 -1      2135-5.86740E+00 3.59655E+00-1.08350E-08 2.41465E-03-7.38667E-04 5.40806E-06
 -1      2136-5.90832E+00 3.62095E+00-8.96470E-09 2.41421E-03-6.97163E-04 5.26515E-06
 -1      2137-5.94989E+00 3.64648E+00-7.71074E-09 2.39337E-03-6.56775E-04 5.12124E-06
 -1      2138-5.99217E+00 3.67294E+00-6.45713E-09 2.36277E-03-6.17509E-04 4.97631E-06
 -1      2139-6.03333E+00 3.69766E+00-5.15204E-09 2.42320E-03-5.79375E-04 4.83038E-06
 -1      2140-6.07560E+00 3.72409E+00-3.94062E-09 2.38685E-03-5.42379E-04 4.68344E-06
 -1      2141-6.11658E+00 3.74865E+00-3.15913E-09 2.44243E-03-5.06530E-04 4.53550E-06
 -1      2142-6.15814E+00 3.77399E+00-2.90765E-09 2.38584E-03-4.71836E-04 4.38655E-06
 -1      2143-6.20095E+00 3.80123E+00-2.93613E-09 2.37483E-03-4.38304E-04 4.23658E-06
 -1      2144-6.24162E+00 3.82511E+00-2.69907E-09 2.46417E-03-4.05942E-04 4.08560E-06
 -1      2145-6.28369E+00 3.85135E+00-2.27917E-09 2.35043E-03-3.74758E-04 3.93361E-06
 -1      2146-6.32552E+00 3.87703E+00-1.95357E-09 2.45878E-03-3.44760E-04 3.78061E-06
 -1      2147-6.36682E+00 3.90189E+00-1.79733E-09 2.35861E-03-3.15956E-04 3.62660E-06
 -1      2148-6.40921E+00 3.92856E+00-1.97400E-09 2.39959E-03-2.88354E-04 3.47157E-06
 -1      2149-6.45049E+00 3.95345E+00-2.20136E-09 2.38331E-03-2.61961E-04 3.31553E-06
 -1      2150-6.49236E+00 3.97911E+00-2.29183E-09 2.44602E-03-2.36786E-04 3.15847E-06
 -1      2151-6.53452E+00 4.00539E+00-2.56036E-09 2.35676E-03-2.12836E-04 3.00040E-06
 -1      2152-6.57561E+00 4.02995E+00-3.03546E-09 2.49347E-03-1.90120E-04 2.84132E-06
 -1      2153-6.61723E+00 4.05544E+00-3.48689E-09 2.33654E-03-1.68644E-04 2.68123E-06
 -1      2154-6.65997E+00 4.08228E+00-3.82436E-09 2.44478E-03-1.48418E-04 2.52012E-06
 -1      2155-6.70096E+00 4.10691E+00-4.10790E-09 2.33118E-03-1.29449E-04 2.35799E-06
 -1      2156-6.74325E+00 4.13314E+00-4.37342E-09 2.48969E-03-1.11744E-04 2.19485E-06
 -1      2157-6.78466E+00 4.15848E+00-4.56792E-09 2.35658E-03-9.53122E-05 2.03070E-06
 -1      2158-6.82624E+00 4.18322E+00-4.74061E-09 2.56459E-03-8.01609E-05 1.86553E-06
 -1      2159-6.86815E+00 4.20973E+00-5.08157E-09 2.17345E-03-6.62981E-05 1.69934E-06
 -1      2160-6.91043E+00 4.23540E+00-5.55185E-09 2.60281E-03-5.37316E-05 1.53214E-06
 -1      2161-6.95175E+00 4.26117E+00-6.13009E-09 2.15047E-03-4.24695E-05 1.36393E-06
 -1      2162-6.99421E+00 4.28655E+00-6.79327E-09 2.79086E-03-3.25195E-05 1.19469E-06
 -1      2163-7.03345E+00 4.30990E+00-7.48412E-09 1.94871E-03-2.38897E-05 1.02445E-06
 -1      2164-7.08132E+00 4.34338E+00-8.19360E-09 2.85225E-03-1.65877E-05 8.53188E-07
 -1      2165-7.10793E+00 4.34524E+00-8.88295E-09 2.21484E-03-1.06217E-05 6.80910E-07
 -1      2166-7.19782E+00 4.45334E+00-9.58067E-09 1.13228E-03-5.99924E-06 5.07598E-07
 -1      2167-7.07079E+00 4.18000E+00-1.01010E-08 9.58394E-03-2.72877E-06 3.33350E-07
 -1      2168-7.72152E+00 5.29630E+00-1.19750E-08-2.69275E-02-8.17643E-07 1.57789E-07
 -1      2169-5.01693E+00 9.73937E-01-1.36922E-08 1.07440E-01-2.01873E-07 6.95489E-08
 -1      2170-4.90080E-05 7.90602E-06-1.39371E-08-5.32855E-06 2.24319E-02-1.65934E-05
 -1      2171-2.76137E-04 1.48245E-04-2.98124E-08 2.58770E-05 2.23673E-02-1.65933E-05
 -1      2172-9.39799E-04 5.53913E-04-4.71768E-08 5.08339E-05 2.22383E-02-1.65932E-05
 -1      2173-2.04465E-03 1.23250E-03-3.34814E-08 7.63794E-05 2.21092E-02-1.65930E-05
 -1      2174-3.58602E-03 2.17672E-03 8.21927E-09 1.01248E-04 2.19801E-02-1.65929E-05
 -1      2175-5.56043E-03 3.38604E-03 6.29656E-08 1.26369E-04 2.18510E-02-1.65929E-05
 -1      2176-7.97136E-03 4.86528E-03 1.14652E-07 1.51154E-04 2.17219E-02-1.65930E-05
 -1      2177-1.08068E-02 6.60246E-03 1.56284E-07 1.75591E-04 2.15929E-02-1.65932E-05
 -1      2178-1.40721E-02 8.60287E-03 1.86673E-07 2.00676E-04 2.14638E-02-1.65935E-05
 -1      2179-1.77659E-02 1.08719E-02 2.06369E-07 2.24481E-04 2.13347E-02-1.65937E-05
 -1      2180-2.18658E-02 1.33742E-02 2.02286E-07 2.49656E-04 2.12056E-02-1.65939E-05
 -1      2181-2.64110E-02 1.61726E-02 1.73800E-07 2.72594E-04 2.10766E-02-1.65939E-05
 -1      2182-3.13473E-02 1.91897E-02 1.44876E-07 2.97411E-04 2.09475E-02-1.65937E-05
 -1      2183-3.67099E-02 2.24780E-02 1.23964E-07 3.20265E-04 2.08184E-02-1.65933E-05
 -1      2184-4.24987E-02 2.60399E-02 1.01890E-07 3.45716E-04 2.06893E-02-1.65927E-05
 -1      2185-4.86439E-02 2.97725E-02 8.94419E-08 3.68052E-04 2.05603E-02-1.65920E-05
 -1      2186-5.52705E-02 3.38710E-02 1.06368E-07 3.90302E-04 2.04312E-02-1.65910E-05
 -1      2187-6.22452E-02 3.81250E-02 1.50814E-07 4.15671E-04 2.03022E-02-1.65900E-05
 -1      2188-6.96419E-02 4.26643E-02 2.06721E-07 4.35579E-04 2.01731E-02-1.65889E-05
 -1      2189-7.74473E-02 4.74573E-02 2.56521E-07 4.63183E-04 2.00441E-02-1.65879E-05
 -1      2190-8.56079E-02 5.24330E-02 2.95252E-07 4.81271E-04 1.99151E-02-1.65868E-05
 -1      2191-9.42200E-02 5.77395E-02 3.17518E-07 5.07085E-04 1.97861E-02-1.65856E-05
 -1      2192-1.03184E-01 6.32185E-02 3.42402E-07 5.27279E-04 1.96571E-02-1.65843E-05
 -1      2193-1.12551E-01 6.89693E-02 3.81144E-07 5.50926E-04 1.95281E-02-1.65828E-05
 -1      2194-1.22294E-01 7.49313E-02 3.91809E-07 5.74224E-04 1.93991E-02-1.65812E-05
 -1      2195-1.32425E-01 8.11404E-02 3.58811E-07 5.93604E-04 1.92702E-02-1.65793E-05
 -1      2196-1.42949E-01 8.75988E-02 2.92002E-07 6.17478E-04 1.91412E-02-1.65770E-05
 -1      2197-1.53846E-01 9.42804E-02 2.01425E-07 6.38192E-04 1.90123E-02-1.65742E-05
 -1      2198-1.65098E-01 1.01165E-01 1.19786E-07 6.61691E-04 1.88834E-02-1.65709E-05
 -1      2199-1.76738E-01 1.08298E-01 6.01774E-08 6.80464E-04 1.87546E-02-1.65670E-05
 -1      2200-1.88773E-01 1.15691E-01 8.61889E-09 7.03333E-04 1.86258E-02-1.65627E-05
 -1      2201-2.01137E-01 1.23254E-01-4.21651E-08 7.23121E-04 1.84970E-02-1.65579E-05
 -1      2202-2.13898E-01 1.31093E-01-9.73795E-08 7.45706E-04 1.83682E-02-1.65526E-05
 -1      2203-2.26988E-01 1.39093E-01-1.32267E-07 7.67539E-04 1.82395E-02-1.65469E-05
 -1      2204-2.40472E-01 1.47371E-01-1.15628E-07 7.85246E-04 1.81108E-02-1.65409E-05
 -1      2205-2.54304E-01 1.55851E-01-7.86966E-08 8.09001E-04 1.79822E-02-1.65345E-05
 -1      2206-2.68463E-01 1.64504E-01-5.59234E-08 8.25536E-04 1.78537E-02-1.65280E-05
 -1      2207-2.83055E-01 1.73499E-01-4.12155E-08 8.48565E-04 1.77251E-02-1.65211E-05
 -1      2208-2.97898E-01 1.82550E-01-2.95512E-08 8.69238E-04 1.75967E-02-1.65140E-05
 -1      2209-3.13133E-01 1.91892E-01-2.17500E-08 8.86858E-04 1.74683E-02-1.65065E-05
 -1      2210-3.28746E-01 2.01488E-01-2.57689E-08 9.06592E-04 1.73399E-02-1.64986E-05
 -1      2211-3.44655E-01 2.11220E-01-5.28747E-08 9.28585E-04 1.72116E-02-1.64903E-05
 -1      2212-3.60920E-01 2.21189E-01-1.00279E-07 9.46004E-04 1.70834E-02-1.64815E-05
 -1      2213-3.77538E-01 2.31395E-01-1.69200E-07 9.66680E-04 1.69553E-02-1.64721E-05
 -1      2214-3.94451E-01 2.41732E-01-2.36152E-07 9.89582E-04 1.68272E-02-1.64621E-05
 -1      2215-4.11719E-01 2.52310E-01-2.83147E-07 1.00146E-03 1.66992E-02-1.64515E-05
 -1      2216-4.29361E-01 2.63166E-01-3.24995E-07 1.02384E-03 1.65713E-02-1.64403E-05
 -1      2217-4.47239E-01 2.74077E-01-3.65658E-07 1.04100E-03 1.64435E-02-1.64285E-05
 -1      2218-4.65575E-01 2.85387E-01-4.01971E-07 1.06439E-03 1.63157E-02-1.64162E-05
 -1      2219-4.84066E-01 2.96636E-01-4.33376E-07 1.08466E-03 1.61881E-02-1.64034E-05
 -1      2220-5.02944E-01 3.08197E-01-4.72197E-07 1.09362E-03 1.60606E-02-1.63900E-05
 -1      2221-5.22268E-01 3.20139E-01-4.99920E-07 1.11510E-03 1.59331E-02-1.63759E-05
 -1      2222-5.41721E-01 3.31983E-01-4.90664E-07 1.13323E-03 1.58058E-02-1.63614E-05
 -1      2223-5.61617E-01 3.44238E-01-4.68954E-07 1.15364E-03 1.56786E-02-1.63465E-05
 -1      2224-5.81704E-01 3.56486E-01-4.50224E-07 1.17292E-03 1.55515E-02-1.63312E-05
 -1      2225-6.02178E-01 3.69043E-01-4.41222E-07 1.18668E-03 1.54245E-02-1.63154E-05
 -1      2226-6.22999E-01 3.81852E-01-4.40612E-07 1.20227E-03 1.52977E-02-1.62991E-05
 -1      2227-6.44023E-01 3.94705E-01-4.30768E-07 1.22313E-03 1.51709E-02-1.62824E-05
 -1      2228-6.65384E-01 4.07794E-01-4.21277E-07 1.23898E-03 1.50443E-02-1.62651E-05
 -1      2229-6.87109E-01 4.21149E-01-4.28159E-07 1.25983E-03 1.49178E-02-1.62473E-05
 -1      2230-7.09010E-01 4.34523E-01-4.51417E-07 1.27601E-03 1.47915E-02-1.62290E-05
 -1      2231-7.31221E-01 4.48106E-01-4.65092E-07 1.28734E-03 1.46653E-02-1.62101E-05
 -1      2232-7.53912E-01 4.62146E-01-4.50320E-07 1.30782E-03 1.45393E-02-1.61906E-05
 -1      2233-7.76606E-01 4.75914E-01-4.22057E-07 1.32797E-03 1.44134E-02-1.61706E-05
 -1      2234-7.99792E-01 4.90201E-01-3.89947E-07 1.33752E-03 1.42876E-02-1.61502E-05
 -1      2235-8.23158E-01 5.04505E-01-3.58874E-07 1.35769E-03 1.41621E-02-1.61293E-05
 -1      2236-8.46810E-01 5.18954E-01-3.31192E-07 1.37310E-03 1.40366E-02-1.61079E-05
 -1      2237-8.70875E-01 5.33807E-01-2.91316E-07 1.38224E-03 1.39114E-02-1.60861E-05
 -1      2238-8.94978E-01 5.48479E-01-2.25911E-07 1.40444E-03 1.37863E-02-1.60638E-05
 -1      2239-9.19618E-01 5.63687E-01-1.43134E-07 1.42352E-03 1.36614E-02-1.60412E-05
 -1      2240-9.44281E-01 5.78700E-01-6.13517E-08 1.43720E-03 1.35367E-02-1.60183E-05
 -1      2241-9.69308E-01 5.94038E-01 9.91146E-09 1.44888E-03 1.34121E-02-1.59950E-05
 -1      2242-9.94720E-01 6.09710E-01 7.89495E-08 1.46043E-03 1.32877E-02-1.59713E-05
 -1      2243-1.02021E+00 6.25239E-01 1.50748E-07 1.48475E-03 1.31636E-02-1.59472E-05
 -1      2244-1.04615E+00 6.41244E-01 2.11218E-07 1.49281E-03 1.30396E-02-1.59227E-05
 -1      2245-1.07209E+00 6.57011E-01 2.50015E-07 1.51970E-03 1.29158E-02-1.58978E-05
 -1      2246-1.09849E+00 6.73271E-01 2.75166E-07 1.51730E-03 1.27922E-02-1.58723E-05
 -1      2247-1.12512E+00 6.89586E-01 2.93530E-07 1.55243E-03 1.26688E-02-1.58462E-05
 -1      2248-1.15191E+00 7.05953E-01 3.02694E-07 1.54086E-03 1.25456E-02-1.58195E-05
 -1      2249-1.17904E+00 7.22655E-01 3.08710E-07 1.56762E-03 1.24226E-02-1.57922E-05
 -1      2250-1.20645E+00 7.39475E-01 3.20151E-07 1.58714E-03 1.22998E-02-1.57643E-05
 -1      2251-1.23392E+00 7.56226E-01 3.36512E-07 1.59909E-03 1.21773E-02-1.57357E-05
 -1      2252-1.26172E+00 7.73240E-01 3.51096E-07 1.60858E-03 1.20550E-02-1.57066E-05
 -1      2253-1.28992E+00 7.90659E-01 3.54729E-07 1.61604E-03 1.19329E-02-1.56767E-05
 -1      2254-1.31811E+00 8.07818E-01 3.49073E-07 1.64337E-03 1.18110E-02-1.56462E-05
 -1      2255-1.34678E+00 8.25520E-01 3.47653E-07 1.64764E-03 1.16894E-02-1.56150E-05
 -1      2256-1.37535E+00 8.42881E-01 3.34437E-07 1.67134E-03 1.15681E-02-1.55831E-05
 -1      2257-1.40439E+00 8.60697E-01 3.00701E-07 1.67690E-03 1.14469E-02-1.55503E-05
 -1      2258-1.43376E+00 8.78825E-01 2.76540E-07 1.68024E-03 1.13261E-02-1.55168E-05
 -1      2259-1.46302E+00 8.96612E-01 2.65205E-07 1.70556E-03 1.12055E-02-1.54825E-05
 -1      2260-1.49292E+00 9.15162E-01 2.47091E-07 1.71555E-03 1.10852E-02-1.54475E-05
 -1      2261-1.52253E+00 9.33032E-01 2.13413E-07 1.75512E-03 1.09652E-02-1.54116E-05
 -1      2262-1.55264E+00 9.51493E-01 1.67142E-07 1.71928E-03 1.08454E-02-1.53749E-05
 -1      2263-1.58322E+00 9.70517E-01 1.16820E-07 1.74735E-03 1.07260E-02-1.53373E-05
 -1      2264-1.61350E+00 9.88825E-01 6.91055E-08 1.76467E-03 1.06068E-02-1.52988E-05
 -1      2265-1.64445E+00 1.00798E+00 2.76819E-08 1.78322E-03 1.04879E-02-1.52594E-05
 -1      2266-1.67522E+00 1.02669E+00-5.95637E-09 1.79356E-03 1.03694E-02-1.52192E-05
 -1      2267-1.70630E+00 1.04570E+00-3.53286E-08 1.79447E-03 1.02512E-02-1.51781E-05
 -1      2268-1.73789E+00 1.06525E+00-5.63329E-08 1.81232E-03 1.01333E-02-1.51362E-05
 -1      2269-1.76932E+00 1.08439E+00-5.68122E-08 1.81812E-03 1.00157E-02-1.50934E-05
 -1      2270-1.80103E+00 1.10382E+00-4.17568E-08 1.83835E-03 9.89843E-03-1.50499E-05
 -1      2271-1.83312E+00 1.12361E+00-2.22811E-08 1.84406E-03 9.78153E-03-1.50057E-05
 -1      2272-1.86510E+00 1.14306E+00-8.15388E-09 1.87475E-03 9.66497E-03-1.49608E-05
 -1      2273-1.89740E+00 1.16281E+00-7.17106E-09 1.85570E-03 9.54876E-03-1.49152E-05
 -1      2274-1.93021E+00 1.18322E+00-4.58187E-09 1.87430E-03 9.43292E-03-1.48687E-05
 -1      2275-1.96257E+00 1.20272E+00 8.63890E-09 1.90603E-03 9.31743E-03-1.48215E-05
 -1      2276-1.99568E+00 1.22319E+00 2.54693E-08 1.89487E-03 9.20232E-03-1.47735E-05
 -1      2277-2.02871E+00 1.24342E+00 4.19870E-08 1.91270E-03 9.08758E-03-1.47248E-05
 -1      2278-2.06177E+00 1.26353E+00 6.07099E-08 1.91418E-03 8.97323E-03-1.46753E-05
 -1      2279-2.09553E+00 1.28449E+00 8.17427E-08 1.93176E-03 8.85926E-03-1.46251E-05
 -1      2280-2.12891E+00 1.30473E+00 9.03186E-08 1.93261E-03 8.74569E-03-1.45741E-05
 -1      2281-2.16287E+00 1.32575E+00 8.79155E-08 1.96104E-03 8.63252E-03-1.45223E-05
 -1      2282-2.19657E+00 1.34618E+00 8.04244E-08 1.96460E-03 8.51975E-03-1.44697E-05
 -1      2283-2.23075E+00 1.36714E+00 6.56081E-08 1.97504E-03 8.40740E-03-1.44162E-05
 -1      2284-2.26526E+00 1.38851E+00 5.62197E-08 1.95998E-03 8.29547E-03-1.43618E-05
 -1      2285-2.29941E+00 1.40921E+00 5.40045E-08 1.99604E-03 8.18396E-03-1.43066E-05
 -1      2286-2.33428E+00 1.43087E+00 5.30323E-08 2.00710E-03 8.07289E-03-1.42507E-05
 -1      2287-2.36886E+00 1.45170E+00 5.90776E-08 2.01856E-03 7.96225E-03-1.41942E-05
 -1      2288-2.40384E+00 1.47335E+00 7.08873E-08 2.00833E-03 7.85207E-03-1.41367E-05
 -1      2289-2.43897E+00 1.49486E+00 7.66402E-08 2.04012E-03 7.74233E-03-1.40782E-05
 -1      2290-2.47407E+00 1.51624E+00 7.56102E-08 2.02211E-03 7.63306E-03-1.40188E-05
 -1      2291-2.50965E+00 1.53826E+00 7.92594E-08 2.03354E-03 7.52425E-03-1.39585E-05
 -1      2292-2.54519E+00 1.56004E+00 8.88193E-08 2.05603E-03 7.41591E-03-1.38975E-05
 -1      2293-2.58063E+00 1.58158E+00 9.75406E-08 2.07247E-03 7.30805E-03-1.38356E-05
 -1      2294-2.61649E+00 1.60353E+00 1.01715E-07 2.06555E-03 7.20068E-03-1.37728E-05
 -1      2295-2.65277E+00 1.62606E+00 1.04353E-07 2.05985E-03 7.09380E-03-1.37092E-05
 -1      2296-2.68849E+00 1.64765E+00 1.10648E-07 2.08440E-03 6.98741E-03-1.36447E-05
 -1      2297-2.72513E+00 1.67041E+00 1.10113E-07 2.10509E-03 6.88154E-03-1.35794E-05
 -1      2298-2.76119E+00 1.69222E+00 9.46260E-08 2.10299E-03 6.77617E-03-1.35132E-05
 -1      2299-2.79767E+00 1.71458E+00 6.55754E-08 2.10752E-03 6.67133E-03-1.34460E-05
 -1      2300-2.83458E+00 1.73745E+00 2.91976E-08 2.09429E-03 6.56701E-03-1.33778E-05
 -1      2301-2.87128E+00 1.75984E+00 3.95687E-09 2.13805E-03 6.46322E-03-1.33086E-05
 -1      2302-2.90826E+00 1.78256E+00-5.87095E-09 2.14486E-03 6.35998E-03-1.32385E-05
 -1      2303-2.94488E+00 1.80467E+00-1.25902E-08 2.13888E-03 6.25729E-03-1.31674E-05
 -1      2304-2.98237E+00 1.82794E+00-1.92383E-08 2.13320E-03 6.15515E-03-1.30954E-05
 -1      2305-3.01976E+00 1.85091E+00-2.44934E-08 2.13617E-03 6.05358E-03-1.30225E-05
 -1      2306-3.05696E+00 1.87359E+00-2.95773E-08 2.15949E-03 5.95258E-03-1.29487E-05
 -1      2307-3.09446E+00 1.89656E+00-3.25358E-08 2.16294E-03 5.85215E-03-1.28739E-05
 -1      2308-3.13235E+00 1.91998E+00-3.06728E-08 2.18033E-03 5.75231E-03-1.27983E-05
 -1      2309-3.16978E+00 1.94266E+00-2.16355E-08 2.18839E-03 5.65306E-03-1.27217E-05
 -1      2310-3.20758E+00 1.96579E+00-6.52251E-09 2.17799E-03 5.55441E-03-1.26443E-05
 -1      2311-3.24588E+00 1.98959E+00 8.32855E-09 2.17187E-03 5.45637E-03-1.25660E-05
 -1      2312-3.28371E+00 2.01248E+00 1.57279E-08 2.20946E-03 5.35894E-03-1.24868E-05
 -1      2313-3.32222E+00 2.03641E+00 1.51203E-08 2.19612E-03 5.26212E-03-1.24067E-05
 -1      2314-3.35999E+00 2.05913E+00 7.83224E-09 2.22597E-03 5.16594E-03-1.23256E-05
 -1      2315-3.39869E+00 2.08312E+00-6.37094E-10 2.21386E-03 5.07039E-03-1.22436E-05
 -1      2316-3.43723E+00 2.10673E+00-6.75117E-09 2.22532E-03 4.97548E-03-1.21607E-05
 -1      2317-3.47545E+00 2.12987E+00-1.32870E-08 2.21317E-03 4.88122E-03-1.20768E-05
 -1      2318-3.51474E+00 2.15455E+00-1.82359E-08 2.21738E-03 4.78762E-03-1.19919E-05
 -1      2319-3.55298E+00 2.17744E+00-1.94099E-08 2.27304E-03 4.69468E-03-1.19061E-05
 -1      2320-3.59195E+00 2.20140E+00-1.88312E-08 2.21840E-03 4.60241E-03-1.18193E-05
 -1      2321-3.63113E+00 2.22570E+00-2.06555E-08 2.23147E-03 4.51082E-03-1.17316E-05
 -1      2322-3.66996E+00 2.24922E+00-2.50160E-08 2.26941E-03 4.41991E-03-1.16429E-05
 -1      2323-3.70944E+00 2.27373E+00-2.68477E-08 2.24300E-03 4.32970E-03-1.15533E-05
 -1      2324-3.74822E+00 2.29716E+00-2.71021E-08 2.29287E-03 4.24019E-03-1.14627E-05
 -1      2325-3.78750E+00 2.32121E+00-2.91746E-08 2.24716E-03 4.15139E-03-1.13712E-05
 -1      2326-3.82734E+00 2.34597E+00-2.83998E-08 2.27037E-03 4.06330E-03-1.12787E-05
 -1      2327-3.86657E+00 2.36983E+00-2.48875E-08 2.26275E-03 3.97594E-03-1.11852E-05
 -1      2328-3.90597E+00 2.39385E+00-2.80321E-08 2.29265E-03 3.88930E-03-1.10908E-05
 -1      2329-3.94611E+00 2.41898E+00-3.86924E-08 2.27060E-03 3.80341E-03-1.09954E-05
 -1      2330-3.98516E+00 2.44221E+00-4.69510E-08 2.37019E-03 3.71826E-03-1.08991E-05
 -1      2331-4.02494E+00 2.46659E+00-4.94693E-08 2.23652E-03 3.63386E-03-1.08017E-05
 -1      2332-4.06538E+00 2.49208E+00-4.76313E-08 2.27459E-03 3.55022E-03-1.07034E-05
 -1      2333-4.10483E+00 2.51568E+00-4.12662E-08 2.31973E-03 3.46735E-03-1.06041E-05
 -1      2334-4.14525E+00 2.54089E+00-3.11930E-08 2.29035E-03 3.38526E-03-1.05039E-05
 -1      2335-4.18479E+00 2.56469E+00-2.03364E-08 2.34525E-03 3.30395E-03-1.04027E-05
 -1      2336-4.22489E+00 2.58926E+00-1.26572E-08 2.28929E-03 3.22343E-03-1.03006E-05
 -1      2337-4.26559E+00 2.61463E+00-1.00508E-08 2.31582E-03 3.14371E-03-1.01975E-05
 -1      2338-4.30544E+00 2.63870E+00-1.18280E-08 2.30737E-03 3.06480E-03-1.00935E-05
 -1      2339-4.34601E+00 2.66390E+00-1.21089E-08 2.32808E-03 2.98669E-03-9.98849E-06
 -1      2340-4.38604E+00 2.68805E+00-9.34794E-09 2.36490E-03 2.90941E-03-9.88250E-06
 -1      2341-4.42649E+00 2.71284E+00-9.68785E-09 2.30271E-03 2.83296E-03-9.77554E-06
 -1      2342-4.46727E+00 2.73819E+00-1.13001E-08 2.32141E-03 2.75734E-03-9.66757E-06
 -1      2343-4.50763E+00 2.76279E+00-1.04413E-08 2.33057E-03 2.68256E-03-9.55863E-06
 -1      2344-4.54838E+00 2.78782E+00-1.14004E-08 2.39704E-03 2.60864E-03-9.44872E-06
 -1      2345-4.58850E+00 2.81193E+00-1.55136E-08 2.32820E-03 2.53557E-03-9.33781E-06
 -1      2346-4.62951E+00 2.83750E+00-2.09042E-08 2.32222E-03 2.46338E-03-9.22588E-06
 -1      2347-4.67041E+00 2.86267E+00-2.76621E-08 2.33050E-03 2.39205E-03-9.11295E-06
 -1      2348-4.71102E+00 2.88735E+00-3.49723E-08 2.36458E-03 2.32161E-03-8.99901E-06
 -1      2349-4.75187E+00 2.91241E+00-3.91002E-08 2.34137E-03 2.25206E-03-8.88407E-06
 -1      2350-4.79289E+00 2.93777E+00-3.93424E-08 2.35341E-03 2.18340E-03-8.76812E-06
 -1      2351-4.83351E+00 2.96232E+00-3.80206E-08 2.40763E-03 2.11565E-03-8.65119E-06
 -1      2352-4.87442E+00 2.98733E+00-3.40809E-08 2.32383E-03 2.04882E-03-8.53328E-06
 -1      2353-4.91587E+00 3.01324E+00-2.71097E-08 2.35601E-03 1.98290E-03-8.41437E-06
 -1      2354-4.95641E+00 3.03761E+00-1.96826E-08 2.35705E-03 1.91792E-03-8.29451E-06
 -1      2355-4.99807E+00 3.06363E+00-1.38528E-08 2.38843E-03 1.85387E-03-8.17366E-06
 -1      2356-5.03862E+00 3.08797E+00-9.38470E-09 2.37997E-03 1.79076E-03-8.05184E-06
 -1      2357-5.07982E+00 3.11340E+00-4.85589E-09 2.35714E-03 1.72861E-03-7.92904E-06
 -1      2358-5.12137E+00 3.13905E+00 1.08458E-09 2.41182E-03 1.66741E-03-7.80525E-06
 -1      2359-5.16203E+00 3.16344E+00 8.07038E-09 2.33118E-03 1.60718E-03-7.68048E-06
 -1      2360-5.20411E+00 3.19016E+00 1.60562E-08 2.37360E-03 1.54792E-03-7.55473E-06
 -1      2361-5.24455E+00 3.21412E+00 2.51612E-08 2.40550E-03 1.48965E-03-7.42802E-06
 -1      2362-5.28600E+00 3.23960E+00 3.43232E-08 2.38278E-03 1.43237E-03-7.30033E-06
 -1      2363-5.32788E+00 3.26579E+00 4.16124E-08 2.33778E-03 1.37608E-03-7.17165E-06
 -1      2364-5.36865E+00 3.29027E+00 4.48527E-08 2.40231E-03 1.32080E-03-7.04200E-06
 -1      2365-5.41055E+00 3.31647E+00 4.43113E-08 2.37114E-03 1.26653E-03-6.91134E-06
 -1      2366-5.45146E+00 3.34096E+00 4.21982E-08 2.44525E-03 1.21328E-03-6.77968E-06
 -1      2367-5.49295E+00 3.36648E+00 3.99126E-08 2.34572E-03 1.16106E-03-6.64701E-06
 -1      2368-5.53473E+00 3.39248E+00 3.78736E-08 2.37164E-03 1.10988E-03-6.51331E-06
 -1      2369-5.57606E+00 3.41757E+00 3.59271E-08 2.40865E-03 1.05974E-03-6.37861E-06
 -1      2370-5.61745E+00 3.44281E+00 3.40532E-08 2.37534E-03 1.01065E-03-6.24289E-06
 -1      2371-5.65958E+00 3.46931E+00 3.18701E-08 2.39612E-03 9.62619E-04-6.10616E-06
 -1      2372-5.70012E+00 3.49320E+00 2.81999E-08 2.47360E-03 9.15658E-04-5.96842E-06
 -1      2373-5.74178E+00 3.51870E+00 2.36940E-08 2.36289E-03 8.69772E-04-5.82966E-06
 -1      2374-5.78438E+00 3.54588E+00 1.89690E-08 2.33299E-03 8.24970E-04-5.68986E-06
 -1      2375-5.82494E+00 3.56982E+00 1.42886E-08 2.40941E-03 7.81260E-04-5.54904E-06
 -1      2376-5.86740E+00 3.59655E+00 1.08350E-08 2.41465E-03 7.38649E-04-5.40720E-06
 -1      2377-5.90832E+00 3.62095E+00 8.96470E-09 2.41422E-03 6.97145E-04-5.26435E-06
 -1      2378-5.94989E+00 3.64648E+00 7.71074E-09 2.39338E-03 6.56756E-04-5.12048E-06
 -1      2379-5.99217E+00 3.67294E+00 6.45713E-09 2.36278E-03 6.17491E-04-4.97559E-06
 -1      2380-6.03333E+00 3.69766E+00 5.15204E-09 2.42320E-03 5.79356E-04-4.82969E-06
 -1      2381-6.07560E+00 3.72409E+00 3.94062E-09 2.38686E-03 5.42360E-04-4.68277E-06
 -1      2382-6.11658E+00 3.74865E+00 3.15913E-09 2.44243E-03 5.06511E-04-4.53484E-06
 -1      2383-6.15814E+00 3.77399E+00 2.90765E-09 2.38584E-03 4.71816E-04-4.38590E-06
 -1      2384-6.20095E+00 3.80123E+00 2.93613E-09 2.37483E-03 4.38284E-04-4.23594E-06
 -1      2385-6.24162E+00 3.82511E+00 2.69907E-09 2.46417E-03 4.05922E-04-4.08498E-06
 -1      2386-6.28369E+00 3.85135E+00 2.27917E-09 2.35043E-03 3.74738E-04-3.93299E-06
 -1      2387-6.32552E+00 3.87703E+00 1.95357E-09 2.45878E-03 3.44740E-04-3.78000E-06
 -1      2388-6.36682E+00 3.90189E+00 1.79733E-09 2.35861E-03 3.15937E-04-3.62599E-06
 -1      2389-6.40921E+00 3.92856E+00 1.97400E-09 2.39959E-03 2.88335E-04-3.47097E-06
 -1      2390-6.45049E+00 3.95345E+00 2.20136E-09 2.38331E-03 2.61943E-04-3.31493E-06
 -1      2391-6.49236E+00 3.97911E+00 2.29183E-09 2.44602E-03 2.36769E-04-3.15788E-06
 -1      2392-6.53452E+00 4.00539E+00 2.56036E-09 2.35676E-03 2.12820E-04-2.99982E-06
 -1      2393-6.57561E+00 4.02995E+00 3.03546E-09 2.49347E-03 1.90104E-04-2.84075E-06
 -1      2394-6.61723E+00 4.05544E+00 3.48689E-09 2.33654E-03 1.68630E-04-2.68067E-06
 -1      2395-6.65997E+00 4.08228E+00 3.82436E-09 2.44478E-03 1.48404E-04-2.51957E-06
 -1      2396-6.70096E+00 4.10691E+00 4.10790E-09 2.33118E-03 1.29436E-04-2.35746E-06
 -1      2397-6.74325E+00 4.13314E+00 4.37342E-09 2.48969E-03 1.11733E-04-2.19434E-06
 -1      2398-6.78466E+00 4.15848E+00 4.56792E-09 2.35658E-03 9.53019E-05-2.03021E-06
 -1      2399-6.82624E+00 4.18322E+00 4.74061E-09 2.56459E-03 8.01518E-05-1.86506E-06
 -1      2400-6.86815E+00 4.20973E+00 5.08157E-09 2.17345E-03 6.62902E-05-1.69890E-06
 -1      2401-6.91043E+00 4.23540E+00 5.55185E-09 2.60281E-03 5.37248E-05-1.53173E-06
 -1      2402-6.95175E+00 4.26117E+00 6.13009E-09 2.15047E-03 4.24639E-05-1.36354E-06
 -1      2403-6.99421E+00 4.28655E+00 6.79327E-09 2.79086E-03 3.25150E-05-1.19434E-06
 -1      2404-7.03345E+00 4.30990E+00 7.48412E-09 1.94871E-03 2.38862E-05-1.02414E-06
 -1      2405-7.08132E+00 4.34338E+00 8.19360E-09 2.85225E-03 1.65852E-05-8.52914E-07
 -1      2406-7.10793E+00 4.34524E+00 8.88295E-09 2.21484E-03 1.06201E-05-6.80683E-07
 -1      2407-7.19782E+00 4.45334E+00 9.58067E-09 1.13228E-03 5.99826E-06-5.07423E-07
 -1      2408-7.07079E+00 4.18000E+00 1.01010E-08 9.58394E-03 2.72831E-06-3.33230E-07
 -1      2409-7.72152E+00 5.29630E+00 1.19750E-08-2.69275E-02 8.17524E-07-1.57729E-07
 -1      2410-5.01693E+00 9.73937E-01 1.36922E-08 1.07441E-01 2.01874E-07-6.95239E-08
 -3
    1PSTEP                         4           1           1          
    1PGM                1.000000E+00                                  
    1PGK                6.946942E+03                                  
    1PHID                         -1                                  
    1PSUBC                         0                                  
    1PMODE                         1                                  
  100CL  101 13.26529687        2410                     2    1MODAL      1
 -4  ERROR       1    1
 -5  STR(%)      1    1    0    0
 -1         1 1.75172E-01
 -1         2 5.64687E-01
 -1         3 1.03138E+00
 -1         4 1.54873E+00
 -1         5 2.11644E+00
 -1         6 2.73512E+00
 -1         7 3.36176E+00
 -1         8 8.19449E+00
 -1         9 2.67182E+01
 -1        10 2.69895E+01
 -1        11 2.70465E+01
 -1        12 2.70465E+01
 -1        13 2.70536E+01
 -1        14 2.70536E+01
 -1        15 2.70229E+01
 -1        16 2.70334E+01
 -1        17 2.70334E+01
 -1        18 2.70442E+01
 -1        19 2.70442E+01
 -1        20 2.70269E+01
 -1        21 2.70269E+01
 -1        22 2.70156E+01
 -1        23 2.70233E+01
 -1        24 2.70233E+01
 -1        25 2.70237E+01
 -1        26 2.70237E+01
 -1        27 2.70175E+01
 -1        28 2.70175E+01
 -1        29 2.70192E+01
 -1        30 2.70192E+01
 -1        31 2.70136E+01
 -1        32 2.70136E+01
 -1        33 2.70120E+01
 -1        34 2.70153E+01
 -1        35 2.70153E+01
 -1        36 2.70110E+01
 -1        37 2.70180E+01
 -1        38 2.70180E+01
 -1        39 2.70267E+01
 -1        40 2.70267E+01
 -1        41 2.70206E+01
 -1        42 2.70206E+01
 -1        43 2.70179E+01
 -1        44 2.70179E+01
 -1        45 2.70189E+01
 -1        46 2.70189E+01
 -1        47 2.70109E+01
 -1        48 2.70156E+01
 -1        49 2.70156E+01
 -1        50 2.70226E+01
 -1        51 2.70226E+01
 -1        52 2.70087E+01
 -1        53 2.70192E+01
 -1        54 2.70192E+01
 -1        55 2.70268E+01
 -1        56 2.70268E+01
 -1        57 2.70225E+01
 -1        58 2.70225E+01
 -1        59 2.70209E+01
 -1        60 2.70209E+01
 -1        61 2.70208E+01
 -1        62 2.70208E+01
 -1        63 2.70076E+01
 -1        64 2.70206E+01
 -1        65 2.70206E+01
 -1        66 2.70217E+01
 -1        67 2.70217E+01
 -1        68 2.70125E+01
 -1        69 2.70144E+01
 -1        70 2.70144E+01
 -1        71 2.70219E+01
 -1        72 2.70219E+01
 -1        73 2.70158E+01
 -1        74 2.70158E+01
 -1        75 2.70099E+01
 -1        76 2.70184E+01
 -1        77 2.70184E+01
 -1        78 2.70209E+01
 -1        79 2.70209E+01
 -1        80 2.70191E+01
 -1        81 2.70191E+01
 -1        82 2.70228E+01
 -1        83 2.70228E+01
 -1        84 2.70149E+01
 -1        85 2.70149E+01
 -1        86 2.70114E+01
 -1        87 2.70199E+01
 -1        88 2.70199E+01
 -1        89 2.70161E+01
 -1        90 2.70161E+01
 -1        91 2.70087E+01
 -1        92 2.70183E+01
 -1        93 2.70183E+01
 -1        94 2.70083E+01
 -1        95 2.70172E+01
 -1        96 2.70172E+01
 -1        97 2.70208E+01
 -1        98 2.70208E+01
 -1        99 2.70131E+01
 -1       100 2.70131E+01
 -1       101 2.70113E+01
 -1       102 2.70113E+01
 -1       103 2.70141E+01
 -1       104 2.70141E+01
 -1       105 2.70118E+01
 -1       106 2.70219E+01
 -1       107 2.70219E+01
 -1       108 2.70206E+01
 -1       109 2.70206E+01
 -1       110 2.70112E+01
 -1       111 2.70141E+01
 -1       112 2.70141E+01
 -1       113 2.70190E+01
 -1       114 2.70190E+01
 -1       115 2.70102E+01
 -1       116 2.70167E+01
 -1       117 2.70167E+01
 -1       118 2.70269E+01
 -1       119 2.70269E+01
 -1       120 2.70288E+01
 -1       121 2.70288E+01
 -1       122 2.70239E+01
 -1       123 2.70239E+01
 -1       124 2.70253E+01
 -1       125 2.70253E+01
 -1       126 2.70152E+01
 -1       127 2.70152E+01
 -1       128 2.70115E+01
 -1       129 2.70192E+01
 -1       130 2.70192E+01
 -1       131 2.70133E+01
 -1       132 2.70133E+01
 -1       133 2.70100E+01
 -1       134 2.70195E+01
 -1       135 2.70195E+01
 -1       136 2.70212E+01
 -1       137 2.70212E+01
 -1       138 2.70224E+01
 -1       139 2.70224E+01
 -1       140 2.70255E+01
 -1       141 2.70255E+01
 -1       142 2.70169E+01
 -1       143 2.70169E+01
 -1       144 2.70091E+01
 -1       145 2.70189E+01
 -1       146 2.70189E+01
 -1       147 2.70199E+01
 -1       148 2.70199E+01
 -1       149 2.70096E+01
 -1       150 2.70159E+01
 -1       151 2.70159E+01
 -1       152 2.70124E+01
 -1       153 2.70124E+01
 -1       154 2.70112E+01
 -1       155 2.70159E+01
 -1       156 2.70159E+01
 -1       157 2.70115E+01
 -1       158 2.70115E+01
 -1       159 2.70137E+01
 -1       160 2.70137E+01
 -1       161 2.70237E+01
 -1       162 2.70237E+01
 -1       163 2.70147E+01
 -1       164 2.70147E+01
 -1       165 2.70099E+01
 -1       166 2.70153E+01
 -1       167 2.70153E+01
 -1       168 2.70107E+01
 -1       169 2.70123E+01
 -1       170 2.70123E+01
 -1       171 2.70150E+01
 -1       172 2.70150E+01
 -1       173 2.70103E+01
 -1       174 2.70148E+01
 -1       175 2.70148E+01
 -1       176 2.70219E+01
 -1       177 2.70219E+01
 -1       178 2.70203E+01
 -1       179 2.70203E+01
 -1       180 2.70178E+01
 -1       181 2.70178E+01
 -1       182 2.70187E+01
 -1       183 2.70187E+01
 -1       184 2.70106E+01
 -1       185 2.70141E+01
 -1       186 2.70141E+01
 -1       187 2.70185E+01
 -1       188 2.70185E+01
 -1       189 2.70139E+01
 -1       190 2.70139E+01
 -1       191 2.70135E+01
 -1       192 2.70229E+01
 -1       193 2.70229E+01
 -1       194 2.70161E+01
 -1       195 2.70161E+01
 -1       196 2.70093E+01
 -1       197 2.70183E+01
 -1       198 2.70183E+01
 -1       199 2.70174E+01
 -1       200 2.70174E+01
 -1       201 2.70201E+01
 -1       202 2.70201E+01
 -1       203 2.70276E+01
 -1       204 2.70276E+01
 -1       205 2.70139E+01
 -1       206 2.70139E+01
 -1       207 2.70130E+01
 -1       208 2.70220E+01
 -1       209 2.70220E+01
 -1       210 2.70178E+01
 -1       211 2.70178E+01
 -1       212 2.70124E+01
 -1       213 2.70124E+01
 -1       214 2.70136E+01
 -1       215 2.70136E+01
 -1       216 2.70225E+01
 -1       217 2.70225E+01
 -1       218 2.70216E+01
 -1       219 2.70216E+01
 -1       220 2.70157E+01
 -1       221 2.70157E+01
 -1       222 2.70174E+01
 -1       223 2.70174E+01
 -1       224 2.70251E+01
 -1       225 2.70251E+01
 -1       226 2.70259E+01
 -1       227 2.70259E+01
 -1       228 2.70337E+01
 -1       229 2.70337E+01
 -1       230 2.70574E+01
 -1       231 2.70574E+01
 -1       232 2.70876E+01
 -1       233 2.70876E+01
 -1       234 2.71365E+01
 -1       235 2.71365E+01
 -1       236 2.71783E+01
 -1       237 2.71783E+01
 -1       238 2.69037E+01
 -1       239 2.81783E+01
 -1       240 2.81783E+01
 -1       241 2.17299E+01
 -1       242 1.75172E-01
 -1       243 5.64687E-01
 -1       244 1.03138E+00
 -1       245 1.54873E+00
 -1       246 2.11644E+00
 -1       247 2.73512E+00
 -1       248 3.36176E+00
 -1       249 8.19449E+00
 -1       250 2.67182E+01
 -1       251 2.69895E+01
 -1       252 2.70465E+01
 -1       253 2.70465E+01
 -1       254 2.70536E+01
 -1       255 2.70536E+01
 -1       256 2.70229E+01
 -1       257 2.70334E+01
 -1       258 2.70334E+01
 -1       259 2.70442E+01
 -1       260 2.70442E+01
 -1       261 2.70269E+01
 -1       262 2.70269E+01
 -1       263 2.70156E+01
 -1       264 2.70233E+01
 -1       265 2.70233E+01
 -1       266 2.70237E+01
 -1       267 2.70237E+01
 -1       268 2.70175E+01
 -1       269 2.70175E+01
 -1       270 2.70192E+01
 -1       271 2.70192E+01
 -1       272 2.70136E+01
 -1       273 2.70136E+01
 -1       274 2.70120E+01
 -1       275 2.70153E+01
 -1       276 2.70153E+01
 -1       277 2.70110E+01
 -1       278 2.70180E+01
 -1       279 2.70180E+01
 -1       280 2.70267E+01
 -1       281 2.70267E+01
 -1       282 2.70206E+01
 -1       283 2.70206E+01
 -1       284 2.70179E+01
 -1       285 2.70179E+01
 -1       286 2.70189E+01
 -1       287 2.70189E+01
 -1       288 2.70109E+01
 -1       289 2.70156E+01
 -1       290 2.70156E+01
 -1       291 2.70226E+01
 -1       292 2.70226E+01
 -1       293 2.70087E+01
 -1       294 2.70192E+01
 -1       295 2.70192E+01
 -1       296 2.70268E+01
 -1       297 2.70268E+01
 -1       298 2.70225E+01
 -1       299 2.70225E+01
 -1       300 2.70209E+01
 -1       301 2.70209E+01
 -1       302 2.70208E+01
 -1       303 2.70208E+01
 -1       304 2.70076E+01
 -1       305 2.70206E+01
 -1       306 2.70206E+01
 -1       307 2.70217E+01
 -1       308 2.70217E+01
 -1       309 2.70125E+01
 -1       310 2.70144E+01
 -1       311 2.70144E+01
 -1       312 2.70219E+01
 -1       313 2.70219E+01
 -1       314 2.70158E+01
 -1       315 2.70158E+01
 -1       316 2.70099E+01
 -1       317 2.70184E+01
 -1       318 2.70184E+01
 -1       319 2.70209E+01
 -1       320 2.70209E+01
 -1       321 2.70191E+01
 -1       322 2.70191E+01
 -1       323 2.70228E+01
 -1       324 2.70228E+01
 -1       325 2.70149E+01
 -1       326 2.70149E+01
 -1       327 2.70114E+01
 -1       328 2.70199E+01
 -1       329 2.70199E+01
 -1       330 2.70161E+01
 -1       331 2.70161E+01
 -1       332 2.70087E+01
 -1       333 2.70183E+01
 -1       334 2.70183E+01
 -1       335 2.70083E+01
 -1       336 2.70172E+01
 -1       337 2.70172E+01
 -1       338 2.70208E+01
 -1       339 2.70208E+01
 -1       340 2.70131E+01
 -1       341 2.70131E+01
 -1       342 2.70113E+01
 -1       343 2.70113E+01
 -1       344 2.70141E+01
 -1       345 2.70141E+01
 -1       346 2.70118E+01
 -1       347 2.70219E+01
 -1       348 2.70219E+01
 -1       349 2.70206E+01
 -1       350 2.70206E+01
 -1       351 2.70112E+01
 -1       352 2.70141E+01
 -1       353 2.70141E+01
 -1       354 2.70190E+01
 -1       355 2.70190E+01
 -1       356 2.70102E+01
 -1       357 2.70167E+01
 -1       358 2.70167E+01
 -1       359 2.70269E+01
 -1       360 2.70269E+01
 -1       361 2.70288E+01
 -1       362 2.70288E+01
 -1       363 2.70239E+01
 -1       364 2.70239E+01
 -1       365 2.70253E+01
 -1       366 2.70253E+01
 -1       367 2.70152E+01
 -1       368 2.70152E+01
 -1       369 2.70115E+01
 -1       370 2.70192E+01
 -1       371 2.70192E+01
 -1       372 2.70133E+01
 -1       373 2.70133E+01
 -1       374 2.70100E+01
 -1       375 2.70195E+01
 -1       376 2.70195E+01
 -1       377 2.70212E+01
 -1       378 2.70212E+01
 -1       379 2.70224E+01
 -1       380 2.70224E+01
 -1       381 2.70255E+01
 -1       382 2.70255E+01
 -1       383 2.70169E+01
 -1       384 2.70169E+01
 -1       385 2.70091E+01
 -1       386 2.70189E+01
 -1       387 2.70189E+01
 -1       388 2.70199E+01
 -1       389 2.70199E+01
 -1       390 2.70096E+01
 -1       391 2.70159E+01
 -1       392 2.70159E+01
 -1       393 2.70124E+01
 -1       394 2.70124E+01
 -1       395 2.70112E+01
 -1       396 2.70159E+01
 -1       397 2.70159E+01
 -1       398 2.70115E+01
 -1       399 2.70115E+01
 -1       400 2.70137E+01
 -1       401 2.70137E+01
 -1       402 2.70237E+01
 -1       403 2.70237E+01
 -1       404 2.70147E+01
 -1       405 2.70147E+01
 -1       406 2.70099E+01
 -1       407 2.70153E+01
 -1       408 2.70153E+01
 -1       409 2.70107E+01
 -1       410 2.70123E+01
 -1       411 2.70123E+01
 -1       412 2.70150E+01
 -1       413 2.70150E+01
 -1       414 2.70103E+01
 -1       415 2.70148E+01
 -1       416 2.70148E+01
 -1       417 2.70219E+01
 -1       418 2.70219E+01
 -1       419 2.70203E+01
 -1       420 2.70203E+01
 -1       421 2.70178E+01
 -1       422 2.70178E+01
 -1       423 2.70187E+01
 -1       424 2.70187E+01
 -1       425 2.70106E+01
 -1       426 2.70141E+01
 -1       427 2.70141E+01
 -1       428 2.70185E+01
 -1       429 2.70185E+01
 -1       430 2.70139E+01
 -1       431 2.70139E+01
 -1       432 2.70135E+01
 -1       433 2.70229E+01
 -1       434 2.70229E+01
 -1       435 2.70161E+01
 -1       436 2.70161E+01
 -1       437 2.70093E+01
 -1       438 2.70183E+01
 -1       439 2.70183E+01
 -1       440 2.70174E+01
 -1       441 2.70174E+01
 -1       442 2.70201E+01
 -1       443 2.70201E+01
 -1       444 2.70276E+01
 -1       445 2.70276E+01
 -1       446 2.70139E+01
 -1       447 2.70139E+01
 -1       448 2.70130E+01
 -1       449 2.70220E+01
 -1       450 2.70220E+01
 -1       451 2.70178E+01
 -1       452 2.70178E+01
 -1       453 2.70124E+01
 -1       454 2.70124E+01
 -1       455 2.70136E+01
 -1       456 2.70136E+01
 -1       457 2.70225E+01
 -1       458 2.70225E+01
 -1       459 2.70216E+01
 -1       460 2.70216E+01
 -1       461 2.70157E+01
 -1       462 2.70157E+01
 -1       463 2.70174E+01
 -1       464 2.70174E+01
 -1       465 2.70251E+01
 -1       466 2.70251E+01
 -1       467 2.70259E+01
 -1       468 2.70259E+01
 -1       469 2.70337E+01
 -1       470 2.70337E+01
 -1       471 2.70574E+01
 -1       472 2.70574E+01
 -1       473 2.70876E+01
 -1       474 2.70876E+01
 -1       475 2.71365E+01
 -1       476 2.71365E+01
 -1       477 2.71783E+01
 -1       478 2.71783E+01
 -1       479 2.69037E+01
 -1       480 2.81783E+01
 -1       481 2.81783E+01
 -1       482 2.17299E+01
 -1       483 1.75172E-01
 -1       484 5.64687E-01
 -1       485 1.03138E+00
 -1       486 1.54873E+00
 -1       487 2.11644E+00
 -1       488 2.73512E+00
 -1       489 3.36176E+00
 -1       490 8.19449E+00
 -1       491 2.67182E+01
 -1       492 2.69895E+01
 -1       493 2.70465E+01
 -1       494 2.70465E+01
 -1       495 3.77180E+01
 -1       496 4.89259E+01
 -1       497 5.79884E+01
 -1       498 6.47418E+01
 -1       499 7.08650E+01
 -1       500 7.55493E+01
 -1       501 7.93090E+01
 -1       502 8.21534E+01
 -1       503 8.31185E+01
 -1       504 8.37281E+01
 -1       505 8.37348E+01
 -1       506 8.38850E+01
 -1       507 8.39167E+01
 -1       508 8.39340E+01
 -1       509 8.39966E+01
 -1       510 8.39966E+01
 -1       511 8.39938E+01
 -1       512 8.40134E+01
 -1       513 8.40528E+01
 -1       514 8.40528E+01
 -1       515 8.40509E+01
 -1       516 8.40509E+01
 -1       517 8.40535E+01
 -1       518 8.40631E+01
 -1       519 8.40631E+01
 -1       520 8.41195E+01
 -1       521 8.41195E+01
 -1       522 8.41044E+01
 -1       523 8.41044E+01
 -1       524 8.41077E+01
 -1       525 8.41077E+01
 -1       526 8.40859E+01
 -1       527 8.40859E+01
 -1       528 8.40787E+01
 -1       529 8.40947E+01
 -1       530 8.40947E+01
 -1       531 8.41442E+01
 -1       532 8.41442E+01
 -1       533 8.40983E+01
 -1       534 8.41115E+01
 -1       535 8.41115E+01
 -1       536 8.41281E+01
 -1       537 8.41281E+01
 -1       538 8.41483E+01
 -1       539 8.41483E+01
 -1       540 8.41157E+01
 -1       541 8.41157E+01
 -1       542 8.41495E+01
 -1       543 8.41495E+01
 -1       544 8.41006E+01
 -1       545 8.41253E+01
 -1       546 8.41253E+01
 -1       547 8.41387E+01
 -1       548 8.41387E+01
 -1       549 8.41540E+01
 -1       550 8.41540E+01
 -1       551 8.40792E+01
 -1       552 8.41550E+01
 -1       553 8.41550E+01
 -1       554 8.41377E+01
 -1       555 8.41377E+01
 -1       556 8.41286E+01
 -1       557 8.41286E+01
 -1       558 8.41021E+01
 -1       559 8.41036E+01
 -1       560 8.41220E+01
 -1       561 8.41220E+01
 -1       562 8.40982E+01
 -1       563 8.41597E+01
 -1       564 8.41597E+01
 -1       565 8.41419E+01
 -1       566 8.41419E+01
 -1       567 8.41285E+01
 -1       568 8.41285E+01
 -1       569 8.41158E+01
 -1       570 8.41596E+01
 -1       571 8.41596E+01
 -1       572 8.41135E+01
 -1       573 8.41135E+01
 -1       574 8.41074E+01
 -1       575 8.41075E+01
 -1       576 8.41149E+01
 -1       577 8.41149E+01
 -1       578 8.41613E+01
 -1       579 8.41613E+01
 -1       580 8.41155E+01
 -1       581 8.41298E+01
 -1       582 8.41298E+01
 -1       583 8.41136E+01
 -1       584 8.41136E+01
 -1       585 8.41074E+01
 -1       586 8.41074E+01
 -1       587 8.41195E+01
 -1       588 8.41195E+01
 -1       589 8.41639E+01
 -1       590 8.41639E+01
 -1       591 8.41145E+01
 -1       592 8.41360E+01
 -1       593 8.41360E+01
 -1       594 8.41489E+01
 -1       595 8.41489E+01
 -1       596 8.41662E+01
 -1       597 8.41662E+01
 -1       598 8.40928E+01
 -1       599 8.41618E+01
 -1       600 8.41618E+01
 -1       601 8.41514E+01
 -1       602 8.41514E+01
 -1       603 8.41494E+01
 -1       604 8.41494E+01
 -1       605 8.41492E+01
 -1       606 8.41492E+01
 -1       607 8.41632E+01
 -1       608 8.41632E+01
 -1       609 8.40914E+01
 -1       610 8.41661E+01
 -1       611 8.41661E+01
 -1       612 8.41483E+01
 -1       613 8.41483E+01
 -1       614 8.41368E+01
 -1       615 8.41368E+01
 -1       616 8.41165E+01
 -1       617 8.41625E+01
 -1       618 8.41625E+01
 -1       619 8.41306E+01
 -1       620 8.41306E+01
 -1       621 8.41688E+01
 -1       622 8.41688E+01
 -1       623 8.41483E+01
 -1       624 8.41483E+01
 -1       625 8.41344E+01
 -1       626 8.41344E+01
 -1       627 8.41204E+01
 -1       628 8.41653E+01
 -1       629 8.41653E+01
 -1       630 8.41233E+01
 -1       631 8.41233E+01
 -1       632 8.41082E+01
 -1       633 8.41208E+01
 -1       634 8.41208E+01
 -1       635 8.41357E+01
 -1       636 8.41357E+01
 -1       637 8.41120E+01
 -1       638 8.41103E+01
 -1       639 8.41366E+01
 -1       640 8.41366E+01
 -1       641 8.41161E+01
 -1       642 8.41161E+01
 -1       643 8.41141E+01
 -1       644 8.41207E+01
 -1       645 8.41207E+01
 -1       646 8.41356E+01
 -1       647 8.41356E+01
 -1       648 8.41112E+01
 -1       649 8.41091E+01
 -1       650 8.41379E+01
 -1       651 8.41379E+01
 -1       652 8.41206E+01
 -1       653 8.41206E+01
 -1       654 8.41134E+01
 -1       655 8.41184E+01
 -1       656 8.41184E+01
 -1       657 8.41648E+01
 -1       658 8.41648E+01
 -1       659 8.41487E+01
 -1       660 8.41487E+01
 -1       661 8.41469E+01
 -1       662 8.41469E+01
 -1       663 8.41205E+01
 -1       664 8.41205E+01
 -1       665 8.41103E+01
 -1       666 8.41224E+01
 -1       667 8.41224E+01
 -1       668 8.41668E+01
 -1       669 8.41668E+01
 -1       670 8.41218E+01
 -1       671 8.41359E+01
 -1       672 8.41359E+01
 -1       673 8.41515E+01
 -1       674 8.41515E+01
 -1       675 8.41693E+01
 -1       676 8.41693E+01
 -1       677 8.41216E+01
 -1       678 8.41216E+01
 -1       679 8.41114E+01
 -1       680 8.41220E+01
 -1       681 8.41220E+01
 -1       682 8.41493E+01
 -1       683 8.41493E+01
 -1       684 8.41520E+01
 -1       685 8.41520E+01
 -1       686 8.41672E+01
 -1       687 8.41672E+01
 -1       688 8.40935E+01
 -1       689 8.41654E+01
 -1       690 8.41654E+01
 -1       691 8.41509E+01
 -1       692 8.41509E+01
 -1       693 8.41380E+01
 -1       694 8.41380E+01
 -1       695 8.41131E+01
 -1       696 8.41104E+01
 -1       697 8.41392E+01
 -1       698 8.41392E+01
 -1       699 8.41218E+01
 -1       700 8.41218E+01
 -1       701 8.41123E+01
 -1       702 8.41186E+01
 -1       703 8.41186E+01
 -1       704 8.41387E+01
 -1       705 8.41387E+01
 -1       706 8.41085E+01
 -1       707 8.41043E+01
 -1       708 8.41470E+01
 -1       709 8.41470E+01
 -1       710 8.41348E+01
 -1       711 8.41348E+01
 -1       712 8.41327E+01
 -1       713 8.41327E+01
 -1       714 8.41196E+01
 -1       715 8.41196E+01
 -1       716 8.41218E+01
 -1       717 8.41218E+01
 -1       718 8.41764E+01
 -1       719 8.41764E+01
 -1       720 8.41716E+01
 -1       721 8.64746E+01
 -1       722 8.64746E+01
 -1       723 7.46907E+01
 -1       724 1.75172E-01
 -1       725 5.64687E-01
 -1       726 1.03138E+00
 -1       727 1.54873E+00
 -1       728 2.11644E+00
 -1       729 2.73512E+00
 -1       730 3.36176E+00
 -1       731 8.19449E+00
 -1       732 2.67182E+01
 -1       733 2.69895E+01
 -1       734 2.70465E+01
 -1       735 2.70465E+01
 -1       736 3.77180E+01
 -1       737 4.89259E+01
 -1       738 5.79884E+01
 -1       739 6.47418E+01
 -1       740 7.08650E+01
 -1       741 7.55493E+01
 -1       742 7.93090E+01
 -1       743 8.21534E+01
 -1       744 8.31185E+01
 -1       745 8.37281E+01
 -1       746 8.37348E+01
 -1       747 8.38850E+01
 -1       748 8.39167E+01
 -1       749 8.39340E+01
 -1       750 8.39966E+01
 -1       751 8.39966E+01
 -1       752 8.39938E+01
 -1       753 8.40134E+01
 -1       754 8.40528E+01
 -1       755 8.40528E+01
 -1       756 8.40509E+01
 -1       757 8.40509E+01
 -1       758 8.40535E+01
 -1       759 8.40631E+01
 -1       760 8.40631E+01
 -1       761 8.41195E+01
 -1       762 8.41195E+01
 -1       763 8.41044E+01
 -1       764 8.41044E+01
 -1       765 8.41077E+01
 -1       766 8.41077E+01
 -1       767 8.40859E+01
 -1       768 8.40859E+01
 -1       769 8.40787E+01
 -1       770 8.40947E+01
 -1       771 8.40947E+01
 -1       772 8.41442E+01
 -1       773 8.41442E+01
 -1       774 8.40983E+01
 -1       775 8.41115E+01
 -1       776 8.41115E+01
 -1       777 8.41281E+01
 -1       778 8.41281E+01
 -1       779 8.41483E+01
 -1       780 8.41483E+01
 -1       781 8.41157E+01
 -1       782 8.41157E+01
 -1       783 8.41495E+01
 -1       784 8.41495E+01
 -1       785 8.41006E+01
 -1       786 8.41253E+01
 -1       787 8.41253E+01
 -1       788 8.41387E+01
 -1       789 8.41387E+01
 -1       790 8.41540E+01
 -1       791 8.41540E+01
 -1       792 8.40792E+01
 -1       793 8.41550E+01
 -1       794 8.41550E+01
 -1       795 8.41377E+01
 -1       796 8.41377E+01
 -1       797 8.41286E+01
 -1       798 8.41286E+01
 -1       799 8.41021E+01
 -1       800 8.41036E+01
 -1       801 8.41220E+01
 -1       802 8.41220E+01
 -1       803 8.40982E+01
 -1       804 8.41597E+01
 -1       805 8.41597E+01
 -1       806 8.41419E+01
 -1       807 8.41419E+01
 -1       808 8.41285E+01
 -1       809 8.41285E+01
 -1       810 8.41158E+01
 -1       811 8.41596E+01
 -1       812 8.41596E+01
 -1       813 8.41135E+01
 -1       814 8.41135E+01
 -1       815 8.41074E+01
 -1       816 8.41075E+01
 -1       817 8.41149E+01
 -1       818 8.41149E+01
 -1       819 8.41613E+01
 -1       820 8.41613E+01
 -1       821 8.41155E+01
 -1       822 8.41298E+01
 -1       823 8.41298E+01
 -1       824 8.41136E+01
 -1       825 8.41136E+01
 -1       826 8.41074E+01
 -1       827 8.41074E+01
 -1       828 8.41195E+01
 -1       829 8.41195E+01
 -1       830 8.41639E+01
 -1       831 8.41639E+01
 -1       832 8.41145E+01
 -1       833 8.41360E+01
 -1       834 8.41360E+01
 -1       835 8.41489E+01
 -1       836 8.41489E+01
 -1       837 8.41662E+01
 -1       838 8.41662E+01
 -1       839 8.40928E+01
 -1       840 8.41618E+01
 -1       841 8.41618E+01
 -1       842 8.41514E+01
 -1       843 8.41514E+01
 -1       844 8.41494E+01
 -1       845 8.41494E+01
 -1       846 8.41492E+01
 -1       847 8.41492E+01
 -1       848 8.41632E+01
 -1       849 8.41632E+01
 -1       850 8.40914E+01
 -1       851 8.41661E+01
 -1       852 8.41661E+01
 -1       853 8.41483E+01
 -1       854 8.41483E+01
 -1       855 8.41368E+01
 -1       856 8.41368E+01
 -1       857 8.41165E+01
 -1       858 8.41625E+01
 -1       859 8.41625E+01
 -1       860 8.41306E+01
 -1       861 8.41306E+01
 -1       862 8.41688E+01
 -1       863 8.41688E+01
 -1       864 8.41483E+01
 -1       865 8.41483E+01
 -1       866 8.41344E+01
 -1       867 8.41344E+01
 -1       868 8.41204E+01
 -1       869 8.41653E+01
 -1       870 8.41653E+01
 -1       871 8.41233E+01
 -1       872 8.41233E+01
 -1       873 8.41082E+01
 -1       874 8.41208E+01
 -1       875 8.41208E+01
 -1       876 8.41357E+01
 -1       877 8.41357E+01
 -1       878 8.41120E+01
 -1       879 8.41103E+01
 -1       880 8.41366E+01
 -1       881 8.41366E+01
 -1       882 8.41161E+01
 -1       883 8.41161E+01
 -1       884 8.41141E+01
 -1       885 8.41207E+01
 -1       886 8.41207E+01
 -1       887 8.41356E+01
 -1       888 8.41356E+01
 -1       889 8.41112E+01
 -1       890 8.41091E+01
 -1       891 8.41379E+01
 -1       892 8.41379E+01
 -1       893 8.41206E+01
 -1       894 8.41206E+01
 -1       895 8.41134E+01
 -1       896 8.41184E+01
 -1       897 8.41184E+01
 -1       898 8.41648E+01
 -1       899 8.41648E+01
 -1       900 8.41487E+01
 -1       901 8.41487E+01
 -1       902 8.41469E+01
 -1       903 8.41469E+01
 -1       904 8.41205E+01
 -1       905 8.41205E+01
 -1       906 8.41103E+01
 -1       907 8.41224E+01
 -1       908 8.41224E+01
 -1       909 8.41668E+01
 -1       910 8.41668E+01
 -1       911 8.41218E+01
 -1       912 8.41359E+01
 -1       913 8.41359E+01
 -1       914 8.41515E+01
 -1       915 8.41515E+01
 -1       916 8.41693E+01
 -1       917 8.41693E+01
 -1       918 8.41216E+01
 -1       919 8.41216E+01
 -1       920 8.41114E+01
 -1       921 8.41220E+01
 -1       922 8.41220E+01
 -1       923 8.41493E+01
 -1       924 8.41493E+01
 -1       925 8.41520E+01
 -1       926 8.41520E+01
 -1       927 8.41672E+01
 -1       928 8.41672E+01
 -1       929 8.40935E+01
 -1       930 8.41654E+01
 -1       931 8.41654E+01
 -1       932 8.41509E+01
 -1       933 8.41509E+01
 -1       934 8.41380E+01
 -1       935 8.41380E+01
 -1       936 8.41131E+01
 -1       937 8.41104E+01
 -1       938 8.41392E+01
 -1       939 8.41392E+01
 -1       940 8.41218E+01
 -1       941 8.41218E+01
 -1       942 8.41123E+01
 -1       943 8.41186E+01
 -1       944 8.41186E+01
 -1       945 8.41387E+01
 -1       946 8.41387E+01
 -1       947 8.41085E+01
 -1       948 8.41043E+01
 -1       949 8.41470E+01
 -1       950 8.41470E+01
 -1       951 8.41348E+01
 -1       952 8.41348E+01
 -1       953 8.41327E+01
 -1       954 8.41327E+01
 -1       955 8.41196E+01
 -1       956 8.41196E+01
 -1       957 8.41218E+01
 -1       958 8.41218E+01
 -1       959 8.41764E+01
 -1       960 8.41764E+01
 -1       961 8.41716E+01
 -1       962 8.64746E+01
 -1       963 8.64746E+01
 -1       964 7.46907E+01
 -1       965 7.26028E-02
 -1       966 2.69294E-01
 -1       967 5.48912E-01
 -1       968 9.22488E-01
 -1       969 1.38619E+00
 -1       970 1.88117E+00
 -1       971 2.54243E+00
 -1       972 3.17540E+00
 -1       973 3.94249E+00
 -1       974 4.78753E+00
 -1       975 8.68515E+00
 -1       976 2.40012E+01
 -1       977 3.77180E+01
 -1       978 4.89259E+01
 -1       979 5.79884E+01
 -1       980 6.47418E+01
 -1       981 7.08650E+01
 -1       982 7.55493E+01
 -1       983 7.93093E+01
 -1       984 8.21612E+01
 -1       985 8.31341E+01
 -1       986 8.37470E+01
 -1       987 8.37545E+01
 -1       988 8.39051E+01
 -1       989 8.39370E+01
 -1       990 8.39544E+01
 -1       991 8.40171E+01
 -1       992 8.40171E+01
 -1       993 8.40143E+01
 -1       994 8.40339E+01
 -1       995 8.40734E+01
 -1       996 8.40734E+01
 -1       997 8.40716E+01
 -1       998 8.40716E+01
 -1       999 8.40741E+01
 -1      1000 8.40838E+01
 -1      1001 8.40838E+01
 -1      1002 8.41401E+01
 -1      1003 8.41401E+01
 -1      1004 8.41251E+01
 -1      1005 8.41251E+01
 -1      1006 8.41284E+01
 -1      1007 8.41284E+01
 -1      1008 8.41066E+01
 -1      1009 8.41066E+01
 -1      1010 8.40994E+01
 -1      1011 8.41154E+01
 -1      1012 8.41154E+01
 -1      1013 8.41649E+01
 -1      1014 8.41649E+01
 -1      1015 8.41190E+01
 -1      1016 8.41322E+01
 -1      1017 8.41322E+01
 -1      1018 8.41488E+01
 -1      1019 8.41488E+01
 -1      1020 8.41691E+01
 -1      1021 8.41691E+01
 -1      1022 8.41364E+01
 -1      1023 8.41364E+01
 -1      1024 8.41702E+01
 -1      1025 8.41702E+01
 -1      1026 8.41213E+01
 -1      1027 8.41460E+01
 -1      1028 8.41460E+01
 -1      1029 8.41594E+01
 -1      1030 8.41594E+01
 -1      1031 8.41747E+01
 -1      1032 8.41747E+01
 -1      1033 8.40999E+01
 -1      1034 8.41757E+01
 -1      1035 8.41757E+01
 -1      1036 8.41584E+01
 -1      1037 8.41584E+01
 -1      1038 8.41493E+01
 -1      1039 8.41493E+01
 -1      1040 8.41228E+01
 -1      1041 8.41243E+01
 -1      1042 8.41427E+01
 -1      1043 8.41427E+01
 -1      1044 8.41189E+01
 -1      1045 8.41804E+01
 -1      1046 8.41804E+01
 -1      1047 8.41626E+01
 -1      1048 8.41626E+01
 -1      1049 8.41493E+01
 -1      1050 8.41493E+01
 -1      1051 8.41365E+01
 -1      1052 8.41803E+01
 -1      1053 8.41803E+01
 -1      1054 8.41342E+01
 -1      1055 8.41342E+01
 -1      1056 8.41282E+01
 -1      1057 8.41283E+01
 -1      1058 8.41356E+01
 -1      1059 8.41356E+01
 -1      1060 8.41820E+01
 -1      1061 8.41820E+01
 -1      1062 8.41361E+01
 -1      1063 8.41507E+01
 -1      1064 8.41507E+01
 -1      1065 8.41345E+01
 -1      1066 8.41345E+01
 -1      1067 8.41284E+01
 -1      1068 8.41284E+01
 -1      1069 8.41407E+01
 -1      1070 8.41407E+01
 -1      1071 8.41853E+01
 -1      1072 8.41853E+01
 -1      1073 8.41361E+01
 -1      1074 8.41556E+01
 -1      1075 8.41556E+01
 -1      1076 8.41681E+01
 -1      1077 8.41681E+01
 -1      1078 8.41849E+01
 -1      1079 8.41849E+01
 -1      1080 8.41112E+01
 -1      1081 8.41848E+01
 -1      1082 8.41848E+01
 -1      1083 8.41699E+01
 -1      1084 8.41699E+01
 -1      1085 8.41686E+01
 -1      1086 8.41686E+01
 -1      1087 8.41688E+01
 -1      1088 8.41688E+01
 -1      1089 8.41832E+01
 -1      1090 8.41832E+01
 -1      1091 8.41127E+01
 -1      1092 8.41873E+01
 -1      1093 8.41873E+01
 -1      1094 8.41693E+01
 -1      1095 8.41693E+01
 -1      1096 8.41577E+01
 -1      1097 8.41577E+01
 -1      1098 8.41370E+01
 -1      1099 8.41831E+01
 -1      1100 8.41831E+01
 -1      1101 8.41512E+01
 -1      1102 8.41512E+01
 -1      1103 8.41895E+01
 -1      1104 8.41895E+01
 -1      1105 8.41690E+01
 -1      1106 8.41690E+01
 -1      1107 8.41551E+01
 -1      1108 8.41551E+01
 -1      1109 8.41412E+01
 -1      1110 8.41860E+01
 -1      1111 8.41860E+01
 -1      1112 8.41440E+01
 -1      1113 8.41440E+01
 -1      1114 8.41289E+01
 -1      1115 8.41415E+01
 -1      1116 8.41415E+01
 -1      1117 8.41564E+01
 -1      1118 8.41564E+01
 -1      1119 8.41327E+01
 -1      1120 8.41310E+01
 -1      1121 8.41573E+01
 -1      1122 8.41573E+01
 -1      1123 8.41368E+01
 -1      1124 8.41368E+01
 -1      1125 8.41349E+01
 -1      1126 8.41414E+01
 -1      1127 8.41414E+01
 -1      1128 8.41563E+01
 -1      1129 8.41563E+01
 -1      1130 8.41320E+01
 -1      1131 8.41298E+01
 -1      1132 8.41586E+01
 -1      1133 8.41586E+01
 -1      1134 8.41413E+01
 -1      1135 8.41413E+01
 -1      1136 8.41341E+01
 -1      1137 8.41391E+01
 -1      1138 8.41391E+01
 -1      1139 8.41856E+01
 -1      1140 8.41856E+01
 -1      1141 8.41694E+01
 -1      1142 8.41694E+01
 -1      1143 8.41676E+01
 -1      1144 8.41676E+01
 -1      1145 8.41412E+01
 -1      1146 8.41412E+01
 -1      1147 8.41310E+01
 -1      1148 8.41431E+01
 -1      1149 8.41431E+01
 -1      1150 8.41875E+01
 -1      1151 8.41875E+01
 -1      1152 8.41425E+01
 -1      1153 8.41566E+01
 -1      1154 8.41566E+01
 -1      1155 8.41722E+01
 -1      1156 8.41722E+01
 -1      1157 8.41900E+01
 -1      1158 8.41900E+01
 -1      1159 8.41424E+01
 -1      1160 8.41424E+01
 -1      1161 8.41322E+01
 -1      1162 8.41427E+01
 -1      1163 8.41427E+01
 -1      1164 8.41701E+01
 -1      1165 8.41701E+01
 -1      1166 8.41727E+01
 -1      1167 8.41727E+01
 -1      1168 8.41880E+01
 -1      1169 8.41880E+01
 -1      1170 8.41142E+01
 -1      1171 8.41861E+01
 -1      1172 8.41861E+01
 -1      1173 8.41716E+01
 -1      1174 8.41716E+01
 -1      1175 8.41588E+01
 -1      1176 8.41588E+01
 -1      1177 8.41338E+01
 -1      1178 8.41311E+01
 -1      1179 8.41599E+01
 -1      1180 8.41599E+01
 -1      1181 8.41425E+01
 -1      1182 8.41425E+01
 -1      1183 8.41330E+01
 -1      1184 8.41394E+01
 -1      1185 8.41394E+01
 -1      1186 8.41595E+01
 -1      1187 8.41595E+01
 -1      1188 8.41292E+01
 -1      1189 8.41250E+01
 -1      1190 8.41678E+01
 -1      1191 8.41678E+01
 -1      1192 8.41556E+01
 -1      1193 8.41556E+01
 -1      1194 8.41535E+01
 -1      1195 8.41535E+01
 -1      1196 8.41403E+01
 -1      1197 8.41403E+01
 -1      1198 8.41425E+01
 -1      1199 8.41425E+01
 -1      1200 8.41972E+01
 -1      1201 8.41972E+01
 -1      1202 8.41923E+01
 -1      1203 8.64954E+01
 -1      1204 8.64954E+01
 -1      1205 7.47105E+01
 -1      1206 7.26028E-02
 -1      1207 2.69294E-01
 -1      1208 5.48912E-01
 -1      1209 9.22488E-01
 -1      1210 1.38619E+00
 -1      1211 1.88117E+00
 -1      1212 2.54243E+00
 -1      1213 3.17540E+00
 -1      1214 3.94249E+00
 -1      1215 4.78753E+00
 -1      1216 8.68515E+00
 -1      1217 2.40012E+01
 -1      1218 3.77180E+01
 -1      1219 4.89259E+01
 -1      1220 5.79884E+01
 -1      1221 6.47418E+01
 -1      1222 7.08650E+01
 -1      1223 7.55493E+01
 -1      1224 7.93093E+01
 -1      1225 8.21612E+01
 -1      1226 8.31341E+01
 -1      1227 8.37470E+01
 -1      1228 8.37545E+01
 -1      1229 8.39051E+01
 -1      1230 8.39370E+01
 -1      1231 8.39544E+01
 -1      1232 8.40171E+01
 -1      1233 8.40171E+01
 -1      1234 8.40143E+01
 -1      1235 8.40339E+01
 -1      1236 8.40734E+01
 -1      1237 8.40734E+01
 -1      1238 8.40716E+01
 -1      1239 8.40716E+01
 -1      1240 8.40741E+01
 -1      1241 8.40838E+01
 -1      1242 8.40838E+01
 -1      1243 8.41401E+01
 -1      1244 8.41401E+01
 -1      1245 8.41251E+01
 -1      1246 8.41251E+01
 -1      1247 8.41284E+01
 -1      1248 8.41284E+01
 -1      1249 8.41066E+01
 -1      1250 8.41066E+01
 -1      1251 8.40994E+01
 -1      1252 8.41154E+01
 -1      1253 8.41154E+01
 -1      1254 8.41649E+01
 -1      1255 8.41649E+01
 -1      1256 8.41190E+01
 -1      1257 8.41322E+01
 -1      1258 8.41322E+01
 -1      1259 8.41488E+01
 -1      1260 8.41488E+01
 -1      1261 8.41691E+01
 -1      1262 8.41691E+01
 -1      1263 8.41364E+01
 -1      1264 8.41364E+01
 -1      1265 8.41702E+01
 -1      1266 8.41702E+01
 -1      1267 8.41213E+01
 -1      1268 8.41460E+01
 -1      1269 8.41460E+01
 -1      1270 8.41594E+01
 -1      1271 8.41594E+01
 -1      1272 8.41747E+01
 -1      1273 8.41747E+01
 -1      1274 8.40999E+01
 -1      1275 8.41757E+01
 -1      1276 8.41757E+01
 -1      1277 8.41584E+01
 -1      1278 8.41584E+01
 -1      1279 8.41493E+01
 -1      1280 8.41493E+01
 -1      1281 8.41228E+01
 -1      1282 8.41243E+01
 -1      1283 8.41427E+01
 -1      1284 8.41427E+01
 -1      1285 8.41189E+01
 -1      1286 8.41804E+01
 -1      1287 8.41804E+01
 -1      1288 8.41626E+01
 -1      1289 8.41626E+01
 -1      1290 8.41493E+01
 -1      1291 8.41493E+01
 -1      1292 8.41365E+01
 -1      1293 8.41803E+01
 -1      1294 8.41803E+01
 -1      1295 8.41342E+01
 -1      1296 8.41342E+01
 -1      1297 8.41282E+01
 -1      1298 8.41283E+01
 -1      1299 8.41356E+01
 -1      1300 8.41356E+01
 -1      1301 8.41820E+01
 -1      1302 8.41820E+01
 -1      1303 8.41361E+01
 -1      1304 8.41507E+01
 -1      1305 8.41507E+01
 -1      1306 8.41345E+01
 -1      1307 8.41345E+01
 -1      1308 8.41284E+01
 -1      1309 8.41284E+01
 -1      1310 8.41407E+01
 -1      1311 8.41407E+01
 -1      1312 8.41853E+01
 -1      1313 8.41853E+01
 -1      1314 8.41361E+01
 -1      1315 8.41556E+01
 -1      1316 8.41556E+01
 -1      1317 8.41681E+01
 -1      1318 8.41681E+01
 -1      1319 8.41849E+01
 -1      1320 8.41849E+01
 -1      1321 8.41112E+01
 -1      1322 8.41848E+01
 -1      1323 8.41848E+01
 -1      1324 8.41699E+01
 -1      1325 8.41699E+01
 -1      1326 8.41686E+01
 -1      1327 8.41686E+01
 -1      1328 8.41688E+01
 -1      1329 8.41688E+01
 -1      1330 8.41832E+01
 -1      1331 8.41832E+01
 -1      1332 8.41127E+01
 -1      1333 8.41873E+01
 -1      1334 8.41873E+01
 -1      1335 8.41693E+01
 -1      1336 8.41693E+01
 -1      1337 8.41577E+01
 -1      1338 8.41577E+01
 -1      1339 8.41370E+01
 -1      1340 8.41831E+01
 -1      1341 8.41831E+01
 -1      1342 8.41512E+01
 -1      1343 8.41512E+01
 -1      1344 8.41895E+01
 -1      1345 8.41895E+01
 -1      1346 8.41690E+01
 -1      1347 8.41690E+01
 -1      1348 8.41551E+01
 -1      1349 8.41551E+01
 -1      1350 8.41412E+01
 -1      1351 8.41860E+01
 -1      1352 8.41860E+01
 -1      1353 8.41440E+01
 -1      1354 8.41440E+01
 -1      1355 8.41289E+01
 -1      1356 8.41415E+01
 -1      1357 8.41415E+01
 -1      1358 8.41564E+01
 -1      1359 8.41564E+01
 -1      1360 8.41327E+01
 -1      1361 8.41310E+01
 -1      1362 8.41573E+01
 -1      1363 8.41573E+01
 -1      1364 8.41368E+01
 -1      1365 8.41368E+01
 -1      1366 8.41349E+01
 -1      1367 8.41414E+01
 -1      1368 8.41414E+01
 -1      1369 8.41563E+01
 -1      1370 8.41563E+01
 -1      1371 8.41320E+01
 -1      1372 8.41298E+01
 -1      1373 8.41586E+01
 -1      1374 8.41586E+01
 -1      1375 8.41413E+01
 -1      1376 8.41413E+01
 -1      1377 8.41341E+01
 -1      1378 8.41391E+01
 -1      1379 8.41391E+01
 -1      1380 8.41856E+01
 -1      1381 8.41856E+01
 -1      1382 8.41694E+01
 -1      1383 8.41694E+01
 -1      1384 8.41676E+01
 -1      1385 8.41676E+01
 -1      1386 8.41412E+01
 -1      1387 8.41412E+01
 -1      1388 8.41310E+01
 -1      1389 8.41431E+01
 -1      1390 8.41431E+01
 -1      1391 8.41875E+01
 -1      1392 8.41875E+01
 -1      1393 8.41425E+01
 -1      1394 8.41566E+01
 -1      1395 8.41566E+01
 -1      1396 8.41722E+01
 -1      1397 8.41722E+01
 -1      1398 8.41900E+01
 -1      1399 8.41900E+01
 -1      1400 8.41424E+01
 -1      1401 8.41424E+01
 -1      1402 8.41322E+01
 -1      1403 8.41427E+01
 -1      1404 8.41427E+01
 -1      1405 8.41701E+01
 -1      1406 8.41701E+01
 -1      1407 8.41727E+01
 -1      1408 8.41727E+01
 -1      1409 8.41880E+01
 -1      1410 8.41880E+01
 -1      1411 8.41142E+01
 -1      1412 8.41861E+01
 -1      1413 8.41861E+01
 -1      1414 8.41716E+01
 -1      1415 8.41716E+01
 -1      1416 8.41588E+01
 -1      1417 8.41588E+01
 -1      1418 8.41338E+01
 -1      1419 8.41311E+01
 -1      1420 8.41599E+01
 -1      1421 8.41599E+01
 -1      1422 8.41425E+01
 -1      1423 8.41425E+01
 -1      1424 8.41330E+01
 -1      1425 8.41394E+01
 -1      1426 8.41394E+01
 -1      1427 8.41595E+01
 -1      1428 8.41595E+01
 -1      1429 8.41292E+01
 -1      1430 8.41250E+01
 -1      1431 8.41678E+01
 -1      1432 8.41678E+01
 -1      1433 8.41556E+01
 -1      1434 8.41556E+01
 -1      1435 8.41535E+01
 -1      1436 8.41535E+01
 -1      1437 8.41403E+01
 -1      1438 8.41403E+01
 -1      1439 8.41425E+01
 -1      1440 8.41425E+01
 -1      1441 8.41972E+01
 -1      1442 8.41972E+01
 -1      1443 8.41923E+01
 -1      1444 8.64954E+01
 -1      1445 8.64954E+01
 -1      1446 7.47105E+01
 -1      1447 1.75158E-01
 -1      1448 5.64653E-01
 -1      1449 1.03140E+00
 -1      1450 1.54878E+00
 -1      1451 2.11653E+00
 -1      1452 2.73531E+00
 -1      1453 3.36200E+00
 -1      1454 8.19444E+00
 -1      1455 2.67252E+01
 -1      1456 2.69976E+01
 -1      1457 2.70546E+01
 -1      1458 2.70546E+01
 -1      1459 3.77066E+01
 -1      1460 4.89168E+01
 -1      1461 5.79813E+01
 -1      1462 6.47364E+01
 -1      1463 7.08610E+01
 -1      1464 7.55472E+01
 -1      1465 7.93093E+01
 -1      1466 8.21612E+01
 -1      1467 8.31341E+01
 -1      1468 8.37470E+01
 -1      1469 8.37545E+01
 -1      1470 8.39051E+01
 -1      1471 8.39370E+01
 -1      1472 8.39544E+01
 -1      1473 8.40171E+01
 -1      1474 8.40171E+01
 -1      1475 8.40143E+01
 -1      1476 8.40339E+01
 -1      1477 8.40734E+01
 -1      1478 8.40734E+01
 -1      1479 8.40716E+01
 -1      1480 8.40716E+01
 -1      1481 8.40741E+01
 -1      1482 8.40838E+01
 -1      1483 8.40838E+01
 -1      1484 8.41401E+01
 -1      1485 8.41401E+01
 -1      1486 8.41251E+01
 -1      1487 8.41251E+01
 -1      1488 8.41284E+01
 -1      1489 8.41284E+01
 -1      1490 8.41066E+01
 -1      1491 8.41066E+01
 -1      1492 8.40994E+01
 -1      1493 8.41154E+01
 -1      1494 8.41154E+01
 -1      1495 8.41649E+01
 -1      1496 8.41649E+01
 -1      1497 8.41190E+01
 -1      1498 8.41322E+01
 -1      1499 8.41322E+01
 -1      1500 8.41488E+01
 -1      1501 8.41488E+01
 -1      1502 8.41691E+01
 -1      1503 8.41691E+01
 -1      1504 8.41364E+01
 -1      1505 8.41364E+01
 -1      1506 8.41702E+01
 -1      1507 8.41702E+01
 -1      1508 8.41213E+01
 -1      1509 8.41460E+01
 -1      1510 8.41460E+01
 -1      1511 8.41594E+01
 -1      1512 8.41594E+01
 -1      1513 8.41747E+01
 -1      1514 8.41747E+01
 -1      1515 8.40999E+01
 -1      1516 8.41757E+01
 -1      1517 8.41757E+01
 -1      1518 8.41584E+01
 -1      1519 8.41584E+01
 -1      1520 8.41493E+01
 -1      1521 8.41493E+01
 -1      1522 8.41228E+01
 -1      1523 8.41243E+01
 -1      1524 8.41427E+01
 -1      1525 8.41427E+01
 -1      1526 8.41189E+01
 -1      1527 8.41804E+01
 -1      1528 8.41804E+01
 -1      1529 8.41626E+01
 -1      1530 8.41626E+01
 -1      1531 8.41493E+01
 -1      1532 8.41493E+01
 -1      1533 8.41365E+01
 -1      1534 8.41803E+01
 -1      1535 8.41803E+01
 -1      1536 8.41342E+01
 -1      1537 8.41342E+01
 -1      1538 8.41282E+01
 -1      1539 8.41283E+01
 -1      1540 8.41356E+01
 -1      1541 8.41356E+01
 -1      1542 8.41820E+01
 -1      1543 8.41820E+01
 -1      1544 8.41361E+01
 -1      1545 8.41507E+01
 -1      1546 8.41507E+01
 -1      1547 8.41345E+01
 -1      1548 8.41345E+01
 -1      1549 8.41284E+01
 -1      1550 8.41284E+01
 -1      1551 8.41407E+01
 -1      1552 8.41407E+01
 -1      1553 8.41853E+01
 -1      1554 8.41853E+01
 -1      1555 8.41361E+01
 -1      1556 8.41556E+01
 -1      1557 8.41556E+01
 -1      1558 8.41681E+01
 -1      1559 8.41681E+01
 -1      1560 8.41849E+01
 -1      1561 8.41849E+01
 -1      1562 8.41112E+01
 -1      1563 8.41848E+01
 -1      1564 8.41848E+01
 -1      1565 8.41699E+01
 -1      1566 8.41699E+01
 -1      1567 8.41686E+01
 -1      1568 8.41686E+01
 -1      1569 8.41688E+01
 -1      1570 8.41688E+01
 -1      1571 8.41832E+01
 -1      1572 8.41832E+01
 -1      1573 8.41127E+01
 -1      1574 8.41873E+01
 -1      1575 8.41873E+01
 -1      1576 8.41693E+01
 -1      1577 8.41693E+01
 -1      1578 8.41577E+01
 -1      1579 8.41577E+01
 -1      1580 8.41370E+01
 -1      1581 8.41831E+01
 -1      1582 8.41831E+01
 -1      1583 8.41512E+01
 -1      1584 8.41512E+01
 -1      1585 8.41895E+01
 -1      1586 8.41895E+01
 -1      1587 8.41690E+01
 -1      1588 8.41690E+01
 -1      1589 8.41551E+01
 -1      1590 8.41551E+01
 -1      1591 8.41412E+01
 -1      1592 8.41860E+01
 -1      1593 8.41860E+01
 -1      1594 8.41440E+01
 -1      1595 8.41440E+01
 -1      1596 8.41289E+01
 -1      1597 8.41415E+01
 -1      1598 8.41415E+01
 -1      1599 8.41564E+01
 -1      1600 8.41564E+01
 -1      1601 8.41327E+01
 -1      1602 8.41310E+01
 -1      1603 8.41573E+01
 -1      1604 8.41573E+01
 -1      1605 8.41368E+01
 -1      1606 8.41368E+01
 -1      1607 8.41349E+01
 -1      1608 8.41414E+01
 -1      1609 8.41414E+01
 -1      1610 8.41563E+01
 -1      1611 8.41563E+01
 -1      1612 8.41320E+01
 -1      1613 8.41298E+01
 -1      1614 8.41586E+01
 -1      1615 8.41586E+01
 -1      1616 8.41413E+01
 -1      1617 8.41413E+01
 -1      1618 8.41341E+01
 -1      1619 8.41391E+01
 -1      1620 8.41391E+01
 -1      1621 8.41856E+01
 -1      1622 8.41856E+01
 -1      1623 8.41694E+01
 -1      1624 8.41694E+01
 -1      1625 8.41676E+01
 -1      1626 8.41676E+01
 -1      1627 8.41412E+01
 -1      1628 8.41412E+01
 -1      1629 8.41310E+01
 -1      1630 8.41431E+01
 -1      1631 8.41431E+01
 -1      1632 8.41875E+01
 -1      1633 8.41875E+01
 -1      1634 8.41425E+01
 -1      1635 8.41566E+01
 -1      1636 8.41566E+01
 -1      1637 8.41722E+01
 -1      1638 8.41722E+01
 -1      1639 8.41900E+01
 -1      1640 8.41900E+01
 -1      1641 8.41424E+01
 -1      1642 8.41424E+01
 -1      1643 8.41322E+01
 -1      1644 8.41427E+01
 -1      1645 8.41427E+01
 -1      1646 8.41701E+01
 -1      1647 8.41701E+01
 -1      1648 8.41727E+01
 -1      1649 8.41727E+01
 -1      1650 8.41880E+01
 -1      1651 8.41880E+01
 -1      1652 8.41142E+01
 -1      1653 8.41861E+01
 -1      1654 8.41861E+01
 -1      1655 8.41716E+01
 -1      1656 8.41716E+01
 -1      1657 8.41588E+01
 -1      1658 8.41588E+01
 -1      1659 8.41338E+01
 -1      1660 8.41311E+01
 -1      1661 8.41599E+01
 -1      1662 8.41599E+01
 -1      1663 8.41425E+01
 -1      1664 8.41425E+01
 -1      1665 8.41330E+01
 -1      1666 8.41394E+01
 -1      1667 8.41394E+01
 -1      1668 8.41595E+01
 -1      1669 8.41595E+01
 -1      1670 8.41292E+01
 -1      1671 8.41250E+01
 -1      1672 8.41678E+01
 -1      1673 8.41678E+01
 -1      1674 8.41556E+01
 -1      1675 8.41556E+01
 -1      1676 8.41535E+01
 -1      1677 8.41535E+01
 -1      1678 8.41403E+01
 -1      1679 8.41403E+01
 -1      1680 8.41425E+01
 -1      1681 8.41425E+01
 -1      1682 8.41972E+01
 -1      1683 8.41972E+01
 -1      1684 8.41923E+01
 -1      1685 8.64954E+01
 -1      1686 8.64954E+01
 -1      1687 7.47105E+01
 -1      1688 1.75158E-01
 -1      1689 5.64653E-01
 -1      1690 1.03140E+00
 -1      1691 1.54878E+00
 -1      1692 2.11653E+00
 -1      1693 2.73531E+00
 -1      1694 3.36200E+00
 -1      1695 8.19444E+00
 -1      1696 2.67252E+01
 -1      1697 2.69976E+01
 -1      1698 2.70546E+01
 -1      1699 2.70546E+01
 -1      1700 3.77066E+01
 -1      1701 4.89168E+01
 -1      1702 5.79813E+01
 -1      1703 6.47364E+01
 -1      1704 7.08610E+01
 -1      1705 7.55472E+01
 -1      1706 7.93093E+01
 -1      1707 8.21612E+01
 -1      1708 8.31341E+01
 -1      1709 8.37470E+01
 -1      1710 8.37545E+01
 -1      1711 8.39051E+01
 -1      1712 8.39370E+01
 -1      1713 8.39544E+01
 -1      1714 8.40171E+01
 -1      1715 8.40171E+01
 -1      1716 8.40143E+01
 -1      1717 8.40339E+01
 -1      1718 8.40734E+01
 -1      1719 8.40734E+01
 -1      1720 8.40716E+01
 -1      1721 8.40716E+01
 -1      1722 8.40741E+01
 -1      1723 8.40838E+01
 -1      1724 8.40838E+01
 -1      1725 8.41401E+01
 -1      1726 8.41401E+01
 -1      1727 8.41251E+01
 -1      1728 8.41251E+01
 -1      1729 8.41284E+01
 -1      1730 8.41284E+01
 -1      1731 8.41066E+01
 -1      1732 8.41066E+01
 -1      1733 8.40994E+01
 -1      1734 8.41154E+01
 -1      1735 8.41154E+01
 -1      1736 8.41649E+01
 -1      1737 8.41649E+01
 -1      1738 8.41190E+01
 -1      1739 8.41322E+01
 -1      1740 8.41322E+01
 -1      1741 8.41488E+01
 -1      1742 8.41488E+01
 -1      1743 8.41691E+01
 -1      1744 8.41691E+01
 -1      1745 8.41364E+01
 -1      1746 8.41364E+01
 -1      1747 8.41702E+01
 -1      1748 8.41702E+01
 -1      1749 8.41213E+01
 -1      1750 8.41460E+01
 -1      1751 8.41460E+01
 -1      1752 8.41594E+01
 -1      1753 8.41594E+01
 -1      1754 8.41747E+01
 -1      1755 8.41747E+01
 -1      1756 8.40999E+01
 -1      1757 8.41757E+01
 -1      1758 8.41757E+01
 -1      1759 8.41584E+01
 -1      1760 8.41584E+01
 -1      1761 8.41493E+01
 -1      1762 8.41493E+01
 -1      1763 8.41228E+01
 -1      1764 8.41243E+01
 -1      1765 8.41427E+01
 -1      1766 8.41427E+01
 -1      1767 8.41189E+01
 -1      1768 8.41804E+01
 -1      1769 8.41804E+01
 -1      1770 8.41626E+01
 -1      1771 8.41626E+01
 -1      1772 8.41493E+01
 -1      1773 8.41493E+01
 -1      1774 8.41365E+01
 -1      1775 8.41803E+01
 -1      1776 8.41803E+01
 -1      1777 8.41342E+01
 -1      1778 8.41342E+01
 -1      1779 8.41282E+01
 -1      1780 8.41283E+01
 -1      1781 8.41356E+01
 -1      1782 8.41356E+01
 -1      1783 8.41820E+01
 -1      1784 8.41820E+01
 -1      1785 8.41361E+01
 -1      1786 8.41507E+01
 -1      1787 8.41507E+01
 -1      1788 8.41345E+01
 -1      1789 8.41345E+01
 -1      1790 8.41284E+01
 -1      1791 8.41284E+01
 -1      1792 8.41407E+01
 -1      1793 8.41407E+01
 -1      1794 8.41853E+01
 -1      1795 8.41853E+01
 -1      1796 8.41361E+01
 -1      1797 8.41556E+01
 -1      1798 8.41556E+01
 -1      1799 8.41681E+01
 -1      1800 8.41681E+01
 -1      1801 8.41849E+01
 -1      1802 8.41849E+01
 -1      1803 8.41112E+01
 -1      1804 8.41848E+01
 -1      1805 8.41848E+01
 -1      1806 8.41699E+01
 -1      1807 8.41699E+01
 -1      1808 8.41686E+01
 -1      1809 8.41686E+01
 -1      1810 8.41688E+01
 -1      1811 8.41688E+01
 -1      1812 8.41832E+01
 -1      1813 8.41832E+01
 -1      1814 8.41127E+01
 -1      1815 8.41873E+01
 -1      1816 8.41873E+01
 -1      1817 8.41693E+01
 -1      1818 8.41693E+01
 -1      1819 8.41577E+01
 -1      1820 8.41577E+01
 -1      1821 8.41370E+01
 -1      1822 8.41831E+01
 -1      1823 8.41831E+01
 -1      1824 8.41512E+01
 -1      1825 8.41512E+01
 -1      1826 8.41895E+01
 -1      1827 8.41895E+01
 -1      1828 8.41690E+01
 -1      1829 8.41690E+01
 -1      1830 8.41551E+01
 -1      1831 8.41551E+01
 -1      1832 8.41412E+01
 -1      1833 8.41860E+01
 -1      1834 8.41860E+01
 -1      1835 8.41440E+01
 -1      1836 8.41440E+01
 -1      1837 8.41289E+01
 -1      1838 8.41415E+01
 -1      1839 8.41415E+01
 -1      1840 8.41564E+01
 -1      1841 8.41564E+01
 -1      1842 8.41327E+01
 -1      1843 8.41310E+01
 -1      1844 8.41573E+01
 -1      1845 8.41573E+01
 -1      1846 8.41368E+01
 -1      1847 8.41368E+01
 -1      1848 8.41349E+01
 -1      1849 8.41414E+01
 -1      1850 8.41414E+01
 -1      1851 8.41563E+01
 -1      1852 8.41563E+01
 -1      1853 8.41320E+01
 -1      1854 8.41298E+01
 -1      1855 8.41586E+01
 -1      1856 8.41586E+01
 -1      1857 8.41413E+01
 -1      1858 8.41413E+01
 -1      1859 8.41341E+01
 -1      1860 8.41391E+01
 -1      1861 8.41391E+01
 -1      1862 8.41856E+01
 -1      1863 8.41856E+01
 -1      1864 8.41694E+01
 -1      1865 8.41694E+01
 -1      1866 8.41676E+01
 -1      1867 8.41676E+01
 -1      1868 8.41412E+01
 -1      1869 8.41412E+01
 -1      1870 8.41310E+01
 -1      1871 8.41431E+01
 -1      1872 8.41431E+01
 -1      1873 8.41875E+01
 -1      1874 8.41875E+01
 -1      1875 8.41425E+01
 -1      1876 8.41566E+01
 -1      1877 8.41566E+01
 -1      1878 8.41722E+01
 -1      1879 8.41722E+01
 -1      1880 8.41900E+01
 -1      1881 8.41900E+01
 -1      1882 8.41424E+01
 -1      1883 8.41424E+01
 -1      1884 8.41322E+01
 -1      1885 8.41427E+01
 -1      1886 8.41427E+01
 -1      1887 8.41701E+01
 -1      1888 8.41701E+01
 -1      1889 8.41727E+01
 -1      1890 8.41727E+01
 -1      1891 8.41880E+01
 -1      1892 8.41880E+01
 -1      1893 8.41142E+01
 -1      1894 8.41861E+01
 -1      1895 8.41861E+01
 -1      1896 8.41716E+01
 -1      1897 8.41716E+01
 -1      1898 8.41588E+01
 -1      1899 8.41588E+01
 -1      1900 8.41338E+01
 -1      1901 8.41311E+01
 -1      1902 8.41599E+01
 -1      1903 8.41599E+01
 -1      1904 8.41425E+01
 -1      1905 8.41425E+01
 -1      1906 8.41330E+01
 -1      1907 8.41394E+01
 -1      1908 8.41394E+01
 -1      1909 8.41595E+01
 -1      1910 8.41595E+01
 -1      1911 8.41292E+01
 -1      1912 8.41250E+01
 -1      1913 8.41678E+01
 -1      1914 8.41678E+01
 -1      1915 8.41556E+01
 -1      1916 8.41556E+01
 -1      1917 8.41535E+01
 -1      1918 8.41535E+01
 -1      1919 8.41403E+01
 -1      1920 8.41403E+01
 -1      1921 8.41425E+01
 -1      1922 8.41425E+01
 -1      1923 8.41972E+01
 -1      1924 8.41972E+01
 -1      1925 8.41923E+01
 -1      1926 8.64954E+01
 -1      1927 8.64954E+01
 -1      1928 7.47105E+01
 -1      1929 1.75158E-01
 -1      1930 5.64653E-01
 -1      1931 1.03140E+00
 -1      1932 1.54878E+00
 -1      1933 2.11653E+00
 -1      1934 2.73531E+00
 -1      1935 3.36200E+00
 -1      1936 8.19444E+00
 -1      1937 2.67252E+01
 -1      1938 2.69976E+01
 -1      1939 2.70546E+01
 -1      1940 2.70546E+01
 -1      1941 2.70617E+01
 -1      1942 2.70617E+01
 -1      1943 2.70309E+01
 -1      1944 2.70414E+01
 -1      1945 2.70414E+01
 -1      1946 2.70523E+01
 -1      1947 2.70523E+01
 -1      1948 2.70349E+01
 -1      1949 2.70349E+01
 -1      1950 2.70236E+01
 -1      1951 2.70314E+01
 -1      1952 2.70314E+01
 -1      1953 2.70318E+01
 -1      1954 2.70318E+01
 -1      1955 2.70256E+01
 -1      1956 2.70256E+01
 -1      1957 2.70273E+01
 -1      1958 2.70273E+01
 -1      1959 2.70217E+01
 -1      1960 2.70217E+01
 -1      1961 2.70200E+01
 -1      1962 2.70233E+01
 -1      1963 2.70233E+01
 -1      1964 2.70191E+01
 -1      1965 2.70261E+01
 -1      1966 2.70261E+01
 -1      1967 2.70348E+01
 -1      1968 2.70348E+01
 -1      1969 2.70287E+01
 -1      1970 2.70287E+01
 -1      1971 2.70260E+01
 -1      1972 2.70260E+01
 -1      1973 2.70269E+01
 -1      1974 2.70269E+01
 -1      1975 2.70189E+01
 -1      1976 2.70236E+01
 -1      1977 2.70236E+01
 -1      1978 2.70307E+01
 -1      1979 2.70307E+01
 -1      1980 2.70167E+01
 -1      1981 2.70272E+01
 -1      1982 2.70272E+01
 -1      1983 2.70349E+01
 -1      1984 2.70349E+01
 -1      1985 2.70306E+01
 -1      1986 2.70306E+01
 -1      1987 2.70290E+01
 -1      1988 2.70290E+01
 -1      1989 2.70288E+01
 -1      1990 2.70288E+01
 -1      1991 2.70156E+01
 -1      1992 2.70286E+01
 -1      1993 2.70286E+01
 -1      1994 2.70297E+01
 -1      1995 2.70297E+01
 -1      1996 2.70205E+01
 -1      1997 2.70224E+01
 -1      1998 2.70224E+01
 -1      1999 2.70299E+01
 -1      2000 2.70299E+01
 -1      2001 2.70238E+01
 -1      2002 2.70238E+01
 -1      2003 2.70179E+01
 -1      2004 2.70265E+01
 -1      2005 2.70265E+01
 -1      2006 2.70289E+01
 -1      2007 2.70289E+01
 -1      2008 2.70272E+01
 -1      2009 2.70272E+01
 -1      2010 2.70309E+01
 -1      2011 2.70309E+01
 -1      2012 2.70229E+01
 -1      2013 2.70229E+01
 -1      2014 2.70194E+01
 -1      2015 2.70279E+01
 -1      2016 2.70279E+01
 -1      2017 2.70242E+01
 -1      2018 2.70242E+01
 -1      2019 2.70168E+01
 -1      2020 2.70264E+01
 -1      2021 2.70264E+01
 -1      2022 2.70163E+01
 -1      2023 2.70253E+01
 -1      2024 2.70253E+01
 -1      2025 2.70288E+01
 -1      2026 2.70288E+01
 -1      2027 2.70211E+01
 -1      2028 2.70211E+01
 -1      2029 2.70192E+01
 -1      2030 2.70192E+01
 -1      2031 2.70220E+01
 -1      2032 2.70220E+01
 -1      2033 2.70201E+01
 -1      2034 2.70303E+01
 -1      2035 2.70303E+01
 -1      2036 2.70291E+01
 -1      2037 2.70291E+01
 -1      2038 2.70199E+01
 -1      2039 2.70214E+01
 -1      2040 2.70214E+01
 -1      2041 2.70261E+01
 -1      2042 2.70261E+01
 -1      2043 2.70169E+01
 -1      2044 2.70263E+01
 -1      2045 2.70263E+01
 -1      2046 2.70259E+01
 -1      2047 2.70259E+01
 -1      2048 2.70282E+01
 -1      2049 2.70282E+01
 -1      2050 2.70236E+01
 -1      2051 2.70236E+01
 -1      2052 2.70252E+01
 -1      2053 2.70252E+01
 -1      2054 2.70153E+01
 -1      2055 2.70153E+01
 -1      2056 2.70122E+01
 -1      2057 2.70198E+01
 -1      2058 2.70198E+01
 -1      2059 2.70138E+01
 -1      2060 2.70138E+01
 -1      2061 2.70103E+01
 -1      2062 2.70198E+01
 -1      2063 2.70198E+01
 -1      2064 2.70216E+01
 -1      2065 2.70216E+01
 -1      2066 2.70228E+01
 -1      2067 2.70228E+01
 -1      2068 2.70259E+01
 -1      2069 2.70259E+01
 -1      2070 2.70173E+01
 -1      2071 2.70173E+01
 -1      2072 2.70096E+01
 -1      2073 2.70193E+01
 -1      2074 2.70193E+01
 -1      2075 2.70203E+01
 -1      2076 2.70203E+01
 -1      2077 2.70100E+01
 -1      2078 2.70163E+01
 -1      2079 2.70163E+01
 -1      2080 2.70128E+01
 -1      2081 2.70128E+01
 -1      2082 2.70116E+01
 -1      2083 2.70163E+01
 -1      2084 2.70163E+01
 -1      2085 2.70119E+01
 -1      2086 2.70119E+01
 -1      2087 2.70141E+01
 -1      2088 2.70141E+01
 -1      2089 2.70241E+01
 -1      2090 2.70241E+01
 -1      2091 2.70151E+01
 -1      2092 2.70151E+01
 -1      2093 2.70103E+01
 -1      2094 2.70157E+01
 -1      2095 2.70157E+01
 -1      2096 2.70111E+01
 -1      2097 2.70127E+01
 -1      2098 2.70127E+01
 -1      2099 2.70154E+01
 -1      2100 2.70154E+01
 -1      2101 2.70107E+01
 -1      2102 2.70152E+01
 -1      2103 2.70152E+01
 -1      2104 2.70223E+01
 -1      2105 2.70223E+01
 -1      2106 2.70207E+01
 -1      2107 2.70207E+01
 -1      2108 2.70182E+01
 -1      2109 2.70182E+01
 -1      2110 2.70191E+01
 -1      2111 2.70191E+01
 -1      2112 2.70110E+01
 -1      2113 2.70145E+01
 -1      2114 2.70145E+01
 -1      2115 2.70189E+01
 -1      2116 2.70189E+01
 -1      2117 2.70143E+01
 -1      2118 2.70143E+01
 -1      2119 2.70139E+01
 -1      2120 2.70233E+01
 -1      2121 2.70233E+01
 -1      2122 2.70165E+01
 -1      2123 2.70165E+01
 -1      2124 2.70098E+01
 -1      2125 2.70187E+01
 -1      2126 2.70187E+01
 -1      2127 2.70178E+01
 -1      2128 2.70178E+01
 -1      2129 2.70205E+01
 -1      2130 2.70205E+01
 -1      2131 2.70280E+01
 -1      2132 2.70280E+01
 -1      2133 2.70143E+01
 -1      2134 2.70143E+01
 -1      2135 2.70134E+01
 -1      2136 2.70224E+01
 -1      2137 2.70224E+01
 -1      2138 2.70182E+01
 -1      2139 2.70182E+01
 -1      2140 2.70128E+01
 -1      2141 2.70128E+01
 -1      2142 2.70140E+01
 -1      2143 2.70140E+01
 -1      2144 2.70229E+01
 -1      2145 2.70229E+01
 -1      2146 2.70220E+01
 -1      2147 2.70220E+01
 -1      2148 2.70161E+01
 -1      2149 2.70161E+01
 -1      2150 2.70178E+01
 -1      2151 2.70178E+01
 -1      2152 2.70255E+01
 -1      2153 2.70255E+01
 -1      2154 2.70263E+01
 -1      2155 2.70263E+01
 -1      2156 2.70341E+01
 -1      2157 2.70341E+01
 -1      2158 2.70577E+01
 -1      2159 2.70577E+01
 -1      2160 2.70880E+01
 -1      2161 2.70880E+01
 -1      2162 2.71369E+01
 -1      2163 2.71369E+01
 -1      2164 2.71787E+01
 -1      2165 2.71787E+01
 -1      2166 2.69041E+01
 -1      2167 2.81787E+01
 -1      2168 2.81787E+01
 -1      2169 2.17303E+01
 -1      2170 1.75158E-01
 -1      2171 5.64653E-01
 -1      2172 1.03140E+00
 -1      2173 1.54878E+00
 -1      2174 2.11653E+00
 -1      2175 2.73531E+00
 -1      2176 3.36200E+00
 -1      2177 8.19444E+00
 -1      2178 2.67252E+01
 -1      2179 2.69976E+01
 -1      2180 2.70546E+01
 -1      2181 2.70546E+01
 -1      2182 2.70617E+01
 -1      2183 2.70617E+01
 -1      2184 2.70309E+01
 -1      2185 2.70414E+01
 -1      2186 2.70414E+01
 -1      2187 2.70523E+01
 -1      2188 2.70523E+01
 -1      2189 2.70349E+01
 -1      2190 2.70349E+01
 -1      2191 2.70236E+01
 -1      2192 2.70314E+01
 -1      2193 2.70314E+01
 -1      2194 2.70318E+01
 -1      2195 2.70318E+01
 -1      2196 2.70256E+01
 -1      2197 2.70256E+01
 -1      2198 2.70273E+01
 -1      2199 2.70273E+01
 -1      2200 2.70217E+01
 -1      2201 2.70217E+01
 -1      2202 2.70200E+01
 -1      2203 2.70233E+01
 -1      2204 2.70233E+01
 -1      2205 2.70191E+01
 -1      2206 2.70261E+01
 -1      2207 2.70261E+01
 -1      2208 2.70348E+01
 -1      2209 2.70348E+01
 -1      2210 2.70287E+01
 -1      2211 2.70287E+01
 -1      2212 2.70260E+01
 -1      2213 2.70260E+01
 -1      2214 2.70269E+01
 -1      2215 2.70269E+01
 -1      2216 2.70189E+01
 -1      2217 2.70236E+01
 -1      2218 2.70236E+01
 -1      2219 2.70307E+01
 -1      2220 2.70307E+01
 -1      2221 2.70167E+01
 -1      2222 2.70272E+01
 -1      2223 2.70272E+01
 -1      2224 2.70349E+01
 -1      2225 2.70349E+01
 -1      2226 2.70306E+01
 -1      2227 2.70306E+01
 -1      2228 2.70290E+01
 -1      2229 2.70290E+01
 -1      2230 2.70288E+01
 -1      2231 2.70288E+01
 -1      2232 2.70156E+01
 -1      2233 2.70286E+01
 -1      2234 2.70286E+01
 -1      2235 2.70297E+01
 -1      2236 2.70297E+01
 -1      2237 2.70205E+01
 -1      2238 2.70224E+01
 -1      2239 2.70224E+01
 -1      2240 2.70299E+01
 -1      2241 2.70299E+01
 -1      2242 2.70238E+01
 -1      2243 2.70238E+01
 -1      2244 2.70179E+01
 -1      2245 2.70265E+01
 -1      2246 2.70265E+01
 -1      2247 2.70289E+01
 -1      2248 2.70289E+01
 -1      2249 2.70272E+01
 -1      2250 2.70272E+01
 -1      2251 2.70309E+01
 -1      2252 2.70309E+01
 -1      2253 2.70229E+01
 -1      2254 2.70229E+01
 -1      2255 2.70194E+01
 -1      2256 2.70279E+01
 -1      2257 2.70279E+01
 -1      2258 2.70242E+01
 -1      2259 2.70242E+01
 -1      2260 2.70168E+01
 -1      2261 2.70264E+01
 -1      2262 2.70264E+01
 -1      2263 2.70163E+01
 -1      2264 2.70253E+01
 -1      2265 2.70253E+01
 -1      2266 2.70288E+01
 -1      2267 2.70288E+01
 -1      2268 2.70211E+01
 -1      2269 2.70211E+01
 -1      2270 2.70192E+01
 -1      2271 2.70192E+01
 -1      2272 2.70220E+01
 -1      2273 2.70220E+01
 -1      2274 2.70201E+01
 -1      2275 2.70303E+01
 -1      2276 2.70303E+01
 -1      2277 2.70291E+01
 -1      2278 2.70291E+01
 -1      2279 2.70199E+01
 -1      2280 2.70214E+01
 -1      2281 2.70214E+01
 -1      2282 2.70261E+01
 -1      2283 2.70261E+01
 -1      2284 2.70169E+01
 -1      2285 2.70263E+01
 -1      2286 2.70263E+01
 -1      2287 2.70259E+01
 -1      2288 2.70259E+01
 -1      2289 2.70282E+01
 -1      2290 2.70282E+01
 -1      2291 2.70236E+01
 -1      2292 2.70236E+01
 -1      2293 2.70252E+01
 -1      2294 2.70252E+01
 -1      2295 2.70153E+01
 -1      2296 2.70153E+01
 -1      2297 2.70122E+01
 -1      2298 2.70198E+01
 -1      2299 2.70198E+01
 -1      2300 2.70138E+01
 -1      2301 2.70138E+01
 -1      2302 2.70103E+01
 -1      2303 2.70198E+01
 -1      2304 2.70198E+01
 -1      2305 2.70216E+01
 -1      2306 2.70216E+01
 -1      2307 2.70228E+01
 -1      2308 2.70228E+01
 -1      2309 2.70259E+01
 -1      2310 2.70259E+01
 -1      2311 2.70173E+01
 -1      2312 2.70173E+01
 -1      2313 2.70096E+01
 -1      2314 2.70193E+01
 -1      2315 2.70193E+01
 -1      2316 2.70203E+01
 -1      2317 2.70203E+01
 -1      2318 2.70100E+01
 -1      2319 2.70163E+01
 -1      2320 2.70163E+01
 -1      2321 2.70128E+01
 -1      2322 2.70128E+01
 -1      2323 2.70116E+01
 -1      2324 2.70163E+01
 -1      2325 2.70163E+01
 -1      2326 2.70119E+01
 -1      2327 2.70119E+01
 -1      2328 2.70141E+01
 -1      2329 2.70141E+01
 -1      2330 2.70241E+01
 -1      2331 2.70241E+01
 -1      2332 2.70151E+01
 -1      2333 2.70151E+01
 -1      2334 2.70103E+01
 -1      2335 2.70157E+01
 -1      2336 2.70157E+01
 -1      2337 2.70111E+01
 -1      2338 2.70127E+01
 -1      2339 2.70127E+01
 -1      2340 2.70154E+01
 -1      2341 2.70154E+01
 -1      2342 2.70107E+01
 -1      2343 2.70152E+01
 -1      2344 2.70152E+01
 -1      2345 2.70223E+01
 -1      2346 2.70223E+01
 -1      2347 2.70207E+01
 -1      2348 2.70207E+01
 -1      2349 2.70182E+01
 -1      2350 2.70182E+01
 -1      2351 2.70191E+01
 -1      2352 2.70191E+01
 -1      2353 2.70110E+01
 -1      2354 2.70145E+01
 -1      2355 2.70145E+01
 -1      2356 2.70189E+01
 -1      2357 2.70189E+01
 -1      2358 2.70143E+01
 -1      2359 2.70143E+01
 -1      2360 2.70139E+01
 -1      2361 2.70233E+01
 -1      2362 2.70233E+01
 -1      2363 2.70165E+01
 -1      2364 2.70165E+01
 -1      2365 2.70098E+01
 -1      2366 2.70187E+01
 -1      2367 2.70187E+01
 -1      2368 2.70178E+01
 -1      2369 2.70178E+01
 -1      2370 2.70205E+01
 -1      2371 2.70205E+01
 -1      2372 2.70280E+01
 -1      2373 2.70280E+01
 -1      2374 2.70143E+01
 -1      2375 2.70143E+01
 -1      2376 2.70134E+01
 -1      2377 2.70224E+01
 -1      2378 2.70224E+01
 -1      2379 2.70182E+01
 -1      2380 2.70182E+01
 -1      2381 2.70128E+01
 -1      2382 2.70128E+01
 -1      2383 2.70140E+01
 -1      2384 2.70140E+01
 -1      2385 2.70229E+01
 -1      2386 2.70229E+01
 -1      2387 2.70220E+01
 -1      2388 2.70220E+01
 -1      2389 2.70161E+01
 -1      2390 2.70161E+01
 -1      2391 2.70178E+01
 -1      2392 2.70178E+01
 -1      2393 2.70255E+01
 -1      2394 2.70255E+01
 -1      2395 2.70263E+01
 -1      2396 2.70263E+01
 -1      2397 2.70341E+01
 -1      2398 2.70341E+01
 -1      2399 2.70577E+01
 -1      2400 2.70577E+01
 -1      2401 2.70880E+01
 -1      2402 2.70880E+01
 -1      2403 2.71369E+01
 -1      2404 2.71369E+01
 -1      2405 2.71787E+01
 -1      2406 2.71787E+01
 -1      2407 2.69041E+01
 -1      2408 2.81787E+01
 -1      2409 2.81787E+01
 -1      2410 2.17303E+01
 -3
    1PSTEP                         5           1           1          
    1PGM                1.000000E+00                                  
    1PGK                2.726657E+05                                  
    1PHID                         -1                                  
    1PSUBC                         0                                  
    1PMODE                         2                                  
  100CL  102 83.10657170        2410                     2    2MODAL      1
 -4  DISP        4    1
 -5  D1          1    2    1    0
 -5  D2          1    2    2    0
 -5  D3          1    2    3    0
 -5  ALL         1    2    0    0    1ALL
 -1         1 3.46252E-01 1.01354E+02 0.00000E+00
 -1         2 3.46252E-01 9.93340E+01 0.00000E+00
 -1         3 3.46249E-01 9.73141E+01 0.00000E+00
 -1         4 3.46241E-01 9.52942E+01 0.00000E+00
 -1         5 3.46225E-01 9.32745E+01 0.00000E+00
 -1         6 3.46200E-01 9.12549E+01 0.00000E+00
 -1         7 3.46163E-01 8.92355E+01 0.00000E+00
 -1         8 3.46111E-01 8.72162E+01 0.00000E+00
 -1         9 3.46043E-01 8.51974E+01 0.00000E+00
 -1        10 3.45956E-01 8.31790E+01 0.00000E+00
 -1        11 3.45848E-01 8.11612E+01 0.00000E+00
 -1        12 3.45717E-01 7.91441E+01 0.00000E+00
 -1        13 3.45562E-01 7.71278E+01 0.00000E+00
 -1        14 3.45379E-01 7.51125E+01 0.00000E+00
 -1        15 3.45168E-01 7.30984E+01 0.00000E+00
 -1        16 3.44926E-01 7.10855E+01 0.00000E+00
 -1        17 3.44651E-01 6.90742E+01 0.00000E+00
 -1        18 3.44342E-01 6.70646E+01 0.00000E+00
 -1        19 3.43997E-01 6.50568E+01 0.00000E+00
 -1        20 3.43615E-01 6.30513E+01 0.00000E+00
 -1        21 3.43193E-01 6.10480E+01 0.00000E+00
 -1        22 3.42731E-01 5.90474E+01 0.00000E+00
 -1        23 3.42226E-01 5.70495E+01 0.00000E+00
 -1        24 3.41678E-01 5.50547E+01 0.00000E+00
 -1        25 3.41084E-01 5.30633E+01 0.00000E+00
 -1        26 3.40444E-01 5.10754E+01 0.00000E+00
 -1        27 3.39756E-01 4.90914E+01 0.00000E+00
 -1        28 3.39018E-01 4.71116E+01 0.00000E+00
 -1        29 3.38231E-01 4.51363E+01 0.00000E+00
 -1        30 3.37392E-01 4.31656E+01 0.00000E+00
 -1        31 3.36501E-01 4.12001E+01 0.00000E+00
 -1        32 3.35556E-01 3.92398E+01 0.00000E+00
 -1        33 3.34556E-01 3.72853E+01 0.00000E+00
 -1        34 3.33500E-01 3.53367E+01 0.00000E+00
 -1        35 3.32388E-01 3.33945E+01 0.00000E+00
 -1        36 3.31219E-01 3.14589E+01 0.00000E+00
 -1        37 3.29992E-01 2.95303E+01 0.00000E+00
 -1        38 3.28705E-01 2.76090E+01 0.00000E+00
 -1        39 3.27359E-01 2.56955E+01 0.00000E+00
 -1        40 3.25953E-01 2.37899E+01 0.00000E+00
 -1        41 3.24485E-01 2.18927E+01 0.00000E+00
 -1        42 3.22956E-01 2.00043E+01 0.00000E+00
 -1        43 3.21365E-01 1.81250E+01 0.00000E+00
 -1        44 3.19712E-01 1.62551E+01 0.00000E+00
 -1        45 3.17995E-01 1.43951E+01 0.00000E+00
 -1        46 3.16215E-01 1.25453E+01 0.00000E+00
 -1        47 3.14372E-01 1.07060E+01 0.00000E+00
 -1        48 3.12464E-01 8.87767E+00 0.00000E+00
 -1        49 3.10492E-01 7.06066E+00 0.00000E+00
 -1        50 3.08456E-01 5.25534E+00 0.00000E+00
 -1        51 3.06355E-01 3.46204E+00 0.00000E+00
 -1        52 3.04189E-01 1.68124E+00 0.00000E+00
 -1        53 3.01959E-01-8.67481E-02 0.00000E+00
 -1        54 2.99664E-01-1.84153E+00 0.00000E+00
 -1        55 2.97304E-01-3.58274E+00 0.00000E+00
 -1        56 2.94879E-01-5.30999E+00 0.00000E+00
 -1        57 2.92390E-01-7.02291E+00 0.00000E+00
 -1        58 2.89836E-01-8.72112E+00 0.00000E+00
 -1        59 2.87218E-01-1.04042E+01 0.00000E+00
 -1        60 2.84536E-01-1.20719E+01 0.00000E+00
 -1        61 2.81791E-01-1.37237E+01 0.00000E+00
 -1        62 2.78981E-01-1.53594E+01 0.00000E+00
 -1        63 2.76110E-01-1.69784E+01 0.00000E+00
 -1        64 2.73175E-01-1.85806E+01 0.00000E+00
 -1        65 2.70178E-01-2.01654E+01 0.00000E+00
 -1        66 2.67120E-01-2.17326E+01 0.00000E+00
 -1        67 2.64000E-01-2.32817E+01 0.00000E+00
 -1        68 2.60819E-01-2.48125E+01 0.00000E+00
 -1        69 2.57579E-01-2.63246E+01 0.00000E+00
 -1        70 2.54279E-01-2.78175E+01 0.00000E+00
 -1        71 2.50921E-01-2.92911E+01 0.00000E+00
 -1        72 2.47505E-01-3.07449E+01 0.00000E+00
 -1        73 2.44032E-01-3.21785E+01 0.00000E+00
 -1        74 2.40502E-01-3.35918E+01 0.00000E+00
 -1        75 2.36916E-01-3.49843E+01 0.00000E+00
 -1        76 2.33276E-01-3.63558E+01 0.00000E+00
 -1        77 2.29582E-01-3.77058E+01 0.00000E+00
 -1        78 2.25836E-01-3.90341E+01 0.00000E+00
 -1        79 2.22036E-01-4.03405E+01 0.00000E+00
 -1        80 2.18187E-01-4.16245E+01 0.00000E+00
 -1        81 2.14287E-01-4.28860E+01 0.00000E+00
 -1        82 2.10339E-01-4.41245E+01 0.00000E+00
 -1        83 2.06343E-01-4.53398E+01 0.00000E+00
 -1        84 2.02300E-01-4.65318E+01 0.00000E+00
 -1        85 1.98212E-01-4.77000E+01 0.00000E+00
 -1        86 1.94079E-01-4.88442E+01 0.00000E+00
 -1        87 1.89904E-01-4.99642E+01 0.00000E+00
 -1        88 1.85686E-01-5.10597E+01 0.00000E+00
 -1        89 1.81428E-01-5.21304E+01 0.00000E+00
 -1        90 1.77131E-01-5.31763E+01 0.00000E+00
 -1        91 1.72796E-01-5.41969E+01 0.00000E+00
 -1        92 1.68425E-01-5.51922E+01 0.00000E+00
 -1        93 1.64017E-01-5.61618E+01 0.00000E+00
 -1        94 1.59577E-01-5.71057E+01 0.00000E+00
 -1        95 1.55103E-01-5.80235E+01 0.00000E+00
 -1        96 1.50599E-01-5.89152E+01 0.00000E+00
 -1        97 1.46066E-01-5.97805E+01 0.00000E+00
 -1        98 1.41504E-01-6.06193E+01 0.00000E+00
 -1        99 1.36916E-01-6.14313E+01 0.00000E+00
 -1       100 1.32303E-01-6.22166E+01 0.00000E+00
 -1       101 1.27667E-01-6.29749E+01 0.00000E+00
 -1       102 1.23009E-01-6.37060E+01 0.00000E+00
 -1       103 1.18331E-01-6.44099E+01 0.00000E+00
 -1       104 1.13633E-01-6.50865E+01 0.00000E+00
 -1       105 1.08919E-01-6.57357E+01 0.00000E+00
 -1       106 1.04191E-01-6.63572E+01 0.00000E+00
 -1       107 9.94469E-02-6.69512E+01 0.00000E+00
 -1       108 9.46924E-02-6.75175E+01 0.00000E+00
 -1       109 8.99267E-02-6.80560E+01 0.00000E+00
 -1       110 8.51532E-02-6.85666E+01 0.00000E+00
 -1       111 8.03722E-02-6.90494E+01 0.00000E+00
 -1       112 7.55863E-02-6.95043E+01 0.00000E+00
 -1       113 7.07972E-02-6.99313E+01 0.00000E+00
 -1       114 6.60059E-02-7.03303E+01 0.00000E+00
 -1       115 6.12150E-02-7.07014E+01 0.00000E+00
 -1       116 5.64260E-02-7.10445E+01 0.00000E+00
 -1       117 5.16405E-02-7.13597E+01 0.00000E+00
 -1       118 4.68608E-02-7.16470E+01 0.00000E+00
 -1       119 4.20874E-02-7.19064E+01 0.00000E+00
 -1       120 3.73246E-02-7.21380E+01 0.00000E+00
 -1       121 3.25707E-02-7.23419E+01 0.00000E+00
 -1       122 2.78311E-02-7.25181E+01 0.00000E+00
 -1       123 2.31049E-02-7.26667E+01 0.00000E+00
 -1       124 1.83960E-02-7.27877E+01 0.00000E+00
 -1       125 1.37042E-02-7.28813E+01 0.00000E+00
 -1       126 9.03312E-03-7.29476E+01 0.00000E+00
 -1       127 4.38348E-03-7.29868E+01 0.00000E+00
 -1       128-2.42374E-04-7.29988E+01 0.00000E+00
 -1       129-4.84273E-03-7.29840E+01 0.00000E+00
 -1       130-9.41619E-03-7.29424E+01 0.00000E+00
 -1       131-1.39600E-02-7.28742E+01 0.00000E+00
 -1       132-1.84731E-02-7.27796E+01 0.00000E+00
 -1       133-2.29533E-02-7.26588E+01 0.00000E+00
 -1       134-2.73991E-02-7.25119E+01 0.00000E+00
 -1       135-3.18084E-02-7.23392E+01 0.00000E+00
 -1       136-3.61792E-02-7.21409E+01 0.00000E+00
 -1       137-4.05103E-02-7.19172E+01 0.00000E+00
 -1       138-4.47989E-02-7.16684E+01 0.00000E+00
 -1       139-4.90445E-02-7.13947E+01 0.00000E+00
 -1       140-5.32439E-02-7.10963E+01 0.00000E+00
 -1       141-5.73969E-02-7.07736E+01 0.00000E+00
 -1       142-6.15000E-02-7.04268E+01 0.00000E+00
 -1       143-6.55527E-02-7.00562E+01 0.00000E+00
 -1       144-6.95527E-02-6.96621E+01 0.00000E+00
 -1       145-7.34982E-02-6.92449E+01 0.00000E+00
 -1       146-7.73880E-02-6.88048E+01 0.00000E+00
 -1       147-8.12193E-02-6.83422E+01 0.00000E+00
 -1       148-8.49920E-02-6.78573E+01 0.00000E+00
 -1       149-8.87026E-02-6.73507E+01 0.00000E+00
 -1       150-9.23503E-02-6.68226E+01 0.00000E+00
 -1       151-9.59339E-02-6.62734E+01 0.00000E+00
 -1       152-9.94505E-02-6.57035E+01 0.00000E+00
 -1       153-1.02899E-01-6.51133E+01 0.00000E+00
 -1       154-1.06279E-01-6.45032E+01 0.00000E+00
 -1       155-1.09587E-01-6.38736E+01 0.00000E+00
 -1       156-1.12822E-01-6.32248E+01 0.00000E+00
 -1       157-1.15982E-01-6.25575E+01 0.00000E+00
 -1       158-1.19067E-01-6.18719E+01 0.00000E+00
 -1       159-1.22074E-01-6.11685E+01 0.00000E+00
 -1       160-1.25002E-01-6.04479E+01 0.00000E+00
 -1       161-1.27849E-01-5.97103E+01 0.00000E+00
 -1       162-1.30614E-01-5.89564E+01 0.00000E+00
 -1       163-1.33295E-01-5.81867E+01 0.00000E+00
 -1       164-1.35891E-01-5.74015E+01 0.00000E+00
 -1       165-1.38401E-01-5.66015E+01 0.00000E+00
 -1       166-1.40822E-01-5.57870E+01 0.00000E+00
 -1       167-1.43154E-01-5.49587E+01 0.00000E+00
 -1       168-1.45395E-01-5.41171E+01 0.00000E+00
 -1       169-1.47544E-01-5.32626E+01 0.00000E+00
 -1       170-1.49600E-01-5.23959E+01 0.00000E+00
 -1       171-1.51560E-01-5.15175E+01 0.00000E+00
 -1       172-1.53424E-01-5.06279E+01 0.00000E+00
 -1       173-1.55191E-01-4.97278E+01 0.00000E+00
 -1       174-1.56859E-01-4.88176E+01 0.00000E+00
 -1       175-1.58427E-01-4.78980E+01 0.00000E+00
 -1       176-1.59894E-01-4.69695E+01 0.00000E+00
 -1       177-1.61258E-01-4.60328E+01 0.00000E+00
 -1       178-1.62519E-01-4.50884E+01 0.00000E+00
 -1       179-1.63675E-01-4.41369E+01 0.00000E+00
 -1       180-1.64725E-01-4.31791E+01 0.00000E+00
 -1       181-1.65669E-01-4.22154E+01 0.00000E+00
 -1       182-1.66504E-01-4.12465E+01 0.00000E+00
 -1       183-1.67231E-01-4.02730E+01 0.00000E+00
 -1       184-1.67847E-01-3.92957E+01 0.00000E+00
 -1       185-1.68352E-01-3.83151E+01 0.00000E+00
 -1       186-1.68745E-01-3.73318E+01 0.00000E+00
 -1       187-1.69025E-01-3.63466E+01 0.00000E+00
 -1       188-1.69192E-01-3.53601E+01 0.00000E+00
 -1       189-1.69243E-01-3.43730E+01 0.00000E+00
 -1       190-1.69179E-01-3.33859E+01 0.00000E+00
 -1       191-1.68998E-01-3.23995E+01 0.00000E+00
 -1       192-1.68700E-01-3.14145E+01 0.00000E+00
 -1       193-1.68283E-01-3.04316E+01 0.00000E+00
 -1       194-1.67748E-01-2.94514E+01 0.00000E+00
 -1       195-1.67093E-01-2.84748E+01 0.00000E+00
 -1       196-1.66317E-01-2.75023E+01 0.00000E+00
 -1       197-1.65421E-01-2.65347E+01 0.00000E+00
 -1       198-1.64402E-01-2.55726E+01 0.00000E+00
 -1       199-1.63261E-01-2.46169E+01 0.00000E+00
 -1       200-1.61997E-01-2.36682E+01 0.00000E+00
 -1       201-1.60609E-01-2.27272E+01 0.00000E+00
 -1       202-1.59097E-01-2.17947E+01 0.00000E+00
 -1       203-1.57461E-01-2.08714E+01 0.00000E+00
 -1       204-1.55698E-01-1.99579E+01 0.00000E+00
 -1       205-1.53810E-01-1.90552E+01 0.00000E+00
 -1       206-1.51795E-01-1.81638E+01 0.00000E+00
 -1       207-1.49654E-01-1.72845E+01 0.00000E+00
 -1       208-1.47385E-01-1.64181E+01 0.00000E+00
 -1       209-1.44988E-01-1.55653E+01 0.00000E+00
 -1       210-1.42464E-01-1.47269E+01 0.00000E+00
 -1       211-1.39811E-01-1.39035E+01 0.00000E+00
 -1       212-1.37029E-01-1.30960E+01 0.00000E+00
 -1       213-1.34118E-01-1.23052E+01 0.00000E+00
 -1       214-1.31077E-01-1.15316E+01 0.00000E+00
 -1       215-1.27906E-01-1.07762E+01 0.00000E+00
 -1       216-1.24606E-01-1.00397E+01 0.00000E+00
 -1       217-1.21174E-01-9.32278E+00 0.00000E+00
 -1       218-1.17613E-01-8.62628E+00 0.00000E+00
 -1       219-1.13920E-01-7.95094E+00 0.00000E+00
 -1       220-1.10097E-01-7.29752E+00 0.00000E+00
 -1       221-1.06142E-01-6.66679E+00 0.00000E+00
 -1       222-1.02056E-01-6.05951E+00 0.00000E+00
 -1       223-9.78376E-02-5.47646E+00 0.00000E+00
 -1       224-9.34888E-02-4.91839E+00 0.00000E+00
 -1       225-8.90066E-02-4.38608E+00 0.00000E+00
 -1       226-8.43941E-02-3.88029E+00 0.00000E+00
 -1       227-7.96478E-02-3.40180E+00 0.00000E+00
 -1       228-7.47712E-02-2.95138E+00 0.00000E+00
 -1       229-6.97604E-02-2.52980E+00 0.00000E+00
 -1       230-6.46197E-02-2.13783E+00 0.00000E+00
 -1       231-5.93427E-02-1.77624E+00 0.00000E+00
 -1       232-5.39389E-02-1.44580E+00 0.00000E+00
 -1       233-4.83957E-02-1.14730E+00 0.00000E+00
 -1       234-4.27288E-02-8.81495E-01 0.00000E+00
 -1       235-3.69181E-02-6.49166E-01 0.00000E+00
 -1       236-3.09884E-02-4.51081E-01 0.00000E+00
 -1       237-2.49131E-02-2.88009E-01 0.00000E+00
 -1       238-1.87063E-02-1.60769E-01 0.00000E+00
 -1       239-1.24216E-02-6.99335E-02 0.00000E+00
 -1       240-5.73111E-03-1.70526E-02 0.00000E+00
 -1       241 0.00000E+00 0.00000E+00 0.00000E+00
 -1       242 3.46252E-01 1.01354E+02 0.00000E+00
 -1       243 3.46252E-01 9.93340E+01 0.00000E+00
 -1       244 3.46249E-01 9.73141E+01 0.00000E+00
 -1       245 3.46241E-01 9.52942E+01 0.00000E+00
 -1       246 3.46225E-01 9.32745E+01 0.00000E+00
 -1       247 3.46200E-01 9.12549E+01 0.00000E+00
 -1       248 3.46163E-01 8.92355E+01 0.00000E+00
 -1       249 3.46111E-01 8.72162E+01 0.00000E+00
 -1       250 3.46043E-01 8.51974E+01 0.00000E+00
 -1       251 3.45956E-01 8.31790E+01 0.00000E+00
 -1       252 3.45848E-01 8.11612E+01 0.00000E+00
 -1       253 3.45717E-01 7.91441E+01 0.00000E+00
 -1       254 3.45562E-01 7.71278E+01 0.00000E+00
 -1       255 3.45379E-01 7.51125E+01 0.00000E+00
 -1       256 3.45168E-01 7.30984E+01 0.00000E+00
 -1       257 3.44926E-01 7.10855E+01 0.00000E+00
 -1       258 3.44651E-01 6.90742E+01 0.00000E+00
 -1       259 3.44342E-01 6.70646E+01 0.00000E+00
 -1       260 3.43997E-01 6.50568E+01 0.00000E+00
 -1       261 3.43615E-01 6.30513E+01 0.00000E+00
 -1       262 3.43193E-01 6.10480E+01 0.00000E+00
 -1       263 3.42731E-01 5.90474E+01 0.00000E+00
 -1       264 3.42226E-01 5.70495E+01 0.00000E+00
 -1       265 3.41678E-01 5.50547E+01 0.00000E+00
 -1       266 3.41084E-01 5.30633E+01 0.00000E+00
 -1       267 3.40444E-01 5.10754E+01 0.00000E+00
 -1       268 3.39756E-01 4.90914E+01 0.00000E+00
 -1       269 3.39018E-01 4.71116E+01 0.00000E+00
 -1       270 3.38231E-01 4.51363E+01 0.00000E+00
 -1       271 3.37392E-01 4.31656E+01 0.00000E+00
 -1       272 3.36501E-01 4.12001E+01 0.00000E+00
 -1       273 3.35556E-01 3.92398E+01 0.00000E+00
 -1       274 3.34556E-01 3.72853E+01 0.00000E+00
 -1       275 3.33500E-01 3.53367E+01 0.00000E+00
 -1       276 3.32388E-01 3.33945E+01 0.00000E+00
 -1       277 3.31219E-01 3.14589E+01 0.00000E+00
 -1       278 3.29992E-01 2.95303E+01 0.00000E+00
 -1       279 3.28705E-01 2.76090E+01 0.00000E+00
 -1       280 3.27359E-01 2.56955E+01 0.00000E+00
 -1       281 3.25953E-01 2.37899E+01 0.00000E+00
 -1       282 3.24485E-01 2.18927E+01 0.00000E+00
 -1       283 3.22956E-01 2.00043E+01 0.00000E+00
 -1       284 3.21365E-01 1.81250E+01 0.00000E+00
 -1       285 3.19712E-01 1.62551E+01 0.00000E+00
 -1       286 3.17995E-01 1.43951E+01 0.00000E+00
 -1       287 3.16215E-01 1.25453E+01 0.00000E+00
 -1       288 3.14372E-01 1.07060E+01 0.00000E+00
 -1       289 3.12464E-01 8.87767E+00 0.00000E+00
 -1       290 3.10492E-01 7.06066E+00 0.00000E+00
 -1       291 3.08456E-01 5.25534E+00 0.00000E+00
 -1       292 3.06355E-01 3.46204E+00 0.00000E+00
 -1       293 3.04189E-01 1.68124E+00 0.00000E+00
 -1       294 3.01959E-01-8.67481E-02 0.00000E+00
 -1       295 2.99664E-01-1.84153E+00 0.00000E+00
 -1       296 2.97304E-01-3.58274E+00 0.00000E+00
 -1       297 2.94879E-01-5.30999E+00 0.00000E+00
 -1       298 2.92390E-01-7.02291E+00 0.00000E+00
 -1       299 2.89836E-01-8.72112E+00 0.00000E+00
 -1       300 2.87218E-01-1.04042E+01 0.00000E+00
 -1       301 2.84536E-01-1.20719E+01 0.00000E+00
 -1       302 2.81791E-01-1.37237E+01 0.00000E+00
 -1       303 2.78981E-01-1.53594E+01 0.00000E+00
 -1       304 2.76110E-01-1.69784E+01 0.00000E+00
 -1       305 2.73175E-01-1.85806E+01 0.00000E+00
 -1       306 2.70178E-01-2.01654E+01 0.00000E+00
 -1       307 2.67120E-01-2.17326E+01 0.00000E+00
 -1       308 2.64000E-01-2.32817E+01 0.00000E+00
 -1       309 2.60819E-01-2.48125E+01 0.00000E+00
 -1       310 2.57579E-01-2.63246E+01 0.00000E+00
 -1       311 2.54279E-01-2.78175E+01 0.00000E+00
 -1       312 2.50921E-01-2.92911E+01 0.00000E+00
 -1       313 2.47505E-01-3.07449E+01 0.00000E+00
 -1       314 2.44032E-01-3.21785E+01 0.00000E+00
 -1       315 2.40502E-01-3.35918E+01 0.00000E+00
 -1       316 2.36916E-01-3.49843E+01 0.00000E+00
 -1       317 2.33276E-01-3.63558E+01 0.00000E+00
 -1       318 2.29582E-01-3.77058E+01 0.00000E+00
 -1       319 2.25836E-01-3.90341E+01 0.00000E+00
 -1       320 2.22036E-01-4.03405E+01 0.00000E+00
 -1       321 2.18187E-01-4.16245E+01 0.00000E+00
 -1       322 2.14287E-01-4.28860E+01 0.00000E+00
 -1       323 2.10339E-01-4.41245E+01 0.00000E+00
 -1       324 2.06343E-01-4.53398E+01 0.00000E+00
 -1       325 2.02300E-01-4.65318E+01 0.00000E+00
 -1       326 1.98212E-01-4.77000E+01 0.00000E+00
 -1       327 1.94079E-01-4.88442E+01 0.00000E+00
 -1       328 1.89904E-01-4.99642E+01 0.00000E+00
 -1       329 1.85686E-01-5.10597E+01 0.00000E+00
 -1       330 1.81428E-01-5.21304E+01 0.00000E+00
 -1       331 1.77131E-01-5.31763E+01 0.00000E+00
 -1       332 1.72796E-01-5.41969E+01 0.00000E+00
 -1       333 1.68425E-01-5.51922E+01 0.00000E+00
 -1       334 1.64017E-01-5.61618E+01 0.00000E+00
 -1       335 1.59577E-01-5.71057E+01 0.00000E+00
 -1       336 1.55103E-01-5.80235E+01 0.00000E+00
 -1       337 1.50599E-01-5.89152E+01 0.00000E+00
 -1       338 1.46066E-01-5.97805E+01 0.00000E+00
 -1       339 1.41504E-01-6.06193E+01 0.00000E+00
 -1       340 1.36916E-01-6.14313E+01 0.00000E+00
 -1       341 1.32303E-01-6.22166E+01 0.00000E+00
 -1       342 1.27667E-01-6.29749E+01 0.00000E+00
 -1       343 1.23009E-01-6.37060E+01 0.00000E+00
 -1       344 1.18331E-01-6.44099E+01 0.00000E+00
 -1       345 1.13633E-01-6.50865E+01 0.00000E+00
 -1       346 1.08919E-01-6.57357E+01 0.00000E+00
 -1       347 1.04191E-01-6.63572E+01 0.00000E+00
 -1       348 9.94469E-02-6.69512E+01 0.00000E+00
 -1       349 9.46924E-02-6.75175E+01 0.00000E+00
 -1       350 8.99267E-02-6.80560E+01 0.00000E+00
 -1       351 8.51532E-02-6.85666E+01 0.00000E+00
 -1       352 8.03722E-02-6.90494E+01 0.00000E+00
 -1       353 7.55863E-02-6.95043E+01 0.00000E+00
 -1       354 7.07972E-02-6.99313E+01 0.00000E+00
 -1       355 6.60059E-02-7.03303E+01 0.00000E+00
 -1       356 6.12150E-02-7.07014E+01 0.00000E+00
 -1       357 5.64260E-02-7.10445E+01 0.00000E+00
 -1       358 5.16405E-02-7.13597E+01 0.00000E+00
 -1       359 4.68608E-02-7.16470E+01 0.00000E+00
 -1       360 4.20874E-02-7.19064E+01 0.00000E+00
 -1       361 3.73246E-02-7.21380E+01 0.00000E+00
 -1       362 3.25707E-02-7.23419E+01 0.00000E+00
 -1       363 2.78311E-02-7.25181E+01 0.00000E+00
 -1       364 2.31049E-02-7.26667E+01 0.00000E+00
 -1       365 1.83960E-02-7.27877E+01 0.00000E+00
 -1       366 1.37042E-02-7.28813E+01 0.00000E+00
 -1       367 9.03312E-03-7.29476E+01 0.00000E+00
 -1       368 4.38348E-03-7.29868E+01 0.00000E+00
 -1       369-2.42372E-04-7.29988E+01 0.00000E+00
 -1       370-4.84273E-03-7.29840E+01 0.00000E+00
 -1       371-9.41619E-03-7.29424E+01 0.00000E+00
 -1       372-1.39600E-02-7.28742E+01 0.00000E+00
 -1       373-1.84731E-02-7.27796E+01 0.00000E+00
 -1       374-2.29533E-02-7.26588E+01 0.00000E+00
 -1       375-2.73991E-02-7.25119E+01 0.00000E+00
 -1       376-3.18084E-02-7.23392E+01 0.00000E+00
 -1       377-3.61792E-02-7.21409E+01 0.00000E+00
 -1       378-4.05102E-02-7.19172E+01 0.00000E+00
 -1       379-4.47989E-02-7.16684E+01 0.00000E+00
 -1       380-4.90445E-02-7.13947E+01 0.00000E+00
 -1       381-5.32439E-02-7.10963E+01 0.00000E+00
 -1       382-5.73969E-02-7.07736E+01 0.00000E+00
 -1       383-6.15000E-02-7.04268E+01 0.00000E+00
 -1       384-6.55527E-02-7.00562E+01 0.00000E+00
 -1       385-6.95527E-02-6.96621E+01 0.00000E+00
 -1       386-7.34982E-02-6.92449E+01 0.00000E+00
 -1       387-7.73880E-02-6.88048E+01 0.00000E+00
 -1       388-8.12193E-02-6.83422E+01 0.00000E+00
 -1       389-8.49919E-02-6.78573E+01 0.00000E+00
 -1       390-8.87026E-02-6.73507E+01 0.00000E+00
 -1       391-9.23503E-02-6.68226E+01 0.00000E+00
 -1       392-9.59339E-02-6.62734E+01 0.00000E+00
 -1       393-9.94505E-02-6.57035E+01 0.00000E+00
 -1       394-1.02899E-01-6.51133E+01 0.00000E+00
 -1       395-1.06279E-01-6.45032E+01 0.00000E+00
 -1       396-1.09587E-01-6.38736E+01 0.00000E+00
 -1       397-1.12822E-01-6.32248E+01 0.00000E+00
 -1       398-1.15982E-01-6.25575E+01 0.00000E+00
 -1       399-1.19067E-01-6.18719E+01 0.00000E+00
 -1       400-1.22074E-01-6.11685E+01 0.00000E+00
 -1       401-1.25002E-01-6.04479E+01 0.00000E+00
 -1       402-1.27849E-01-5.97103E+01 0.00000E+00
 -1       403-1.30614E-01-5.89564E+01 0.00000E+00
 -1       404-1.33295E-01-5.81867E+01 0.00000E+00
 -1       405-1.35891E-01-5.74015E+01 0.00000E+00
 -1       406-1.38401E-01-5.66015E+01 0.00000E+00
 -1       407-1.40822E-01-5.57870E+01 0.00000E+00
 -1       408-1.43154E-01-5.49587E+01 0.00000E+00
 -1       409-1.45395E-01-5.41171E+01 0.00000E+00
 -1       410-1.47544E-01-5.32626E+01 0.00000E+00
 -1       411-1.49600E-01-5.23959E+01 0.00000E+00
 -1       412-1.51560E-01-5.15175E+01 0.00000E+00
 -1       413-1.53424E-01-5.06279E+01 0.00000E+00
 -1       414-1.55191E-01-4.97278E+01 0.00000E+00
 -1       415-1.56859E-01-4.88176E+01 0.00000E+00
 -1       416-1.58427E-01-4.78980E+01 0.00000E+00
 -1       417-1.59894E-01-4.69695E+01 0.00000E+00
 -1       418-1.61258E-01-4.60328E+01 0.00000E+00
 -1       419-1.62519E-01-4.50884E+01 0.00000E+00
 -1       420-1.63675E-01-4.41369E+01 0.00000E+00
 -1       421-1.64725E-01-4.31791E+01 0.00000E+00
 -1       422-1.65669E-01-4.22154E+01 0.00000E+00
 -1       423-1.66504E-01-4.12465E+01 0.00000E+00
 -1       424-1.67231E-01-4.02730E+01 0.00000E+00
 -1       425-1.67847E-01-3.92957E+01 0.00000E+00
 -1       426-1.68352E-01-3.83151E+01 0.00000E+00
 -1       427-1.68745E-01-3.73318E+01 0.00000E+00
 -1       428-1.69025E-01-3.63466E+01 0.00000E+00
 -1       429-1.69192E-01-3.53601E+01 0.00000E+00
 -1       430-1.69243E-01-3.43730E+01 0.00000E+00
 -1       431-1.69179E-01-3.33859E+01 0.00000E+00
 -1       432-1.68998E-01-3.23995E+01 0.00000E+00
 -1       433-1.68700E-01-3.14145E+01 0.00000E+00
 -1       434-1.68283E-01-3.04316E+01 0.00000E+00
 -1       435-1.67748E-01-2.94514E+01 0.00000E+00
 -1       436-1.67093E-01-2.84748E+01 0.00000E+00
 -1       437-1.66317E-01-2.75023E+01 0.00000E+00
 -1       438-1.65421E-01-2.65347E+01 0.00000E+00
 -1       439-1.64402E-01-2.55726E+01 0.00000E+00
 -1       440-1.63261E-01-2.46169E+01 0.00000E+00
 -1       441-1.61997E-01-2.36682E+01 0.00000E+00
 -1       442-1.60609E-01-2.27272E+01 0.00000E+00
 -1       443-1.59097E-01-2.17947E+01 0.00000E+00
 -1       444-1.57461E-01-2.08714E+01 0.00000E+00
 -1       445-1.55698E-01-1.99579E+01 0.00000E+00
 -1       446-1.53810E-01-1.90552E+01 0.00000E+00
 -1       447-1.51795E-01-1.81638E+01 0.00000E+00
 -1       448-1.49654E-01-1.72845E+01 0.00000E+00
 -1       449-1.47385E-01-1.64181E+01 0.00000E+00
 -1       450-1.44988E-01-1.55653E+01 0.00000E+00
 -1       451-1.42464E-01-1.47269E+01 0.00000E+00
 -1       452-1.39811E-01-1.39035E+01 0.00000E+00
 -1       453-1.37029E-01-1.30960E+01 0.00000E+00
 -1       454-1.34118E-01-1.23052E+01 0.00000E+00
 -1       455-1.31077E-01-1.15316E+01 0.00000E+00
 -1       456-1.27906E-01-1.07762E+01 0.00000E+00
 -1       457-1.24606E-01-1.00397E+01 0.00000E+00
 -1       458-1.21174E-01-9.32278E+00 0.00000E+00
 -1       459-1.17613E-01-8.62628E+00 0.00000E+00
 -1       460-1.13920E-01-7.95094E+00 0.00000E+00
 -1       461-1.10097E-01-7.29752E+00 0.00000E+00
 -1       462-1.06142E-01-6.66679E+00 0.00000E+00
 -1       463-1.02056E-01-6.05951E+00 0.00000E+00
 -1       464-9.78376E-02-5.47646E+00 0.00000E+00
 -1       465-9.34888E-02-4.91839E+00 0.00000E+00
 -1       466-8.90066E-02-4.38608E+00 0.00000E+00
 -1       467-8.43941E-02-3.88029E+00 0.00000E+00
 -1       468-7.96478E-02-3.40180E+00 0.00000E+00
 -1       469-7.47712E-02-2.95138E+00 0.00000E+00
 -1       470-6.97604E-02-2.52980E+00 0.00000E+00
 -1       471-6.46197E-02-2.13783E+00 0.00000E+00
 -1       472-5.93427E-02-1.77624E+00 0.00000E+00
 -1       473-5.39389E-02-1.44580E+00 0.00000E+00
 -1       474-4.83957E-02-1.14730E+00 0.00000E+00
 -1       475-4.27288E-02-8.81495E-01 0.00000E+00
 -1       476-3.69181E-02-6.49166E-01 0.00000E+00
 -1       477-3.09884E-02-4.51081E-01 0.00000E+00
 -1       478-2.49131E-02-2.88009E-01 0.00000E+00
 -1       479-1.87063E-02-1.60769E-01 0.00000E+00
 -1       480-1.24216E-02-6.99335E-02 0.00000E+00
 -1       481-5.73111E-03-1.70526E-02 0.00000E+00
 -1       482 0.00000E+00 0.00000E+00 0.00000E+00
 -1       483 1.73146E-01 1.01354E+02 0.00000E+00
 -1       484 1.73146E-01 9.93340E+01 0.00000E+00
 -1       485 1.73144E-01 9.73141E+01 0.00000E+00
 -1       486 1.73140E-01 9.52943E+01 0.00000E+00
 -1       487 1.73133E-01 9.32745E+01 0.00000E+00
 -1       488 1.73120E-01 9.12550E+01 0.00000E+00
 -1       489 1.73101E-01 8.92356E+01 0.00000E+00
 -1       490 1.73076E-01 8.72163E+01 0.00000E+00
 -1       491 1.73042E-01 8.51975E+01 0.00000E+00
 -1       492 1.72998E-01 8.31791E+01 0.00000E+00
 -1       493 1.72944E-01 8.11613E+01 0.00000E+00
 -1       494 1.72879E-01 7.91443E+01 0.00000E+00
 -1       495 1.72801E-01 7.71279E+01 0.00000E+00
 -1       496 1.72709E-01 7.51127E+01 0.00000E+00
 -1       497 1.72604E-01 7.30985E+01 0.00000E+00
 -1       498 1.72483E-01 7.10857E+01 0.00000E+00
 -1       499 1.72345E-01 6.90744E+01 0.00000E+00
 -1       500 1.72191E-01 6.70648E+01 0.00000E+00
 -1       501 1.72018E-01 6.50571E+01 0.00000E+00
 -1       502 1.71827E-01 6.30515E+01 0.00000E+00
 -1       503 1.71616E-01 6.10483E+01 0.00000E+00
 -1       504 1.71385E-01 5.90477E+01 0.00000E+00
 -1       505 1.71133E-01 5.70498E+01 0.00000E+00
 -1       506 1.70858E-01 5.50550E+01 0.00000E+00
 -1       507 1.70562E-01 5.30635E+01 0.00000E+00
 -1       508 1.70241E-01 5.10757E+01 0.00000E+00
 -1       509 1.69897E-01 4.90918E+01 0.00000E+00
 -1       510 1.69529E-01 4.71119E+01 0.00000E+00
 -1       511 1.69135E-01 4.51366E+01 0.00000E+00
 -1       512 1.68715E-01 4.31660E+01 0.00000E+00
 -1       513 1.68270E-01 4.12004E+01 0.00000E+00
 -1       514 1.67797E-01 3.92402E+01 0.00000E+00
 -1       515 1.67297E-01 3.72857E+01 0.00000E+00
 -1       516 1.66769E-01 3.53371E+01 0.00000E+00
 -1       517 1.66213E-01 3.33949E+01 0.00000E+00
 -1       518 1.65629E-01 3.14593E+01 0.00000E+00
 -1       519 1.65015E-01 2.95307E+01 0.00000E+00
 -1       520 1.64372E-01 2.76095E+01 0.00000E+00
 -1       521 1.63698E-01 2.56959E+01 0.00000E+00
 -1       522 1.62995E-01 2.37904E+01 0.00000E+00
 -1       523 1.62261E-01 2.18932E+01 0.00000E+00
 -1       524 1.61497E-01 2.00048E+01 0.00000E+00
 -1       525 1.60701E-01 1.81255E+01 0.00000E+00
 -1       526 1.59874E-01 1.62556E+01 0.00000E+00
 -1       527 1.59016E-01 1.43955E+01 0.00000E+00
 -1       528 1.58126E-01 1.25458E+01 0.00000E+00
 -1       529 1.57204E-01 1.07065E+01 0.00000E+00
 -1       530 1.56250E-01 8.87815E+00 0.00000E+00
 -1       531 1.55264E-01 7.06114E+00 0.00000E+00
 -1       532 1.54246E-01 5.25581E+00 0.00000E+00
 -1       533 1.53195E-01 3.46260E+00 0.00000E+00
 -1       534 1.52112E-01 1.68178E+00 0.00000E+00
 -1       535 1.50997E-01-8.62067E-02 0.00000E+00
 -1       536 1.49849E-01-1.84100E+00 0.00000E+00
 -1       537 1.48669E-01-3.58221E+00 0.00000E+00
 -1       538 1.47457E-01-5.30943E+00 0.00000E+00
 -1       539 1.46212E-01-7.02235E+00 0.00000E+00
 -1       540 1.44935E-01-8.72057E+00 0.00000E+00
 -1       541 1.43626E-01-1.04037E+01 0.00000E+00
 -1       542 1.42285E-01-1.20714E+01 0.00000E+00
 -1       543 1.40912E-01-1.37232E+01 0.00000E+00
 -1       544 1.39507E-01-1.53588E+01 0.00000E+00
 -1       545 1.38071E-01-1.69779E+01 0.00000E+00
 -1       546 1.36604E-01-1.85800E+01 0.00000E+00
 -1       547 1.35105E-01-2.01649E+01 0.00000E+00
 -1       548 1.33576E-01-2.17320E+01 0.00000E+00
 -1       549 1.32016E-01-2.32812E+01 0.00000E+00
 -1       550 1.30425E-01-2.48119E+01 0.00000E+00
 -1       551 1.28805E-01-2.63240E+01 0.00000E+00
 -1       552 1.27155E-01-2.78170E+01 0.00000E+00
 -1       553 1.25476E-01-2.92905E+01 0.00000E+00
 -1       554 1.23767E-01-3.07443E+01 0.00000E+00
 -1       555 1.22030E-01-3.21780E+01 0.00000E+00
 -1       556 1.20265E-01-3.35913E+01 0.00000E+00
 -1       557 1.18472E-01-3.49838E+01 0.00000E+00
 -1       558 1.16652E-01-3.63552E+01 0.00000E+00
 -1       559 1.14805E-01-3.77053E+01 0.00000E+00
 -1       560 1.12932E-01-3.90336E+01 0.00000E+00
 -1       561 1.11032E-01-4.03400E+01 0.00000E+00
 -1       562 1.09107E-01-4.16240E+01 0.00000E+00
 -1       563 1.07157E-01-4.28854E+01 0.00000E+00
 -1       564 1.05182E-01-4.41240E+01 0.00000E+00
 -1       565 1.03184E-01-4.53393E+01 0.00000E+00
 -1       566 1.01163E-01-4.65313E+01 0.00000E+00
 -1       567 9.91184E-02-4.76995E+01 0.00000E+00
 -1       568 9.70518E-02-4.88437E+01 0.00000E+00
 -1       569 9.49639E-02-4.99637E+01 0.00000E+00
 -1       570 9.28550E-02-5.10592E+01 0.00000E+00
 -1       571 9.07257E-02-5.21300E+01 0.00000E+00
 -1       572 8.85770E-02-5.31758E+01 0.00000E+00
 -1       573 8.64090E-02-5.41965E+01 0.00000E+00
 -1       574 8.42233E-02-5.51918E+01 0.00000E+00
 -1       575 8.20191E-02-5.61614E+01 0.00000E+00
 -1       576 7.97989E-02-5.71053E+01 0.00000E+00
 -1       577 7.75619E-02-5.80231E+01 0.00000E+00
 -1       578 7.53098E-02-5.89148E+01 0.00000E+00
 -1       579 7.30426E-02-5.97801E+01 0.00000E+00
 -1       580 7.07617E-02-6.06189E+01 0.00000E+00
 -1       581 6.84675E-02-6.14310E+01 0.00000E+00
 -1       582 6.61607E-02-6.22163E+01 0.00000E+00
 -1       583 6.38423E-02-6.29745E+01 0.00000E+00
 -1       584 6.15129E-02-6.37057E+01 0.00000E+00
 -1       585 5.91737E-02-6.44097E+01 0.00000E+00
 -1       586 5.68247E-02-6.50863E+01 0.00000E+00
 -1       587 5.44677E-02-6.57354E+01 0.00000E+00
 -1       588 5.21028E-02-6.63570E+01 0.00000E+00
 -1       589 4.97310E-02-6.69510E+01 0.00000E+00
 -1       590 4.73533E-02-6.75173E+01 0.00000E+00
 -1       591 4.49704E-02-6.80558E+01 0.00000E+00
 -1       592 4.25833E-02-6.85664E+01 0.00000E+00
 -1       593 4.01925E-02-6.90493E+01 0.00000E+00
 -1       594 3.77994E-02-6.95042E+01 0.00000E+00
 -1       595 3.54044E-02-6.99312E+01 0.00000E+00
 -1       596 3.30086E-02-7.03302E+01 0.00000E+00
 -1       597 3.06129E-02-7.07013E+01 0.00000E+00
 -1       598 2.82181E-02-7.10444E+01 0.00000E+00
 -1       599 2.58252E-02-7.13596E+01 0.00000E+00
 -1       600 2.34348E-02-7.16470E+01 0.00000E+00
 -1       601 2.10483E-02-7.19064E+01 0.00000E+00
 -1       602 1.86661E-02-7.21381E+01 0.00000E+00
 -1       603 1.62895E-02-7.23419E+01 0.00000E+00
 -1       604 1.39189E-02-7.25182E+01 0.00000E+00
 -1       605 1.15560E-02-7.26667E+01 0.00000E+00
 -1       606 9.20086E-03-7.27878E+01 0.00000E+00
 -1       607 6.85513E-03-7.28814E+01 0.00000E+00
 -1       608 4.51903E-03-7.29478E+01 0.00000E+00
 -1       609 2.19412E-03-7.29869E+01 0.00000E+00
 -1       610-1.19137E-04-7.29990E+01 0.00000E+00
 -1       611-2.41962E-03-7.29842E+01 0.00000E+00
 -1       612-4.70647E-03-7.29426E+01 0.00000E+00
 -1       613-6.97872E-03-7.28745E+01 0.00000E+00
 -1       614-9.23549E-03-7.27799E+01 0.00000E+00
 -1       615-1.14758E-02-7.26591E+01 0.00000E+00
 -1       616-1.36991E-02-7.25122E+01 0.00000E+00
 -1       617-1.59037E-02-7.23396E+01 0.00000E+00
 -1       618-1.80897E-02-7.21413E+01 0.00000E+00
 -1       619-2.02551E-02-7.19176E+01 0.00000E+00
 -1       620-2.24001E-02-7.16688E+01 0.00000E+00
 -1       621-2.45227E-02-7.13951E+01 0.00000E+00
 -1       622-2.66231E-02-7.10968E+01 0.00000E+00
 -1       623-2.86994E-02-7.07741E+01 0.00000E+00
 -1       624-3.07515E-02-7.04273E+01 0.00000E+00
 -1       625-3.27779E-02-7.00567E+01 0.00000E+00
 -1       626-3.47783E-02-6.96627E+01 0.00000E+00
 -1       627-3.67512E-02-6.92454E+01 0.00000E+00
 -1       628-3.86963E-02-6.88054E+01 0.00000E+00
 -1       629-4.06123E-02-6.83428E+01 0.00000E+00
 -1       630-4.24987E-02-6.78580E+01 0.00000E+00
 -1       631-4.43543E-02-6.73514E+01 0.00000E+00
 -1       632-4.61784E-02-6.68233E+01 0.00000E+00
 -1       633-4.79704E-02-6.62741E+01 0.00000E+00
 -1       634-4.97289E-02-6.57043E+01 0.00000E+00
 -1       635-5.14536E-02-6.51141E+01 0.00000E+00
 -1       636-5.31435E-02-6.45040E+01 0.00000E+00
 -1       637-5.47976E-02-6.38743E+01 0.00000E+00
 -1       638-5.64155E-02-6.32257E+01 0.00000E+00
 -1       639-5.79960E-02-6.25583E+01 0.00000E+00
 -1       640-5.95386E-02-6.18727E+01 0.00000E+00
 -1       641-6.10422E-02-6.11694E+01 0.00000E+00
 -1       642-6.25064E-02-6.04487E+01 0.00000E+00
 -1       643-6.39300E-02-5.97112E+01 0.00000E+00
 -1       644-6.53129E-02-5.89574E+01 0.00000E+00
 -1       645-6.66535E-02-5.81876E+01 0.00000E+00
 -1       646-6.79518E-02-5.74025E+01 0.00000E+00
 -1       647-6.92068E-02-5.66024E+01 0.00000E+00
 -1       648-7.04175E-02-5.57880E+01 0.00000E+00
 -1       649-7.15838E-02-5.49598E+01 0.00000E+00
 -1       650-7.27044E-02-5.41181E+01 0.00000E+00
 -1       651-7.37791E-02-5.32637E+01 0.00000E+00
 -1       652-7.48069E-02-5.23970E+01 0.00000E+00
 -1       653-7.57872E-02-5.15186E+01 0.00000E+00
 -1       654-7.67196E-02-5.06291E+01 0.00000E+00
 -1       655-7.76030E-02-4.97289E+01 0.00000E+00
 -1       656-7.84372E-02-4.88187E+01 0.00000E+00
 -1       657-7.92213E-02-4.78991E+01 0.00000E+00
 -1       658-7.99549E-02-4.69706E+01 0.00000E+00
 -1       659-8.06372E-02-4.60339E+01 0.00000E+00
 -1       660-8.12678E-02-4.50896E+01 0.00000E+00
 -1       661-8.18459E-02-4.41381E+01 0.00000E+00
 -1       662-8.23712E-02-4.31802E+01 0.00000E+00
 -1       663-8.28430E-02-4.22166E+01 0.00000E+00
 -1       664-8.32608E-02-4.12477E+01 0.00000E+00
 -1       665-8.36241E-02-4.02743E+01 0.00000E+00
 -1       666-8.39323E-02-3.92969E+01 0.00000E+00
 -1       667-8.41850E-02-3.83163E+01 0.00000E+00
 -1       668-8.43816E-02-3.73331E+01 0.00000E+00
 -1       669-8.45218E-02-3.63478E+01 0.00000E+00
 -1       670-8.46050E-02-3.53614E+01 0.00000E+00
 -1       671-8.46308E-02-3.43742E+01 0.00000E+00
 -1       672-8.45987E-02-3.33871E+01 0.00000E+00
 -1       673-8.45083E-02-3.24007E+01 0.00000E+00
 -1       674-8.43592E-02-3.14157E+01 0.00000E+00
 -1       675-8.41511E-02-3.04328E+01 0.00000E+00
 -1       676-8.38834E-02-2.94527E+01 0.00000E+00
 -1       677-8.35560E-02-2.84760E+01 0.00000E+00
 -1       678-8.31682E-02-2.75035E+01 0.00000E+00
 -1       679-8.27199E-02-2.65359E+01 0.00000E+00
 -1       680-8.22107E-02-2.55739E+01 0.00000E+00
 -1       681-8.16402E-02-2.46181E+01 0.00000E+00
 -1       682-8.10083E-02-2.36694E+01 0.00000E+00
 -1       683-8.03143E-02-2.27284E+01 0.00000E+00
 -1       684-7.95584E-02-2.17959E+01 0.00000E+00
 -1       685-7.87399E-02-2.08725E+01 0.00000E+00
 -1       686-7.78587E-02-1.99591E+01 0.00000E+00
 -1       687-7.69146E-02-1.90563E+01 0.00000E+00
 -1       688-7.59073E-02-1.81649E+01 0.00000E+00
 -1       689-7.48365E-02-1.72856E+01 0.00000E+00
 -1       690-7.37021E-02-1.64192E+01 0.00000E+00
 -1       691-7.25038E-02-1.55664E+01 0.00000E+00
 -1       692-7.12414E-02-1.47279E+01 0.00000E+00
 -1       693-6.99149E-02-1.39046E+01 0.00000E+00
 -1       694-6.85237E-02-1.30970E+01 0.00000E+00
 -1       695-6.70682E-02-1.23061E+01 0.00000E+00
 -1       696-6.55475E-02-1.15326E+01 0.00000E+00
 -1       697-6.39623E-02-1.07772E+01 0.00000E+00
 -1       698-6.23118E-02-1.00406E+01 0.00000E+00
 -1       699-6.05961E-02-9.32367E+00 0.00000E+00
 -1       700-5.88153E-02-8.62714E+00 0.00000E+00
 -1       701-5.69689E-02-7.95178E+00 0.00000E+00
 -1       702-5.50570E-02-7.29832E+00 0.00000E+00
 -1       703-5.30795E-02-6.66755E+00 0.00000E+00
 -1       704-5.10362E-02-6.06023E+00 0.00000E+00
 -1       705-4.89272E-02-5.47713E+00 0.00000E+00
 -1       706-4.67522E-02-4.91902E+00 0.00000E+00
 -1       707-4.45116E-02-4.38668E+00 0.00000E+00
 -1       708-4.22044E-02-3.88085E+00 0.00000E+00
 -1       709-3.98320E-02-3.40232E+00 0.00000E+00
 -1       710-3.73923E-02-2.95185E+00 0.00000E+00
 -1       711-3.48883E-02-2.53022E+00 0.00000E+00
 -1       712-3.23157E-02-2.13821E+00 0.00000E+00
 -1       713-2.96799E-02-1.77657E+00 0.00000E+00
 -1       714-2.69741E-02-1.44608E+00 0.00000E+00
 -1       715-2.42072E-02-1.14752E+00 0.00000E+00
 -1       716-2.13672E-02-8.81657E-01 0.00000E+00
 -1       717-1.84697E-02-6.49276E-01 0.00000E+00
 -1       718-1.54943E-02-4.51130E-01 0.00000E+00
 -1       719-1.24696E-02-2.87999E-01 0.00000E+00
 -1       720-9.34937E-03-1.60690E-01 0.00000E+00
 -1       721-6.22666E-03-6.98155E-02 0.00000E+00
 -1       722-2.86122E-03-1.67773E-02 0.00000E+00
 -1       723 0.00000E+00 0.00000E+00 0.00000E+00
 -1       724 1.73146E-01 1.01354E+02 0.00000E+00
 -1       725 1.73146E-01 9.93340E+01 0.00000E+00
 -1       726 1.73144E-01 9.73141E+01 0.00000E+00
 -1       727 1.73140E-01 9.52943E+01 0.00000E+00
 -1       728 1.73133E-01 9.32745E+01 0.00000E+00
 -1       729 1.73120E-01 9.12550E+01 0.00000E+00
 -1       730 1.73101E-01 8.92356E+01 0.00000E+00
 -1       731 1.73076E-01 8.72163E+01 0.00000E+00
 -1       732 1.73042E-01 8.51975E+01 0.00000E+00
 -1       733 1.72998E-01 8.31791E+01 0.00000E+00
 -1       734 1.72944E-01 8.11613E+01 0.00000E+00
 -1       735 1.72879E-01 7.91443E+01 0.00000E+00
 -1       736 1.72801E-01 7.71279E+01 0.00000E+00
 -1       737 1.72709E-01 7.51127E+01 0.00000E+00
 -1       738 1.72604E-01 7.30985E+01 0.00000E+00
 -1       739 1.72483E-01 7.10857E+01 0.00000E+00
 -1       740 1.72345E-01 6.90744E+01 0.00000E+00
 -1       741 1.72191E-01 6.70648E+01 0.00000E+00
 -1       742 1.72018E-01 6.50571E+01 0.00000E+00
 -1       743 1.71827E-01 6.30515E+01 0.00000E+00
 -1       744 1.71616E-01 6.10483E+01 0.00000E+00
 -1       745 1.71385E-01 5.90477E+01 0.00000E+00
 -1       746 1.71133E-01 5.70498E+01 0.00000E+00
 -1       747 1.70858E-01 5.50550E+01 0.00000E+00
 -1       748 1.70562E-01 5.30635E+01 0.00000E+00
 -1       749 1.70241E-01 5.10757E+01 0.00000E+00
 -1       750 1.69897E-01 4.90918E+01 0.00000E+00
 -1       751 1.69529E-01 4.71119E+01 0.00000E+00
 -1       752 1.69135E-01 4.51366E+01 0.00000E+00
 -1       753 1.68715E-01 4.31660E+01 0.00000E+00
 -1       754 1.68270E-01 4.12004E+01 0.00000E+00
 -1       755 1.67797E-01 3.92402E+01 0.00000E+00
 -1       756 1.67297E-01 3.72857E+01 0.00000E+00
 -1       757 1.66769E-01 3.53371E+01 0.00000E+00
 -1       758 1.66213E-01 3.33949E+01 0.00000E+00
 -1       759 1.65629E-01 3.14593E+01 0.00000E+00
 -1       760 1.65015E-01 2.95307E+01 0.00000E+00
 -1       761 1.64372E-01 2.76095E+01 0.00000E+00
 -1       762 1.63698E-01 2.56959E+01 0.00000E+00
 -1       763 1.62995E-01 2.37904E+01 0.00000E+00
 -1       764 1.62261E-01 2.18932E+01 0.00000E+00
 -1       765 1.61497E-01 2.00048E+01 0.00000E+00
 -1       766 1.60701E-01 1.81255E+01 0.00000E+00
 -1       767 1.59874E-01 1.62556E+01 0.00000E+00
 -1       768 1.59016E-01 1.43955E+01 0.00000E+00
 -1       769 1.58126E-01 1.25458E+01 0.00000E+00
 -1       770 1.57204E-01 1.07065E+01 0.00000E+00
 -1       771 1.56250E-01 8.87815E+00 0.00000E+00
 -1       772 1.55264E-01 7.06114E+00 0.00000E+00
 -1       773 1.54246E-01 5.25581E+00 0.00000E+00
 -1       774 1.53195E-01 3.46260E+00 0.00000E+00
 -1       775 1.52112E-01 1.68178E+00 0.00000E+00
 -1       776 1.50997E-01-8.62067E-02 0.00000E+00
 -1       777 1.49849E-01-1.84100E+00 0.00000E+00
 -1       778 1.48669E-01-3.58221E+00 0.00000E+00
 -1       779 1.47457E-01-5.30943E+00 0.00000E+00
 -1       780 1.46212E-01-7.02235E+00 0.00000E+00
 -1       781 1.44935E-01-8.72057E+00 0.00000E+00
 -1       782 1.43626E-01-1.04037E+01 0.00000E+00
 -1       783 1.42285E-01-1.20714E+01 0.00000E+00
 -1       784 1.40912E-01-1.37232E+01 0.00000E+00
 -1       785 1.39507E-01-1.53588E+01 0.00000E+00
 -1       786 1.38071E-01-1.69779E+01 0.00000E+00
 -1       787 1.36604E-01-1.85800E+01 0.00000E+00
 -1       788 1.35105E-01-2.01649E+01 0.00000E+00
 -1       789 1.33576E-01-2.17320E+01 0.00000E+00
 -1       790 1.32016E-01-2.32812E+01 0.00000E+00
 -1       791 1.30425E-01-2.48119E+01 0.00000E+00
 -1       792 1.28805E-01-2.63240E+01 0.00000E+00
 -1       793 1.27155E-01-2.78170E+01 0.00000E+00
 -1       794 1.25476E-01-2.92905E+01 0.00000E+00
 -1       795 1.23767E-01-3.07443E+01 0.00000E+00
 -1       796 1.22030E-01-3.21780E+01 0.00000E+00
 -1       797 1.20265E-01-3.35913E+01 0.00000E+00
 -1       798 1.18472E-01-3.49838E+01 0.00000E+00
 -1       799 1.16652E-01-3.63552E+01 0.00000E+00
 -1       800 1.14805E-01-3.77053E+01 0.00000E+00
 -1       801 1.12932E-01-3.90336E+01 0.00000E+00
 -1       802 1.11032E-01-4.03400E+01 0.00000E+00
 -1       803 1.09107E-01-4.16240E+01 0.00000E+00
 -1       804 1.07157E-01-4.28854E+01 0.00000E+00
 -1       805 1.05182E-01-4.41240E+01 0.00000E+00
 -1       806 1.03184E-01-4.53393E+01 0.00000E+00
 -1       807 1.01163E-01-4.65313E+01 0.00000E+00
 -1       808 9.91184E-02-4.76995E+01 0.00000E+00
 -1       809 9.70518E-02-4.88437E+01 0.00000E+00
 -1       810 9.49639E-02-4.99637E+01 0.00000E+00
 -1       811 9.28550E-02-5.10592E+01 0.00000E+00
 -1       812 9.07257E-02-5.21300E+01 0.00000E+00
 -1       813 8.85770E-02-5.31758E+01 0.00000E+00
 -1       814 8.64090E-02-5.41965E+01 0.00000E+00
 -1       815 8.42233E-02-5.51918E+01 0.00000E+00
 -1       816 8.20191E-02-5.61614E+01 0.00000E+00
 -1       817 7.97989E-02-5.71053E+01 0.00000E+00
 -1       818 7.75619E-02-5.80231E+01 0.00000E+00
 -1       819 7.53098E-02-5.89148E+01 0.00000E+00
 -1       820 7.30426E-02-5.97801E+01 0.00000E+00
 -1       821 7.07617E-02-6.06189E+01 0.00000E+00
 -1       822 6.84675E-02-6.14310E+01 0.00000E+00
 -1       823 6.61607E-02-6.22163E+01 0.00000E+00
 -1       824 6.38423E-02-6.29745E+01 0.00000E+00
 -1       825 6.15129E-02-6.37057E+01 0.00000E+00
 -1       826 5.91737E-02-6.44097E+01 0.00000E+00
 -1       827 5.68247E-02-6.50863E+01 0.00000E+00
 -1       828 5.44677E-02-6.57354E+01 0.00000E+00
 -1       829 5.21028E-02-6.63570E+01 0.00000E+00
 -1       830 4.97310E-02-6.69510E+01 0.00000E+00
 -1       831 4.73533E-02-6.75173E+01 0.00000E+00
 -1       832 4.49704E-02-6.80558E+01 0.00000E+00
 -1       833 4.25833E-02-6.85664E+01 0.00000E+00
 -1       834 4.01925E-02-6.90493E+01 0.00000E+00
 -1       835 3.77994E-02-6.95042E+01 0.00000E+00
 -1       836 3.54044E-02-6.99312E+01 0.00000E+00
 -1       837 3.30086E-02-7.03302E+01 0.00000E+00
 -1       838 3.06129E-02-7.07013E+01 0.00000E+00
 -1       839 2.82181E-02-7.10444E+01 0.00000E+00
 -1       840 2.58252E-02-7.13596E+01 0.00000E+00
 -1       841 2.34348E-02-7.16470E+01 0.00000E+00
 -1       842 2.10483E-02-7.19064E+01 0.00000E+00
 -1       843 1.86661E-02-7.21381E+01 0.00000E+00
 -1       844 1.62895E-02-7.23419E+01 0.00000E+00
 -1       845 1.39189E-02-7.25182E+01 0.00000E+00
 -1       846 1.15560E-02-7.26667E+01 0.00000E+00
 -1       847 9.20086E-03-7.27878E+01 0.00000E+00
 -1       848 6.85513E-03-7.28814E+01 0.00000E+00
 -1       849 4.51903E-03-7.29478E+01 0.00000E+00
 -1       850 2.19412E-03-7.29869E+01 0.00000E+00
 -1       851-1.19136E-04-7.29990E+01 0.00000E+00
 -1       852-2.41962E-03-7.29842E+01 0.00000E+00
 -1       853-4.70647E-03-7.29426E+01 0.00000E+00
 -1       854-6.97871E-03-7.28745E+01 0.00000E+00
 -1       855-9.23549E-03-7.27799E+01 0.00000E+00
 -1       856-1.14758E-02-7.26591E+01 0.00000E+00
 -1       857-1.36991E-02-7.25122E+01 0.00000E+00
 -1       858-1.59037E-02-7.23396E+01 0.00000E+00
 -1       859-1.80897E-02-7.21413E+01 0.00000E+00
 -1       860-2.02551E-02-7.19176E+01 0.00000E+00
 -1       861-2.24001E-02-7.16688E+01 0.00000E+00
 -1       862-2.45227E-02-7.13951E+01 0.00000E+00
 -1       863-2.66231E-02-7.10968E+01 0.00000E+00
 -1       864-2.86994E-02-7.07741E+01 0.00000E+00
 -1       865-3.07515E-02-7.04273E+01 0.00000E+00
 -1       866-3.27779E-02-7.00567E+01 0.00000E+00
 -1       867-3.47783E-02-6.96627E+01 0.00000E+00
 -1       868-3.67512E-02-6.92454E+01 0.00000E+00
 -1       869-3.86963E-02-6.88054E+01 0.00000E+00
 -1       870-4.06123E-02-6.83428E+01 0.00000E+00
 -1       871-4.24987E-02-6.78580E+01 0.00000E+00
 -1       872-4.43543E-02-6.73514E+01 0.00000E+00
 -1       873-4.61784E-02-6.68233E+01 0.00000E+00
 -1       874-4.79704E-02-6.62741E+01 0.00000E+00
 -1       875-4.97289E-02-6.57043E+01 0.00000E+00
 -1       876-5.14536E-02-6.51141E+01 0.00000E+00
 -1       877-5.31435E-02-6.45040E+01 0.00000E+00
 -1       878-5.47976E-02-6.38743E+01 0.00000E+00
 -1       879-5.64155E-02-6.32257E+01 0.00000E+00
 -1       880-5.79959E-02-6.25583E+01 0.00000E+00
 -1       881-5.95386E-02-6.18727E+01 0.00000E+00
 -1       882-6.10422E-02-6.11694E+01 0.00000E+00
 -1       883-6.25064E-02-6.04487E+01 0.00000E+00
 -1       884-6.39300E-02-5.97112E+01 0.00000E+00
 -1       885-6.53129E-02-5.89574E+01 0.00000E+00
 -1       886-6.66535E-02-5.81876E+01 0.00000E+00
 -1       887-6.79518E-02-5.74025E+01 0.00000E+00
 -1       888-6.92068E-02-5.66024E+01 0.00000E+00
 -1       889-7.04175E-02-5.57880E+01 0.00000E+00
 -1       890-7.15838E-02-5.49598E+01 0.00000E+00
 -1       891-7.27044E-02-5.41181E+01 0.00000E+00
 -1       892-7.37791E-02-5.32637E+01 0.00000E+00
 -1       893-7.48069E-02-5.23970E+01 0.00000E+00
 -1       894-7.57872E-02-5.15186E+01 0.00000E+00
 -1       895-7.67196E-02-5.06291E+01 0.00000E+00
 -1       896-7.76030E-02-4.97289E+01 0.00000E+00
 -1       897-7.84372E-02-4.88187E+01 0.00000E+00
 -1       898-7.92213E-02-4.78991E+01 0.00000E+00
 -1       899-7.99549E-02-4.69706E+01 0.00000E+00
 -1       900-8.06372E-02-4.60339E+01 0.00000E+00
 -1       901-8.12678E-02-4.50896E+01 0.00000E+00
 -1       902-8.18459E-02-4.41381E+01 0.00000E+00
 -1       903-8.23712E-02-4.31802E+01 0.00000E+00
 -1       904-8.28430E-02-4.22166E+01 0.00000E+00
 -1       905-8.32608E-02-4.12477E+01 0.00000E+00
 -1       906-8.36241E-02-4.02743E+01 0.00000E+00
 -1       907-8.39323E-02-3.92969E+01 0.00000E+00
 -1       908-8.41850E-02-3.83163E+01 0.00000E+00
 -1       909-8.43816E-02-3.73331E+01 0.00000E+00
 -1       910-8.45218E-02-3.63478E+01 0.00000E+00
 -1       911-8.46050E-02-3.53614E+01 0.00000E+00
 -1       912-8.46308E-02-3.43742E+01 0.00000E+00
 -1       913-8.45987E-02-3.33871E+01 0.00000E+00
 -1       914-8.45083E-02-3.24007E+01 0.00000E+00
 -1       915-8.43592E-02-3.14157E+01 0.00000E+00
 -1       916-8.41511E-02-3.04328E+01 0.00000E+00
 -1       917-8.38834E-02-2.94527E+01 0.00000E+00
 -1       918-8.35560E-02-2.84760E+01 0.00000E+00
 -1       919-8.31682E-02-2.75035E+01 0.00000E+00
 -1       920-8.27199E-02-2.65359E+01 0.00000E+00
 -1       921-8.22107E-02-2.55739E+01 0.00000E+00
 -1       922-8.16402E-02-2.46181E+01 0.00000E+00
 -1       923-8.10083E-02-2.36694E+01 0.00000E+00
 -1       924-8.03143E-02-2.27284E+01 0.00000E+00
 -1       925-7.95584E-02-2.17959E+01 0.00000E+00
 -1       926-7.87399E-02-2.08725E+01 0.00000E+00
 -1       927-7.78587E-02-1.99591E+01 0.00000E+00
 -1       928-7.69146E-02-1.90563E+01 0.00000E+00
 -1       929-7.59072E-02-1.81649E+01 0.00000E+00
 -1       930-7.48365E-02-1.72856E+01 0.00000E+00
 -1       931-7.37021E-02-1.64192E+01 0.00000E+00
 -1       932-7.25038E-02-1.55664E+01 0.00000E+00
 -1       933-7.12414E-02-1.47279E+01 0.00000E+00
 -1       934-6.99149E-02-1.39046E+01 0.00000E+00
 -1       935-6.85237E-02-1.30970E+01 0.00000E+00
 -1       936-6.70682E-02-1.23061E+01 0.00000E+00
 -1       937-6.55475E-02-1.15326E+01 0.00000E+00
 -1       938-6.39623E-02-1.07772E+01 0.00000E+00
 -1       939-6.23118E-02-1.00406E+01 0.00000E+00
 -1       940-6.05961E-02-9.32367E+00 0.00000E+00
 -1       941-5.88153E-02-8.62714E+00 0.00000E+00
 -1       942-5.69689E-02-7.95178E+00 0.00000E+00
 -1       943-5.50570E-02-7.29832E+00 0.00000E+00
 -1       944-5.30795E-02-6.66755E+00 0.00000E+00
 -1       945-5.10362E-02-6.06023E+00 0.00000E+00
 -1       946-4.89272E-02-5.47713E+00 0.00000E+00
 -1       947-4.67522E-02-4.91902E+00 0.00000E+00
 -1       948-4.45116E-02-4.38668E+00 0.00000E+00
 -1       949-4.22044E-02-3.88085E+00 0.00000E+00
 -1       950-3.98320E-02-3.40232E+00 0.00000E+00
 -1       951-3.73923E-02-2.95185E+00 0.00000E+00
 -1       952-3.48883E-02-2.53022E+00 0.00000E+00
 -1       953-3.23157E-02-2.13821E+00 0.00000E+00
 -1       954-2.96799E-02-1.77657E+00 0.00000E+00
 -1       955-2.69741E-02-1.44608E+00 0.00000E+00
 -1       956-2.42072E-02-1.14752E+00 0.00000E+00
 -1       957-2.13672E-02-8.81657E-01 0.00000E+00
 -1       958-1.84697E-02-6.49276E-01 0.00000E+00
 -1       959-1.54943E-02-4.51130E-01 0.00000E+00
 -1       960-1.24696E-02-2.87999E-01 0.00000E+00
 -1       961-9.34937E-03-1.60690E-01 0.00000E+00
 -1       962-6.22666E-03-6.98155E-02 0.00000E+00
 -1       963-2.86122E-03-1.67773E-02 0.00000E+00
 -1       964 0.00000E+00 0.00000E+00 0.00000E+00
 -1       965 1.38501E-05 1.01354E+02 0.00000E+00
 -1       966 1.38500E-05 9.93340E+01 0.00000E+00
 -1       967 1.38499E-05 9.73141E+01 0.00000E+00
 -1       968 1.38496E-05 9.52943E+01 0.00000E+00
 -1       969 1.38490E-05 9.32746E+01 0.00000E+00
 -1       970 1.38480E-05 9.12550E+01 0.00000E+00
 -1       971 1.38465E-05 8.92356E+01 0.00000E+00
 -1       972 1.38444E-05 8.72164E+01 0.00000E+00
 -1       973 1.38417E-05 8.51975E+01 0.00000E+00
 -1       974 1.38382E-05 8.31792E+01 0.00000E+00
 -1       975 1.38339E-05 8.11613E+01 0.00000E+00
 -1       976 1.38287E-05 7.91443E+01 0.00000E+00
 -1       977 1.38224E-05 7.71280E+01 0.00000E+00
 -1       978 1.38151E-05 7.51127E+01 0.00000E+00
 -1       979 1.38067E-05 7.30986E+01 0.00000E+00
 -1       980 1.37970E-05 7.10858E+01 0.00000E+00
 -1       981 1.37860E-05 6.90744E+01 0.00000E+00
 -1       982 1.37736E-05 6.70649E+01 0.00000E+00
 -1       983 1.37599E-05 6.50572E+01 0.00000E+00
 -1       984 1.37446E-05 6.30516E+01 0.00000E+00
 -1       985 1.37277E-05 6.10484E+01 0.00000E+00
 -1       986 1.37092E-05 5.90476E+01 0.00000E+00
 -1       987 1.36890E-05 5.70499E+01 0.00000E+00
 -1       988 1.36671E-05 5.50551E+01 0.00000E+00
 -1       989 1.36433E-05 5.30636E+01 0.00000E+00
 -1       990 1.36177E-05 5.10758E+01 0.00000E+00
 -1       991 1.35902E-05 4.90919E+01 0.00000E+00
 -1       992 1.35607E-05 4.71121E+01 0.00000E+00
 -1       993 1.35292E-05 4.51367E+01 0.00000E+00
 -1       994 1.34956E-05 4.31661E+01 0.00000E+00
 -1       995 1.34600E-05 4.12005E+01 0.00000E+00
 -1       996 1.34222E-05 3.92403E+01 0.00000E+00
 -1       997 1.33822E-05 3.72858E+01 0.00000E+00
 -1       998 1.33400E-05 3.53372E+01 0.00000E+00
 -1       999 1.32955E-05 3.33950E+01 0.00000E+00
 -1      1000 1.32487E-05 3.14595E+01 0.00000E+00
 -1      1001 1.31996E-05 2.95309E+01 0.00000E+00
 -1      1002 1.31482E-05 2.76096E+01 0.00000E+00
 -1      1003 1.30943E-05 2.56961E+01 0.00000E+00
 -1      1004 1.30381E-05 2.37905E+01 0.00000E+00
 -1      1005 1.29794E-05 2.18933E+01 0.00000E+00
 -1      1006 1.29182E-05 2.00049E+01 0.00000E+00
 -1      1007 1.28546E-05 1.81256E+01 0.00000E+00
 -1      1008 1.27884E-05 1.62558E+01 0.00000E+00
 -1      1009 1.27198E-05 1.43957E+01 0.00000E+00
 -1      1010 1.26486E-05 1.25459E+01 0.00000E+00
 -1      1011 1.25748E-05 1.07066E+01 0.00000E+00
 -1      1012 1.24985E-05 8.87831E+00 0.00000E+00
 -1      1013 1.24196E-05 7.06129E+00 0.00000E+00
 -1      1014 1.23382E-05 5.25601E+00 0.00000E+00
 -1      1015 1.22541E-05 3.46275E+00 0.00000E+00
 -1      1016 1.21675E-05 1.68194E+00 0.00000E+00
 -1      1017 1.20783E-05-8.60117E-02 0.00000E+00
 -1      1018 1.19865E-05-1.84081E+00 0.00000E+00
 -1      1019 1.18921E-05-3.58202E+00 0.00000E+00
 -1      1020 1.17951E-05-5.30928E+00 0.00000E+00
 -1      1021 1.16955E-05-7.02217E+00 0.00000E+00
 -1      1022 1.15934E-05-8.72039E+00 0.00000E+00
 -1      1023 1.14887E-05-1.04035E+01 0.00000E+00
 -1      1024 1.13814E-05-1.20712E+01 0.00000E+00
 -1      1025 1.12716E-05-1.37230E+01 0.00000E+00
 -1      1026 1.11592E-05-1.53587E+01 0.00000E+00
 -1      1027 1.10443E-05-1.69777E+01 0.00000E+00
 -1      1028 1.09269E-05-1.85798E+01 0.00000E+00
 -1      1029 1.08071E-05-2.01647E+01 0.00000E+00
 -1      1030 1.06847E-05-2.17318E+01 0.00000E+00
 -1      1031 1.05599E-05-2.32810E+01 0.00000E+00
 -1      1032 1.04327E-05-2.48118E+01 0.00000E+00
 -1      1033 1.03031E-05-2.63238E+01 0.00000E+00
 -1      1034 1.01711E-05-2.78168E+01 0.00000E+00
 -1      1035 1.00368E-05-2.92903E+01 0.00000E+00
 -1      1036 9.90013E-06-3.07441E+01 0.00000E+00
 -1      1037 9.76121E-06-3.21778E+01 0.00000E+00
 -1      1038 9.62000E-06-3.35911E+01 0.00000E+00
 -1      1039 9.47660E-06-3.49836E+01 0.00000E+00
 -1      1040 9.33098E-06-3.63550E+01 0.00000E+00
 -1      1041 9.18324E-06-3.77051E+01 0.00000E+00
 -1      1042 9.03334E-06-3.90335E+01 0.00000E+00
 -1      1043 8.88142E-06-4.03398E+01 0.00000E+00
 -1      1044 8.72739E-06-4.16238E+01 0.00000E+00
 -1      1045 8.57146E-06-4.28853E+01 0.00000E+00
 -1      1046 8.41347E-06-4.41238E+01 0.00000E+00
 -1      1047 8.25368E-06-4.53392E+01 0.00000E+00
 -1      1048 8.09190E-06-4.65311E+01 0.00000E+00
 -1      1049 7.92845E-06-4.76993E+01 0.00000E+00
 -1      1050 7.76305E-06-4.88435E+01 0.00000E+00
 -1      1051 7.59615E-06-4.99635E+01 0.00000E+00
 -1      1052 7.42730E-06-5.10590E+01 0.00000E+00
 -1      1053 7.25716E-06-5.21298E+01 0.00000E+00
 -1      1054 7.08506E-06-5.31757E+01 0.00000E+00
 -1      1055 6.91191E-06-5.41964E+01 0.00000E+00
 -1      1056 6.73675E-06-5.51916E+01 0.00000E+00
 -1      1057 6.56080E-06-5.61613E+01 0.00000E+00
 -1      1058 6.38276E-06-5.71051E+01 0.00000E+00
 -1      1059 6.20434E-06-5.80230E+01 0.00000E+00
 -1      1060 6.02357E-06-5.89147E+01 0.00000E+00
 -1      1061 5.84295E-06-5.97800E+01 0.00000E+00
 -1      1062 5.65963E-06-6.06188E+01 0.00000E+00
 -1      1063 5.47712E-06-6.14309E+01 0.00000E+00
 -1      1064 5.29139E-06-6.22161E+01 0.00000E+00
 -1      1065 5.10739E-06-6.29744E+01 0.00000E+00
 -1      1066 4.91932E-06-6.37056E+01 0.00000E+00
 -1      1067 4.73428E-06-6.44096E+01 0.00000E+00
 -1      1068 4.54389E-06-6.50862E+01 0.00000E+00
 -1      1069 4.35832E-06-6.57353E+01 0.00000E+00
 -1      1070 4.16558E-06-6.63569E+01 0.00000E+00
 -1      1071 3.98014E-06-6.69509E+01 0.00000E+00
 -1      1072 3.78480E-06-6.75172E+01 0.00000E+00
 -1      1073 3.60036E-06-6.80557E+01 0.00000E+00
 -1      1074 3.40199E-06-6.85664E+01 0.00000E+00
 -1      1075 3.21969E-06-6.90492E+01 0.00000E+00
 -1      1076 3.01748E-06-6.95041E+01 0.00000E+00
 -1      1077 2.83892E-06-6.99311E+01 0.00000E+00
 -1      1078 2.63154E-06-7.03302E+01 0.00000E+00
 -1      1079 2.45889E-06-7.07012E+01 0.00000E+00
 -1      1080 2.24459E-06-7.10444E+01 0.00000E+00
 -1      1081 2.07970E-06-7.13596E+01 0.00000E+00
 -1      1082 1.88846E-06-7.16470E+01 0.00000E+00
 -1      1083 1.67128E-06-7.19064E+01 0.00000E+00
 -1      1084 1.50310E-06-7.21381E+01 0.00000E+00
 -1      1085 1.29425E-06-7.23420E+01 0.00000E+00
 -1      1086 1.12022E-06-7.25182E+01 0.00000E+00
 -1      1087 9.18248E-07-7.26668E+01 0.00000E+00
 -1      1088 7.40636E-07-7.27878E+01 0.00000E+00
 -1      1089 5.44019E-07-7.28815E+01 0.00000E+00
 -1      1090 3.64629E-07-7.29478E+01 0.00000E+00
 -1      1091 1.72425E-07-7.29870E+01 0.00000E+00
 -1      1092-7.41684E-09-7.29991E+01 0.00000E+00
 -1      1093-1.95774E-07-7.29843E+01 0.00000E+00
 -1      1094-3.75079E-07-7.29427E+01 0.00000E+00
 -1      1095-5.59872E-07-7.28746E+01 0.00000E+00
 -1      1096-7.37860E-07-7.27800E+01 0.00000E+00
 -1      1097-9.19184E-07-7.26592E+01 0.00000E+00
 -1      1098-1.09525E-06-7.25123E+01 0.00000E+00
 -1      1099-1.27309E-06-7.23397E+01 0.00000E+00
 -1      1100-1.44670E-06-7.21414E+01 0.00000E+00
 -1      1101-1.62096E-06-7.19177E+01 0.00000E+00
 -1      1102-1.79167E-06-7.16689E+01 0.00000E+00
 -1      1103-1.96219E-06-7.13952E+01 0.00000E+00
 -1      1104-2.12959E-06-7.10969E+01 0.00000E+00
 -1      1105-2.29619E-06-7.07742E+01 0.00000E+00
 -1      1106-2.45991E-06-7.04275E+01 0.00000E+00
 -1      1107-2.62237E-06-7.00569E+01 0.00000E+00
 -1      1108-2.78208E-06-6.96629E+01 0.00000E+00
 -1      1109-2.94015E-06-6.92456E+01 0.00000E+00
 -1      1110-3.09553E-06-6.88056E+01 0.00000E+00
 -1      1111-3.24896E-06-6.83430E+01 0.00000E+00
 -1      1112-3.39971E-06-6.78582E+01 0.00000E+00
 -1      1113-3.54827E-06-6.73516E+01 0.00000E+00
 -1      1114-3.69408E-06-6.68235E+01 0.00000E+00
 -1      1115-3.83750E-06-6.62744E+01 0.00000E+00
 -1      1116-3.97810E-06-6.57045E+01 0.00000E+00
 -1      1117-4.11612E-06-6.51143E+01 0.00000E+00
 -1      1118-4.25125E-06-6.45042E+01 0.00000E+00
 -1      1119-4.38361E-06-6.38746E+01 0.00000E+00
 -1      1120-4.51299E-06-6.32259E+01 0.00000E+00
 -1      1121-4.63944E-06-6.25586E+01 0.00000E+00
 -1      1122-4.76280E-06-6.18730E+01 0.00000E+00
 -1      1123-4.88311E-06-6.11697E+01 0.00000E+00
 -1      1124-5.00021E-06-6.04490E+01 0.00000E+00
 -1      1125-5.11410E-06-5.97115E+01 0.00000E+00
 -1      1126-5.22470E-06-5.89577E+01 0.00000E+00
 -1      1127-5.33196E-06-5.81879E+01 0.00000E+00
 -1      1128-5.43579E-06-5.74028E+01 0.00000E+00
 -1      1129-5.53619E-06-5.66028E+01 0.00000E+00
 -1      1130-5.63303E-06-5.57884E+01 0.00000E+00
 -1      1131-5.72633E-06-5.49601E+01 0.00000E+00
 -1      1132-5.81597E-06-5.41185E+01 0.00000E+00
 -1      1133-5.90193E-06-5.32641E+01 0.00000E+00
 -1      1134-5.98414E-06-5.23974E+01 0.00000E+00
 -1      1135-6.06256E-06-5.15190E+01 0.00000E+00
 -1      1136-6.13714E-06-5.06294E+01 0.00000E+00
 -1      1137-6.20781E-06-4.97293E+01 0.00000E+00
 -1      1138-6.27453E-06-4.88191E+01 0.00000E+00
 -1      1139-6.33725E-06-4.78995E+01 0.00000E+00
 -1      1140-6.39593E-06-4.69710E+01 0.00000E+00
 -1      1141-6.45051E-06-4.60343E+01 0.00000E+00
 -1      1142-6.50094E-06-4.50899E+01 0.00000E+00
 -1      1143-6.54719E-06-4.41385E+01 0.00000E+00
 -1      1144-6.58921E-06-4.31806E+01 0.00000E+00
 -1      1145-6.62694E-06-4.22170E+01 0.00000E+00
 -1      1146-6.66036E-06-4.12481E+01 0.00000E+00
 -1      1147-6.68942E-06-4.02747E+01 0.00000E+00
 -1      1148-6.71407E-06-3.92973E+01 0.00000E+00
 -1      1149-6.73428E-06-3.83167E+01 0.00000E+00
 -1      1150-6.75001E-06-3.73335E+01 0.00000E+00
 -1      1151-6.76122E-06-3.63483E+01 0.00000E+00
 -1      1152-6.76787E-06-3.53618E+01 0.00000E+00
 -1      1153-6.76993E-06-3.43746E+01 0.00000E+00
 -1      1154-6.76736E-06-3.33875E+01 0.00000E+00
 -1      1155-6.76013E-06-3.24011E+01 0.00000E+00
 -1      1156-6.74821E-06-3.14161E+01 0.00000E+00
 -1      1157-6.73156E-06-3.04332E+01 0.00000E+00
 -1      1158-6.71015E-06-2.94531E+01 0.00000E+00
 -1      1159-6.68395E-06-2.84764E+01 0.00000E+00
 -1      1160-6.65293E-06-2.75039E+01 0.00000E+00
 -1      1161-6.61707E-06-2.65363E+01 0.00000E+00
 -1      1162-6.57634E-06-2.55743E+01 0.00000E+00
 -1      1163-6.53070E-06-2.46185E+01 0.00000E+00
 -1      1164-6.48015E-06-2.36698E+01 0.00000E+00
 -1      1165-6.42464E-06-2.27288E+01 0.00000E+00
 -1      1166-6.36417E-06-2.17963E+01 0.00000E+00
 -1      1167-6.29869E-06-2.08729E+01 0.00000E+00
 -1      1168-6.22820E-06-1.99595E+01 0.00000E+00
 -1      1169-6.15268E-06-1.90567E+01 0.00000E+00
 -1      1170-6.07210E-06-1.81653E+01 0.00000E+00
 -1      1171-5.98645E-06-1.72860E+01 0.00000E+00
 -1      1172-5.89570E-06-1.64196E+01 0.00000E+00
 -1      1173-5.79984E-06-1.55668E+01 0.00000E+00
 -1      1174-5.69887E-06-1.47283E+01 0.00000E+00
 -1      1175-5.59275E-06-1.39049E+01 0.00000E+00
 -1      1176-5.48147E-06-1.30974E+01 0.00000E+00
 -1      1177-5.36503E-06-1.23065E+01 0.00000E+00
 -1      1178-5.24340E-06-1.15329E+01 0.00000E+00
 -1      1179-5.11658E-06-1.07775E+01 0.00000E+00
 -1      1180-4.98457E-06-1.00409E+01 0.00000E+00
 -1      1181-4.84731E-06-9.32397E+00 0.00000E+00
 -1      1182-4.70488E-06-8.62742E+00 0.00000E+00
 -1      1183-4.55715E-06-7.95205E+00 0.00000E+00
 -1      1184-4.40424E-06-7.29858E+00 0.00000E+00
 -1      1185-4.24602E-06-6.66780E+00 0.00000E+00
 -1      1186-4.08262E-06-6.06047E+00 0.00000E+00
 -1      1187-3.91386E-06-5.47737E+00 0.00000E+00
 -1      1188-3.73994E-06-4.91924E+00 0.00000E+00
 -1      1189-3.56063E-06-4.38687E+00 0.00000E+00
 -1      1190-3.37617E-06-3.88103E+00 0.00000E+00
 -1      1191-3.18629E-06-3.40249E+00 0.00000E+00
 -1      1192-2.99126E-06-2.95201E+00 0.00000E+00
 -1      1193-2.79080E-06-2.53036E+00 0.00000E+00
 -1      1194-2.58520E-06-2.13833E+00 0.00000E+00
 -1      1195-2.37413E-06-1.77667E+00 0.00000E+00
 -1      1196-2.15796E-06-1.44617E+00 0.00000E+00
 -1      1197-1.93629E-06-1.14759E+00 0.00000E+00
 -1      1198-1.70953E-06-8.81716E-01 0.00000E+00
 -1      1199-1.47724E-06-6.49308E-01 0.00000E+00
 -1      1200-1.23986E-06-4.51144E-01 0.00000E+00
 -1      1201-9.97121E-07-2.87997E-01 0.00000E+00
 -1      1202-7.48514E-07-1.60664E-01 0.00000E+00
 -1      1203-4.97511E-07-6.97770E-02 0.00000E+00
 -1      1204-2.29619E-07-1.66853E-02 0.00000E+00
 -1      1205 0.00000E+00 0.00000E+00 0.00000E+00
 -1      1206 1.38508E-05 1.01354E+02 0.00000E+00
 -1      1207 1.38508E-05 9.93340E+01 0.00000E+00
 -1      1208 1.38507E-05 9.73141E+01 0.00000E+00
 -1      1209 1.38503E-05 9.52943E+01 0.00000E+00
 -1      1210 1.38497E-05 9.32746E+01 0.00000E+00
 -1      1211 1.38487E-05 9.12550E+01 0.00000E+00
 -1      1212 1.38472E-05 8.92356E+01 0.00000E+00
 -1      1213 1.38452E-05 8.72164E+01 0.00000E+00
 -1      1214 1.38424E-05 8.51975E+01 0.00000E+00
 -1      1215 1.38389E-05 8.31792E+01 0.00000E+00
 -1      1216 1.38346E-05 8.11613E+01 0.00000E+00
 -1      1217 1.38294E-05 7.91443E+01 0.00000E+00
 -1      1218 1.38232E-05 7.71280E+01 0.00000E+00
 -1      1219 1.38159E-05 7.51127E+01 0.00000E+00
 -1      1220 1.38074E-05 7.30986E+01 0.00000E+00
 -1      1221 1.37977E-05 7.10858E+01 0.00000E+00
 -1      1222 1.37867E-05 6.90744E+01 0.00000E+00
 -1      1223 1.37744E-05 6.70649E+01 0.00000E+00
 -1      1224 1.37606E-05 6.50572E+01 0.00000E+00
 -1      1225 1.37453E-05 6.30516E+01 0.00000E+00
 -1      1226 1.37284E-05 6.10484E+01 0.00000E+00
 -1      1227 1.37099E-05 5.90476E+01 0.00000E+00
 -1      1228 1.36897E-05 5.70499E+01 0.00000E+00
 -1      1229 1.36678E-05 5.50551E+01 0.00000E+00
 -1      1230 1.36440E-05 5.30636E+01 0.00000E+00
 -1      1231 1.36184E-05 5.10758E+01 0.00000E+00
 -1      1232 1.35909E-05 4.90919E+01 0.00000E+00
 -1      1233 1.35614E-05 4.71121E+01 0.00000E+00
 -1      1234 1.35299E-05 4.51367E+01 0.00000E+00
 -1      1235 1.34964E-05 4.31661E+01 0.00000E+00
 -1      1236 1.34607E-05 4.12005E+01 0.00000E+00
 -1      1237 1.34229E-05 3.92403E+01 0.00000E+00
 -1      1238 1.33829E-05 3.72858E+01 0.00000E+00
 -1      1239 1.33407E-05 3.53372E+01 0.00000E+00
 -1      1240 1.32962E-05 3.33950E+01 0.00000E+00
 -1      1241 1.32495E-05 3.14595E+01 0.00000E+00
 -1      1242 1.32004E-05 2.95309E+01 0.00000E+00
 -1      1243 1.31489E-05 2.76096E+01 0.00000E+00
 -1      1244 1.30951E-05 2.56961E+01 0.00000E+00
 -1      1245 1.30388E-05 2.37905E+01 0.00000E+00
 -1      1246 1.29801E-05 2.18933E+01 0.00000E+00
 -1      1247 1.29189E-05 2.00049E+01 0.00000E+00
 -1      1248 1.28553E-05 1.81256E+01 0.00000E+00
 -1      1249 1.27892E-05 1.62558E+01 0.00000E+00
 -1      1250 1.27205E-05 1.43957E+01 0.00000E+00
 -1      1251 1.26493E-05 1.25459E+01 0.00000E+00
 -1      1252 1.25755E-05 1.07066E+01 0.00000E+00
 -1      1253 1.24992E-05 8.87831E+00 0.00000E+00
 -1      1254 1.24204E-05 7.06129E+00 0.00000E+00
 -1      1255 1.23389E-05 5.25601E+00 0.00000E+00
 -1      1256 1.22549E-05 3.46275E+00 0.00000E+00
 -1      1257 1.21682E-05 1.68194E+00 0.00000E+00
 -1      1258 1.20790E-05-8.60118E-02 0.00000E+00
 -1      1259 1.19872E-05-1.84081E+00 0.00000E+00
 -1      1260 1.18928E-05-3.58202E+00 0.00000E+00
 -1      1261 1.17958E-05-5.30928E+00 0.00000E+00
 -1      1262 1.16963E-05-7.02217E+00 0.00000E+00
 -1      1263 1.15941E-05-8.72039E+00 0.00000E+00
 -1      1264 1.14894E-05-1.04035E+01 0.00000E+00
 -1      1265 1.13821E-05-1.20712E+01 0.00000E+00
 -1      1266 1.12723E-05-1.37230E+01 0.00000E+00
 -1      1267 1.11599E-05-1.53587E+01 0.00000E+00
 -1      1268 1.10451E-05-1.69777E+01 0.00000E+00
 -1      1269 1.09277E-05-1.85798E+01 0.00000E+00
 -1      1270 1.08078E-05-2.01647E+01 0.00000E+00
 -1      1271 1.06854E-05-2.17318E+01 0.00000E+00
 -1      1272 1.05607E-05-2.32810E+01 0.00000E+00
 -1      1273 1.04334E-05-2.48118E+01 0.00000E+00
 -1      1274 1.03038E-05-2.63238E+01 0.00000E+00
 -1      1275 1.01719E-05-2.78168E+01 0.00000E+00
 -1      1276 1.00375E-05-2.92903E+01 0.00000E+00
 -1      1277 9.90086E-06-3.07441E+01 0.00000E+00
 -1      1278 9.76194E-06-3.21778E+01 0.00000E+00
 -1      1279 9.62073E-06-3.35911E+01 0.00000E+00
 -1      1280 9.47734E-06-3.49836E+01 0.00000E+00
 -1      1281 9.33171E-06-3.63550E+01 0.00000E+00
 -1      1282 9.18398E-06-3.77051E+01 0.00000E+00
 -1      1283 9.03408E-06-3.90335E+01 0.00000E+00
 -1      1284 8.88216E-06-4.03398E+01 0.00000E+00
 -1      1285 8.72813E-06-4.16238E+01 0.00000E+00
 -1      1286 8.57220E-06-4.28853E+01 0.00000E+00
 -1      1287 8.41421E-06-4.41238E+01 0.00000E+00
 -1      1288 8.25442E-06-4.53392E+01 0.00000E+00
 -1      1289 8.09264E-06-4.65311E+01 0.00000E+00
 -1      1290 7.92919E-06-4.76993E+01 0.00000E+00
 -1      1291 7.76379E-06-4.88435E+01 0.00000E+00
 -1      1292 7.59689E-06-4.99635E+01 0.00000E+00
 -1      1293 7.42804E-06-5.10590E+01 0.00000E+00
 -1      1294 7.25790E-06-5.21298E+01 0.00000E+00
 -1      1295 7.08580E-06-5.31757E+01 0.00000E+00
 -1      1296 6.91265E-06-5.41964E+01 0.00000E+00
 -1      1297 6.73749E-06-5.51916E+01 0.00000E+00
 -1      1298 6.56154E-06-5.61613E+01 0.00000E+00
 -1      1299 6.38350E-06-5.71051E+01 0.00000E+00
 -1      1300 6.20508E-06-5.80230E+01 0.00000E+00
 -1      1301 6.02431E-06-5.89147E+01 0.00000E+00
 -1      1302 5.84369E-06-5.97800E+01 0.00000E+00
 -1      1303 5.66036E-06-6.06188E+01 0.00000E+00
 -1      1304 5.47786E-06-6.14309E+01 0.00000E+00
 -1      1305 5.29213E-06-6.22161E+01 0.00000E+00
 -1      1306 5.10812E-06-6.29744E+01 0.00000E+00
 -1      1307 4.92006E-06-6.37056E+01 0.00000E+00
 -1      1308 4.73501E-06-6.44096E+01 0.00000E+00
 -1      1309 4.54463E-06-6.50862E+01 0.00000E+00
 -1      1310 4.35906E-06-6.57353E+01 0.00000E+00
 -1      1311 4.16631E-06-6.63569E+01 0.00000E+00
 -1      1312 3.98087E-06-6.69509E+01 0.00000E+00
 -1      1313 3.78553E-06-6.75172E+01 0.00000E+00
 -1      1314 3.60109E-06-6.80557E+01 0.00000E+00
 -1      1315 3.40271E-06-6.85664E+01 0.00000E+00
 -1      1316 3.22041E-06-6.90492E+01 0.00000E+00
 -1      1317 3.01820E-06-6.95041E+01 0.00000E+00
 -1      1318 2.83963E-06-6.99311E+01 0.00000E+00
 -1      1319 2.63225E-06-7.03302E+01 0.00000E+00
 -1      1320 2.45960E-06-7.07012E+01 0.00000E+00
 -1      1321 2.24530E-06-7.10444E+01 0.00000E+00
 -1      1322 2.08040E-06-7.13596E+01 0.00000E+00
 -1      1323 1.88916E-06-7.16470E+01 0.00000E+00
 -1      1324 1.67197E-06-7.19064E+01 0.00000E+00
 -1      1325 1.50379E-06-7.21381E+01 0.00000E+00
 -1      1326 1.29494E-06-7.23420E+01 0.00000E+00
 -1      1327 1.12090E-06-7.25182E+01 0.00000E+00
 -1      1328 9.18927E-07-7.26668E+01 0.00000E+00
 -1      1329 7.41312E-07-7.27878E+01 0.00000E+00
 -1      1330 5.44690E-07-7.28815E+01 0.00000E+00
 -1      1331 3.65296E-07-7.29478E+01 0.00000E+00
 -1      1332 1.73088E-07-7.29870E+01 0.00000E+00
 -1      1333-6.75838E-09-7.29991E+01 0.00000E+00
 -1      1334-1.95119E-07-7.29843E+01 0.00000E+00
 -1      1335-3.74428E-07-7.29427E+01 0.00000E+00
 -1      1336-5.59225E-07-7.28746E+01 0.00000E+00
 -1      1337-7.37218E-07-7.27800E+01 0.00000E+00
 -1      1338-9.18547E-07-7.26592E+01 0.00000E+00
 -1      1339-1.09462E-06-7.25123E+01 0.00000E+00
 -1      1340-1.27247E-06-7.23397E+01 0.00000E+00
 -1      1341-1.44608E-06-7.21414E+01 0.00000E+00
 -1      1342-1.62034E-06-7.19177E+01 0.00000E+00
 -1      1343-1.79105E-06-7.16689E+01 0.00000E+00
 -1      1344-1.96158E-06-7.13952E+01 0.00000E+00
 -1      1345-2.12898E-06-7.10969E+01 0.00000E+00
 -1      1346-2.29559E-06-7.07742E+01 0.00000E+00
 -1      1347-2.45932E-06-7.04275E+01 0.00000E+00
 -1      1348-2.62177E-06-7.00569E+01 0.00000E+00
 -1      1349-2.78149E-06-6.96629E+01 0.00000E+00
 -1      1350-2.93956E-06-6.92456E+01 0.00000E+00
 -1      1351-3.09495E-06-6.88056E+01 0.00000E+00
 -1      1352-3.24839E-06-6.83430E+01 0.00000E+00
 -1      1353-3.39914E-06-6.78582E+01 0.00000E+00
 -1      1354-3.54771E-06-6.73516E+01 0.00000E+00
 -1      1355-3.69352E-06-6.68235E+01 0.00000E+00
 -1      1356-3.83695E-06-6.62744E+01 0.00000E+00
 -1      1357-3.97755E-06-6.57045E+01 0.00000E+00
 -1      1358-4.11558E-06-6.51143E+01 0.00000E+00
 -1      1359-4.25071E-06-6.45042E+01 0.00000E+00
 -1      1360-4.38307E-06-6.38746E+01 0.00000E+00
 -1      1361-4.51246E-06-6.32259E+01 0.00000E+00
 -1      1362-4.63892E-06-6.25586E+01 0.00000E+00
 -1      1363-4.76228E-06-6.18730E+01 0.00000E+00
 -1      1364-4.88259E-06-6.11697E+01 0.00000E+00
 -1      1365-4.99970E-06-6.04490E+01 0.00000E+00
 -1      1366-5.11360E-06-5.97115E+01 0.00000E+00
 -1      1367-5.22420E-06-5.89577E+01 0.00000E+00
 -1      1368-5.33146E-06-5.81879E+01 0.00000E+00
 -1      1369-5.43531E-06-5.74028E+01 0.00000E+00
 -1      1370-5.53570E-06-5.66028E+01 0.00000E+00
 -1      1371-5.63256E-06-5.57884E+01 0.00000E+00
 -1      1372-5.72586E-06-5.49601E+01 0.00000E+00
 -1      1373-5.81550E-06-5.41185E+01 0.00000E+00
 -1      1374-5.90147E-06-5.32641E+01 0.00000E+00
 -1      1375-5.98369E-06-5.23974E+01 0.00000E+00
 -1      1376-6.06212E-06-5.15190E+01 0.00000E+00
 -1      1377-6.13670E-06-5.06294E+01 0.00000E+00
 -1      1378-6.20737E-06-4.97293E+01 0.00000E+00
 -1      1379-6.27410E-06-4.88191E+01 0.00000E+00
 -1      1380-6.33683E-06-4.78995E+01 0.00000E+00
 -1      1381-6.39552E-06-4.69710E+01 0.00000E+00
 -1      1382-6.45010E-06-4.60343E+01 0.00000E+00
 -1      1383-6.50055E-06-4.50899E+01 0.00000E+00
 -1      1384-6.54680E-06-4.41385E+01 0.00000E+00
 -1      1385-6.58882E-06-4.31806E+01 0.00000E+00
 -1      1386-6.62657E-06-4.22170E+01 0.00000E+00
 -1      1387-6.65999E-06-4.12481E+01 0.00000E+00
 -1      1388-6.68906E-06-4.02747E+01 0.00000E+00
 -1      1389-6.71372E-06-3.92973E+01 0.00000E+00
 -1      1390-6.73394E-06-3.83167E+01 0.00000E+00
 -1      1391-6.74967E-06-3.73335E+01 0.00000E+00
 -1      1392-6.76089E-06-3.63483E+01 0.00000E+00
 -1      1393-6.76755E-06-3.53618E+01 0.00000E+00
 -1      1394-6.76962E-06-3.43746E+01 0.00000E+00
 -1      1395-6.76705E-06-3.33875E+01 0.00000E+00
 -1      1396-6.75983E-06-3.24011E+01 0.00000E+00
 -1      1397-6.74791E-06-3.14161E+01 0.00000E+00
 -1      1398-6.73126E-06-3.04332E+01 0.00000E+00
 -1      1399-6.70986E-06-2.94531E+01 0.00000E+00
 -1      1400-6.68367E-06-2.84764E+01 0.00000E+00
 -1      1401-6.65266E-06-2.75039E+01 0.00000E+00
 -1      1402-6.61680E-06-2.65363E+01 0.00000E+00
 -1      1403-6.57607E-06-2.55743E+01 0.00000E+00
 -1      1404-6.53044E-06-2.46185E+01 0.00000E+00
 -1      1405-6.47990E-06-2.36698E+01 0.00000E+00
 -1      1406-6.42439E-06-2.27288E+01 0.00000E+00
 -1      1407-6.36393E-06-2.17963E+01 0.00000E+00
 -1      1408-6.29846E-06-2.08729E+01 0.00000E+00
 -1      1409-6.22798E-06-1.99595E+01 0.00000E+00
 -1      1410-6.15246E-06-1.90567E+01 0.00000E+00
 -1      1411-6.07189E-06-1.81653E+01 0.00000E+00
 -1      1412-5.98624E-06-1.72860E+01 0.00000E+00
 -1      1413-5.89550E-06-1.64196E+01 0.00000E+00
 -1      1414-5.79965E-06-1.55668E+01 0.00000E+00
 -1      1415-5.69868E-06-1.47283E+01 0.00000E+00
 -1      1416-5.59256E-06-1.39049E+01 0.00000E+00
 -1      1417-5.48129E-06-1.30974E+01 0.00000E+00
 -1      1418-5.36486E-06-1.23065E+01 0.00000E+00
 -1      1419-5.24323E-06-1.15329E+01 0.00000E+00
 -1      1420-5.11642E-06-1.07775E+01 0.00000E+00
 -1      1421-4.98442E-06-1.00409E+01 0.00000E+00
 -1      1422-4.84716E-06-9.32397E+00 0.00000E+00
 -1      1423-4.70473E-06-8.62742E+00 0.00000E+00
 -1      1424-4.55701E-06-7.95205E+00 0.00000E+00
 -1      1425-4.40411E-06-7.29858E+00 0.00000E+00
 -1      1426-4.24590E-06-6.66780E+00 0.00000E+00
 -1      1427-4.08250E-06-6.06047E+00 0.00000E+00
 -1      1428-3.91375E-06-5.47737E+00 0.00000E+00
 -1      1429-3.73984E-06-4.91924E+00 0.00000E+00
 -1      1430-3.56053E-06-4.38687E+00 0.00000E+00
 -1      1431-3.37608E-06-3.88103E+00 0.00000E+00
 -1      1432-3.18620E-06-3.40249E+00 0.00000E+00
 -1      1433-2.99118E-06-2.95201E+00 0.00000E+00
 -1      1434-2.79073E-06-2.53036E+00 0.00000E+00
 -1      1435-2.58514E-06-2.13833E+00 0.00000E+00
 -1      1436-2.37406E-06-1.77667E+00 0.00000E+00
 -1      1437-2.15791E-06-1.44617E+00 0.00000E+00
 -1      1438-1.93624E-06-1.14759E+00 0.00000E+00
 -1      1439-1.70948E-06-8.81716E-01 0.00000E+00
 -1      1440-1.47720E-06-6.49308E-01 0.00000E+00
 -1      1441-1.23983E-06-4.51144E-01 0.00000E+00
 -1      1442-9.97097E-07-2.87997E-01 0.00000E+00
 -1      1443-7.48495E-07-1.60664E-01 0.00000E+00
 -1      1444-4.97499E-07-6.97770E-02 0.00000E+00
 -1      1445-2.29613E-07-1.66853E-02 0.00000E+00
 -1      1446 0.00000E+00 0.00000E+00 0.00000E+00
 -1      1447-1.73119E-01 1.01354E+02 0.00000E+00
 -1      1448-1.73118E-01 9.93340E+01 0.00000E+00
 -1      1449-1.73117E-01 9.73141E+01 0.00000E+00
 -1      1450-1.73113E-01 9.52943E+01 0.00000E+00
 -1      1451-1.73105E-01 9.32745E+01 0.00000E+00
 -1      1452-1.73092E-01 9.12550E+01 0.00000E+00
 -1      1453-1.73074E-01 8.92356E+01 0.00000E+00
 -1      1454-1.73048E-01 8.72163E+01 0.00000E+00
 -1      1455-1.73014E-01 8.51975E+01 0.00000E+00
 -1      1456-1.72970E-01 8.31791E+01 0.00000E+00
 -1      1457-1.72916E-01 8.11613E+01 0.00000E+00
 -1      1458-1.72851E-01 7.91443E+01 0.00000E+00
 -1      1459-1.72773E-01 7.71279E+01 0.00000E+00
 -1      1460-1.72682E-01 7.51127E+01 0.00000E+00
 -1      1461-1.72576E-01 7.30985E+01 0.00000E+00
 -1      1462-1.72455E-01 7.10857E+01 0.00000E+00
 -1      1463-1.72318E-01 6.90744E+01 0.00000E+00
 -1      1464-1.72163E-01 6.70648E+01 0.00000E+00
 -1      1465-1.71991E-01 6.50571E+01 0.00000E+00
 -1      1466-1.71800E-01 6.30515E+01 0.00000E+00
 -1      1467-1.71589E-01 6.10483E+01 0.00000E+00
 -1      1468-1.71358E-01 5.90477E+01 0.00000E+00
 -1      1469-1.71105E-01 5.70498E+01 0.00000E+00
 -1      1470-1.70831E-01 5.50550E+01 0.00000E+00
 -1      1471-1.70534E-01 5.30635E+01 0.00000E+00
 -1      1472-1.70214E-01 5.10757E+01 0.00000E+00
 -1      1473-1.69870E-01 4.90918E+01 0.00000E+00
 -1      1474-1.69502E-01 4.71119E+01 0.00000E+00
 -1      1475-1.69108E-01 4.51366E+01 0.00000E+00
 -1      1476-1.68688E-01 4.31660E+01 0.00000E+00
 -1      1477-1.68243E-01 4.12004E+01 0.00000E+00
 -1      1478-1.67770E-01 3.92402E+01 0.00000E+00
 -1      1479-1.67270E-01 3.72857E+01 0.00000E+00
 -1      1480-1.66743E-01 3.53371E+01 0.00000E+00
 -1      1481-1.66187E-01 3.33949E+01 0.00000E+00
 -1      1482-1.65602E-01 3.14593E+01 0.00000E+00
 -1      1483-1.64988E-01 2.95307E+01 0.00000E+00
 -1      1484-1.64345E-01 2.76095E+01 0.00000E+00
 -1      1485-1.63672E-01 2.56959E+01 0.00000E+00
 -1      1486-1.62969E-01 2.37904E+01 0.00000E+00
 -1      1487-1.62235E-01 2.18932E+01 0.00000E+00
 -1      1488-1.61471E-01 2.00048E+01 0.00000E+00
 -1      1489-1.60676E-01 1.81255E+01 0.00000E+00
 -1      1490-1.59849E-01 1.62556E+01 0.00000E+00
 -1      1491-1.58991E-01 1.43955E+01 0.00000E+00
 -1      1492-1.58101E-01 1.25458E+01 0.00000E+00
 -1      1493-1.57179E-01 1.07065E+01 0.00000E+00
 -1      1494-1.56225E-01 8.87815E+00 0.00000E+00
 -1      1495-1.55239E-01 7.06114E+00 0.00000E+00
 -1      1496-1.54221E-01 5.25581E+00 0.00000E+00
 -1      1497-1.53171E-01 3.46260E+00 0.00000E+00
 -1      1498-1.52088E-01 1.68178E+00 0.00000E+00
 -1      1499-1.50973E-01-8.62067E-02 0.00000E+00
 -1      1500-1.49825E-01-1.84100E+00 0.00000E+00
 -1      1501-1.48645E-01-3.58221E+00 0.00000E+00
 -1      1502-1.47433E-01-5.30943E+00 0.00000E+00
 -1      1503-1.46189E-01-7.02235E+00 0.00000E+00
 -1      1504-1.44912E-01-8.72057E+00 0.00000E+00
 -1      1505-1.43603E-01-1.04037E+01 0.00000E+00
 -1      1506-1.42262E-01-1.20714E+01 0.00000E+00
 -1      1507-1.40889E-01-1.37232E+01 0.00000E+00
 -1      1508-1.39485E-01-1.53588E+01 0.00000E+00
 -1      1509-1.38049E-01-1.69779E+01 0.00000E+00
 -1      1510-1.36582E-01-1.85800E+01 0.00000E+00
 -1      1511-1.35083E-01-2.01649E+01 0.00000E+00
 -1      1512-1.33554E-01-2.17320E+01 0.00000E+00
 -1      1513-1.31994E-01-2.32812E+01 0.00000E+00
 -1      1514-1.30404E-01-2.48119E+01 0.00000E+00
 -1      1515-1.28784E-01-2.63240E+01 0.00000E+00
 -1      1516-1.27135E-01-2.78170E+01 0.00000E+00
 -1      1517-1.25456E-01-2.92905E+01 0.00000E+00
 -1      1518-1.23748E-01-3.07443E+01 0.00000E+00
 -1      1519-1.22011E-01-3.21780E+01 0.00000E+00
 -1      1520-1.20246E-01-3.35913E+01 0.00000E+00
 -1      1521-1.18453E-01-3.49838E+01 0.00000E+00
 -1      1522-1.16634E-01-3.63552E+01 0.00000E+00
 -1      1523-1.14787E-01-3.77053E+01 0.00000E+00
 -1      1524-1.12914E-01-3.90336E+01 0.00000E+00
 -1      1525-1.11014E-01-4.03400E+01 0.00000E+00
 -1      1526-1.09089E-01-4.16240E+01 0.00000E+00
 -1      1527-1.07140E-01-4.28854E+01 0.00000E+00
 -1      1528-1.05166E-01-4.41240E+01 0.00000E+00
 -1      1529-1.03168E-01-4.53393E+01 0.00000E+00
 -1      1530-1.01146E-01-4.65313E+01 0.00000E+00
 -1      1531-9.91026E-02-4.76995E+01 0.00000E+00
 -1      1532-9.70363E-02-4.88437E+01 0.00000E+00
 -1      1533-9.49487E-02-4.99637E+01 0.00000E+00
 -1      1534-9.28401E-02-5.10592E+01 0.00000E+00
 -1      1535-9.07112E-02-5.21300E+01 0.00000E+00
 -1      1536-8.85629E-02-5.31758E+01 0.00000E+00
 -1      1537-8.63952E-02-5.41965E+01 0.00000E+00
 -1      1538-8.42099E-02-5.51918E+01 0.00000E+00
 -1      1539-8.20060E-02-5.61614E+01 0.00000E+00
 -1      1540-7.97861E-02-5.71053E+01 0.00000E+00
 -1      1541-7.75495E-02-5.80231E+01 0.00000E+00
 -1      1542-7.52977E-02-5.89148E+01 0.00000E+00
 -1      1543-7.30309E-02-5.97801E+01 0.00000E+00
 -1      1544-7.07504E-02-6.06189E+01 0.00000E+00
 -1      1545-6.84565E-02-6.14310E+01 0.00000E+00
 -1      1546-6.61501E-02-6.22163E+01 0.00000E+00
 -1      1547-6.38321E-02-6.29745E+01 0.00000E+00
 -1      1548-6.15031E-02-6.37057E+01 0.00000E+00
 -1      1549-5.91642E-02-6.44097E+01 0.00000E+00
 -1      1550-5.68156E-02-6.50863E+01 0.00000E+00
 -1      1551-5.44590E-02-6.57354E+01 0.00000E+00
 -1      1552-5.20944E-02-6.63570E+01 0.00000E+00
 -1      1553-4.97230E-02-6.69510E+01 0.00000E+00
 -1      1554-4.73457E-02-6.75173E+01 0.00000E+00
 -1      1555-4.49632E-02-6.80558E+01 0.00000E+00
 -1      1556-4.25764E-02-6.85664E+01 0.00000E+00
 -1      1557-4.01861E-02-6.90493E+01 0.00000E+00
 -1      1558-3.77933E-02-6.95042E+01 0.00000E+00
 -1      1559-3.53988E-02-6.99312E+01 0.00000E+00
 -1      1560-3.30033E-02-7.03302E+01 0.00000E+00
 -1      1561-3.06080E-02-7.07013E+01 0.00000E+00
 -1      1562-2.82135E-02-7.10444E+01 0.00000E+00
 -1      1563-2.58211E-02-7.13596E+01 0.00000E+00
 -1      1564-2.34346E-02-7.16470E+01 0.00000E+00
 -1      1565-2.10481E-02-7.19064E+01 0.00000E+00
 -1      1566-1.86660E-02-7.21381E+01 0.00000E+00
 -1      1567-1.62893E-02-7.23419E+01 0.00000E+00
 -1      1568-1.39188E-02-7.25182E+01 0.00000E+00
 -1      1569-1.15559E-02-7.26667E+01 0.00000E+00
 -1      1570-9.20080E-03-7.27878E+01 0.00000E+00
 -1      1571-6.85507E-03-7.28814E+01 0.00000E+00
 -1      1572-4.51900E-03-7.29478E+01 0.00000E+00
 -1      1573-2.19410E-03-7.29869E+01 0.00000E+00
 -1      1574 1.19131E-04-7.29990E+01 0.00000E+00
 -1      1575 2.41960E-03-7.29842E+01 0.00000E+00
 -1      1576 4.70643E-03-7.29426E+01 0.00000E+00
 -1      1577 6.97866E-03-7.28745E+01 0.00000E+00
 -1      1578 9.23542E-03-7.27799E+01 0.00000E+00
 -1      1579 1.14757E-02-7.26591E+01 0.00000E+00
 -1      1580 1.36990E-02-7.25122E+01 0.00000E+00
 -1      1581 1.59036E-02-7.23396E+01 0.00000E+00
 -1      1582 1.80895E-02-7.21413E+01 0.00000E+00
 -1      1583 2.02549E-02-7.19176E+01 0.00000E+00
 -1      1584 2.23999E-02-7.16688E+01 0.00000E+00
 -1      1585 2.45225E-02-7.13951E+01 0.00000E+00
 -1      1586 2.66229E-02-7.10968E+01 0.00000E+00
 -1      1587 2.86992E-02-7.07741E+01 0.00000E+00
 -1      1588 3.07513E-02-7.04273E+01 0.00000E+00
 -1      1589 3.27776E-02-7.00567E+01 0.00000E+00
 -1      1590 3.47780E-02-6.96627E+01 0.00000E+00
 -1      1591 3.67509E-02-6.92454E+01 0.00000E+00
 -1      1592 3.86960E-02-6.88054E+01 0.00000E+00
 -1      1593 4.06120E-02-6.83428E+01 0.00000E+00
 -1      1594 4.24984E-02-6.78580E+01 0.00000E+00
 -1      1595 4.43540E-02-6.73514E+01 0.00000E+00
 -1      1596 4.61780E-02-6.68233E+01 0.00000E+00
 -1      1597 4.79700E-02-6.62741E+01 0.00000E+00
 -1      1598 4.97285E-02-6.57043E+01 0.00000E+00
 -1      1599 5.14532E-02-6.51141E+01 0.00000E+00
 -1      1600 5.31431E-02-6.45040E+01 0.00000E+00
 -1      1601 5.47972E-02-6.38743E+01 0.00000E+00
 -1      1602 5.64151E-02-6.32257E+01 0.00000E+00
 -1      1603 5.79955E-02-6.25583E+01 0.00000E+00
 -1      1604 5.95381E-02-6.18727E+01 0.00000E+00
 -1      1605 6.10417E-02-6.11694E+01 0.00000E+00
 -1      1606 6.25059E-02-6.04487E+01 0.00000E+00
 -1      1607 6.39295E-02-5.97112E+01 0.00000E+00
 -1      1608 6.53123E-02-5.89574E+01 0.00000E+00
 -1      1609 6.66530E-02-5.81876E+01 0.00000E+00
 -1      1610 6.79512E-02-5.74025E+01 0.00000E+00
 -1      1611 6.92062E-02-5.66024E+01 0.00000E+00
 -1      1612 7.04170E-02-5.57880E+01 0.00000E+00
 -1      1613 7.15832E-02-5.49598E+01 0.00000E+00
 -1      1614 7.27038E-02-5.41181E+01 0.00000E+00
 -1      1615 7.37785E-02-5.32637E+01 0.00000E+00
 -1      1616 7.48063E-02-5.23970E+01 0.00000E+00
 -1      1617 7.57866E-02-5.15186E+01 0.00000E+00
 -1      1618 7.67190E-02-5.06291E+01 0.00000E+00
 -1      1619 7.76024E-02-4.97289E+01 0.00000E+00
 -1      1620 7.84366E-02-4.88187E+01 0.00000E+00
 -1      1621 7.92206E-02-4.78991E+01 0.00000E+00
 -1      1622 7.99543E-02-4.69706E+01 0.00000E+00
 -1      1623 8.06365E-02-4.60339E+01 0.00000E+00
 -1      1624 8.12671E-02-4.50896E+01 0.00000E+00
 -1      1625 8.18452E-02-4.41381E+01 0.00000E+00
 -1      1626 8.23706E-02-4.31802E+01 0.00000E+00
 -1      1627 8.28423E-02-4.22166E+01 0.00000E+00
 -1      1628 8.32601E-02-4.12477E+01 0.00000E+00
 -1      1629 8.36234E-02-4.02743E+01 0.00000E+00
 -1      1630 8.39316E-02-3.92969E+01 0.00000E+00
 -1      1631 8.41843E-02-3.83163E+01 0.00000E+00
 -1      1632 8.43810E-02-3.73331E+01 0.00000E+00
 -1      1633 8.45211E-02-3.63478E+01 0.00000E+00
 -1      1634 8.46043E-02-3.53614E+01 0.00000E+00
 -1      1635 8.46301E-02-3.43742E+01 0.00000E+00
 -1      1636 8.45980E-02-3.33871E+01 0.00000E+00
 -1      1637 8.45076E-02-3.24007E+01 0.00000E+00
 -1      1638 8.43586E-02-3.14157E+01 0.00000E+00
 -1      1639 8.41504E-02-3.04328E+01 0.00000E+00
 -1      1640 8.38828E-02-2.94527E+01 0.00000E+00
 -1      1641 8.35553E-02-2.84760E+01 0.00000E+00
 -1      1642 8.31676E-02-2.75035E+01 0.00000E+00
 -1      1643 8.27193E-02-2.65359E+01 0.00000E+00
 -1      1644 8.22101E-02-2.55739E+01 0.00000E+00
 -1      1645 8.16396E-02-2.46181E+01 0.00000E+00
 -1      1646 8.10076E-02-2.36694E+01 0.00000E+00
 -1      1647 8.03137E-02-2.27284E+01 0.00000E+00
 -1      1648 7.95577E-02-2.17959E+01 0.00000E+00
 -1      1649 7.87393E-02-2.08725E+01 0.00000E+00
 -1      1650 7.78581E-02-1.99591E+01 0.00000E+00
 -1      1651 7.69140E-02-1.90563E+01 0.00000E+00
 -1      1652 7.59066E-02-1.81649E+01 0.00000E+00
 -1      1653 7.48359E-02-1.72856E+01 0.00000E+00
 -1      1654 7.37015E-02-1.64192E+01 0.00000E+00
 -1      1655 7.25032E-02-1.55664E+01 0.00000E+00
 -1      1656 7.12408E-02-1.47279E+01 0.00000E+00
 -1      1657 6.99143E-02-1.39046E+01 0.00000E+00
 -1      1658 6.85231E-02-1.30970E+01 0.00000E+00
 -1      1659 6.70676E-02-1.23061E+01 0.00000E+00
 -1      1660 6.55470E-02-1.15326E+01 0.00000E+00
 -1      1661 6.39618E-02-1.07772E+01 0.00000E+00
 -1      1662 6.23113E-02-1.00406E+01 0.00000E+00
 -1      1663 6.05956E-02-9.32367E+00 0.00000E+00
 -1      1664 5.88148E-02-8.62714E+00 0.00000E+00
 -1      1665 5.69684E-02-7.95178E+00 0.00000E+00
 -1      1666 5.50565E-02-7.29832E+00 0.00000E+00
 -1      1667 5.30791E-02-6.66755E+00 0.00000E+00
 -1      1668 5.10358E-02-6.06023E+00 0.00000E+00
 -1      1669 4.89268E-02-5.47713E+00 0.00000E+00
 -1      1670 4.67518E-02-4.91902E+00 0.00000E+00
 -1      1671 4.45112E-02-4.38668E+00 0.00000E+00
 -1      1672 4.22041E-02-3.88085E+00 0.00000E+00
 -1      1673 3.98317E-02-3.40232E+00 0.00000E+00
 -1      1674 3.73920E-02-2.95185E+00 0.00000E+00
 -1      1675 3.48881E-02-2.53022E+00 0.00000E+00
 -1      1676 3.23155E-02-2.13821E+00 0.00000E+00
 -1      1677 2.96797E-02-1.77657E+00 0.00000E+00
 -1      1678 2.69739E-02-1.44608E+00 0.00000E+00
 -1      1679 2.42070E-02-1.14752E+00 0.00000E+00
 -1      1680 2.13670E-02-8.81657E-01 0.00000E+00
 -1      1681 1.84696E-02-6.49276E-01 0.00000E+00
 -1      1682 1.54942E-02-4.51130E-01 0.00000E+00
 -1      1683 1.24695E-02-2.87999E-01 0.00000E+00
 -1      1684 9.34929E-03-1.60690E-01 0.00000E+00
 -1      1685 6.22661E-03-6.98155E-02 0.00000E+00
 -1      1686 2.86120E-03-1.67773E-02 0.00000E+00
 -1      1687 0.00000E+00 0.00000E+00 0.00000E+00
 -1      1688-1.73119E-01 1.01354E+02 0.00000E+00
 -1      1689-1.73118E-01 9.93340E+01 0.00000E+00
 -1      1690-1.73117E-01 9.73141E+01 0.00000E+00
 -1      1691-1.73113E-01 9.52943E+01 0.00000E+00
 -1      1692-1.73105E-01 9.32745E+01 0.00000E+00
 -1      1693-1.73092E-01 9.12550E+01 0.00000E+00
 -1      1694-1.73074E-01 8.92356E+01 0.00000E+00
 -1      1695-1.73048E-01 8.72163E+01 0.00000E+00
 -1      1696-1.73014E-01 8.51975E+01 0.00000E+00
 -1      1697-1.72970E-01 8.31791E+01 0.00000E+00
 -1      1698-1.72916E-01 8.11613E+01 0.00000E+00
 -1      1699-1.72851E-01 7.91443E+01 0.00000E+00
 -1      1700-1.72773E-01 7.71279E+01 0.00000E+00
 -1      1701-1.72682E-01 7.51127E+01 0.00000E+00
 -1      1702-1.72576E-01 7.30985E+01 0.00000E+00
 -1      1703-1.72455E-01 7.10857E+01 0.00000E+00
 -1      1704-1.72318E-01 6.90744E+01 0.00000E+00
 -1      1705-1.72163E-01 6.70648E+01 0.00000E+00
 -1      1706-1.71991E-01 6.50571E+01 0.00000E+00
 -1      1707-1.71800E-01 6.30515E+01 0.00000E+00
 -1      1708-1.71589E-01 6.10483E+01 0.00000E+00
 -1      1709-1.71358E-01 5.90477E+01 0.00000E+00
 -1      1710-1.71105E-01 5.70498E+01 0.00000E+00
 -1      1711-1.70831E-01 5.50550E+01 0.00000E+00
 -1      1712-1.70534E-01 5.30635E+01 0.00000E+00
 -1      1713-1.70214E-01 5.10757E+01 0.00000E+00
 -1      1714-1.69870E-01 4.90918E+01 0.00000E+00
 -1      1715-1.69502E-01 4.71119E+01 0.00000E+00
 -1      1716-1.69108E-01 4.51366E+01 0.00000E+00
 -1      1717-1.68688E-01 4.31660E+01 0.00000E+00
 -1      1718-1.68243E-01 4.12004E+01 0.00000E+00
 -1      1719-1.67770E-01 3.92402E+01 0.00000E+00
 -1      1720-1.67270E-01 3.72857E+01 0.00000E+00
 -1      1721-1.66743E-01 3.53371E+01 0.00000E+00
 -1      1722-1.66187E-01 3.33949E+01 0.00000E+00
 -1      1723-1.65602E-01 3.14593E+01 0.00000E+00
 -1      1724-1.64988E-01 2.95307E+01 0.00000E+00
 -1      1725-1.64345E-01 2.76095E+01 0.00000E+00
 -1      1726-1.63672E-01 2.56959E+01 0.00000E+00
 -1      1727-1.62969E-01 2.37904E+01 0.00000E+00
 -1      1728-1.62235E-01 2.18932E+01 0.00000E+00
 -1      1729-1.61471E-01 2.00048E+01 0.00000E+00
 -1      1730-1.60676E-01 1.81255E+01 0.00000E+00
 -1      1731-1.59849E-01 1.62556E+01 0.00000E+00
 -1      1732-1.58991E-01 1.43955E+01 0.00000E+00
 -1      1733-1.58101E-01 1.25458E+01 0.00000E+00
 -1      1734-1.57179E-01 1.07065E+01 0.00000E+00
 -1      1735-1.56225E-01 8.87815E+00 0.00000E+00
 -1      1736-1.55239E-01 7.06114E+00 0.00000E+00
 -1      1737-1.54221E-01 5.25581E+00 0.00000E+00
 -1      1738-1.53171E-01 3.46260E+00 0.00000E+00
 -1      1739-1.52088E-01 1.68178E+00 0.00000E+00
 -1      1740-1.50973E-01-8.62067E-02 0.00000E+00
 -1      1741-1.49825E-01-1.84100E+00 0.00000E+00
 -1      1742-1.48645E-01-3.58221E+00 0.00000E+00
 -1      1743-1.47433E-01-5.30943E+00 0.00000E+00
 -1      1744-1.46189E-01-7.02235E+00 0.00000E+00
 -1      1745-1.44912E-01-8.72057E+00 0.00000E+00
 -1      1746-1.43603E-01-1.04037E+01 0.00000E+00
 -1      1747-1.42262E-01-1.20714E+01 0.00000E+00
 -1      1748-1.40889E-01-1.37232E+01 0.00000E+00
 -1      1749-1.39485E-01-1.53588E+01 0.00000E+00
 -1      1750-1.38049E-01-1.69779E+01 0.00000E+00
 -1      1751-1.36582E-01-1.85800E+01 0.00000E+00
 -1      1752-1.35083E-01-2.01649E+01 0.00000E+00
 -1      1753-1.33554E-01-2.17320E+01 0.00000E+00
 -1      1754-1.31994E-01-2.32812E+01 0.00000E+00
 -1      1755-1.30404E-01-2.48119E+01 0.00000E+00
 -1      1756-1.28784E-01-2.63240E+01 0.00000E+00
 -1      1757-1.27135E-01-2.78170E+01 0.00000E+00
 -1      1758-1.25456E-01-2.92905E+01 0.00000E+00
 -1      1759-1.23748E-01-3.07443E+01 0.00000E+00
 -1      1760-1.22011E-01-3.21780E+01 0.00000E+00
 -1      1761-1.20246E-01-3.35913E+01 0.00000E+00
 -1      1762-1.18453E-01-3.49838E+01 0.00000E+00
 -1      1763-1.16634E-01-3.63552E+01 0.00000E+00
 -1      1764-1.14787E-01-3.77053E+01 0.00000E+00
 -1      1765-1.12914E-01-3.90336E+01 0.00000E+00
 -1      1766-1.11014E-01-4.03400E+01 0.00000E+00
 -1      1767-1.09089E-01-4.16240E+01 0.00000E+00
 -1      1768-1.07140E-01-4.28854E+01 0.00000E+00
 -1      1769-1.05166E-01-4.41240E+01 0.00000E+00
 -1      1770-1.03168E-01-4.53393E+01 0.00000E+00
 -1      1771-1.01146E-01-4.65313E+01 0.00000E+00
 -1      1772-9.91026E-02-4.76995E+01 0.00000E+00
 -1      1773-9.70363E-02-4.88437E+01 0.00000E+00
 -1      1774-9.49487E-02-4.99637E+01 0.00000E+00
 -1      1775-9.28401E-02-5.10592E+01 0.00000E+00
 -1      1776-9.07112E-02-5.21300E+01 0.00000E+00
 -1      1777-8.85629E-02-5.31758E+01 0.00000E+00
 -1      1778-8.63952E-02-5.41965E+01 0.00000E+00
 -1      1779-8.42099E-02-5.51918E+01 0.00000E+00
 -1      1780-8.20060E-02-5.61614E+01 0.00000E+00
 -1      1781-7.97861E-02-5.71053E+01 0.00000E+00
 -1      1782-7.75495E-02-5.80231E+01 0.00000E+00
 -1      1783-7.52977E-02-5.89148E+01 0.00000E+00
 -1      1784-7.30309E-02-5.97801E+01 0.00000E+00
 -1      1785-7.07504E-02-6.06189E+01 0.00000E+00
 -1      1786-6.84565E-02-6.14310E+01 0.00000E+00
 -1      1787-6.61501E-02-6.22163E+01 0.00000E+00
 -1      1788-6.38321E-02-6.29745E+01 0.00000E+00
 -1      1789-6.15031E-02-6.37057E+01 0.00000E+00
 -1      1790-5.91642E-02-6.44097E+01 0.00000E+00
 -1      1791-5.68156E-02-6.50863E+01 0.00000E+00
 -1      1792-5.44590E-02-6.57354E+01 0.00000E+00
 -1      1793-5.20944E-02-6.63570E+01 0.00000E+00
 -1      1794-4.97230E-02-6.69510E+01 0.00000E+00
 -1      1795-4.73457E-02-6.75173E+01 0.00000E+00
 -1      1796-4.49632E-02-6.80558E+01 0.00000E+00
 -1      1797-4.25764E-02-6.85664E+01 0.00000E+00
 -1      1798-4.01861E-02-6.90493E+01 0.00000E+00
 -1      1799-3.77933E-02-6.95042E+01 0.00000E+00
 -1      1800-3.53988E-02-6.99312E+01 0.00000E+00
 -1      1801-3.30033E-02-7.03302E+01 0.00000E+00
 -1      1802-3.06080E-02-7.07013E+01 0.00000E+00
 -1      1803-2.82135E-02-7.10444E+01 0.00000E+00
 -1      1804-2.58211E-02-7.13596E+01 0.00000E+00
 -1      1805-2.34346E-02-7.16470E+01 0.00000E+00
 -1      1806-2.10481E-02-7.19064E+01 0.00000E+00
 -1      1807-1.86660E-02-7.21381E+01 0.00000E+00
 -1      1808-1.62893E-02-7.23419E+01 0.00000E+00
 -1      1809-1.39188E-02-7.25182E+01 0.00000E+00
 -1      1810-1.15559E-02-7.26667E+01 0.00000E+00
 -1      1811-9.20080E-03-7.27878E+01 0.00000E+00
 -1      1812-6.85507E-03-7.28814E+01 0.00000E+00
 -1      1813-4.51900E-03-7.29478E+01 0.00000E+00
 -1      1814-2.19410E-03-7.29869E+01 0.00000E+00
 -1      1815 1.19131E-04-7.29990E+01 0.00000E+00
 -1      1816 2.41960E-03-7.29842E+01 0.00000E+00
 -1      1817 4.70643E-03-7.29426E+01 0.00000E+00
 -1      1818 6.97866E-03-7.28745E+01 0.00000E+00
 -1      1819 9.23542E-03-7.27799E+01 0.00000E+00
 -1      1820 1.14757E-02-7.26591E+01 0.00000E+00
 -1      1821 1.36990E-02-7.25122E+01 0.00000E+00
 -1      1822 1.59036E-02-7.23396E+01 0.00000E+00
 -1      1823 1.80895E-02-7.21413E+01 0.00000E+00
 -1      1824 2.02549E-02-7.19176E+01 0.00000E+00
 -1      1825 2.23999E-02-7.16688E+01 0.00000E+00
 -1      1826 2.45225E-02-7.13951E+01 0.00000E+00
 -1      1827 2.66229E-02-7.10968E+01 0.00000E+00
 -1      1828 2.86992E-02-7.07741E+01 0.00000E+00
 -1      1829 3.07513E-02-7.04273E+01 0.00000E+00
 -1      1830 3.27776E-02-7.00567E+01 0.00000E+00
 -1      1831 3.47780E-02-6.96627E+01 0.00000E+00
 -1      1832 3.67509E-02-6.92454E+01 0.00000E+00
 -1      1833 3.86960E-02-6.88054E+01 0.00000E+00
 -1      1834 4.06120E-02-6.83428E+01 0.00000E+00
 -1      1835 4.24984E-02-6.78580E+01 0.00000E+00
 -1      1836 4.43540E-02-6.73514E+01 0.00000E+00
 -1      1837 4.61780E-02-6.68233E+01 0.00000E+00
 -1      1838 4.79700E-02-6.62741E+01 0.00000E+00
 -1      1839 4.97285E-02-6.57043E+01 0.00000E+00
 -1      1840 5.14532E-02-6.51141E+01 0.00000E+00
 -1      1841 5.31431E-02-6.45040E+01 0.00000E+00
 -1      1842 5.47972E-02-6.38743E+01 0.00000E+00
 -1      1843 5.64151E-02-6.32257E+01 0.00000E+00
 -1      1844 5.79955E-02-6.25583E+01 0.00000E+00
 -1      1845 5.95381E-02-6.18727E+01 0.00000E+00
 -1      1846 6.10417E-02-6.11694E+01 0.00000E+00
 -1      1847 6.25059E-02-6.04487E+01 0.00000E+00
 -1      1848 6.39295E-02-5.97112E+01 0.00000E+00
 -1      1849 6.53123E-02-5.89574E+01 0.00000E+00
 -1      1850 6.66530E-02-5.81876E+01 0.00000E+00
 -1      1851 6.79512E-02-5.74025E+01 0.00000E+00
 -1      1852 6.92062E-02-5.66024E+01 0.00000E+00
 -1      1853 7.04170E-02-5.57880E+01 0.00000E+00
 -1      1854 7.15832E-02-5.49598E+01 0.00000E+00
 -1      1855 7.27038E-02-5.41181E+01 0.00000E+00
 -1      1856 7.37785E-02-5.32637E+01 0.00000E+00
 -1      1857 7.48063E-02-5.23970E+01 0.00000E+00
 -1      1858 7.57866E-02-5.15186E+01 0.00000E+00
 -1      1859 7.67190E-02-5.06291E+01 0.00000E+00
 -1      1860 7.76024E-02-4.97289E+01 0.00000E+00
 -1      1861 7.84366E-02-4.88187E+01 0.00000E+00
 -1      1862 7.92206E-02-4.78991E+01 0.00000E+00
 -1      1863 7.99543E-02-4.69706E+01 0.00000E+00
 -1      1864 8.06365E-02-4.60339E+01 0.00000E+00
 -1      1865 8.12671E-02-4.50896E+01 0.00000E+00
 -1      1866 8.18452E-02-4.41381E+01 0.00000E+00
 -1      1867 8.23706E-02-4.31802E+01 0.00000E+00
 -1      1868 8.28423E-02-4.22166E+01 0.00000E+00
 -1      1869 8.32601E-02-4.12477E+01 0.00000E+00
 -1      1870 8.36234E-02-4.02743E+01 0.00000E+00
 -1      1871 8.39316E-02-3.92969E+01 0.00000E+00
 -1      1872 8.41843E-02-3.83163E+01 0.00000E+00
 -1      1873 8.43810E-02-3.73331E+01 0.00000E+00
 -1      1874 8.45211E-02-3.63478E+01 0.00000E+00
 -1      1875 8.46043E-02-3.53614E+01 0.00000E+00
 -1      1876 8.46301E-02-3.43742E+01 0.00000E+00
 -1      1877 8.45980E-02-3.33871E+01 0.00000E+00
 -1      1878 8.45076E-02-3.24007E+01 0.00000E+00
 -1      1879 8.43586E-02-3.14157E+01 0.00000E+00
 -1      1880 8.41504E-02-3.04328E+01 0.00000E+00
 -1      1881 8.38828E-02-2.94527E+01 0.00000E+00
 -1      1882 8.35553E-02-2.84760E+01 0.00000E+00
 -1      1883 8.31676E-02-2.75035E+01 0.00000E+00
 -1      1884 8.27193E-02-2.65359E+01 0.00000E+00
 -1      1885 8.22101E-02-2.55739E+01 0.00000E+00
 -1      1886 8.16396E-02-2.46181E+01 0.00000E+00
 -1      1887 8.10076E-02-2.36694E+01 0.00000E+00
 -1      1888 8.03137E-02-2.27284E+01 0.00000E+00
 -1      1889 7.95577E-02-2.17959E+01 0.00000E+00
 -1      1890 7.87393E-02-2.08725E+01 0.00000E+00
 -1      1891 7.78581E-02-1.99591E+01 0.00000E+00
 -1      1892 7.69140E-02-1.90563E+01 0.00000E+00
 -1      1893 7.59066E-02-1.81649E+01 0.00000E+00
 -1      1894 7.48359E-02-1.72856E+01 0.00000E+00
 -1      1895 7.37015E-02-1.64192E+01 0.00000E+00
 -1      1896 7.25032E-02-1.55664E+01 0.00000E+00
 -1      1897 7.12408E-02-1.47279E+01 0.00000E+00
 -1      1898 6.99143E-02-1.39046E+01 0.00000E+00
 -1      1899 6.85231E-02-1.30970E+01 0.00000E+00
 -1      1900 6.70676E-02-1.23061E+01 0.00000E+00
 -1      1901 6.55470E-02-1.15326E+01 0.00000E+00
 -1      1902 6.39618E-02-1.07772E+01 0.00000E+00
 -1      1903 6.23113E-02-1.00406E+01 0.00000E+00
 -1      1904 6.05956E-02-9.32367E+00 0.00000E+00
 -1      1905 5.88148E-02-8.62714E+00 0.00000E+00
 -1      1906 5.69684E-02-7.95178E+00 0.00000E+00
 -1      1907 5.50565E-02-7.29832E+00 0.00000E+00
 -1      1908 5.30791E-02-6.66755E+00 0.00000E+00
 -1      1909 5.10358E-02-6.06023E+00 0.00000E+00
 -1      1910 4.89268E-02-5.47713E+00 0.00000E+00
 -1      1911 4.67518E-02-4.91902E+00 0.00000E+00
 -1      1912 4.45112E-02-4.38668E+00 0.00000E+00
 -1      1913 4.22041E-02-3.88085E+00 0.00000E+00
 -1      1914 3.98317E-02-3.40232E+00 0.00000E+00
 -1      1915 3.73920E-02-2.95185E+00 0.00000E+00
 -1      1916 3.48881E-02-2.53022E+00 0.00000E+00
 -1      1917 3.23155E-02-2.13821E+00 0.00000E+00
 -1      1918 2.96797E-02-1.77657E+00 0.00000E+00
 -1      1919 2.69739E-02-1.44608E+00 0.00000E+00
 -1      1920 2.42070E-02-1.14752E+00 0.00000E+00
 -1      1921 2.13670E-02-8.81657E-01 0.00000E+00
 -1      1922 1.84696E-02-6.49276E-01 0.00000E+00
 -1      1923 1.54942E-02-4.51130E-01 0.00000E+00
 -1      1924 1.24695E-02-2.87999E-01 0.00000E+00
 -1      1925 9.34929E-03-1.60690E-01 0.00000E+00
 -1      1926 6.22661E-03-6.98155E-02 0.00000E+00
 -1      1927 2.86120E-03-1.67773E-02 0.00000E+00
 -1      1928 0.00000E+00 0.00000E+00 0.00000E+00
 -1      1929-3.46252E-01 1.01354E+02 0.00000E+00
 -1      1930-3.46252E-01 9.93340E+01 0.00000E+00
 -1      1931-3.46249E-01 9.73141E+01 0.00000E+00
 -1      1932-3.46241E-01 9.52942E+01 0.00000E+00
 -1      1933-3.46225E-01 9.32745E+01 0.00000E+00
 -1      1934-3.46200E-01 9.12549E+01 0.00000E+00
 -1      1935-3.46163E-01 8.92355E+01 0.00000E+00
 -1      1936-3.46111E-01 8.72162E+01 0.00000E+00
 -1      1937-3.46043E-01 8.51974E+01 0.00000E+00
 -1      1938-3.45956E-01 8.31790E+01 0.00000E+00
 -1      1939-3.45848E-01 8.11612E+01 0.00000E+00
 -1      1940-3.45717E-01 7.91441E+01 0.00000E+00
 -1      1941-3.45562E-01 7.71278E+01 0.00000E+00
 -1      1942-3.45379E-01 7.51125E+01 0.00000E+00
 -1      1943-3.45168E-01 7.30984E+01 0.00000E+00
 -1      1944-3.44926E-01 7.10855E+01 0.00000E+00
 -1      1945-3.44651E-01 6.90742E+01 0.00000E+00
 -1      1946-3.44342E-01 6.70646E+01 0.00000E+00
 -1      1947-3.43997E-01 6.50568E+01 0.00000E+00
 -1      1948-3.43615E-01 6.30513E+01 0.00000E+00
 -1      1949-3.43193E-01 6.10480E+01 0.00000E+00
 -1      1950-3.42731E-01 5.90474E+01 0.00000E+00
 -1      1951-3.42226E-01 5.70495E+01 0.00000E+00
 -1      1952-3.41678E-01 5.50547E+01 0.00000E+00
 -1      1953-3.41084E-01 5.30633E+01 0.00000E+00
 -1      1954-3.40444E-01 5.10754E+01 0.00000E+00
 -1      1955-3.39756E-01 4.90914E+01 0.00000E+00
 -1      1956-3.39018E-01 4.71116E+01 0.00000E+00
 -1      1957-3.38231E-01 4.51363E+01 0.00000E+00
 -1      1958-3.37392E-01 4.31656E+01 0.00000E+00
 -1      1959-3.36501E-01 4.12001E+01 0.00000E+00
 -1      1960-3.35556E-01 3.92398E+01 0.00000E+00
 -1      1961-3.34556E-01 3.72853E+01 0.00000E+00
 -1      1962-3.33500E-01 3.53367E+01 0.00000E+00
 -1      1963-3.32388E-01 3.33945E+01 0.00000E+00
 -1      1964-3.31219E-01 3.14589E+01 0.00000E+00
 -1      1965-3.29992E-01 2.95303E+01 0.00000E+00
 -1      1966-3.28705E-01 2.76090E+01 0.00000E+00
 -1      1967-3.27359E-01 2.56955E+01 0.00000E+00
 -1      1968-3.25953E-01 2.37899E+01 0.00000E+00
 -1      1969-3.24485E-01 2.18927E+01 0.00000E+00
 -1      1970-3.22956E-01 2.00043E+01 0.00000E+00
 -1      1971-3.21365E-01 1.81250E+01 0.00000E+00
 -1      1972-3.19712E-01 1.62551E+01 0.00000E+00
 -1      1973-3.17995E-01 1.43951E+01 0.00000E+00
 -1      1974-3.16215E-01 1.25453E+01 0.00000E+00
 -1      1975-3.14372E-01 1.07060E+01 0.00000E+00
 -1      1976-3.12464E-01 8.87767E+00 0.00000E+00
 -1      1977-3.10492E-01 7.06066E+00 0.00000E+00
 -1      1978-3.08456E-01 5.25534E+00 0.00000E+00
 -1      1979-3.06355E-01 3.46204E+00 0.00000E+00
 -1      1980-3.04189E-01 1.68124E+00 0.00000E+00
 -1      1981-3.01959E-01-8.67481E-02 0.00000E+00
 -1      1982-2.99664E-01-1.84153E+00 0.00000E+00
 -1      1983-2.97304E-01-3.58274E+00 0.00000E+00
 -1      1984-2.94879E-01-5.30999E+00 0.00000E+00
 -1      1985-2.92390E-01-7.02291E+00 0.00000E+00
 -1      1986-2.89836E-01-8.72112E+00 0.00000E+00
 -1      1987-2.87218E-01-1.04042E+01 0.00000E+00
 -1      1988-2.84536E-01-1.20719E+01 0.00000E+00
 -1      1989-2.81791E-01-1.37237E+01 0.00000E+00
 -1      1990-2.78981E-01-1.53594E+01 0.00000E+00
 -1      1991-2.76110E-01-1.69784E+01 0.00000E+00
 -1      1992-2.73175E-01-1.85806E+01 0.00000E+00
 -1      1993-2.70178E-01-2.01654E+01 0.00000E+00
 -1      1994-2.67120E-01-2.17326E+01 0.00000E+00
 -1      1995-2.64000E-01-2.32817E+01 0.00000E+00
 -1      1996-2.60819E-01-2.48125E+01 0.00000E+00
 -1      1997-2.57579E-01-2.63246E+01 0.00000E+00
 -1      1998-2.54279E-01-2.78175E+01 0.00000E+00
 -1      1999-2.50921E-01-2.92911E+01 0.00000E+00
 -1      2000-2.47505E-01-3.07449E+01 0.00000E+00
 -1      2001-2.44032E-01-3.21785E+01 0.00000E+00
 -1      2002-2.40502E-01-3.35918E+01 0.00000E+00
 -1      2003-2.36916E-01-3.49843E+01 0.00000E+00
 -1      2004-2.33276E-01-3.63558E+01 0.00000E+00
 -1      2005-2.29582E-01-3.77058E+01 0.00000E+00
 -1      2006-2.25836E-01-3.90341E+01 0.00000E+00
 -1      2007-2.22036E-01-4.03405E+01 0.00000E+00
 -1      2008-2.18187E-01-4.16245E+01 0.00000E+00
 -1      2009-2.14287E-01-4.28860E+01 0.00000E+00
 -1      2010-2.10339E-01-4.41245E+01 0.00000E+00
 -1      2011-2.06343E-01-4.53398E+01 0.00000E+00
 -1      2012-2.02300E-01-4.65318E+01 0.00000E+00
 -1      2013-1.98212E-01-4.77000E+01 0.00000E+00
 -1      2014-1.94079E-01-4.88442E+01 0.00000E+00
 -1      2015-1.89904E-01-4.99642E+01 0.00000E+00
 -1      2016-1.85686E-01-5.10597E+01 0.00000E+00
 -1      2017-1.81428E-01-5.21304E+01 0.00000E+00
 -1      2018-1.77131E-01-5.31763E+01 0.00000E+00
 -1      2019-1.72796E-01-5.41969E+01 0.00000E+00
 -1      2020-1.68425E-01-5.51922E+01 0.00000E+00
 -1      2021-1.64017E-01-5.61618E+01 0.00000E+00
 -1      2022-1.59577E-01-5.71057E+01 0.00000E+00
 -1      2023-1.55103E-01-5.80235E+01 0.00000E+00
 -1      2024-1.50599E-01-5.89152E+01 0.00000E+00
 -1      2025-1.46066E-01-5.97805E+01 0.00000E+00
 -1      2026-1.41504E-01-6.06193E+01 0.00000E+00
 -1      2027-1.36916E-01-6.14313E+01 0.00000E+00
 -1      2028-1.32303E-01-6.22166E+01 0.00000E+00
 -1      2029-1.27667E-01-6.29749E+01 0.00000E+00
 -1      2030-1.23009E-01-6.37060E+01 0.00000E+00
 -1      2031-1.18331E-01-6.44099E+01 0.00000E+00
 -1      2032-1.13633E-01-6.50865E+01 0.00000E+00
 -1      2033-1.08919E-01-6.57357E+01 0.00000E+00
 -1      2034-1.04191E-01-6.63572E+01 0.00000E+00
 -1      2035-9.94469E-02-6.69512E+01 0.00000E+00
 -1      2036-9.46924E-02-6.75175E+01 0.00000E+00
 -1      2037-8.99267E-02-6.80560E+01 0.00000E+00
 -1      2038-8.51532E-02-6.85666E+01 0.00000E+00
 -1      2039-8.03722E-02-6.90494E+01 0.00000E+00
 -1      2040-7.55863E-02-6.95043E+01 0.00000E+00
 -1      2041-7.07972E-02-6.99313E+01 0.00000E+00
 -1      2042-6.60059E-02-7.03303E+01 0.00000E+00
 -1      2043-6.12150E-02-7.07014E+01 0.00000E+00
 -1      2044-5.64260E-02-7.10445E+01 0.00000E+00
 -1      2045-5.16405E-02-7.13597E+01 0.00000E+00
 -1      2046-4.68608E-02-7.16470E+01 0.00000E+00
 -1      2047-4.20874E-02-7.19064E+01 0.00000E+00
 -1      2048-3.73245E-02-7.21380E+01 0.00000E+00
 -1      2049-3.25707E-02-7.23419E+01 0.00000E+00
 -1      2050-2.78311E-02-7.25181E+01 0.00000E+00
 -1      2051-2.31049E-02-7.26667E+01 0.00000E+00
 -1      2052-1.83960E-02-7.27877E+01 0.00000E+00
 -1      2053-1.37042E-02-7.28813E+01 0.00000E+00
 -1      2054-9.03311E-03-7.29476E+01 0.00000E+00
 -1      2055-4.38348E-03-7.29868E+01 0.00000E+00
 -1      2056 2.42378E-04-7.29988E+01 0.00000E+00
 -1      2057 4.84273E-03-7.29840E+01 0.00000E+00
 -1      2058 9.41619E-03-7.29424E+01 0.00000E+00
 -1      2059 1.39600E-02-7.28742E+01 0.00000E+00
 -1      2060 1.84731E-02-7.27796E+01 0.00000E+00
 -1      2061 2.29533E-02-7.26588E+01 0.00000E+00
 -1      2062 2.73991E-02-7.25119E+01 0.00000E+00
 -1      2063 3.18084E-02-7.23392E+01 0.00000E+00
 -1      2064 3.61792E-02-7.21409E+01 0.00000E+00
 -1      2065 4.05102E-02-7.19172E+01 0.00000E+00
 -1      2066 4.47989E-02-7.16684E+01 0.00000E+00
 -1      2067 4.90445E-02-7.13947E+01 0.00000E+00
 -1      2068 5.32439E-02-7.10963E+01 0.00000E+00
 -1      2069 5.73969E-02-7.07736E+01 0.00000E+00
 -1      2070 6.15000E-02-7.04268E+01 0.00000E+00
 -1      2071 6.55527E-02-7.00562E+01 0.00000E+00
 -1      2072 6.95527E-02-6.96621E+01 0.00000E+00
 -1      2073 7.34982E-02-6.92449E+01 0.00000E+00
 -1      2074 7.73880E-02-6.88048E+01 0.00000E+00
 -1      2075 8.12193E-02-6.83422E+01 0.00000E+00
 -1      2076 8.49920E-02-6.78573E+01 0.00000E+00
 -1      2077 8.87026E-02-6.73507E+01 0.00000E+00
 -1      2078 9.23503E-02-6.68226E+01 0.00000E+00
 -1      2079 9.59339E-02-6.62734E+01 0.00000E+00
 -1      2080 9.94505E-02-6.57035E+01 0.00000E+00
 -1      2081 1.02899E-01-6.51133E+01 0.00000E+00
 -1      2082 1.06279E-01-6.45032E+01 0.00000E+00
 -1      2083 1.09587E-01-6.38736E+01 0.00000E+00
 -1      2084 1.12822E-01-6.32248E+01 0.00000E+00
 -1      2085 1.15982E-01-6.25575E+01 0.00000E+00
 -1      2086 1.19067E-01-6.18719E+01 0.00000E+00
 -1      2087 1.22074E-01-6.11685E+01 0.00000E+00
 -1      2088 1.25002E-01-6.04479E+01 0.00000E+00
 -1      2089 1.27849E-01-5.97103E+01 0.00000E+00
 -1      2090 1.30614E-01-5.89564E+01 0.00000E+00
 -1      2091 1.33295E-01-5.81867E+01 0.00000E+00
 -1      2092 1.35891E-01-5.74015E+01 0.00000E+00
 -1      2093 1.38401E-01-5.66015E+01 0.00000E+00
 -1      2094 1.40822E-01-5.57870E+01 0.00000E+00
 -1      2095 1.43154E-01-5.49587E+01 0.00000E+00
 -1      2096 1.45395E-01-5.41171E+01 0.00000E+00
 -1      2097 1.47544E-01-5.32626E+01 0.00000E+00
 -1      2098 1.49600E-01-5.23959E+01 0.00000E+00
 -1      2099 1.51560E-01-5.15175E+01 0.00000E+00
 -1      2100 1.53424E-01-5.06279E+01 0.00000E+00
 -1      2101 1.55191E-01-4.97278E+01 0.00000E+00
 -1      2102 1.56859E-01-4.88176E+01 0.00000E+00
 -1      2103 1.58427E-01-4.78980E+01 0.00000E+00
 -1      2104 1.59894E-01-4.69695E+01 0.00000E+00
 -1      2105 1.61258E-01-4.60328E+01 0.00000E+00
 -1      2106 1.62519E-01-4.50884E+01 0.00000E+00
 -1      2107 1.63675E-01-4.41369E+01 0.00000E+00
 -1      2108 1.64725E-01-4.31791E+01 0.00000E+00
 -1      2109 1.65669E-01-4.22154E+01 0.00000E+00
 -1      2110 1.66504E-01-4.12465E+01 0.00000E+00
 -1      2111 1.67231E-01-4.02730E+01 0.00000E+00
 -1      2112 1.67847E-01-3.92957E+01 0.00000E+00
 -1      2113 1.68352E-01-3.83151E+01 0.00000E+00
 -1      2114 1.68745E-01-3.73318E+01 0.00000E+00
 -1      2115 1.69025E-01-3.63466E+01 0.00000E+00
 -1      2116 1.69192E-01-3.53601E+01 0.00000E+00
 -1      2117 1.69243E-01-3.43730E+01 0.00000E+00
 -1      2118 1.69179E-01-3.33859E+01 0.00000E+00
 -1      2119 1.68998E-01-3.23995E+01 0.00000E+00
 -1      2120 1.68700E-01-3.14145E+01 0.00000E+00
 -1      2121 1.68283E-01-3.04316E+01 0.00000E+00
 -1      2122 1.67748E-01-2.94514E+01 0.00000E+00
 -1      2123 1.67093E-01-2.84748E+01 0.00000E+00
 -1      2124 1.66317E-01-2.75023E+01 0.00000E+00
 -1      2125 1.65421E-01-2.65347E+01 0.00000E+00
 -1      2126 1.64402E-01-2.55726E+01 0.00000E+00
 -1      2127 1.63261E-01-2.46169E+01 0.00000E+00
 -1      2128 1.61997E-01-2.36682E+01 0.00000E+00
 -1      2129 1.60609E-01-2.27272E+01 0.00000E+00
 -1      2130 1.59097E-01-2.17947E+01 0.00000E+00
 -1      2131 1.57461E-01-2.08714E+01 0.00000E+00
 -1      2132 1.55698E-01-1.99579E+01 0.00000E+00
 -1      2133 1.53810E-01-1.90552E+01 0.00000E+00
 -1      2134 1.51795E-01-1.81638E+01 0.00000E+00
 -1      2135 1.49654E-01-1.72845E+01 0.00000E+00
 -1      2136 1.47385E-01-1.64181E+01 0.00000E+00
 -1      2137 1.44988E-01-1.55653E+01 0.00000E+00
 -1      2138 1.42464E-01-1.47269E+01 0.00000E+00
 -1      2139 1.39811E-01-1.39035E+01 0.00000E+00
 -1      2140 1.37029E-01-1.30960E+01 0.00000E+00
 -1      2141 1.34118E-01-1.23052E+01 0.00000E+00
 -1      2142 1.31077E-01-1.15316E+01 0.00000E+00
 -1      2143 1.27906E-01-1.07762E+01 0.00000E+00
 -1      2144 1.24606E-01-1.00397E+01 0.00000E+00
 -1      2145 1.21174E-01-9.32278E+00 0.00000E+00
 -1      2146 1.17613E-01-8.62628E+00 0.00000E+00
 -1      2147 1.13920E-01-7.95094E+00 0.00000E+00
 -1      2148 1.10097E-01-7.29752E+00 0.00000E+00
 -1      2149 1.06142E-01-6.66679E+00 0.00000E+00
 -1      2150 1.02056E-01-6.05951E+00 0.00000E+00
 -1      2151 9.78376E-02-5.47646E+00 0.00000E+00
 -1      2152 9.34888E-02-4.91839E+00 0.00000E+00
 -1      2153 8.90066E-02-4.38608E+00 0.00000E+00
 -1      2154 8.43941E-02-3.88029E+00 0.00000E+00
 -1      2155 7.96478E-02-3.40180E+00 0.00000E+00
 -1      2156 7.47712E-02-2.95138E+00 0.00000E+00
 -1      2157 6.97604E-02-2.52980E+00 0.00000E+00
 -1      2158 6.46197E-02-2.13783E+00 0.00000E+00
 -1      2159 5.93427E-02-1.77624E+00 0.00000E+00
 -1      2160 5.39389E-02-1.44580E+00 0.00000E+00
 -1      2161 4.83957E-02-1.14730E+00 0.00000E+00
 -1      2162 4.27288E-02-8.81495E-01 0.00000E+00
 -1      2163 3.69181E-02-6.49166E-01 0.00000E+00
 -1      2164 3.09884E-02-4.51081E-01 0.00000E+00
 -1      2165 2.49131E-02-2.88009E-01 0.00000E+00
 -1      2166 1.87063E-02-1.60769E-01 0.00000E+00
 -1      2167 1.24216E-02-6.99335E-02 0.00000E+00
 -1      2168 5.73111E-03-1.70526E-02 0.00000E+00
 -1      2169 0.00000E+00 0.00000E+00 0.00000E+00
 -1      2170-3.46252E-01 1.01354E+02 0.00000E+00
 -1      2171-3.46252E-01 9.93340E+01 0.00000E+00
 -1      2172-3.46249E-01 9.73141E+01 0.00000E+00
 -1      2173-3.46241E-01 9.52942E+01 0.00000E+00
 -1      2174-3.46225E-01 9.32745E+01 0.00000E+00
 -1      2175-3.46200E-01 9.12549E+01 0.00000E+00
 -1      2176-3.46163E-01 8.92355E+01 0.00000E+00
 -1      2177-3.46111E-01 8.72162E+01 0.00000E+00
 -1      2178-3.46043E-01 8.51974E+01 0.00000E+00
 -1      2179-3.45956E-01 8.31790E+01 0.00000E+00
 -1      2180-3.45848E-01 8.11612E+01 0.00000E+00
 -1      2181-3.45717E-01 7.91441E+01 0.00000E+00
 -1      2182-3.45562E-01 7.71278E+01 0.00000E+00
 -1      2183-3.45379E-01 7.51125E+01 0.00000E+00
 -1      2184-3.45168E-01 7.30984E+01 0.00000E+00
 -1      2185-3.44926E-01 7.10855E+01 0.00000E+00
 -1      2186-3.44651E-01 6.90742E+01 0.00000E+00
 -1      2187-3.44342E-01 6.70646E+01 0.00000E+00
 -1      2188-3.43997E-01 6.50568E+01 0.00000E+00
 -1      2189-3.43615E-01 6.30513E+01 0.00000E+00
 -1      2190-3.43193E-01 6.10480E+01 0.00000E+00
 -1      2191-3.42731E-01 5.90474E+01 0.00000E+00
 -1      2192-3.42226E-01 5.70495E+01 0.00000E+00
 -1      2193-3.41678E-01 5.50547E+01 0.00000E+00
 -1      2194-3.41084E-01 5.30633E+01 0.00000E+00
 -1      2195-3.40444E-01 5.10754E+01 0.00000E+00
 -1      2196-3.39756E-01 4.90914E+01 0.00000E+00
 -1      2197-3.39018E-01 4.71116E+01 0.00000E+00
 -1      2198-3.38231E-01 4.51363E+01 0.00000E+00
 -1      2199-3.37392E-01 4.31656E+01 0.00000E+00
 -1      2200-3.36501E-01 4.12001E+01 0.00000E+00
 -1      2201-3.35556E-01 3.92398E+01 0.00000E+00
 -1      2202-3.34556E-01 3.72853E+01 0.00000E+00
 -1      2203-3.33500E-01 3.53367E+01 0.00000E+00
 -1      2204-3.32388E-01 3.33945E+01 0.00000E+00
 -1      2205-3.31219E-01 3.14589E+01 0.00000E+00
 -1      2206-3.29992E-01 2.95303E+01 0.00000E+00
 -1      2207-3.28705E-01 2.76090E+01 0.00000E+00
 -1      2208-3.27359E-01 2.56955E+01 0.00000E+00
 -1      2209-3.25953E-01 2.37899E+01 0.00000E+00
 -1      2210-3.24485E-01 2.18927E+01 0.00000E+00
 -1      2211-3.22956E-01 2.00043E+01 0.00000E+00
 -1      2212-3.21365E-01 1.81250E+01 0.00000E+00
 -1      2213-3.19712E-01 1.62551E+01 0.00000E+00
 -1      2214-3.17995E-01 1.43951E+01 0.00000E+00
 -1      2215-3.16215E-01 1.25453E+01 0.00000E+00
 -1      2216-3.14372E-01 1.07060E+01 0.00000E+00
 -1      2217-3.12464E-01 8.87767E+00 0.00000E+00
 -1      2218-3.10492E-01 7.06066E+00 0.00000E+00
 -1      2219-3.08456E-01 5.25534E+00 0.00000E+00
 -1      2220-3.06355E-01 3.46204E+00 0.00000E+00
 -1      2221-3.04189E-01 1.68124E+00 0.00000E+00
 -1      2222-3.01959E-01-8.67481E-02 0.00000E+00
 -1      2223-2.99664E-01-1.84153E+00 0.00000E+00
 -1      2224-2.97304E-01-3.58274E+00 0.00000E+00
 -1      2225-2.94879E-01-5.30999E+00 0.00000E+00
 -1      2226-2.92390E-01-7.02291E+00 0.00000E+00
 -1      2227-2.89836E-01-8.72112E+00 0.00000E+00
 -1      2228-2.87218E-01-1.04042E+01 0.00000E+00
 -1      2229-2.84536E-01-1.20719E+01 0.00000E+00
 -1      2230-2.81791E-01-1.37237E+01 0.00000E+00
 -1      2231-2.78981E-01-1.53594E+01 0.00000E+00
 -1      2232-2.76110E-01-1.69784E+01 0.00000E+00
 -1      2233-2.73175E-01-1.85806E+01 0.00000E+00
 -1      2234-2.70178E-01-2.01654E+01 0.00000E+00
 -1      2235-2.67120E-01-2.17326E+01 0.00000E+00
 -1      2236-2.64000E-01-2.32817E+01 0.00000E+00
 -1      2237-2.60819E-01-2.48125E+01 0.00000E+00
 -1      2238-2.57579E-01-2.63246E+01 0.00000E+00
 -1      2239-2.54279E-01-2.78175E+01 0.00000E+00
 -1      2240-2.50921E-01-2.92911E+01 0.00000E+00
 -1      2241-2.47505E-01-3.07449E+01 0.00000E+00
 -1      2242-2.44032E-01-3.21785E+01 0.00000E+00
 -1      2243-2.40502E-01-3.35918E+01 0.00000E+00
 -1      2244-2.36916E-01-3.49843E+01 0.00000E+00
 -1      2245-2.33276E-01-3.63558E+01 0.00000E+00
 -1      2246-2.29582E-01-3.77058E+01 0.00000E+00
 -1      2247-2.25836E-01-3.90341E+01 0.00000E+00
 -1      2248-2.22036E-01-4.03405E+01 0.00000E+00
 -1      2249-2.18187E-01-4.16245E+01 0.00000E+00
 -1      2250-2.14287E-01-4.28860E+01 0.00000E+00
 -1      2251-2.10339E-01-4.41245E+01 0.00000E+00
 -1      2252-2.06343E-01-4.53398E+01 0.00000E+00
 -1      2253-2.02300E-01-4.65318E+01 0.00000E+00
 -1      2254-1.98212E-01-4.77000E+01 0.00000E+00
 -1      2255-1.94079E-01-4.88442E+01 0.00000E+00
 -1      2256-1.89904E-01-4.99642E+01 0.00000E+00
 -1      2257-1.85686E-01-5.10597E+01 0.00000E+00
 -1      2258-1.81428E-01-5.21304E+01 0.00000E+00
 -1      2259-1.77131E-01-5.31763E+01 0.00000E+00
 -1      2260-1.72796E-01-5.41969E+01 0.00000E+00
 -1      2261-1.68425E-01-5.51922E+01 0.00000E+00
 -1      2262-1.64017E-01-5.61618E+01 0.00000E+00
 -1      2263-1.59577E-01-5.71057E+01 0.00000E+00
 -1      2264-1.55103E-01-5.80235E+01 0.00000E+00
 -1      2265-1.50599E-01-5.89152E+01 0.00000E+00
 -1      2266-1.46066E-01-5.97805E+01 0.00000E+00
 -1      2267-1.41504E-01-6.06193E+01 0.00000E+00
 -1      2268-1.36916E-01-6.14313E+01 0.00000E+00
 -1      2269-1.32303E-01-6.22166E+01 0.00000E+00
 -1      2270-1.27667E-01-6.29749E+01 0.00000E+00
 -1      2271-1.23009E-01-6.37060E+01 0.00000E+00
 -1      2272-1.18331E-01-6.44099E+01 0.00000E+00
 -1      2273-1.13633E-01-6.50865E+01 0.00000E+00
 -1      2274-1.08919E-01-6.57357E+01 0.00000E+00
 -1      2275-1.04191E-01-6.63572E+01 0.00000E+00
 -1      2276-9.94469E-02-6.69512E+01 0.00000E+00
 -1      2277-9.46924E-02-6.75175E+01 0.00000E+00
 -1      2278-8.99267E-02-6.80560E+01 0.00000E+00
 -1      2279-8.51532E-02-6.85666E+01 0.00000E+00
 -1      2280-8.03722E-02-6.90494E+01 0.00000E+00
 -1      2281-7.55863E-02-6.95043E+01 0.00000E+00
 -1      2282-7.07972E-02-6.99313E+01 0.00000E+00
 -1      2283-6.60059E-02-7.03303E+01 0.00000E+00
 -1      2284-6.12150E-02-7.07014E+01 0.00000E+00
 -1      2285-5.64260E-02-7.10445E+01 0.00000E+00
 -1      2286-5.16405E-02-7.13597E+01 0.00000E+00
 -1      2287-4.68608E-02-7.16470E+01 0.00000E+00
 -1      2288-4.20874E-02-7.19064E+01 0.00000E+00
 -1      2289-3.73245E-02-7.21380E+01 0.00000E+00
 -1      2290-3.25707E-02-7.23419E+01 0.00000E+00
 -1      2291-2.78311E-02-7.25181E+01 0.00000E+00
 -1      2292-2.31049E-02-7.26667E+01 0.00000E+00
 -1      2293-1.83960E-02-7.27877E+01 0.00000E+00
 -1      2294-1.37042E-02-7.28813E+01 0.00000E+00
 -1      2295-9.03311E-03-7.29476E+01 0.00000E+00
 -1      2296-4.38348E-03-7.29868E+01 0.00000E+00
 -1      2297 2.42377E-04-7.29988E+01 0.00000E+00
 -1      2298 4.84273E-03-7.29840E+01 0.00000E+00
 -1      2299 9.41619E-03-7.29424E+01 0.00000E+00
 -1      2300 1.39600E-02-7.28742E+01 0.00000E+00
 -1      2301 1.84731E-02-7.27796E+01 0.00000E+00
 -1      2302 2.29533E-02-7.26588E+01 0.00000E+00
 -1      2303 2.73991E-02-7.25119E+01 0.00000E+00
 -1      2304 3.18084E-02-7.23392E+01 0.00000E+00
 -1      2305 3.61792E-02-7.21409E+01 0.00000E+00
 -1      2306 4.05102E-02-7.19172E+01 0.00000E+00
 -1      2307 4.47989E-02-7.16684E+01 0.00000E+00
 -1      2308 4.90445E-02-7.13947E+01 0.00000E+00
 -1      2309 5.32439E-02-7.10963E+01 0.00000E+00
 -1      2310 5.73969E-02-7.07736E+01 0.00000E+00
 -1      2311 6.15000E-02-7.04268E+01 0.00000E+00
 -1      2312 6.55527E-02-7.00562E+01 0.00000E+00
 -1      2313 6.95527E-02-6.96621E+01 0.00000E+00
 -1      2314 7.34982E-02-6.92449E+01 0.00000E+00
 -1      2315 7.73880E-02-6.88048E+01 0.00000E+00
 -1      2316 8.12193E-02-6.83422E+01 0.00000E+00
 -1      2317 8.49919E-02-6.78573E+01 0.00000E+00
 -1      2318 8.87026E-02-6.73507E+01 0.00000E+00
 -1      2319 9.23503E-02-6.68226E+01 0.00000E+00
 -1      2320 9.59339E-02-6.62734E+01 0.00000E+00
 -1      2321 9.94505E-02-6.57035E+01 0.00000E+00
 -1      2322 1.02899E-01-6.51133E+01 0.00000E+00
 -1      2323 1.06279E-01-6.45032E+01 0.00000E+00
 -1      2324 1.09587E-01-6.38736E+01 0.00000E+00
 -1      2325 1.12822E-01-6.32248E+01 0.00000E+00
 -1      2326 1.15982E-01-6.25575E+01 0.00000E+00
 -1      2327 1.19067E-01-6.18719E+01 0.00000E+00
 -1      2328 1.22074E-01-6.11685E+01 0.00000E+00
 -1      2329 1.25002E-01-6.04479E+01 0.00000E+00
 -1      2330 1.27849E-01-5.97103E+01 0.00000E+00
 -1      2331 1.30614E-01-5.89564E+01 0.00000E+00
 -1      2332 1.33295E-01-5.81867E+01 0.00000E+00
 -1      2333 1.35891E-01-5.74015E+01 0.00000E+00
 -1      2334 1.38401E-01-5.66015E+01 0.00000E+00
 -1      2335 1.40822E-01-5.57870E+01 0.00000E+00
 -1      2336 1.43154E-01-5.49587E+01 0.00000E+00
 -1      2337 1.45395E-01-5.41171E+01 0.00000E+00
 -1      2338 1.47544E-01-5.32626E+01 0.00000E+00
 -1      2339 1.49600E-01-5.23959E+01 0.00000E+00
 -1      2340 1.51560E-01-5.15175E+01 0.00000E+00
 -1      2341 1.53424E-01-5.06279E+01 0.00000E+00
 -1      2342 1.55191E-01-4.97278E+01 0.00000E+00
 -1      2343 1.56859E-01-4.88176E+01 0.00000E+00
 -1      2344 1.58427E-01-4.78980E+01 0.00000E+00
 -1      2345 1.59894E-01-4.69695E+01 0.00000E+00
 -1      2346 1.61258E-01-4.60328E+01 0.00000E+00
 -1      2347 1.62519E-01-4.50884E+01 0.00000E+00
 -1      2348 1.63675E-01-4.41369E+01 0.00000E+00
 -1      2349 1.64725E-01-4.31791E+01 0.00000E+00
 -1      2350 1.65669E-01-4.22154E+01 0.00000E+00
 -1      2351 1.66504E-01-4.12465E+01 0.00000E+00
 -1      2352 1.67231E-01-4.02730E+01 0.00000E+00
 -1      2353 1.67847E-01-3.92957E+01 0.00000E+00
 -1      2354 1.68352E-01-3.83151E+01 0.00000E+00
 -1      2355 1.68745E-01-3.73318E+01 0.00000E+00
 -1      2356 1.69025E-01-3.63466E+01 0.00000E+00
 -1      2357 1.69192E-01-3.53601E+01 0.00000E+00
 -1      2358 1.69243E-01-3.43730E+01 0.00000E+00
 -1      2359 1.69179E-01-3.33859E+01 0.00000E+00
 -1      2360 1.68998E-01-3.23995E+01 0.00000E+00
 -1      2361 1.68700E-01-3.14145E+01 0.00000E+00
 -1      2362 1.68283E-01-3.04316E+01 0.00000E+00
 -1      2363 1.67748E-01-2.94514E+01 0.00000E+00
 -1      2364 1.67093E-01-2.84748E+01 0.00000E+00
 -1      2365 1.66317E-01-2.75023E+01 0.00000E+00
 -1      2366 1.65421E-01-2.65347E+01 0.00000E+00
 -1      2367 1.64402E-01-2.55726E+01 0.00000E+00
 -1      2368 1.63261E-01-2.46169E+01 0.00000E+00
 -1      2369 1.61997E-01-2.36682E+01 0.00000E+00
 -1      2370 1.60609E-01-2.27272E+01 0.00000E+00
 -1      2371 1.59097E-01-2.17947E+01 0.00000E+00
 -1      2372 1.57461E-01-2.08714E+01 0.00000E+00
 -1      2373 1.55698E-01-1.99579E+01 0.00000E+00
 -1      2374 1.53810E-01-1.90552E+01 0.00000E+00
 -1      2375 1.51795E-01-1.81638E+01 0.00000E+00
 -1      2376 1.49654E-01-1.72845E+01 0.00000E+00
 -1      2377 1.47385E-01-1.64181E+01 0.00000E+00
 -1      2378 1.44988E-01-1.55653E+01 0.00000E+00
 -1      2379 1.42464E-01-1.47269E+01 0.00000E+00
 -1      2380 1.39811E-01-1.39035E+01 0.00000E+00
 -1      2381 1.37029E-01-1.30960E+01 0.00000E+00
 -1      2382 1.34118E-01-1.23052E+01 0.00000E+00
 -1      2383 1.31077E-01-1.15316E+01 0.00000E+00
 -1      2384 1.27906E-01-1.07762E+01 0.00000E+00
 -1      2385 1.24606E-01-1.00397E+01 0.00000E+00
 -1      2386 1.21174E-01-9.32278E+00 0.00000E+00
 -1      2387 1.17613E-01-8.62628E+00 0.00000E+00
 -1      2388 1.13920E-01-7.95094E+00 0.00000E+00
 -1      2389 1.10097E-01-7.29752E+00 0.00000E+00
 -1      2390 1.06142E-01-6.66679E+00 0.00000E+00
 -1      2391 1.02056E-01-6.05951E+00 0.00000E+00
 -1      2392 9.78376E-02-5.47646E+00 0.00000E+00
 -1      2393 9.34888E-02-4.91839E+00 0.00000E+00
 -1      2394 8.90066E-02-4.38608E+00 0.00000E+00
 -1      2395 8.43941E-02-3.88029E+00 0.00000E+00
 -1      2396 7.96478E-02-3.40180E+00 0.00000E+00
 -1      2397 7.47712E-02-2.95138E+00 0.00000E+00
 -1      2398 6.97604E-02-2.52980E+00 0.00000E+00
 -1      2399 6.46197E-02-2.13783E+00 0.00000E+00
 -1      2400 5.93427E-02-1.77624E+00 0.00000E+00
 -1      2401 5.39389E-02-1.44580E+00 0.00000E+00
 -1      2402 4.83957E-02-1.14730E+00 0.00000E+00
 -1      2403 4.27288E-02-8.81495E-01 0.00000E+00
 -1      2404 3.69181E-02-6.49166E-01 0.00000E+00
 -1      2405 3.09884E-02-4.51081E-01 0.00000E+00
 -1      2406 2.49131E-02-2.88009E-01 0.00000E+00
 -1      2407 1.87063E-02-1.60769E-01 0.00000E+00
 -1      2408 1.24216E-02-6.99335E-02 0.00000E+00
 -1      2409 5.73111E-03-1.70526E-02 0.00000E+00
 -1      2410 0.00000E+00 0.00000E+00 0.00000E+00
 -3
    1PSTEP                         6           1           1          
    1PGM                1.000000E+00                                  
    1PGK                2.726657E+05                                  
    1PHID                         -1                                  
    1PSUBC                         0                                  
    1PMODE                         2                                  
  100CL  102 83.10657170        2410                     2    2MODAL      1
 -4  STRESS      6    1
 -5  SXX         1    4    1    1
 -5  SYY         1    4    2    2
 -5  SZZ         1    4    3    3
 -5  SXY         1    4    1    2
 -5  SYZ         1    4    2    3
 -5  SZX         1    4    3    1
 -1         1 1.55669E+07 7.78085E+06 8.87208E+06-7.25006E+05-3.04387E+09-7.87782E+06
 -1         2 6.50093E+07 7.32193E+06 2.74857E+07 3.51536E+06-3.01323E+09-7.87780E+06
 -1         3 2.09705E+08 7.59426E+06 8.25735E+07 6.85580E+06-2.95196E+09-7.87773E+06
 -1         4 4.48285E+08 6.99352E+06 1.73006E+08 1.02285E+07-2.89069E+09-7.87753E+06
 -1         5 7.79303E+08 7.03665E+06 2.98809E+08 1.34585E+07-2.82942E+09-7.87716E+06
 -1         6 1.20030E+09 7.18140E+06 4.58843E+08 1.66702E+07-2.76816E+09-7.87659E+06
 -1         7 1.71007E+09 6.50607E+06 6.52298E+08 1.97816E+07-2.70690E+09-7.87572E+06
 -1         8 2.30558E+09 6.61587E+06 8.78633E+08 2.27965E+07-2.64565E+09-7.87453E+06
 -1         9 2.98608E+09 6.78104E+06 1.13729E+09 2.58439E+07-2.58441E+09-7.87297E+06
 -1        10 3.74864E+09 4.96699E+06 1.42637E+09 2.86762E+07-2.52319E+09-7.87098E+06
 -1        11 4.59162E+09 8.38672E+06 1.74800E+09 3.16311E+07-2.46198E+09-7.86852E+06
 -1        12 5.51382E+09 4.07527E+06 2.09680E+09 3.42510E+07-2.40079E+09-7.86552E+06
 -1        13 6.51164E+09 6.74794E+06 2.47699E+09 3.70697E+07-2.33963E+09-7.86197E+06
 -1        14 7.58462E+09 6.14514E+06 2.88449E+09 3.95832E+07-2.27850E+09-7.85781E+06
 -1        15 8.73076E+09 1.44921E+06 3.31824E+09 4.23718E+07-2.21740E+09-7.85299E+06
 -1        16 9.94642E+09 1.24334E+07 3.78436E+09 4.47159E+07-2.15634E+09-7.84749E+06
 -1        17 1.12318E+10 2.21582E+05 4.26818E+09 4.70067E+07-2.09533E+09-7.84121E+06
 -1        18 1.25843E+10 6.83230E+06 4.78462E+09 4.96363E+07-2.03437E+09-7.83418E+06
 -1        19 1.40005E+10 4.87758E+06 5.32203E+09 5.15265E+07-1.97347E+09-7.82632E+06
 -1        20 1.54810E+10 1.77014E+06 5.88344E+09 5.43218E+07-1.91263E+09-7.81762E+06
 -1        21 1.70211E+10 1.00066E+07 6.47183E+09 5.58830E+07-1.85187E+09-7.80802E+06
 -1        22 1.86213E+10 8.75505E+05 7.07642E+09 5.83513E+07-1.79118E+09-7.79748E+06
 -1        23 2.02792E+10 5.57307E+06 7.70821E+09 6.00826E+07-1.73058E+09-7.78599E+06
 -1        24 2.19903E+10 2.36402E+06 8.35720E+09 6.21816E+07-1.67007E+09-7.77350E+06
 -1        25 2.37566E+10 5.31006E+06 9.02952E+09 6.41717E+07-1.60966E+09-7.75999E+06
 -1        26 2.55731E+10 5.26647E+06 9.71979E+09 6.56479E+07-1.54936E+09-7.74542E+06
 -1        27 2.74397E+10 2.48121E+06 1.04280E+10 6.76121E+07-1.48918E+09-7.72975E+06
 -1        28 2.93539E+10 1.60072E+06 1.11551E+10 6.91515E+07-1.42913E+09-7.71297E+06
 -1        29 3.13125E+10 5.14817E+06 1.19007E+10 7.09717E+07-1.36921E+09-7.69506E+06
 -1        30 3.33156E+10 5.51921E+06 1.26620E+10 7.21875E+07-1.30943E+09-7.67597E+06
 -1        31 3.53614E+10 1.21383E+05 1.34374E+10 7.38304E+07-1.24981E+09-7.65567E+06
 -1        32 3.74458E+10 4.66920E+06 1.42312E+10 7.50652E+07-1.19035E+09-7.63417E+06
 -1        33 3.95681E+10-7.01369E+05 1.50356E+10 7.65679E+07-1.13106E+09-7.61142E+06
 -1        34 4.17273E+10 5.95578E+06 1.58586E+10 7.79409E+07-1.07195E+09-7.58741E+06
 -1        35 4.39203E+10 1.95816E+06 1.66905E+10 7.87911E+07-1.01304E+09-7.56211E+06
 -1        36 4.61455E+10 9.00188E+05 1.75356E+10 8.02714E+07-9.54328E+08-7.53550E+06
 -1        37 4.84011E+10 8.08173E+06 1.83955E+10 8.08839E+07-8.95826E+08-7.50758E+06
 -1        38 5.06861E+10-6.63713E+06 1.92582E+10 8.21835E+07-8.37548E+08-7.47830E+06
 -1        39 5.29970E+10 6.30073E+06 2.01413E+10 8.31573E+07-7.79503E+08-7.44768E+06
 -1        40 5.53321E+10 5.24638E+06 2.10282E+10 8.37545E+07-7.21701E+08-7.41568E+06
 -1        41 5.76915E+10-2.86536E+06 2.19217E+10 8.45346E+07-6.64154E+08-7.38228E+06
 -1        42 6.00723E+10 2.54523E+06 2.28284E+10 8.55040E+07-6.06871E+08-7.34750E+06
 -1        43 6.24716E+10 2.25591E+06 2.37401E+10 8.59332E+07-5.49865E+08-7.31130E+06
 -1        44 6.48878E+10-3.41957E+06 2.46561E+10 8.66601E+07-4.93145E+08-7.27367E+06
 -1        45 6.73212E+10 4.50695E+06 2.55838E+10 8.75758E+07-4.36724E+08-7.23462E+06
 -1        46 6.97682E+10 5.86786E+06 2.65142E+10 8.72780E+07-3.80613E+08-7.19413E+06
 -1        47 7.22266E+10-6.12642E+06 2.74438E+10 8.80454E+07-3.24822E+08-7.15217E+06
 -1        48 7.46952E+10 6.50898E+06 2.83866E+10 8.82168E+07-2.69363E+08-7.10877E+06
 -1        49 7.71747E+10-1.26534E+07 2.93216E+10 8.89727E+07-2.14247E+08-7.06391E+06
 -1        50 7.96587E+10 9.32084E+06 3.02738E+10 8.93527E+07-1.59485E+08-7.01759E+06
 -1        51 8.21468E+10 1.16674E+07 3.12202E+10 8.85381E+07-1.05090E+08-6.96979E+06
 -1        52 8.46420E+10-1.41173E+07 3.21586E+10 8.89814E+07-5.10719E+07-6.92051E+06
 -1        53 8.71367E+10 6.30990E+06 3.31143E+10 8.90142E+07 2.55697E+06-6.86976E+06
 -1        54 8.96303E+10-9.26984E+06 3.40560E+10 8.92319E+07 5.57855E+07-6.81754E+06
 -1        55 9.21227E+10 6.71911E+06 3.50092E+10 8.92672E+07 1.08602E+08-6.76385E+06
 -1        56 9.46129E+10 4.57535E+06 3.59546E+10 8.87319E+07 1.60995E+08-6.70869E+06
 -1        57 9.70984E+10-7.61078E+06 3.68945E+10 8.83400E+07 2.12953E+08-6.65205E+06
 -1        58 9.95740E+10 6.89908E+05 3.78384E+10 8.84101E+07 2.64466E+08-6.59395E+06
 -1        59 1.02042E+11 1.08919E+06 3.87765E+10 8.79520E+07 3.15520E+08-6.53439E+06
 -1        60 1.04504E+11-8.44263E+06 3.97085E+10 8.79054E+07 3.66106E+08-6.47337E+06
 -1        61 1.06950E+11 3.18076E+06 4.06422E+10 8.73863E+07 4.16212E+08-6.41090E+06
 -1        62 1.09382E+11 1.02855E+07 4.15691E+10 8.63730E+07 4.65826E+08-6.34700E+06
 -1        63 1.11804E+11-2.12984E+07 4.24774E+10 8.61877E+07 5.14937E+08-6.28165E+06
 -1        64 1.14207E+11 1.19424E+07 4.34031E+10 8.58879E+07 5.63535E+08-6.21488E+06
 -1        65 1.16591E+11-5.87033E+06 4.43023E+10 8.46039E+07 6.11608E+08-6.14670E+06
 -1        66 1.18954E+11-2.12486E+06 4.52017E+10 8.42331E+07 6.59145E+08-6.07711E+06
 -1        67 1.21301E+11 8.60569E+06 4.60975E+10 8.33937E+07 7.06136E+08-6.00614E+06
 -1        68 1.23623E+11-1.52698E+07 4.69711E+10 8.19788E+07 7.52569E+08-5.93378E+06
 -1        69 1.25917E+11 7.64000E+06 4.78513E+10 8.16704E+07 7.98434E+08-5.86006E+06
 -1        70 1.28193E+11-1.61883E+07 4.87074E+10 8.10256E+07 8.43720E+08-5.78499E+06
 -1        71 1.30437E+11 6.65485E+06 4.95687E+10 7.98647E+07 8.88418E+08-5.70859E+06
 -1        72 1.32652E+11 6.67355E+06 5.04104E+10 7.85131E+07 9.32515E+08-5.63087E+06
 -1        73 1.34841E+11-1.47387E+07 5.12339E+10 7.71357E+07 9.76004E+08-5.55184E+06
 -1        74 1.36998E+11 5.33185E+06 5.20613E+10 7.67683E+07 1.01887E+09-5.47154E+06
 -1        75 1.39122E+11-1.74143E+07 5.28598E+10 7.50186E+07 1.06111E+09-5.38997E+06
 -1        76 1.41210E+11 1.03372E+07 5.36636E+10 7.47468E+07 1.10271E+09-5.30716E+06
 -1        77 1.43262E+11-5.53455E+06 5.44376E+10 7.20967E+07 1.14366E+09-5.22312E+06
 -1        78 1.45286E+11-4.63505E+06 5.52068E+10 7.23999E+07 1.18396E+09-5.13788E+06
 -1        79 1.47265E+11 6.16660E+06 5.59629E+10 6.89786E+07 1.22358E+09-5.05146E+06
 -1        80 1.49202E+11-9.41136E+06 5.66930E+10 6.85725E+07 1.26253E+09-4.96387E+06
 -1        81 1.51108E+11-1.31216E+07 5.74161E+10 6.75292E+07 1.30079E+09-4.87516E+06
 -1        82 1.52965E+11 4.11053E+06 5.81283E+10 6.58541E+07 1.33836E+09-4.78533E+06
 -1        83 1.54781E+11 8.34449E+06 5.88198E+10 6.39684E+07 1.37523E+09-4.69442E+06
 -1        84 1.56554E+11-1.83164E+07 5.94837E+10 6.19430E+07 1.41138E+09-4.60245E+06
 -1        85 1.58284E+11 5.17322E+06 6.01498E+10 6.13350E+07 1.44682E+09-4.50944E+06
 -1        86 1.59967E+11-1.95253E+07 6.07799E+10 5.90013E+07 1.48153E+09-4.41543E+06
 -1        87 1.61596E+11 8.53590E+06 6.14096E+10 5.80246E+07 1.51550E+09-4.32044E+06
 -1        88 1.63186E+11 5.27817E+06 6.20125E+10 5.57360E+07 1.54873E+09-4.22449E+06
 -1        89 1.64725E+11-1.89950E+07 6.25881E+10 5.32692E+07 1.58121E+09-4.12762E+06
 -1        90 1.66206E+11 7.92397E+06 6.31614E+10 5.23654E+07 1.61293E+09-4.02986E+06
 -1        91 1.67643E+11-3.23804E+07 6.36920E+10 5.02987E+07 1.64389E+09-3.93124E+06
 -1        92 1.69026E+11 1.75436E+07 6.42366E+10 5.02169E+07 1.67408E+09-3.83179E+06
 -1        93 1.70355E+11 1.62816E+07 6.47413E+10 4.49831E+07 1.70349E+09-3.73153E+06
 -1        94 1.71629E+11-3.33608E+07 6.52062E+10 4.41497E+07 1.73212E+09-3.63049E+06
 -1        95 1.72847E+11 9.54207E+06 6.56854E+10 4.25277E+07 1.75997E+09-3.52873E+06
 -1        96 1.74014E+11-2.10710E+07 6.61175E+10 4.09122E+07 1.78701E+09-3.42626E+06
 -1        97 1.75119E+11 4.40809E+06 6.65468E+10 3.87468E+07 1.81326E+09-3.32312E+06
 -1        98 1.76163E+11 9.72778E+06 6.69455E+10 3.59593E+07 1.83870E+09-3.21935E+06
 -1        99 1.77159E+11-2.08582E+07 6.73125E+10 3.42818E+07 1.86334E+09-3.11497E+06
 -1       100 1.78088E+11-1.44428E+06 6.76729E+10 3.17764E+07 1.88716E+09-3.01002E+06
 -1       101 1.78955E+11-6.25185E+05 6.80026E+10 3.01989E+07 1.91016E+09-2.90454E+06
 -1       102 1.79767E+11-1.93300E+07 6.83039E+10 2.76345E+07 1.93234E+09-2.79857E+06
 -1       103 1.80513E+11 4.47039E+06 6.85967E+10 2.66005E+07 1.95369E+09-2.69214E+06
 -1       104 1.81200E+11 1.14519E+07 6.88603E+10 2.25355E+07 1.97421E+09-2.58528E+06
 -1       105 1.81820E+11-3.55939E+07 6.90782E+10 2.08013E+07 1.99390E+09-2.47804E+06
 -1       106 1.82378E+11 1.56035E+07 6.93096E+10 1.96845E+07 2.01276E+09-2.37045E+06
 -1       107 1.82877E+11-1.03704E+07 6.94894E+10 1.61440E+07 2.03078E+09-2.26255E+06
 -1       108 1.83304E+11-9.18337E+06 6.96519E+10 1.42145E+07 2.04795E+09-2.15437E+06
 -1       109 1.83664E+11 1.33739E+07 6.97975E+10 1.14300E+07 2.06429E+09-2.04596E+06
 -1       110 1.83969E+11-2.48355E+07 6.98988E+10 9.45084E+06 2.07978E+09-1.93736E+06
 -1       111 1.84200E+11 5.03012E+06 6.99977E+10 6.63952E+06 2.09442E+09-1.82860E+06
 -1       112 1.84364E+11-2.18871E+07 7.00499E+10 5.16794E+06 2.10822E+09-1.71972E+06
 -1       113 1.84459E+11 7.43143E+06 7.00974E+10 2.47118E+06 2.12117E+09-1.61077E+06
 -1       114 1.84493E+11 5.98525E+06 7.01098E+10-1.54521E+04 2.13328E+09-1.50178E+06
 -1       115 1.84457E+11-2.36888E+07 7.00846E+10-3.55200E+06 2.14453E+09-1.39278E+06
 -1       116 1.84345E+11 7.76152E+06 7.00542E+10-4.79115E+06 2.15494E+09-1.28383E+06
 -1       117 1.84176E+11-2.62945E+07 6.99769E+10-7.18833E+06 2.16450E+09-1.17497E+06
 -1       118 1.83931E+11 1.28798E+07 6.98987E+10-9.61622E+06 2.17322E+09-1.06622E+06
 -1       119 1.83613E+11-9.84847E+06 6.97693E+10-1.29264E+07 2.18109E+09-9.57650E+05
 -1       120 1.83235E+11-8.44257E+06 6.96261E+10-1.42854E+07 2.18812E+09-8.49278E+05
 -1       121 1.82783E+11 8.97447E+06 6.94608E+10-1.80660E+07 2.19430E+09-7.41153E+05
 -1       122 1.82259E+11-1.70008E+07 6.92520E+10-2.03490E+07 2.19965E+09-6.33315E+05
 -1       123 1.81667E+11-1.55350E+07 6.90275E+10-2.22792E+07 2.20415E+09-5.25807E+05
 -1       124 1.81000E+11 4.47280E+06 6.87817E+10-2.44242E+07 2.20783E+09-4.18672E+05
 -1       125 1.80271E+11 7.72054E+06 6.85059E+10-2.76710E+07 2.21067E+09-3.11952E+05
 -1       126 1.79468E+11-2.54057E+07 6.81881E+10-3.06798E+07 2.21268E+09-2.05682E+05
 -1       127 1.78588E+11 8.07891E+06 6.78665E+10-3.25314E+07 2.21387E+09-9.99091E+04
 -1       128 1.77648E+11-2.40617E+07 6.74971E+10-3.45207E+07 2.21424E+09 5.32564E+03
 -1       129 1.76631E+11 6.07798E+06 6.71220E+10-3.75131E+07 2.21379E+09 1.09983E+05
 -1       130 1.75541E+11 6.18056E+06 6.67081E+10-4.01363E+07 2.21253E+09 2.14016E+05
 -1       131 1.74386E+11-1.90549E+07 6.62596E+10-4.34180E+07 2.21046E+09 3.17389E+05
 -1       132 1.73160E+11-8.18208E+06 6.57975E+10-4.45612E+07 2.20759E+09 4.20059E+05
 -1       133 1.71863E+11-1.28581E+07 6.53032E+10-4.71424E+07 2.20393E+09 5.21986E+05
 -1       134 1.70490E+11 1.80759E+07 6.47930E+10-5.01920E+07 2.19947E+09 6.23123E+05
 -1       135 1.69054E+11-9.78641E+06 6.42367E+10-5.30839E+07 2.19424E+09 7.23428E+05
 -1       136 1.67549E+11-1.43980E+07 6.36630E+10-5.57031E+07 2.18822E+09 8.22866E+05
 -1       137 1.65966E+11-3.47765E+06 6.30656E+10-5.75759E+07 2.18144E+09 9.21392E+05
 -1       138 1.64318E+11-2.58736E+06 6.24400E+10-6.01833E+07 2.17389E+09 1.01896E+06
 -1       139 1.62605E+11-1.77816E+07 6.17831E+10-6.23230E+07 2.16559E+09 1.11554E+06
 -1       140 1.60816E+11 3.23308E+06 6.11113E+10-6.47647E+07 2.15654E+09 1.21109E+06
 -1       141 1.58960E+11 6.46434E+06 6.04072E+10-6.77702E+07 2.14675E+09 1.30555E+06
 -1       142 1.57037E+11-2.02086E+07 5.96664E+10-7.04943E+07 2.13624E+09 1.39890E+06
 -1       143 1.55047E+11 2.92731E+06 5.89190E+10-7.20302E+07 2.12500E+09 1.49110E+06
 -1       144 1.52988E+11-2.05627E+07 5.81277E+10-7.49690E+07 2.11304E+09 1.58210E+06
 -1       145 1.50857E+11 9.41018E+06 5.73292E+10-7.67763E+07 2.10039E+09 1.67186E+06
 -1       146 1.48666E+11-8.52185E+06 5.64897E+10-7.96310E+07 2.08704E+09 1.76034E+06
 -1       147 1.46408E+11-8.99638E+06 5.56315E+10-8.19063E+07 2.07301E+09 1.84751E+06
 -1       148 1.44077E+11 1.07622E+07 5.47535E+10-8.46640E+07 2.05831E+09 1.93332E+06
 -1       149 1.41686E+11-2.86425E+07 5.38297E+10-8.70062E+07 2.04294E+09 2.01774E+06
 -1       150 1.39229E+11 7.32592E+06 5.29099E+10-8.81283E+07 2.02692E+09 2.10073E+06
 -1       151 1.36707E+11 1.68250E+06 5.19495E+10-9.18799E+07 2.01027E+09 2.18225E+06
 -1       152 1.34119E+11-1.56187E+07 5.09593E+10-9.39035E+07 1.99298E+09 2.26226E+06
 -1       153 1.31471E+11 1.21038E+06 4.99596E+10-9.54253E+07 1.97508E+09 2.34072E+06
 -1       154 1.28760E+11-1.60093E+07 4.89226E+10-9.83593E+07 1.95657E+09 2.41759E+06
 -1       155 1.25981E+11 2.62423E+06 4.78739E+10-9.96706E+07 1.93748E+09 2.49285E+06
 -1       156 1.23144E+11 3.70816E+06 4.67963E+10-1.02899E+08 1.91780E+09 2.56645E+06
 -1       157 1.20249E+11-1.45940E+07 4.56892E+10-1.04683E+08 1.89756E+09 2.63835E+06
 -1       158 1.17289E+11-4.01913E+06 4.45684E+10-1.07022E+08 1.87677E+09 2.70852E+06
 -1       159 1.14269E+11 6.09268E+05 4.34226E+10-1.08697E+08 1.85543E+09 2.77693E+06
 -1       160 1.11192E+11-2.14829E+07 4.22448E+10-1.11250E+08 1.83357E+09 2.84354E+06
 -1       161 1.08057E+11 8.21712E+06 4.10646E+10-1.11847E+08 1.81121E+09 2.90832E+06
 -1       162 1.04863E+11 8.39846E+06 3.98510E+10-1.16174E+08 1.78834E+09 2.97122E+06
 -1       163 1.01609E+11-2.10986E+07 3.86036E+10-1.17524E+08 1.76499E+09 3.03221E+06
 -1       164 9.83043E+10 2.58059E+06 3.73566E+10-1.18890E+08 1.74118E+09 3.09127E+06
 -1       165 9.49417E+10-1.34011E+07 3.60728E+10-1.21345E+08 1.71691E+09 3.14836E+06
 -1       166 9.15218E+10 1.87418E+06 3.47790E+10-1.22642E+08 1.69221E+09 3.20345E+06
 -1       167 8.80502E+10 1.86853E+06 3.34598E+10-1.25326E+08 1.66709E+09 3.25650E+06
 -1       168 8.45275E+10-1.21136E+07 3.21158E+10-1.26916E+08 1.64156E+09 3.30748E+06
 -1       169 8.09494E+10-4.08314E+05 3.07606E+10-1.28851E+08 1.61564E+09 3.35637E+06
 -1       170 7.73194E+10-9.78553E+06 2.93777E+10-1.30513E+08 1.58935E+09 3.40312E+06
 -1       171 7.36409E+10 4.10239E+05 2.79837E+10-1.31987E+08 1.56271E+09 3.44772E+06
 -1       172 6.99118E+10 4.41710E+05 2.65666E+10-1.34463E+08 1.53573E+09 3.49013E+06
 -1       173 6.61328E+10-8.90662E+06 2.51271E+10-1.35938E+08 1.50843E+09 3.53032E+06
 -1       174 6.23061E+10-4.45736E+06 2.36746E+10-1.37602E+08 1.48082E+09 3.56827E+06
 -1       175 5.84336E+10-5.59133E+06 2.22027E+10-1.38809E+08 1.45293E+09 3.60394E+06
 -1       176 5.45132E+10 3.59114E+06 2.07164E+10-1.41094E+08 1.42477E+09 3.63731E+06
 -1       177 5.05464E+10-4.74203E+06 1.92058E+10-1.42667E+08 1.39635E+09 3.66835E+06
 -1       178 4.65374E+10-6.43735E+06 1.76818E+10-1.44151E+08 1.36771E+09 3.69703E+06
 -1       179 4.24839E+10-2.25802E+06 1.61430E+10-1.45508E+08 1.33885E+09 3.72333E+06
 -1       180 3.83874E+10-3.37678E+06 1.45859E+10-1.47138E+08 1.30980E+09 3.74722E+06
 -1       181 3.42488E+10-4.81158E+06 1.30127E+10-1.48578E+08 1.28057E+09 3.76869E+06
 -1       182 3.00701E+10-1.81223E+06 1.14260E+10-1.49854E+08 1.25118E+09 3.78769E+06
 -1       183 2.58514E+10-1.12400E+06 9.82310E+09-1.51611E+08 1.22166E+09 3.80422E+06
 -1       184 2.15931E+10-5.36727E+06 8.20333E+09-1.52797E+08 1.19201E+09 3.81823E+06
 -1       185 1.72974E+10-1.92633E+06 6.57229E+09-1.54143E+08 1.16227E+09 3.82972E+06
 -1       186 1.29644E+10-3.60037E+06 4.92510E+09-1.55400E+08 1.13245E+09 3.83867E+06
 -1       187 8.59541E+09-2.35065E+06 3.26536E+09-1.56756E+08 1.10256E+09 3.84504E+06
 -1       188 4.19078E+09-2.11477E+06 1.59169E+09-1.57989E+08 1.07264E+09 3.84882E+06
 -1       189-2.47463E+08-3.08752E+06-9.52091E+07-1.59229E+08 1.04270E+09 3.84999E+06
 -1       190-4.71942E+09-3.00057E+06-1.79452E+09-1.60353E+08 1.01276E+09 3.84852E+06
 -1       191-9.22365E+09-8.97950E+05-3.50533E+09-1.61453E+08 9.82843E+08 3.84440E+06
 -1       192-1.37586E+10-3.43904E+06-5.22956E+09-1.62644E+08 9.52967E+08 3.83762E+06
 -1       193-1.83250E+10-3.42186E+06-6.96479E+09-1.63699E+08 9.23154E+08 3.82814E+06
 -1       194-2.29201E+10-4.71812E+05-8.70983E+09-1.64542E+08 8.93426E+08 3.81595E+06
 -1       195-2.75438E+10-3.70772E+06-1.04681E+10-1.65728E+08 8.63803E+08 3.80104E+06
 -1       196-3.21949E+10 1.42727E+06-1.22335E+10-1.66542E+08 8.34307E+08 3.78340E+06
 -1       197-3.68733E+10-4.82287E+06-1.40137E+10-1.67896E+08 8.04958E+08 3.76300E+06
 -1       198-4.15768E+10-3.76033E+06-1.58006E+10-1.68289E+08 7.75780E+08 3.73982E+06
 -1       199-4.63046E+10 5.10165E+05-1.75956E+10-1.69257E+08 7.46792E+08 3.71386E+06
 -1       200-5.10577E+10-1.49612E+06-1.94025E+10-1.70242E+08 7.18017E+08 3.68509E+06
 -1       201-5.58327E+10-4.52082E+06-2.12181E+10-1.70872E+08 6.89476E+08 3.65352E+06
 -1       202-6.06296E+10 8.62976E+06-2.30360E+10-1.71745E+08 6.61192E+08 3.61911E+06
 -1       203-6.54466E+10-9.45412E+06-2.48733E+10-1.73126E+08 6.33187E+08 3.58187E+06
 -1       204-7.02871E+10-1.02075E+07-2.67130E+10-1.73066E+08 6.05482E+08 3.54178E+06
 -1       205-7.51444E+10 1.05076E+07-2.85509E+10-1.73337E+08 5.78101E+08 3.49881E+06
 -1       206-8.00188E+10-7.84912E+06-3.04101E+10-1.74596E+08 5.51064E+08 3.45297E+06
 -1       207-8.49149E+10 8.18686E+06-3.22646E+10-1.75228E+08 5.24396E+08 3.40425E+06
 -1       208-8.98245E+10-7.82291E+06-3.41363E+10-1.75917E+08 4.98117E+08 3.35264E+06
 -1       209-9.47495E+10-6.79730E+06-3.60074E+10-1.76187E+08 4.72252E+08 3.29811E+06
 -1       210-9.96921E+10 7.03844E+06-3.78803E+10-1.76409E+08 4.46822E+08 3.24067E+06
 -1       211-1.04648E+11-6.22471E+06-3.97686E+10-1.77460E+08 4.21850E+08 3.18031E+06
 -1       212-1.09618E+11 9.15026E+06-4.16515E+10-1.77579E+08 3.97359E+08 3.11701E+06
 -1       213-1.14597E+11-7.15927E+06-4.35497E+10-1.78650E+08 3.73371E+08 3.05078E+06
 -1       214-1.19591E+11-1.21626E+07-4.54492E+10-1.78430E+08 3.49910E+08 2.98160E+06
 -1       215-1.24598E+11 2.02563E+07-4.73397E+10-1.78590E+08 3.26999E+08 2.90946E+06
 -1       216-1.29614E+11-1.42213E+07-4.92586E+10-1.80168E+08 3.04660E+08 2.83437E+06
 -1       217-1.34636E+11 2.01391E+06-5.11611E+10-1.78942E+08 2.82917E+08 2.75631E+06
 -1       218-1.39672E+11 2.26149E+06-5.30746E+10-1.80800E+08 2.61792E+08 2.67528E+06
 -1       219-1.44714E+11-1.28632E+07-5.49963E+10-1.79586E+08 2.41310E+08 2.59127E+06
 -1       220-1.49765E+11 1.11006E+07-5.69064E+10-1.80496E+08 2.21492E+08 2.50428E+06
 -1       221-1.54819E+11-2.73707E+06-5.88324E+10-1.80317E+08 2.02363E+08 2.41430E+06
 -1       222-1.59887E+11-4.26188E+06-6.07587E+10-1.81683E+08 1.83944E+08 2.32133E+06
 -1       223-1.64955E+11 1.46484E+07-6.26774E+10-1.80259E+08 1.66261E+08 2.22537E+06
 -1       224-1.70029E+11-1.15927E+07-6.46156E+10-1.82945E+08 1.49336E+08 2.12642E+06
 -1       225-1.75104E+11-1.18652E+07-6.65441E+10-1.80191E+08 1.33192E+08 2.02446E+06
 -1       226-1.80199E+11 1.46480E+07-6.84700E+10-1.82551E+08 1.17852E+08 1.91950E+06
 -1       227-1.85277E+11-5.41116E+06-7.04072E+10-1.80157E+08 1.03341E+08 1.81154E+06
 -1       228-1.90376E+11 7.90911E+06-7.23397E+10-1.83691E+08 8.96809E+07 1.70056E+06
 -1       229-1.95457E+11 7.48549E+06-7.42709E+10-1.80667E+08 7.68957E+07 1.58659E+06
 -1       230-2.00573E+11-2.92038E+07-7.62287E+10-1.85560E+08 6.50086E+07 1.46960E+06
 -1       231-2.05647E+11 1.10845E+07-7.81416E+10-1.77199E+08 5.40432E+07 1.34960E+06
 -1       232-2.10774E+11-2.72946E+06-8.00951E+10-1.86614E+08 4.40228E+07 1.22658E+06
 -1       233-2.15842E+11 2.22010E+07-8.20116E+10-1.76405E+08 3.49709E+07 1.10055E+06
 -1       234-2.20992E+11-1.12112E+07-8.39812E+10-1.90800E+08 2.69109E+07 9.71509E+05
 -1       235-2.26029E+11-4.97540E+07-8.59101E+10-1.72111E+08 1.98664E+07 8.39455E+05
 -1       236-2.31206E+11 1.78543E+08-8.77906E+10-1.92332E+08 1.38606E+07 7.04381E+05
 -1       237-2.36274E+11-6.32833E+08-9.00246E+10-1.77750E+08 8.91720E+06 5.66294E+05
 -1       238-2.41243E+11 2.35580E+09-9.07773E+10-1.54937E+08 5.05926E+06 4.25176E+05
 -1       239-2.47157E+11-8.67179E+09-9.72151E+10-3.38437E+08 2.31083E+06 2.81110E+05
 -1       240-2.48908E+11 3.18086E+10-8.24978E+10 4.57552E+08 6.94846E+05 1.33773E+05
 -1       241-2.47621E+11-1.17712E+11-1.38826E+11-2.46807E+09 1.71994E+05 5.91760E+04
 -1       242 1.55661E+07 7.78048E+06 8.87176E+06-7.24640E+05 3.04386E+09 7.87777E+06
 -1       243 6.50081E+07 7.32171E+06 2.74855E+07 3.51567E+06 3.01323E+09 7.87775E+06
 -1       244 2.09703E+08 7.59398E+06 8.25732E+07 6.85585E+06 2.95195E+09 7.87768E+06
 -1       245 4.48284E+08 6.99326E+06 1.73005E+08 1.02283E+07 2.89069E+09 7.87748E+06
 -1       246 7.79302E+08 7.03658E+06 2.98809E+08 1.34581E+07 2.82942E+09 7.87711E+06
 -1       247 1.20030E+09 7.18187E+06 4.58843E+08 1.66697E+07 2.76815E+09 7.87654E+06
 -1       248 1.71007E+09 6.50673E+06 6.52299E+08 1.97812E+07 2.70690E+09 7.87567E+06
 -1       249 2.30558E+09 6.61711E+06 8.78634E+08 2.27962E+07 2.64565E+09 7.87448E+06
 -1       250 2.98608E+09 6.78223E+06 1.13729E+09 2.58437E+07 2.58441E+09 7.87292E+06
 -1       251 3.74865E+09 4.96820E+06 1.42637E+09 2.86761E+07 2.52318E+09 7.87094E+06
 -1       252 4.59162E+09 8.38800E+06 1.74800E+09 3.16314E+07 2.46197E+09 7.86848E+06
 -1       253 5.51383E+09 4.07628E+06 2.09680E+09 3.42514E+07 2.40079E+09 7.86549E+06
 -1       254 6.51165E+09 6.74856E+06 2.47699E+09 3.70700E+07 2.33963E+09 7.86194E+06
 -1       255 7.58462E+09 6.14554E+06 2.88449E+09 3.95835E+07 2.27849E+09 7.85778E+06
 -1       256 8.73076E+09 1.44920E+06 3.31824E+09 4.23721E+07 2.21740E+09 7.85296E+06
 -1       257 9.94642E+09 1.24334E+07 3.78436E+09 4.47161E+07 2.15634E+09 7.84746E+06
 -1       258 1.12318E+10 2.21666E+05 4.26818E+09 4.70065E+07 2.09533E+09 7.84118E+06
 -1       259 1.25843E+10 6.83226E+06 4.78462E+09 4.96360E+07 2.03437E+09 7.83415E+06
 -1       260 1.40005E+10 4.87810E+06 5.32203E+09 5.15261E+07 1.97347E+09 7.82630E+06
 -1       261 1.54810E+10 1.77084E+06 5.88344E+09 5.43215E+07 1.91263E+09 7.81759E+06
 -1       262 1.70211E+10 1.00077E+07 6.47183E+09 5.58829E+07 1.85187E+09 7.80800E+06
 -1       263 1.86213E+10 8.76563E+05 7.07642E+09 5.83512E+07 1.79118E+09 7.79746E+06
 -1       264 2.02792E+10 5.57424E+06 7.70821E+09 6.00824E+07 1.73058E+09 7.78597E+06
 -1       265 2.19903E+10 2.36536E+06 8.35720E+09 6.21815E+07 1.67007E+09 7.77348E+06
 -1       266 2.37566E+10 5.31121E+06 9.02952E+09 6.41719E+07 1.60966E+09 7.75998E+06
 -1       267 2.55731E+10 5.26763E+06 9.71979E+09 6.56482E+07 1.54936E+09 7.74540E+06
 -1       268 2.74397E+10 2.48190E+06 1.04280E+10 6.76126E+07 1.48918E+09 7.72974E+06
 -1       269 2.93539E+10 1.60101E+06 1.11551E+10 6.91521E+07 1.42913E+09 7.71296E+06
 -1       270 3.13125E+10 5.14788E+06 1.19007E+10 7.09721E+07 1.36921E+09 7.69505E+06
 -1       271 3.33156E+10 5.51866E+06 1.26620E+10 7.21878E+07 1.30943E+09 7.67596E+06
 -1       272 3.53614E+10 1.20425E+05 1.34374E+10 7.38306E+07 1.24981E+09 7.65566E+06
 -1       273 3.74458E+10 4.66805E+06 1.42312E+10 7.50654E+07 1.19035E+09 7.63415E+06
 -1       274 3.95680E+10-7.02676E+05 1.50356E+10 7.65682E+07 1.13106E+09 7.61140E+06
 -1       275 4.17273E+10 5.95440E+06 1.58586E+10 7.79409E+07 1.07195E+09 7.58739E+06
 -1       276 4.39203E+10 1.95671E+06 1.66905E+10 7.87909E+07 1.01304E+09 7.56208E+06
 -1       277 4.61455E+10 8.98750E+05 1.75356E+10 8.02712E+07 9.54325E+08 7.53548E+06
 -1       278 4.84011E+10 8.08054E+06 1.83955E+10 8.08837E+07 8.95824E+08 7.50754E+06
 -1       279 5.06861E+10-6.63835E+06 1.92582E+10 8.21833E+07 8.37546E+08 7.47827E+06
 -1       280 5.29970E+10 6.29982E+06 2.01413E+10 8.31572E+07 7.79501E+08 7.44764E+06
 -1       281 5.53321E+10 5.24548E+06 2.10282E+10 8.37544E+07 7.21699E+08 7.41564E+06
 -1       282 5.76915E+10-2.86620E+06 2.19217E+10 8.45345E+07 6.64152E+08 7.38224E+06
 -1       283 6.00723E+10 2.54453E+06 2.28284E+10 8.55039E+07 6.06870E+08 7.34745E+06
 -1       284 6.24716E+10 2.25506E+06 2.37401E+10 8.59332E+07 5.49863E+08 7.31125E+06
 -1       285 6.48878E+10-3.42018E+06 2.46561E+10 8.66601E+07 4.93144E+08 7.27363E+06
 -1       286 6.73212E+10 4.50638E+06 2.55838E+10 8.75758E+07 4.36723E+08 7.23458E+06
 -1       287 6.97682E+10 5.86730E+06 2.65142E+10 8.72780E+07 3.80612E+08 7.19408E+06
 -1       288 7.22266E+10-6.12698E+06 2.74438E+10 8.80453E+07 3.24821E+08 7.15212E+06
 -1       289 7.46952E+10 6.50851E+06 2.83866E+10 8.82166E+07 2.69362E+08 7.10872E+06
 -1       290 7.71747E+10-1.26537E+07 2.93216E+10 8.89726E+07 2.14246E+08 7.06386E+06
 -1       291 7.96587E+10 9.32076E+06 3.02738E+10 8.93526E+07 1.59485E+08 7.01754E+06
 -1       292 8.21468E+10 1.16674E+07 3.12202E+10 8.85380E+07 1.05090E+08 6.96974E+06
 -1       293 8.46420E+10-1.41172E+07 3.21586E+10 8.89812E+07 5.10724E+07 6.92046E+06
 -1       294 8.71367E+10 6.31014E+06 3.31143E+10 8.90141E+07-2.55633E+06 6.86971E+06
 -1       295 8.96303E+10-9.26940E+06 3.40560E+10 8.92317E+07-5.57846E+07 6.81749E+06
 -1       296 9.21227E+10 6.71965E+06 3.50092E+10 8.92670E+07-1.08601E+08 6.76380E+06
 -1       297 9.46129E+10 4.57613E+06 3.59546E+10 8.87317E+07-1.60994E+08 6.70864E+06
 -1       298 9.70984E+10-7.60990E+06 3.68945E+10 8.83398E+07-2.12952E+08 6.65200E+06
 -1       299 9.95740E+10 6.90984E+05 3.78384E+10 8.84100E+07-2.64464E+08 6.59390E+06
 -1       300 1.02042E+11 1.09043E+06 3.87765E+10 8.79518E+07-3.15519E+08 6.53435E+06
 -1       301 1.04504E+11-8.44118E+06 3.97085E+10 8.79052E+07-3.66104E+08 6.47333E+06
 -1       302 1.06950E+11 3.18238E+06 4.06422E+10 8.73861E+07-4.16210E+08 6.41087E+06
 -1       303 1.09382E+11 1.02872E+07 4.15691E+10 8.63728E+07-4.65824E+08 6.34696E+06
 -1       304 1.11804E+11-2.12965E+07 4.24774E+10 8.61876E+07-5.14935E+08 6.28162E+06
 -1       305 1.14207E+11 1.19443E+07 4.34031E+10 8.58878E+07-5.63533E+08 6.21486E+06
 -1       306 1.16591E+11-5.86841E+06 4.43023E+10 8.46038E+07-6.11606E+08 6.14668E+06
 -1       307 1.18954E+11-2.12293E+06 4.52017E+10 8.42331E+07-6.59143E+08 6.07710E+06
 -1       308 1.21301E+11 8.60759E+06 4.60975E+10 8.33937E+07-7.06133E+08 6.00613E+06
 -1       309 1.23623E+11-1.52679E+07 4.69711E+10 8.19789E+07-7.52567E+08 5.93377E+06
 -1       310 1.25917E+11 7.64151E+06 4.78513E+10 8.16706E+07-7.98432E+08 5.86006E+06
 -1       311 1.28193E+11-1.61868E+07 4.87074E+10 8.10259E+07-8.43718E+08 5.78499E+06
 -1       312 1.30437E+11 6.65601E+06 4.95687E+10 7.98650E+07-8.88416E+08 5.70859E+06
 -1       313 1.32652E+11 6.67443E+06 5.04104E+10 7.85133E+07-9.32514E+08 5.63088E+06
 -1       314 1.34841E+11-1.47382E+07 5.12339E+10 7.71360E+07-9.76002E+08 5.55185E+06
 -1       315 1.36998E+11 5.33214E+06 5.20613E+10 7.67687E+07-1.01887E+09 5.47155E+06
 -1       316 1.39122E+11-1.74143E+07 5.28598E+10 7.50189E+07-1.06111E+09 5.38998E+06
 -1       317 1.41210E+11 1.03370E+07 5.36636E+10 7.47469E+07-1.10271E+09 5.30717E+06
 -1       318 1.43262E+11-5.53488E+06 5.44376E+10 7.20968E+07-1.14366E+09 5.22313E+06
 -1       319 1.45286E+11-4.63539E+06 5.52068E+10 7.23999E+07-1.18396E+09 5.13789E+06
 -1       320 1.47265E+11 6.16616E+06 5.59629E+10 6.89786E+07-1.22358E+09 5.05146E+06
 -1       321 1.49202E+11-9.41187E+06 5.66930E+10 6.85726E+07-1.26253E+09 4.96388E+06
 -1       322 1.51108E+11-1.31222E+07 5.74161E+10 6.75294E+07-1.30079E+09 4.87516E+06
 -1       323 1.52965E+11 4.10982E+06 5.81283E+10 6.58543E+07-1.33836E+09 4.78534E+06
 -1       324 1.54781E+11 8.34370E+06 5.88198E+10 6.39685E+07-1.37523E+09 4.69443E+06
 -1       325 1.56554E+11-1.83172E+07 5.94837E+10 6.19430E+07-1.41138E+09 4.60245E+06
 -1       326 1.58284E+11 5.17229E+06 6.01498E+10 6.13350E+07-1.44682E+09 4.50944E+06
 -1       327 1.59967E+11-1.95261E+07 6.07799E+10 5.90014E+07-1.48153E+09 4.41542E+06
 -1       328 1.61596E+11 8.53512E+06 6.14096E+10 5.80243E+07-1.51550E+09 4.32043E+06
 -1       329 1.63186E+11 5.27752E+06 6.20125E+10 5.57357E+07-1.54873E+09 4.22449E+06
 -1       330 1.64724E+11-1.89954E+07 6.25881E+10 5.32692E+07-1.58121E+09 4.12761E+06
 -1       331 1.66206E+11 7.92358E+06 6.31614E+10 5.23653E+07-1.61293E+09 4.02985E+06
 -1       332 1.67643E+11-3.23807E+07 6.36920E+10 5.02985E+07-1.64389E+09 3.93123E+06
 -1       333 1.69026E+11 1.75436E+07 6.42366E+10 5.02165E+07-1.67408E+09 3.83177E+06
 -1       334 1.70355E+11 1.62820E+07 6.47413E+10 4.49826E+07-1.70350E+09 3.73152E+06
 -1       335 1.71629E+11-3.33600E+07 6.52062E+10 4.41492E+07-1.73213E+09 3.63049E+06
 -1       336 1.72847E+11 9.54331E+06 6.56854E+10 4.25272E+07-1.75997E+09 3.52872E+06
 -1       337 1.74014E+11-2.10695E+07 6.61175E+10 4.09119E+07-1.78701E+09 3.42626E+06
 -1       338 1.75119E+11 4.40994E+06 6.65468E+10 3.87465E+07-1.81326E+09 3.32312E+06
 -1       339 1.76163E+11 9.72981E+06 6.69455E+10 3.59591E+07-1.83870E+09 3.21935E+06
 -1       340 1.77159E+11-2.08561E+07 6.73125E+10 3.42818E+07-1.86334E+09 3.11498E+06
 -1       341 1.78088E+11-1.44243E+06 6.76729E+10 3.17767E+07-1.88716E+09 3.01003E+06
 -1       342 1.78955E+11-6.23615E+05 6.80026E+10 3.01993E+07-1.91016E+09 2.90456E+06
 -1       343 1.79767E+11-1.93288E+07 6.83039E+10 2.76350E+07-1.93234E+09 2.79859E+06
 -1       344 1.80513E+11 4.47144E+06 6.85967E+10 2.66008E+07-1.95369E+09 2.69216E+06
 -1       345 1.81200E+11 1.14527E+07 6.88603E+10 2.25356E+07-1.97421E+09 2.58531E+06
 -1       346 1.81820E+11-3.55934E+07 6.90782E+10 2.08016E+07-1.99390E+09 2.47807E+06
 -1       347 1.82378E+11 1.56039E+07 6.93096E+10 1.96849E+07-2.01276E+09 2.37048E+06
 -1       348 1.82877E+11-1.03704E+07 6.94894E+10 1.61444E+07-2.03078E+09 2.26258E+06
 -1       349 1.83304E+11-9.18381E+06 6.96519E+10 1.42148E+07-2.04795E+09 2.15440E+06
 -1       350 1.83664E+11 1.33732E+07 6.97975E+10 1.14305E+07-2.06429E+09 2.04599E+06
 -1       351 1.83969E+11-2.48366E+07 6.98988E+10 9.45126E+06-2.07978E+09 1.93739E+06
 -1       352 1.84200E+11 5.02880E+06 6.99977E+10 6.63956E+06-2.09443E+09 1.82862E+06
 -1       353 1.84364E+11-2.18884E+07 7.00499E+10 5.16795E+06-2.10823E+09 1.71974E+06
 -1       354 1.84459E+11 7.43009E+06 7.00974E+10 2.47102E+06-2.12118E+09 1.61078E+06
 -1       355 1.84493E+11 5.98413E+06 7.01098E+10-1.56817E+04-2.13328E+09 1.50179E+06
 -1       356 1.84457E+11-2.36900E+07 7.00846E+10-3.55197E+06-2.14454E+09 1.39279E+06
 -1       357 1.84345E+11 7.76053E+06 7.00542E+10-4.79112E+06-2.15495E+09 1.28384E+06
 -1       358 1.84176E+11-2.62956E+07 6.99769E+10-7.18823E+06-2.16451E+09 1.17497E+06
 -1       359 1.83931E+11 1.28784E+07 6.98987E+10-9.61591E+06-2.17322E+09 1.06623E+06
 -1       360 1.83613E+11-9.85001E+06 6.97693E+10-1.29261E+07-2.18109E+09 9.57651E+05
 -1       361 1.83235E+11-8.44419E+06 6.96261E+10-1.42853E+07-2.18812E+09 8.49276E+05
 -1       362 1.82783E+11 8.97260E+06 6.94608E+10-1.80659E+07-2.19431E+09 7.41146E+05
 -1       363 1.82259E+11-1.70027E+07 6.92520E+10-2.03488E+07-2.19965E+09 6.33304E+05
 -1       364 1.81667E+11-1.55372E+07 6.90275E+10-2.22789E+07-2.20416E+09 5.25792E+05
 -1       365 1.81000E+11 4.47048E+06 6.87817E+10-2.44240E+07-2.20783E+09 4.18652E+05
 -1       366 1.80271E+11 7.71812E+06 6.85059E+10-2.76709E+07-2.21067E+09 3.11926E+05
 -1       367 1.79468E+11-2.54083E+07 6.81881E+10-3.06797E+07-2.21268E+09 2.05651E+05
 -1       368 1.78588E+11 8.07625E+06 6.78665E+10-3.25312E+07-2.21387E+09 9.98723E+04
 -1       369 1.77648E+11-2.40642E+07 6.74971E+10-3.45209E+07-2.21424E+09-5.36862E+03
 -1       370 1.76631E+11 6.07579E+06 6.71220E+10-3.75137E+07-2.21379E+09-1.10031E+05
 -1       371 1.75541E+11 6.17902E+06 6.67081E+10-4.01372E+07-2.21253E+09-2.14069E+05
 -1       372 1.74386E+11-1.90558E+07 6.62596E+10-4.34189E+07-2.21046E+09-3.17445E+05
 -1       373 1.73160E+11-8.18250E+06 6.57975E+10-4.45616E+07-2.20759E+09-4.20116E+05
 -1       374 1.71863E+11-1.28581E+07 6.53032E+10-4.71426E+07-2.20393E+09-5.22043E+05
 -1       375 1.70490E+11 1.80760E+07 6.47930E+10-5.01922E+07-2.19948E+09-6.23180E+05
 -1       376 1.69054E+11-9.78619E+06 6.42367E+10-5.30840E+07-2.19424E+09-7.23485E+05
 -1       377 1.67549E+11-1.43977E+07 6.36630E+10-5.57032E+07-2.18822E+09-8.22922E+05
 -1       378 1.65966E+11-3.47722E+06 6.30656E+10-5.75760E+07-2.18144E+09-9.21447E+05
 -1       379 1.64318E+11-2.58691E+06 6.24400E+10-6.01834E+07-2.17389E+09-1.01902E+06
 -1       380 1.62605E+11-1.77812E+07 6.17831E+10-6.23229E+07-2.16559E+09-1.11560E+06
 -1       381 1.60816E+11 3.23323E+06 6.11113E+10-6.47643E+07-2.15654E+09-1.21114E+06
 -1       382 1.58960E+11 6.46401E+06 6.04072E+10-6.77697E+07-2.14676E+09-1.30561E+06
 -1       383 1.57037E+11-2.02091E+07 5.96664E+10-7.04940E+07-2.13624E+09-1.39896E+06
 -1       384 1.55047E+11 2.92659E+06 5.89190E+10-7.20301E+07-2.12500E+09-1.49115E+06
 -1       385 1.52988E+11-2.05634E+07 5.81277E+10-7.49691E+07-2.11305E+09-1.58215E+06
 -1       386 1.50857E+11 9.40976E+06 5.73292E+10-7.67766E+07-2.10039E+09-1.67192E+06
 -1       387 1.48666E+11-8.52220E+06 5.64897E+10-7.96312E+07-2.08704E+09-1.76040E+06
 -1       388 1.46408E+11-8.99644E+06 5.56315E+10-8.19065E+07-2.07301E+09-1.84757E+06
 -1       389 1.44077E+11 1.07624E+07 5.47535E+10-8.46642E+07-2.05831E+09-1.93338E+06
 -1       390 1.41686E+11-2.86424E+07 5.38297E+10-8.70063E+07-2.04294E+09-2.01780E+06
 -1       391 1.39229E+11 7.32621E+06 5.29099E+10-8.81282E+07-2.02692E+09-2.10079E+06
 -1       392 1.36707E+11 1.68280E+06 5.19495E+10-9.18799E+07-2.01027E+09-2.18231E+06
 -1       393 1.34119E+11-1.56183E+07 5.09593E+10-9.39037E+07-1.99298E+09-2.26231E+06
 -1       394 1.31471E+11 1.21091E+06 4.99596E+10-9.54255E+07-1.97508E+09-2.34077E+06
 -1       395 1.28760E+11-1.60087E+07 4.89227E+10-9.83593E+07-1.95657E+09-2.41765E+06
 -1       396 1.25981E+11 2.62495E+06 4.78739E+10-9.96707E+07-1.93748E+09-2.49290E+06
 -1       397 1.23144E+11 3.70887E+06 4.67963E+10-1.02899E+08-1.91780E+09-2.56650E+06
 -1       398 1.20249E+11-1.45932E+07 4.56892E+10-1.04683E+08-1.89756E+09-2.63840E+06
 -1       399 1.17289E+11-4.01844E+06 4.45684E+10-1.07022E+08-1.87676E+09-2.70857E+06
 -1       400 1.14269E+11 6.10228E+05 4.34226E+10-1.08697E+08-1.85543E+09-2.77698E+06
 -1       401 1.11192E+11-2.14816E+07 4.22448E+10-1.11250E+08-1.83357E+09-2.84358E+06
 -1       402 1.08057E+11 8.21857E+06 4.10646E+10-1.11848E+08-1.81120E+09-2.90835E+06
 -1       403 1.04863E+11 8.40004E+06 3.98510E+10-1.16174E+08-1.78834E+09-2.97125E+06
 -1       404 1.01609E+11-2.10971E+07 3.86036E+10-1.17524E+08-1.76499E+09-3.03224E+06
 -1       405 9.83043E+10 2.58192E+06 3.73566E+10-1.18890E+08-1.74117E+09-3.09130E+06
 -1       406 9.49417E+10-1.34001E+07 3.60728E+10-1.21344E+08-1.71691E+09-3.14839E+06
 -1       407 9.15218E+10 1.87496E+06 3.47790E+10-1.22641E+08-1.69220E+09-3.20347E+06
 -1       408 8.80502E+10 1.86904E+06 3.34598E+10-1.25326E+08-1.66708E+09-3.25652E+06
 -1       409 8.45275E+10-1.21131E+07 3.21158E+10-1.26916E+08-1.64155E+09-3.30750E+06
 -1       410 8.09494E+10-4.07796E+05 3.07606E+10-1.28851E+08-1.61564E+09-3.35639E+06
 -1       411 7.73194E+10-9.78502E+06 2.93777E+10-1.30513E+08-1.58935E+09-3.40314E+06
 -1       412 7.36409E+10 4.10760E+05 2.79837E+10-1.31987E+08-1.56271E+09-3.44774E+06
 -1       413 6.99118E+10 4.42272E+05 2.65666E+10-1.34463E+08-1.53573E+09-3.49015E+06
 -1       414 6.61328E+10-8.90600E+06 2.51271E+10-1.35938E+08-1.50842E+09-3.53034E+06
 -1       415 6.23061E+10-4.45676E+06 2.36746E+10-1.37602E+08-1.48082E+09-3.56828E+06
 -1       416 5.84336E+10-5.59054E+06 2.22027E+10-1.38809E+08-1.45292E+09-3.60395E+06
 -1       417 5.45132E+10 3.59207E+06 2.07164E+10-1.41094E+08-1.42476E+09-3.63732E+06
 -1       418 5.05464E+10-4.74088E+06 1.92058E+10-1.42668E+08-1.39635E+09-3.66835E+06
 -1       419 4.65374E+10-6.43587E+06 1.76818E+10-1.44151E+08-1.36771E+09-3.69703E+06
 -1       420 4.24839E+10-2.25633E+06 1.61430E+10-1.45509E+08-1.33885E+09-3.72333E+06
 -1       421 3.83875E+10-3.37494E+06 1.45860E+10-1.47138E+08-1.30979E+09-3.74722E+06
 -1       422 3.42488E+10-4.80968E+06 1.30127E+10-1.48578E+08-1.28056E+09-3.76868E+06
 -1       423 3.00701E+10-1.81043E+06 1.14260E+10-1.49854E+08-1.25118E+09-3.78768E+06
 -1       424 2.58514E+10-1.12232E+06 9.82310E+09-1.51611E+08-1.22165E+09-3.80420E+06
 -1       425 2.15931E+10-5.36591E+06 8.20333E+09-1.52796E+08-1.19201E+09-3.81821E+06
 -1       426 1.72974E+10-1.92524E+06 6.57229E+09-1.54142E+08-1.16227E+09-3.82970E+06
 -1       427 1.29644E+10-3.59943E+06 4.92510E+09-1.55400E+08-1.13244E+09-3.83864E+06
 -1       428 8.59541E+09-2.34998E+06 3.26536E+09-1.56756E+08-1.10256E+09-3.84501E+06
 -1       429 4.19078E+09-2.11436E+06 1.59169E+09-1.57988E+08-1.07264E+09-3.84879E+06
 -1       430-2.47462E+08-3.08731E+06-9.52089E+07-1.59228E+08-1.04270E+09-3.84996E+06
 -1       431-4.71942E+09-3.00076E+06-1.79452E+09-1.60353E+08-1.01276E+09-3.84849E+06
 -1       432-9.22365E+09-8.98450E+05-3.50533E+09-1.61453E+08-9.82841E+08-3.84437E+06
 -1       433-1.37586E+10-3.43998E+06-5.22956E+09-1.62644E+08-9.52965E+08-3.83759E+06
 -1       434-1.83250E+10-3.42312E+06-6.96479E+09-1.63699E+08-9.23153E+08-3.82811E+06
 -1       435-2.29201E+10-4.73362E+05-8.70983E+09-1.64542E+08-8.93425E+08-3.81593E+06
 -1       436-2.75438E+10-3.70937E+06-1.04681E+10-1.65728E+08-8.63802E+08-3.80102E+06
 -1       437-3.21949E+10 1.42558E+06-1.22335E+10-1.66542E+08-8.34306E+08-3.78338E+06
 -1       438-3.68733E+10-4.82448E+06-1.40137E+10-1.67896E+08-8.04958E+08-3.76298E+06
 -1       439-4.15768E+10-3.76181E+06-1.58006E+10-1.68289E+08-7.75779E+08-3.73981E+06
 -1       440-4.63046E+10 5.08787E+05-1.75956E+10-1.69257E+08-7.46791E+08-3.71385E+06
 -1       441-5.10577E+10-1.49741E+06-1.94025E+10-1.70242E+08-7.18016E+08-3.68509E+06
 -1       442-5.58327E+10-4.52203E+06-2.12181E+10-1.70872E+08-6.89476E+08-3.65352E+06
 -1       443-6.06296E+10 8.62869E+06-2.30360E+10-1.71745E+08-6.61192E+08-3.61911E+06
 -1       444-6.54466E+10-9.45502E+06-2.48733E+10-1.73126E+08-6.33186E+08-3.58188E+06
 -1       445-7.02871E+10-1.02082E+07-2.67130E+10-1.73066E+08-6.05482E+08-3.54178E+06
 -1       446-7.51444E+10 1.05072E+07-2.85509E+10-1.73337E+08-5.78100E+08-3.49882E+06
 -1       447-8.00188E+10-7.84938E+06-3.04101E+10-1.74596E+08-5.51064E+08-3.45298E+06
 -1       448-8.49149E+10 8.18671E+06-3.22646E+10-1.75228E+08-5.24395E+08-3.40426E+06
 -1       449-8.98245E+10-7.82296E+06-3.41363E+10-1.75917E+08-4.98117E+08-3.35264E+06
 -1       450-9.47495E+10-6.79725E+06-3.60074E+10-1.76187E+08-4.72252E+08-3.29812E+06
 -1       451-9.96921E+10 7.03851E+06-3.78803E+10-1.76409E+08-4.46822E+08-3.24068E+06
 -1       452-1.04648E+11-6.22458E+06-3.97686E+10-1.77460E+08-4.21849E+08-3.18032E+06
 -1       453-1.09618E+11 9.15045E+06-4.16515E+10-1.77579E+08-3.97358E+08-3.11702E+06
 -1       454-1.14597E+11-7.15906E+06-4.35497E+10-1.78650E+08-3.73371E+08-3.05079E+06
 -1       455-1.19591E+11-1.21624E+07-4.54492E+10-1.78430E+08-3.49910E+08-2.98161E+06
 -1       456-1.24598E+11 2.02566E+07-4.73397E+10-1.78590E+08-3.26999E+08-2.90947E+06
 -1       457-1.29614E+11-1.42211E+07-4.92586E+10-1.80168E+08-3.04660E+08-2.83437E+06
 -1       458-1.34636E+11 2.01413E+06-5.11611E+10-1.78942E+08-2.82916E+08-2.75631E+06
 -1       459-1.39672E+11 2.26172E+06-5.30746E+10-1.80800E+08-2.61792E+08-2.67528E+06
 -1       460-1.44714E+11-1.28630E+07-5.49963E+10-1.79586E+08-2.41309E+08-2.59127E+06
 -1       461-1.49765E+11 1.11008E+07-5.69064E+10-1.80496E+08-2.21492E+08-2.50428E+06
 -1       462-1.54819E+11-2.73688E+06-5.88324E+10-1.80317E+08-2.02362E+08-2.41430E+06
 -1       463-1.59887E+11-4.26171E+06-6.07587E+10-1.81683E+08-1.83944E+08-2.32133E+06
 -1       464-1.64955E+11 1.46486E+07-6.26774E+10-1.80259E+08-1.66261E+08-2.22537E+06
 -1       465-1.70029E+11-1.15926E+07-6.46156E+10-1.82945E+08-1.49335E+08-2.12641E+06
 -1       466-1.75104E+11-1.18651E+07-6.65441E+10-1.80191E+08-1.33191E+08-2.02446E+06
 -1       467-1.80199E+11 1.46481E+07-6.84700E+10-1.82551E+08-1.17852E+08-1.91950E+06
 -1       468-1.85277E+11-5.41110E+06-7.04072E+10-1.80157E+08-1.03341E+08-1.81153E+06
 -1       469-1.90376E+11 7.90914E+06-7.23397E+10-1.83691E+08-8.96806E+07-1.70056E+06
 -1       470-1.95457E+11 7.48551E+06-7.42709E+10-1.80667E+08-7.68954E+07-1.58658E+06
 -1       471-2.00573E+11-2.92038E+07-7.62287E+10-1.85560E+08-6.50084E+07-1.46960E+06
 -1       472-2.05647E+11 1.10845E+07-7.81416E+10-1.77199E+08-5.40430E+07-1.34959E+06
 -1       473-2.10774E+11-2.72951E+06-8.00951E+10-1.86614E+08-4.40226E+07-1.22658E+06
 -1       474-2.15842E+11 2.22009E+07-8.20116E+10-1.76405E+08-3.49708E+07-1.10055E+06
 -1       475-2.20992E+11-1.12114E+07-8.39812E+10-1.90800E+08-2.69108E+07-9.71506E+05
 -1       476-2.26029E+11-4.97542E+07-8.59101E+10-1.72111E+08-1.98664E+07-8.39452E+05
 -1       477-2.31206E+11 1.78543E+08-8.77906E+10-1.92332E+08-1.38605E+07-7.04378E+05
 -1       478-2.36274E+11-6.32833E+08-9.00246E+10-1.77750E+08-8.91716E+06-5.66292E+05
 -1       479-2.41243E+11 2.35580E+09-9.07773E+10-1.54936E+08-5.05924E+06-4.25174E+05
 -1       480-2.47157E+11-8.67179E+09-9.72151E+10-3.38437E+08-2.31082E+06-2.81109E+05
 -1       481-2.48908E+11 3.18086E+10-8.24978E+10 4.57552E+08-6.94843E+05-1.33772E+05
 -1       482-2.47621E+11-1.17712E+11-1.38826E+11-2.46807E+09-1.71994E+05-5.91758E+04
 -1       483 9.18389E+06 4.87637E+06 5.34285E+06 8.69755E+03-3.04387E+09-5.25209E+06
 -1       484 3.26174E+07 4.79094E+06 1.42151E+07 5.55708E+06-3.01323E+09-5.25207E+06
 -1       485 1.04759E+08 4.78552E+06 4.16268E+07 1.09947E+07-2.95196E+09-5.25202E+06
 -1       486 2.24203E+08 4.57556E+06 8.69358E+07 1.63299E+07-2.89069E+09-5.25190E+06
 -1       487 3.89596E+08 4.64283E+06 1.49811E+08 2.15154E+07-2.82942E+09-5.25165E+06
 -1       488 6.00366E+08 4.09992E+06 2.29697E+08 2.66508E+07-2.76816E+09-5.25126E+06
 -1       489 8.54862E+08 4.86188E+06 3.26695E+08 3.16386E+07-2.70690E+09-5.25069E+06
 -1       490 1.15309E+09 3.73986E+06 4.39597E+08 3.64774E+07-2.64565E+09-5.24989E+06
 -1       491 1.49303E+09 4.45834E+06 5.69047E+08 4.13051E+07-2.58441E+09-5.24885E+06
 -1       492 1.87443E+09 3.96119E+06 7.13790E+08 4.58812E+07-2.52319E+09-5.24752E+06
 -1       493 2.29639E+09 3.46130E+06 8.73943E+08 5.04720E+07-2.46198E+09-5.24588E+06
 -1       494 2.75667E+09 4.71659E+06 1.04933E+09 5.50016E+07-2.40079E+09-5.24390E+06
 -1       495 3.25640E+09 3.36447E+06 1.23871E+09 5.90694E+07-2.33963E+09-5.24152E+06
 -1       496 3.79286E+09 2.90409E+06 1.44239E+09 6.36066E+07-2.27850E+09-5.23874E+06
 -1       497 4.36508E+09 4.43202E+06 1.66041E+09 6.73825E+07-2.21740E+09-5.23554E+06
 -1       498 4.97446E+09 3.88774E+06 1.89177E+09 7.14735E+07-2.15635E+09-5.23186E+06
 -1       499 5.61627E+09 1.47122E+06 2.13474E+09 7.56455E+07-2.09533E+09-5.22768E+06
 -1       500 6.29229E+09 5.89868E+06 2.39331E+09 7.89472E+07-2.03437E+09-5.22300E+06
 -1       501 7.00132E+09 9.88302E+05 2.66088E+09 8.29647E+07-1.97347E+09-5.21776E+06
 -1       502 7.74063E+09 4.36037E+06 2.94310E+09 8.61696E+07-1.91264E+09-5.21195E+06
 -1       503 8.51211E+09 2.39913E+06 3.23551E+09 8.97884E+07-1.85187E+09-5.20555E+06
 -1       504 9.31153E+09 1.40729E+06 3.53892E+09 9.33063E+07-1.79118E+09-5.19853E+06
 -1       505 1.01397E+10 6.13140E+06 3.85542E+09 9.62077E+07-1.73058E+09-5.19087E+06
 -1       506 1.09968E+10-4.95632E+05 4.17860E+09 9.94065E+07-1.67007E+09-5.18254E+06
 -1       507 1.18792E+10 4.33425E+06 4.51575E+09 1.02334E+08-1.60966E+09-5.17353E+06
 -1       508 1.27881E+10 1.76860E+06 4.86014E+09 1.05364E+08-1.54937E+09-5.16382E+06
 -1       509 1.37210E+10 2.42391E+06 5.21491E+09 1.08122E+08-1.48919E+09-5.15338E+06
 -1       510 1.46777E+10 3.45942E+06 5.57883E+09 1.10626E+08-1.42913E+09-5.14219E+06
 -1       511 1.56584E+10 1.23976E+06 5.95065E+09 1.13080E+08-1.36921E+09-5.13024E+06
 -1       512 1.66600E+10 9.40896E+05 6.33117E+09 1.15894E+08-1.30944E+09-5.11751E+06
 -1       513 1.76816E+10 3.18187E+06 6.72021E+09 1.18131E+08-1.24981E+09-5.10399E+06
 -1       514 1.87246E+10 3.26145E+06 7.11659E+09 1.20154E+08-1.19035E+09-5.08965E+06
 -1       515 1.97862E+10-1.20361E+06 7.51831E+09 1.22362E+08-1.13106E+09-5.07448E+06
 -1       516 2.08657E+10 3.78600E+06 7.93042E+09 1.24269E+08-1.07196E+09-5.05847E+06
 -1       517 2.19621E+10 8.75447E+05 8.34593E+09 1.26410E+08-1.01304E+09-5.04160E+06
 -1       518 2.30750E+10 2.07551E+06 8.76928E+09 1.27944E+08-9.54332E+08-5.02387E+06
 -1       519 2.42035E+10 8.40666E+05 9.19765E+09 1.29901E+08-8.95831E+08-5.00525E+06
 -1       520 2.53445E+10 1.44656E+06 9.63146E+09 1.31492E+08-8.37552E+08-4.98573E+06
 -1       521 2.65010E+10 3.09098E+06 1.00715E+10 1.32355E+08-7.79507E+08-4.96531E+06
 -1       522 2.76697E+10-5.15308E+05 1.05143E+10 1.34499E+08-7.21706E+08-4.94398E+06
 -1       523 2.88485E+10-5.89675E+05 1.09622E+10 1.35444E+08-6.64158E+08-4.92172E+06
 -1       524 3.00385E+10 2.50879E+06 1.14156E+10 1.36763E+08-6.06876E+08-4.89853E+06
 -1       525 3.12385E+10 3.48518E+06 1.18720E+10 1.37487E+08-5.49870E+08-4.87439E+06
 -1       526 3.24476E+10-4.17383E+06 1.23285E+10 1.38589E+08-4.93150E+08-4.84931E+06
 -1       527 3.36640E+10 3.43682E+06 1.27936E+10 1.39270E+08-4.36729E+08-4.82327E+06
 -1       528 3.48873E+10 2.07503E+06 1.32580E+10 1.40410E+08-3.80618E+08-4.79627E+06
 -1       529 3.61166E+10-8.72528E+05 1.37240E+10 1.40824E+08-3.24827E+08-4.76830E+06
 -1       530 3.73526E+10-1.91091E+06 1.41932E+10 1.41379E+08-2.69368E+08-4.73937E+06
 -1       531 3.85892E+10 2.06370E+05 1.46640E+10 1.42033E+08-2.14251E+08-4.70946E+06
 -1       532 3.98333E+10 5.74969E+06 1.51388E+10 1.41266E+08-1.59490E+08-4.67857E+06
 -1       533 4.10798E+10-4.66577E+06 1.56085E+10 1.43130E+08-1.05095E+08-4.64670E+06
 -1       534 4.23235E+10 1.77808E+06 1.60836E+10 1.42775E+08-5.10773E+07-4.61385E+06
 -1       535 4.35720E+10 1.96249E+06 1.65581E+10 1.42358E+08 2.55148E+06-4.58002E+06
 -1       536 4.48196E+10-1.97758E+06 1.70307E+10 1.42499E+08 5.57800E+07-4.54521E+06
 -1       537 4.60672E+10-3.02223E+06 1.75044E+10 1.41863E+08 1.08597E+08-4.50941E+06
 -1       538 4.73113E+10 2.02450E+06 1.79791E+10 1.42967E+08 1.60989E+08-4.47263E+06
 -1       539 4.85519E+10 2.90200E+06 1.84508E+10 1.41514E+08 2.12948E+08-4.43488E+06
 -1       540 4.97928E+10-3.17724E+06 1.89201E+10 1.41367E+08 2.64460E+08-4.39614E+06
 -1       541 5.10280E+10-3.97755E+06 1.93891E+10 1.40791E+08 3.15515E+08-4.35643E+06
 -1       542 5.22546E+10 2.68260E+06 1.98578E+10 1.40519E+08 3.66101E+08-4.31575E+06
 -1       543 5.34805E+10 3.62755E+06 2.03240E+10 1.38601E+08 4.16206E+08-4.27411E+06
 -1       544 5.46995E+10-8.95743E+06 2.07824E+10 1.39306E+08 4.65820E+08-4.23150E+06
 -1       545 5.59054E+10 4.01764E+05 2.12442E+10 1.38095E+08 5.14932E+08-4.18793E+06
 -1       546 5.71084E+10 4.66041E+06 2.17029E+10 1.36209E+08 5.63529E+08-4.14342E+06
 -1       547 5.83007E+10-3.75500E+04 2.21543E+10 1.36057E+08 6.11602E+08-4.09797E+06
 -1       548 5.94854E+10-9.20834E+06 2.26009E+10 1.33879E+08 6.59140E+08-4.05157E+06
 -1       549 6.06560E+10 2.69683E+06 2.30503E+10 1.34440E+08 7.06130E+08-4.00425E+06
 -1       550 6.18150E+10 4.94608E+06 2.34916E+10 1.31603E+08 7.52563E+08-3.95602E+06
 -1       551 6.29685E+10-1.26888E+07 2.39232E+10 1.30603E+08 7.98428E+08-3.90687E+06
 -1       552 6.41000E+10 5.23456E+06 2.43600E+10 1.29469E+08 8.43715E+08-3.85682E+06
 -1       553 6.52250E+10 1.55316E+06 2.47861E+10 1.26387E+08 8.88412E+08-3.80588E+06
 -1       554 6.63353E+10-5.60516E+06 2.52053E+10 1.26625E+08 9.32510E+08-3.75406E+06
 -1       555 6.74269E+10-4.84870E+06 2.56204E+10 1.24100E+08 9.75998E+08-3.70138E+06
 -1       556 6.85051E+10 1.91568E+06 2.60327E+10 1.22700E+08 1.01887E+09-3.64784E+06
 -1       557 6.95656E+10 2.22114E+06 2.64358E+10 1.19994E+08 1.06111E+09-3.59346E+06
 -1       558 7.06137E+10-4.22820E+06 2.68316E+10 1.17609E+08 1.10271E+09-3.53825E+06
 -1       559 7.16419E+10-1.19842E+07 2.72194E+10 1.17176E+08 1.14366E+09-3.48222E+06
 -1       560 7.26465E+10 6.70384E+06 2.76082E+10 1.14276E+08 1.18395E+09-3.42540E+06
 -1       561 7.36386E+10 8.51642E+06 2.79859E+10 1.12148E+08 1.22358E+09-3.36778E+06
 -1       562 7.46122E+10-1.99442E+07 2.83451E+10 1.09704E+08 1.26252E+09-3.30939E+06
 -1       563 7.55580E+10 7.08159E+06 2.87147E+10 1.07912E+08 1.30079E+09-3.25024E+06
 -1       564 7.64907E+10 1.13874E+05 2.90665E+10 1.03745E+08 1.33836E+09-3.19036E+06
 -1       565 7.74005E+10-6.12862E+06 2.94099E+10 1.03471E+08 1.37522E+09-3.12974E+06
 -1       566 7.82852E+10-5.98610E+06 2.97461E+10 1.00015E+08 1.41138E+09-3.06843E+06
 -1       567 7.91490E+10 2.02274E+05 3.00767E+10 9.78838E+07 1.44681E+09-3.00642E+06
 -1       568 7.99880E+10 6.47399E+06 3.03979E+10 9.43034E+07 1.48152E+09-2.94375E+06
 -1       569 8.08111E+10-1.67153E+07 3.07019E+10 9.10761E+07 1.51549E+09-2.88041E+06
 -1       570 8.16011E+10 4.13033E+06 3.10100E+10 9.07032E+07 1.54872E+09-2.81645E+06
 -1       571 8.23665E+10 3.07425E+06 3.13005E+10 8.58773E+07 1.58120E+09-2.75187E+06
 -1       572 8.31149E+10-7.65507E+06 3.15808E+10 8.34922E+07 1.61293E+09-2.68669E+06
 -1       573 8.38291E+10-1.22165E+07 3.18504E+10 8.03839E+07 1.64389E+09-2.62094E+06
 -1       574 8.45220E+10 6.87063E+06 3.21210E+10 7.65808E+07 1.67408E+09-2.55463E+06
 -1       575 8.51863E+10 6.14614E+06 3.23731E+10 7.54836E+07 1.70349E+09-2.48779E+06
 -1       576 8.58225E+10-1.26235E+07 3.26078E+10 7.11487E+07 1.73212E+09-2.42043E+06
 -1       577 8.64355E+10-7.48270E+06 3.28426E+10 6.80867E+07 1.75996E+09-2.35259E+06
 -1       578 8.70121E+10 2.72763E+06 3.30656E+10 6.53553E+07 1.78701E+09-2.28427E+06
 -1       579 8.75682E+10 4.02401E+06 3.32774E+10 6.00558E+07 1.81326E+09-2.21551E+06
 -1       580 8.80963E+10-1.81243E+07 3.34697E+10 5.92467E+07 1.83870E+09-2.14632E+06
 -1       581 8.85845E+10 6.24945E+06 3.36645E+10 5.53861E+07 1.86333E+09-2.07674E+06
 -1       582 8.90517E+10 7.82467E+05 3.38399E+10 5.08934E+07 1.88715E+09-2.00677E+06
 -1       583 8.94898E+10-8.50865E+06 3.40029E+10 4.79986E+07 1.91015E+09-1.93645E+06
 -1       584 8.98913E+10-7.12908E+06 3.41560E+10 4.44385E+07 1.93233E+09-1.86580E+06
 -1       585 9.02669E+10 7.88694E+05 3.43017E+10 4.04203E+07 1.95369E+09-1.79484E+06
 -1       586 9.06089E+10 3.49357E+06 3.44327E+10 3.79484E+07 1.97421E+09-1.72360E+06
 -1       587 9.09192E+10-1.37072E+07 3.45441E+10 3.36211E+07 1.99390E+09-1.65210E+06
 -1       588 9.12018E+10-4.76446E+06 3.46549E+10 2.96087E+07 2.01276E+09-1.58037E+06
 -1       589 9.14439E+10 7.83792E+06 3.47516E+10 2.74739E+07 2.03077E+09-1.50844E+06
 -1       590 9.16614E+10-1.70208E+06 3.48307E+10 2.10770E+07 2.04795E+09-1.43632E+06
 -1       591 9.18479E+10-1.81603E+07 3.48953E+10 1.99818E+07 2.06428E+09-1.36404E+06
 -1       592 9.19900E+10 6.09353E+06 3.49585E+10 1.56717E+07 2.07978E+09-1.29164E+06
 -1       593 9.21089E+10-9.69105E+04 3.50014E+10 1.08404E+07 2.09442E+09-1.21913E+06
 -1       594 9.21912E+10-7.16787E+06 3.50299E+10 7.42673E+06 2.10822E+09-1.14654E+06
 -1       595 9.22436E+10-9.34334E+06 3.50490E+10 2.64089E+06 2.12117E+09-1.07390E+06
 -1       596 9.22558E+10 6.73643E+05 3.50575E+10 1.44343E+06 2.13328E+09-1.00124E+06
 -1       597 9.22347E+10 6.01684E+06 3.50515E+10-4.73190E+06 2.14453E+09-9.28573E+05
 -1       598 9.21876E+10-2.01383E+07 3.50236E+10-8.00307E+06 2.15494E+09-8.55936E+05
 -1       599 9.20940E+10 5.96128E+06 3.49980E+10-1.15193E+07 2.16450E+09-7.83356E+05
 -1       600 9.19750E+10 2.31395E+06 3.49514E+10-1.74399E+07 2.17322E+09-7.10860E+05
 -1       601 9.18212E+10-1.66548E+07 3.48857E+10-1.88641E+07 2.18109E+09-6.38471E+05
 -1       602 9.16260E+10-1.46251E+06 3.48173E+10-2.44576E+07 2.18812E+09-5.66220E+05
 -1       603 9.14006E+10 5.91376E+06 3.47345E+10-2.67588E+07 2.19430E+09-4.94134E+05
 -1       604 9.11388E+10-5.45755E+06 3.46307E+10-3.24230E+07 2.19965E+09-4.22240E+05
 -1       605 9.08421E+10-5.45119E+06 3.45179E+10-3.59499E+07 2.20415E+09-3.50566E+05
 -1       606 9.05147E+10-1.00914E+07 3.43917E+10-4.09822E+07 2.20783E+09-2.79138E+05
 -1       607 9.01444E+10 6.85750E+05 3.42551E+10-4.22853E+07 2.21067E+09-2.07986E+05
 -1       608 8.97402E+10 5.61998E+06 3.41034E+10-4.85602E+07 2.21268E+09-1.37138E+05
 -1       609 8.93089E+10-1.96036E+07 3.39299E+10-5.20511E+07 2.21387E+09-6.66198E+04
 -1       610 8.88302E+10 5.43170E+06 3.37575E+10-5.55230E+07 2.21424E+09 3.54050E+03
 -1       611 8.83249E+10 7.39958E+05 3.35637E+10-6.16026E+07 2.21379E+09 7.33128E+04
 -1       612 8.77841E+10-9.64218E+06 3.33543E+10-6.30941E+07 2.21253E+09 1.42673E+05
 -1       613 8.72027E+10-5.89269E+06 3.31348E+10-6.81676E+07 2.21046E+09 2.11593E+05
 -1       614 8.65887E+10-6.23145E+06 3.29014E+10-7.17487E+07 2.20759E+09 2.80042E+05
 -1       615 8.59380E+10 9.96582E+06 3.26602E+10-7.71481E+07 2.20393E+09 3.47993E+05
 -1       616 8.52596E+10-1.32358E+07 3.23936E+10-8.06955E+07 2.19948E+09 4.15421E+05
 -1       617 8.45370E+10-2.67170E+06 3.21230E+10-8.27731E+07 2.19424E+09 4.82297E+05
 -1       618 8.37798E+10 3.42359E+06 3.18376E+10-8.87215E+07 2.18823E+09 5.48589E+05
 -1       619 8.29952E+10-9.14952E+06 3.15347E+10-9.21874E+07 2.18144E+09 6.14275E+05
 -1       620 8.21707E+10-8.79462E+06 3.12215E+10-9.61912E+07 2.17390E+09 6.79327E+05
 -1       621 8.13083E+10 2.63672E+06 3.08981E+10-9.96755E+07 2.16559E+09 7.43716E+05
 -1       622 8.04182E+10 3.15020E+05 3.05590E+10-1.05439E+08 2.15655E+09 8.07413E+05
 -1       623 7.94916E+10-8.49525E+06 3.02036E+10-1.07050E+08 2.14676E+09 8.70394E+05
 -1       624 7.85281E+10-6.48366E+06 2.98382E+10-1.11934E+08 2.13624E+09 9.32631E+05
 -1       625 7.75317E+10-1.03618E+06 2.94616E+10-1.15311E+08 2.12500E+09 9.94096E+05
 -1       626 7.65004E+10 4.34602E+06 2.90718E+10-1.20120E+08 2.11305E+09 1.05476E+06
 -1       627 7.54420E+10-1.47400E+07 2.86623E+10-1.24305E+08 2.10040E+09 1.11460E+06
 -1       628 7.43419E+10-2.61598E+06 2.82489E+10-1.26081E+08 2.08705E+09 1.17360E+06
 -1       629 7.32094E+10 5.53310E+06 2.78217E+10-1.31902E+08 2.07302E+09 1.23171E+06
 -1       630 7.20500E+10-4.49662E+06 2.73773E+10-1.34382E+08 2.05831E+09 1.28892E+06
 -1       631 7.08512E+10-1.08734E+07 2.69193E+10-1.38734E+08 2.04295E+09 1.34521E+06
 -1       632 6.96236E+10 3.30432E+05 2.64571E+10-1.42639E+08 2.02693E+09 1.40053E+06
 -1       633 6.83619E+10 2.64992E+06 2.59785E+10-1.45539E+08 2.01027E+09 1.45488E+06
 -1       634 6.70696E+10-1.33771E+07 2.54814E+10-1.49733E+08 1.99299E+09 1.50822E+06
 -1       635 6.57437E+10 1.47292E+06 2.49832E+10-1.52836E+08 1.97509E+09 1.56053E+06
 -1       636 6.43853E+10 1.47973E+06 2.44670E+10-1.57201E+08 1.95658E+09 1.61178E+06
 -1       637 6.30013E+10-7.61818E+06 2.39376E+10-1.61125E+08 1.93749E+09 1.66196E+06
 -1       638 6.15827E+10-6.84697E+06 2.33988E+10-1.63168E+08 1.91781E+09 1.71102E+06
 -1       639 6.01298E+10 1.54381E+06 2.28499E+10-1.67031E+08 1.89757E+09 1.75896E+06
 -1       640 5.86520E+10-5.62558E+05 2.22876E+10-1.71169E+08 1.87677E+09 1.80575E+06
 -1       641 5.71439E+10-5.72228E+06 2.17125E+10-1.74202E+08 1.85544E+09 1.85135E+06
 -1       642 5.56034E+10-8.87715E+06 2.11259E+10-1.77641E+08 1.83358E+09 1.89576E+06
 -1       643 5.40358E+10 2.48109E+06 2.05345E+10-1.81497E+08 1.81121E+09 1.93894E+06
 -1       644 5.24385E+10 4.38617E+06 1.99283E+10-1.83515E+08 1.78835E+09 1.98088E+06
 -1       645 5.08132E+10-1.44176E+07 1.93035E+10-1.87521E+08 1.76500E+09 2.02154E+06
 -1       646 4.91587E+10 2.20845E+06 1.86811E+10-1.90298E+08 1.74119E+09 2.06092E+06
 -1       647 4.74759E+10-2.93311E+05 1.80407E+10-1.94065E+08 1.71692E+09 2.09898E+06
 -1       648 4.57695E+10-5.60538E+06 1.73903E+10-1.97402E+08 1.69222E+09 2.13571E+06
 -1       649 4.40334E+10-5.19239E+06 1.67307E+10-1.99414E+08 1.66710E+09 2.17108E+06
 -1       650 4.22683E+10-6.32443E+04 1.60619E+10-2.02728E+08 1.64157E+09 2.20507E+06
 -1       651 4.04808E+10 5.84555E+05 1.53829E+10-2.06135E+08 1.61565E+09 2.23766E+06
 -1       652 3.86668E+10-8.56759E+06 1.46901E+10-2.08894E+08 1.58937E+09 2.26883E+06
 -1       653 3.68265E+10 6.06818E+05 1.39943E+10-2.11904E+08 1.56272E+09 2.29856E+06
 -1       654 3.49615E+10-9.40254E+05 1.32850E+10-2.14306E+08 1.53574E+09 2.32684E+06
 -1       655 3.30723E+10-3.62221E+06 1.25661E+10-2.17351E+08 1.50844E+09 2.35363E+06
 -1       656 3.11593E+10-6.25866E+06 1.18382E+10-2.20042E+08 1.48083E+09 2.37893E+06
 -1       657 2.92212E+10 1.10086E+06 1.11045E+10-2.22736E+08 1.45294E+09 2.40271E+06
 -1       658 2.72617E+10 1.06737E+06 1.03598E+10-2.25623E+08 1.42478E+09 2.42496E+06
 -1       659 2.52795E+10-6.43694E+06 9.60375E+09-2.27633E+08 1.39637E+09 2.44565E+06
 -1       660 2.32733E+10-2.25797E+06 8.84301E+09-2.30439E+08 1.36772E+09 2.46477E+06
 -1       661 2.12464E+10-1.39868E+06 8.07310E+09-2.32763E+08 1.33886E+09 2.48231E+06
 -1       662 1.91980E+10-4.98278E+05 7.29506E+09-2.35412E+08 1.30981E+09 2.49824E+06
 -1       663 1.71291E+10-4.67623E+06 6.50727E+09-2.37678E+08 1.28058E+09 2.51255E+06
 -1       664 1.50393E+10-7.57143E+05 5.71464E+09-2.40057E+08 1.25119E+09 2.52522E+06
 -1       665 1.29295E+10-1.25025E+06 4.91273E+09-2.42150E+08 1.22167E+09 2.53624E+06
 -1       666 1.08005E+10-2.82960E+06 4.10312E+09-2.44433E+08 1.19202E+09 2.54558E+06
 -1       667 8.65227E+09-1.97590E+06 3.28711E+09-2.46560E+08 1.16228E+09 2.55324E+06
 -1       668 6.48553E+09-1.55892E+06 2.46391E+09-2.48630E+08 1.13246E+09 2.55921E+06
 -1       669 4.30069E+09-1.44168E+06 1.63371E+09-2.50780E+08 1.10258E+09 2.56345E+06
 -1       670 2.09866E+09-2.01518E+06 7.96724E+08-2.52653E+08 1.07265E+09 2.56597E+06
 -1       671-1.21094E+08-1.65751E+06-4.66454E+07-2.54635E+08 1.04271E+09 2.56675E+06
 -1       672-2.35709E+09-1.68322E+06-8.96335E+08-2.56507E+08 1.01277E+09 2.56578E+06
 -1       673-4.60915E+09-1.75436E+06-1.75214E+09-2.58287E+08 9.82855E+08 2.56303E+06
 -1       674-6.87763E+09-6.28860E+05-2.61374E+09-2.59978E+08 9.52980E+08 2.55850E+06
 -1       675-9.16027E+09-2.13629E+06-3.48171E+09-2.61954E+08 9.23167E+08 2.55219E+06
 -1       676-1.14581E+10-2.00185E+06-4.35483E+09-2.63362E+08 8.93439E+08 2.54406E+06
 -1       677-1.37705E+10-9.16327E+05-5.23312E+09-2.65025E+08 8.63816E+08 2.53413E+06
 -1       678-1.60963E+10-1.27768E+05-6.11665E+09-2.66543E+08 8.34319E+08 2.52236E+06
 -1       679-1.84354E+10-2.29894E+06-7.00633E+09-2.67992E+08 8.04971E+08 2.50876E+06
 -1       680-2.07875E+10-2.97439E+06-7.90039E+09-2.69665E+08 7.75792E+08 2.49331E+06
 -1       681-2.31522E+10 2.50317E+06-8.79688E+09-2.70852E+08 7.46804E+08 2.47600E+06
 -1       682-2.55279E+10-3.29764E+06-9.70187E+09-2.72396E+08 7.18029E+08 2.45683E+06
 -1       683-2.79160E+10-2.73047E+06-1.06091E+10-2.73378E+08 6.89488E+08 2.43578E+06
 -1       684-3.03143E+10 2.12343E+06-1.15186E+10-2.74655E+08 6.61204E+08 2.41284E+06
 -1       685-3.27255E+10-2.68215E+05-1.24358E+10-2.75431E+08 6.33199E+08 2.38801E+06
 -1       686-3.51432E+10-4.68766E+06-1.33562E+10-2.77942E+08 6.05494E+08 2.36128E+06
 -1       687-3.75717E+10-2.35312E+06-1.42781E+10-2.77863E+08 5.78112E+08 2.33264E+06
 -1       688-4.00124E+10 5.90577E+06-1.52025E+10-2.79164E+08 5.51076E+08 2.30208E+06
 -1       689-4.24567E+10-5.27443E+06-1.61356E+10-2.80339E+08 5.24407E+08 2.26960E+06
 -1       690-4.49136E+10-2.66892E+06-1.70682E+10-2.80351E+08 4.98129E+08 2.23518E+06
 -1       691-4.73782E+10 2.09975E+06-1.80029E+10-2.82523E+08 4.72263E+08 2.19883E+06
 -1       692-4.98474E+10 1.31575E+06-1.89415E+10-2.82716E+08 4.46833E+08 2.16054E+06
 -1       693-5.23261E+10-2.40501E+06-1.98848E+10-2.83913E+08 4.21860E+08 2.12030E+06
 -1       694-5.48090E+10-4.72561E+06-2.08292E+10-2.84002E+08 3.97369E+08 2.07810E+06
 -1       695-5.73034E+10 2.76532E+06-2.17742E+10-2.84371E+08 3.73381E+08 2.03394E+06
 -1       696-5.98007E+10 2.53922E+06-2.27233E+10-2.86398E+08 3.49920E+08 1.98782E+06
 -1       697-6.22998E+10 3.83024E+05-2.36738E+10-2.86578E+08 3.27009E+08 1.93973E+06
 -1       698-6.48094E+10-9.52503E+06-2.46312E+10-2.86256E+08 3.04669E+08 1.88966E+06
 -1       699-6.73234E+10 6.20315E+06-2.55805E+10-2.87778E+08 2.82926E+08 1.83762E+06
 -1       700-6.98393E+10-1.43013E+06-2.65395E+10-2.87495E+08 2.61801E+08 1.78360E+06
 -1       701-7.23617E+10-4.54837E+06-2.74992E+10-2.88876E+08 2.41318E+08 1.72759E+06
 -1       702-7.48855E+10 2.48209E+06-2.84556E+10-2.88692E+08 2.21500E+08 1.66959E+06
 -1       703-7.74173E+10 5.76817E+06-2.94164E+10-2.89163E+08 2.02370E+08 1.60961E+06
 -1       704-7.99459E+10-6.05298E+06-3.03818E+10-2.90028E+08 1.83952E+08 1.54763E+06
 -1       705-8.24812E+10-3.93933E+06-3.13444E+10-2.89323E+08 1.66268E+08 1.48365E+06
 -1       706-8.50206E+10 2.71553E+06-3.23068E+10-2.89167E+08 1.49342E+08 1.41768E+06
 -1       707-8.75647E+10 7.99029E+06-3.32716E+10-2.91423E+08 1.33198E+08 1.34970E+06
 -1       708-9.00964E+10-9.06202E+06-3.42401E+10-2.91122E+08 1.17858E+08 1.27973E+06
 -1       709-9.26499E+10-2.62205E+06-3.52080E+10-2.90276E+08 1.03346E+08 1.20775E+06
 -1       710-9.51881E+10 7.34501E+06-3.61687E+10-2.90916E+08 8.96856E+07 1.13377E+06
 -1       711-9.77456E+10 5.35905E+06-3.71413E+10-2.90498E+08 7.68999E+07 1.05778E+06
 -1       712-1.00279E+11-1.84187E+07-3.81132E+10-2.91614E+08 6.50124E+07 9.79787E+05
 -1       713-1.02847E+11 9.15100E+06-3.90785E+10-2.91823E+08 5.40465E+07 8.99782E+05
 -1       714-1.05375E+11 7.42699E+05-4.00423E+10-2.91498E+08 4.40256E+07 8.17769E+05
 -1       715-1.07953E+11 8.66280E+06-4.10189E+10-2.91954E+08 3.49731E+07 7.33748E+05
 -1       716-1.10466E+11-2.54227E+07-4.19868E+10-2.89906E+08 2.69126E+07 6.47720E+05
 -1       717-1.13076E+11 1.81698E+07-4.29621E+10-2.93160E+08 1.98675E+07 5.59676E+05
 -1       718-1.15555E+11 6.98230E+07-4.38842E+10-2.90755E+08 1.38611E+07 4.69625E+05
 -1       719-1.18182E+11-3.98054E+08-4.50602E+10-2.97392E+08 8.91703E+06 3.77567E+05
 -1       720-1.20690E+11 1.55910E+09-4.52699E+10-2.67567E+08 5.05859E+06 2.83483E+05
 -1       721-1.23138E+11-5.78451E+09-4.89905E+10-3.80500E+08 2.30937E+06 1.87442E+05
 -1       722-1.26395E+11 2.12270E+10-3.99638E+10 3.70217E+07 6.92858E+05 8.91924E+04
 -1       723-1.28094E+11-7.84631E+10-7.84916E+10-1.51076E+09 1.70529E+05 3.94367E+04
 -1       724 9.18345E+06 4.87613E+06 5.34269E+06 9.03463E+03 3.04386E+09 5.25205E+06
 -1       725 3.26170E+07 4.79108E+06 1.42152E+07 5.55735E+06 3.01323E+09 5.25204E+06
 -1       726 1.04758E+08 4.78560E+06 4.16269E+07 1.09947E+07 2.95196E+09 5.25199E+06
 -1       727 2.24202E+08 4.57568E+06 8.69358E+07 1.63297E+07 2.89069E+09 5.25186E+06
 -1       728 3.89596E+08 4.64284E+06 1.49811E+08 2.15150E+07 2.82942E+09 5.25162E+06
 -1       729 6.00366E+08 4.09987E+06 2.29697E+08 2.66503E+07 2.76816E+09 5.25123E+06
 -1       730 8.54863E+08 4.86190E+06 3.26695E+08 3.16382E+07 2.70690E+09 5.25066E+06
 -1       731 1.15310E+09 3.73999E+06 4.39597E+08 3.64772E+07 2.64565E+09 5.24986E+06
 -1       732 1.49304E+09 4.45821E+06 5.69047E+08 4.13049E+07 2.58441E+09 5.24882E+06
 -1       733 1.87444E+09 3.96105E+06 7.13790E+08 4.58812E+07 2.52318E+09 5.24750E+06
 -1       734 2.29639E+09 3.46124E+06 8.73943E+08 5.04722E+07 2.46198E+09 5.24585E+06
 -1       735 2.75667E+09 4.71664E+06 1.04933E+09 5.50020E+07 2.40079E+09 5.24387E+06
 -1       736 3.25640E+09 3.36439E+06 1.23871E+09 5.90697E+07 2.33963E+09 5.24150E+06
 -1       737 3.79286E+09 2.90408E+06 1.44239E+09 6.36069E+07 2.27850E+09 5.23872E+06
 -1       738 4.36508E+09 4.43191E+06 1.66041E+09 6.73828E+07 2.21740E+09 5.23551E+06
 -1       739 4.97446E+09 3.88777E+06 1.89177E+09 7.14736E+07 2.15634E+09 5.23184E+06
 -1       740 5.61627E+09 1.47141E+06 2.13474E+09 7.56454E+07 2.09533E+09 5.22766E+06
 -1       741 6.29229E+09 5.89849E+06 2.39331E+09 7.89469E+07 2.03437E+09 5.22297E+06
 -1       742 7.00132E+09 9.88385E+05 2.66088E+09 8.29644E+07 1.97347E+09 5.21773E+06
 -1       743 7.74063E+09 4.36032E+06 2.94310E+09 8.61693E+07 1.91263E+09 5.21193E+06
 -1       744 8.51211E+09 2.39923E+06 3.23551E+09 8.97882E+07 1.85187E+09 5.20553E+06
 -1       745 9.31153E+09 1.40724E+06 3.53892E+09 9.33062E+07 1.79118E+09 5.19851E+06
 -1       746 1.01397E+10 6.13146E+06 3.85542E+09 9.62076E+07 1.73058E+09 5.19085E+06
 -1       747 1.09968E+10-4.95677E+05 4.17860E+09 9.94064E+07 1.67007E+09 5.18252E+06
 -1       748 1.18792E+10 4.33420E+06 4.51575E+09 1.02334E+08 1.60966E+09 5.17352E+06
 -1       749 1.27881E+10 1.76862E+06 4.86014E+09 1.05364E+08 1.54936E+09 5.16380E+06
 -1       750 1.37210E+10 2.42390E+06 5.21491E+09 1.08122E+08 1.48918E+09 5.15336E+06
 -1       751 1.46777E+10 3.45946E+06 5.57883E+09 1.10627E+08 1.42913E+09 5.14218E+06
 -1       752 1.56584E+10 1.23974E+06 5.95065E+09 1.13080E+08 1.36921E+09 5.13023E+06
 -1       753 1.66600E+10 9.40956E+05 6.33117E+09 1.15894E+08 1.30943E+09 5.11750E+06
 -1       754 1.76816E+10 3.18179E+06 6.72021E+09 1.18131E+08 1.24981E+09 5.10397E+06
 -1       755 1.87246E+10 3.26139E+06 7.11659E+09 1.20154E+08 1.19035E+09 5.08963E+06
 -1       756 1.97862E+10-1.20356E+06 7.51831E+09 1.22362E+08 1.13106E+09 5.07446E+06
 -1       757 2.08657E+10 3.78612E+06 7.93042E+09 1.24269E+08 1.07196E+09 5.05845E+06
 -1       758 2.19621E+10 8.75489E+05 8.34593E+09 1.26410E+08 1.01304E+09 5.04158E+06
 -1       759 2.30750E+10 2.07544E+06 8.76928E+09 1.27944E+08 9.54329E+08 5.02385E+06
 -1       760 2.42035E+10 8.40676E+05 9.19765E+09 1.29901E+08 8.95829E+08 5.00522E+06
 -1       761 2.53445E+10 1.44652E+06 9.63146E+09 1.31492E+08 8.37550E+08 4.98571E+06
 -1       762 2.65010E+10 3.09100E+06 1.00715E+10 1.32355E+08 7.79505E+08 4.96529E+06
 -1       763 2.76697E+10-5.15375E+05 1.05143E+10 1.34499E+08 7.21704E+08 4.94395E+06
 -1       764 2.88485E+10-5.89701E+05 1.09622E+10 1.35444E+08 6.64157E+08 4.92169E+06
 -1       765 3.00385E+10 2.50874E+06 1.14156E+10 1.36763E+08 6.06874E+08 4.89850E+06
 -1       766 3.12385E+10 3.48516E+06 1.18720E+10 1.37487E+08 5.49868E+08 4.87436E+06
 -1       767 3.24476E+10-4.17384E+06 1.23285E+10 1.38589E+08 4.93149E+08 4.84928E+06
 -1       768 3.36640E+10 3.43686E+06 1.27936E+10 1.39270E+08 4.36728E+08 4.82324E+06
 -1       769 3.48873E+10 2.07510E+06 1.32580E+10 1.40410E+08 3.80617E+08 4.79624E+06
 -1       770 3.61166E+10-8.72556E+05 1.37240E+10 1.40824E+08 3.24826E+08 4.76827E+06
 -1       771 3.73526E+10-1.91096E+06 1.41932E+10 1.41379E+08 2.69367E+08 4.73933E+06
 -1       772 3.85892E+10 2.06361E+05 1.46640E+10 1.42033E+08 2.14251E+08 4.70943E+06
 -1       773 3.98333E+10 5.74971E+06 1.51388E+10 1.41266E+08 1.59490E+08 4.67854E+06
 -1       774 4.10798E+10-4.66578E+06 1.56085E+10 1.43130E+08 1.05095E+08 4.64667E+06
 -1       775 4.23235E+10 1.77812E+06 1.60836E+10 1.42775E+08 5.10778E+07 4.61382E+06
 -1       776 4.35720E+10 1.96251E+06 1.65581E+10 1.42358E+08-2.55083E+06 4.57999E+06
 -1       777 4.48196E+10-1.97758E+06 1.70307E+10 1.42499E+08-5.57791E+07 4.54517E+06
 -1       778 4.60672E+10-3.02223E+06 1.75044E+10 1.41863E+08-1.08595E+08 4.50938E+06
 -1       779 4.73113E+10 2.02449E+06 1.79791E+10 1.42967E+08-1.60988E+08 4.47260E+06
 -1       780 4.85519E+10 2.90200E+06 1.84508E+10 1.41514E+08-2.12946E+08 4.43485E+06
 -1       781 4.97928E+10-3.17730E+06 1.89201E+10 1.41367E+08-2.64459E+08 4.39611E+06
 -1       782 5.10280E+10-3.97756E+06 1.93891E+10 1.40791E+08-3.15513E+08 4.35640E+06
 -1       783 5.22546E+10 2.68262E+06 1.98578E+10 1.40519E+08-3.66099E+08 4.31573E+06
 -1       784 5.34805E+10 3.62755E+06 2.03240E+10 1.38600E+08-4.16204E+08 4.27408E+06
 -1       785 5.46995E+10-8.95748E+06 2.07824E+10 1.39306E+08-4.65818E+08 4.23147E+06
 -1       786 5.59054E+10 4.01791E+05 2.12442E+10 1.38095E+08-5.14929E+08 4.18791E+06
 -1       787 5.71084E+10 4.66035E+06 2.17029E+10 1.36209E+08-5.63527E+08 4.14340E+06
 -1       788 5.83007E+10-3.75764E+04 2.21543E+10 1.36057E+08-6.11600E+08 4.09795E+06
 -1       789 5.94854E+10-9.20835E+06 2.26009E+10 1.33879E+08-6.59137E+08 4.05156E+06
 -1       790 6.06560E+10 2.69684E+06 2.30503E+10 1.34440E+08-7.06128E+08 4.00424E+06
 -1       791 6.18150E+10 4.94610E+06 2.34916E+10 1.31603E+08-7.52561E+08 3.95601E+06
 -1       792 6.29685E+10-1.26890E+07 2.39232E+10 1.30603E+08-7.98426E+08 3.90686E+06
 -1       793 6.41000E+10 5.23461E+06 2.43600E+10 1.29469E+08-8.43713E+08 3.85681E+06
 -1       794 6.52250E+10 1.55320E+06 2.47861E+10 1.26387E+08-8.88410E+08 3.80588E+06
 -1       795 6.63353E+10-5.60514E+06 2.52053E+10 1.26626E+08-9.32508E+08 3.75406E+06
 -1       796 6.74269E+10-4.84872E+06 2.56204E+10 1.24101E+08-9.75997E+08 3.70138E+06
 -1       797 6.85051E+10 1.91571E+06 2.60327E+10 1.22700E+08-1.01887E+09 3.64784E+06
 -1       798 6.95656E+10 2.22112E+06 2.64358E+10 1.19995E+08-1.06111E+09 3.59346E+06
 -1       799 7.06137E+10-4.22824E+06 2.68316E+10 1.17609E+08-1.10271E+09 3.53825E+06
 -1       800 7.16419E+10-1.19842E+07 2.72194E+10 1.17176E+08-1.14366E+09 3.48222E+06
 -1       801 7.26465E+10 6.70387E+06 2.76082E+10 1.14276E+08-1.18395E+09 3.42539E+06
 -1       802 7.36386E+10 8.51638E+06 2.79859E+10 1.12148E+08-1.22358E+09 3.36778E+06
 -1       803 7.46122E+10-1.99443E+07 2.83451E+10 1.09704E+08-1.26252E+09 3.30938E+06
 -1       804 7.55580E+10 7.08156E+06 2.87147E+10 1.07912E+08-1.30079E+09 3.25024E+06
 -1       805 7.64907E+10 1.13932E+05 2.90665E+10 1.03745E+08-1.33836E+09 3.19035E+06
 -1       806 7.74005E+10-6.12862E+06 2.94099E+10 1.03471E+08-1.37522E+09 3.12974E+06
 -1       807 7.82852E+10-5.98608E+06 2.97461E+10 1.00015E+08-1.41138E+09 3.06842E+06
 -1       808 7.91490E+10 2.02270E+05 3.00767E+10 9.78838E+07-1.44681E+09 3.00641E+06
 -1       809 7.99880E+10 6.47400E+06 3.03979E+10 9.43035E+07-1.48152E+09 2.94374E+06
 -1       810 8.08111E+10-1.67152E+07 3.07019E+10 9.10759E+07-1.51549E+09 2.88040E+06
 -1       811 8.16011E+10 4.13028E+06 3.10100E+10 9.07030E+07-1.54872E+09 2.81643E+06
 -1       812 8.23665E+10 3.07421E+06 3.13005E+10 8.58772E+07-1.58120E+09 2.75185E+06
 -1       813 8.31149E+10-7.65499E+06 3.15808E+10 8.34921E+07-1.61293E+09 2.68668E+06
 -1       814 8.38291E+10-1.22165E+07 3.18504E+10 8.03838E+07-1.64389E+09 2.62092E+06
 -1       815 8.45220E+10 6.87062E+06 3.21210E+10 7.65804E+07-1.67408E+09 2.55462E+06
 -1       816 8.51863E+10 6.14620E+06 3.23731E+10 7.54832E+07-1.70349E+09 2.48778E+06
 -1       817 8.58225E+10-1.26235E+07 3.26078E+10 7.11483E+07-1.73212E+09 2.42042E+06
 -1       818 8.64355E+10-7.48269E+06 3.28426E+10 6.80863E+07-1.75996E+09 2.35258E+06
 -1       819 8.70121E+10 2.72762E+06 3.30656E+10 6.53550E+07-1.78701E+09 2.28426E+06
 -1       820 8.75682E+10 4.02396E+06 3.32774E+10 6.00555E+07-1.81326E+09 2.21551E+06
 -1       821 8.80963E+10-1.81243E+07 3.34697E+10 5.92465E+07-1.83870E+09 2.14632E+06
 -1       822 8.85845E+10 6.24937E+06 3.36645E+10 5.53861E+07-1.86333E+09 2.07673E+06
 -1       823 8.90517E+10 7.82388E+05 3.38399E+10 5.08937E+07-1.88715E+09 2.00677E+06
 -1       824 8.94898E+10-8.50869E+06 3.40029E+10 4.79990E+07-1.91016E+09 1.93645E+06
 -1       825 8.98913E+10-7.12904E+06 3.41560E+10 4.44389E+07-1.93233E+09 1.86580E+06
 -1       826 9.02669E+10 7.88787E+05 3.43017E+10 4.04205E+07-1.95369E+09 1.79485E+06
 -1       827 9.06089E+10 3.49356E+06 3.44327E+10 3.79485E+07-1.97421E+09 1.72361E+06
 -1       828 9.09192E+10-1.37072E+07 3.45441E+10 3.36214E+07-1.99390E+09 1.65211E+06
 -1       829 9.12018E+10-4.76448E+06 3.46549E+10 2.96091E+07-2.01276E+09 1.58038E+06
 -1       830 9.14439E+10 7.83789E+06 3.47516E+10 2.74742E+07-2.03078E+09 1.50844E+06
 -1       831 9.16614E+10-1.70205E+06 3.48307E+10 2.10774E+07-2.04795E+09 1.43633E+06
 -1       832 9.18479E+10-1.81603E+07 3.48953E+10 1.99822E+07-2.06429E+09 1.36405E+06
 -1       833 9.19900E+10 6.09359E+06 3.49585E+10 1.56721E+07-2.07978E+09 1.29164E+06
 -1       834 9.21089E+10-9.69164E+04 3.50014E+10 1.08405E+07-2.09442E+09 1.21913E+06
 -1       835 9.21912E+10-7.16780E+06 3.50299E+10 7.42672E+06-2.10822E+09 1.14654E+06
 -1       836 9.22436E+10-9.34329E+06 3.50490E+10 2.64074E+06-2.12118E+09 1.07390E+06
 -1       837 9.22558E+10 6.73660E+05 3.50575E+10 1.44322E+06-2.13328E+09 1.00123E+06
 -1       838 9.22347E+10 6.01672E+06 3.50515E+10-4.73189E+06-2.14454E+09 9.28571E+05
 -1       839 9.21875E+10-2.01383E+07 3.50236E+10-8.00305E+06-2.15495E+09 8.55933E+05
 -1       840 9.20940E+10 5.96125E+06 3.49980E+10-1.15192E+07-2.16451E+09 7.83352E+05
 -1       841 9.19750E+10 2.31391E+06 3.49514E+10-1.74397E+07-2.17322E+09 7.10855E+05
 -1       842 9.18212E+10-1.66548E+07 3.48857E+10-1.88639E+07-2.18109E+09 6.38464E+05
 -1       843 9.16260E+10-1.46241E+06 3.48173E+10-2.44576E+07-2.18812E+09 5.66211E+05
 -1       844 9.14006E+10 5.91367E+06 3.47345E+10-2.67587E+07-2.19431E+09 4.94123E+05
 -1       845 9.11388E+10-5.45760E+06 3.46307E+10-3.24229E+07-2.19965E+09 4.22227E+05
 -1       846 9.08421E+10-5.45117E+06 3.45179E+10-3.59497E+07-2.20416E+09 3.50551E+05
 -1       847 9.05147E+10-1.00914E+07 3.43917E+10-4.09820E+07-2.20783E+09 2.79121E+05
 -1       848 9.01444E+10 6.85712E+05 3.42551E+10-4.22852E+07-2.21067E+09 2.07966E+05
 -1       849 8.97402E+10 5.61994E+06 3.41034E+10-4.85601E+07-2.21269E+09 1.37116E+05
 -1       850 8.93089E+10-1.96036E+07 3.39299E+10-5.20509E+07-2.21387E+09 6.65941E+04
 -1       851 8.88302E+10 5.43177E+06 3.37575E+10-5.55232E+07-2.21424E+09-3.56915E+03
 -1       852 8.83249E+10 7.40044E+05 3.35637E+10-6.16031E+07-2.21379E+09-7.33442E+04
 -1       853 8.77841E+10-9.64212E+06 3.33543E+10-6.30949E+07-2.21253E+09-1.42707E+05
 -1       854 8.72027E+10-5.89270E+06 3.31348E+10-6.81684E+07-2.21047E+09-2.11628E+05
 -1       855 8.65887E+10-6.23152E+06 3.29014E+10-7.17491E+07-2.20760E+09-2.80077E+05
 -1       856 8.59380E+10 9.96583E+06 3.26602E+10-7.71483E+07-2.20393E+09-3.48029E+05
 -1       857 8.52596E+10-1.32358E+07 3.23936E+10-8.06957E+07-2.19948E+09-4.15456E+05
 -1       858 8.45370E+10-2.67175E+06 3.21230E+10-8.27732E+07-2.19424E+09-4.82332E+05
 -1       859 8.37798E+10 3.42355E+06 3.18376E+10-8.87216E+07-2.18823E+09-5.48624E+05
 -1       860 8.29952E+10-9.14954E+06 3.15347E+10-9.21875E+07-2.18144E+09-6.14309E+05
 -1       861 8.21707E+10-8.79463E+06 3.12215E+10-9.61912E+07-2.17390E+09-6.79361E+05
 -1       862 8.13083E+10 2.63664E+06 3.08981E+10-9.96754E+07-2.16560E+09-7.43749E+05
 -1       863 8.04182E+10 3.15028E+05 3.05590E+10-1.05438E+08-2.15655E+09-8.07445E+05
 -1       864 7.94916E+10-8.49529E+06 3.02036E+10-1.07049E+08-2.14676E+09-8.70426E+05
 -1       865 7.85281E+10-6.48363E+06 2.98382E+10-1.11933E+08-2.13624E+09-9.32664E+05
 -1       866 7.75317E+10-1.03613E+06 2.94616E+10-1.15311E+08-2.12500E+09-9.94130E+05
 -1       867 7.65004E+10 4.34605E+06 2.90718E+10-1.20120E+08-2.11305E+09-1.05480E+06
 -1       868 7.54420E+10-1.47399E+07 2.86623E+10-1.24305E+08-2.10040E+09-1.11464E+06
 -1       869 7.43419E+10-2.61601E+06 2.82489E+10-1.26081E+08-2.08705E+09-1.17363E+06
 -1       870 7.32094E+10 5.53317E+06 2.78217E+10-1.31902E+08-2.07302E+09-1.23175E+06
 -1       871 7.20500E+10-4.49658E+06 2.73773E+10-1.34382E+08-2.05831E+09-1.28896E+06
 -1       872 7.08512E+10-1.08734E+07 2.69193E+10-1.38734E+08-2.04295E+09-1.34524E+06
 -1       873 6.96236E+10 3.30444E+05 2.64571E+10-1.42639E+08-2.02693E+09-1.40057E+06
 -1       874 6.83619E+10 2.64998E+06 2.59785E+10-1.45539E+08-2.01027E+09-1.45492E+06
 -1       875 6.70696E+10-1.33771E+07 2.54814E+10-1.49733E+08-1.99299E+09-1.50825E+06
 -1       876 6.57437E+10 1.47291E+06 2.49832E+10-1.52836E+08-1.97509E+09-1.56056E+06
 -1       877 6.43853E+10 1.47969E+06 2.44670E+10-1.57201E+08-1.95658E+09-1.61182E+06
 -1       878 6.30013E+10-7.61812E+06 2.39376E+10-1.61126E+08-1.93748E+09-1.66199E+06
 -1       879 6.15827E+10-6.84701E+06 2.33988E+10-1.63168E+08-1.91781E+09-1.71105E+06
 -1       880 6.01298E+10 1.54382E+06 2.28499E+10-1.67031E+08-1.89757E+09-1.75899E+06
 -1       881 5.86520E+10-5.62580E+05 2.22876E+10-1.71169E+08-1.87677E+09-1.80577E+06
 -1       882 5.71439E+10-5.72220E+06 2.17125E+10-1.74202E+08-1.85544E+09-1.85138E+06
 -1       883 5.56034E+10-8.87715E+06 2.11259E+10-1.77641E+08-1.83358E+09-1.89578E+06
 -1       884 5.40358E+10 2.48112E+06 2.05345E+10-1.81498E+08-1.81121E+09-1.93897E+06
 -1       885 5.24385E+10 4.38606E+06 1.99283E+10-1.83515E+08-1.78835E+09-1.98090E+06
 -1       886 5.08132E+10-1.44176E+07 1.93035E+10-1.87521E+08-1.76500E+09-2.02157E+06
 -1       887 4.91587E+10 2.20842E+06 1.86811E+10-1.90297E+08-1.74118E+09-2.06094E+06
 -1       888 4.74759E+10-2.93332E+05 1.80407E+10-1.94064E+08-1.71692E+09-2.09900E+06
 -1       889 4.57695E+10-5.60538E+06 1.73903E+10-1.97402E+08-1.69222E+09-2.13572E+06
 -1       890 4.40334E+10-5.19238E+06 1.67307E+10-1.99414E+08-1.66709E+09-2.17109E+06
 -1       891 4.22683E+10-6.32065E+04 1.60619E+10-2.02728E+08-1.64156E+09-2.20508E+06
 -1       892 4.04808E+10 5.84542E+05 1.53829E+10-2.06135E+08-1.61565E+09-2.23767E+06
 -1       893 3.86668E+10-8.56763E+06 1.46901E+10-2.08894E+08-1.58936E+09-2.26884E+06
 -1       894 3.68265E+10 6.06879E+05 1.39943E+10-2.11904E+08-1.56272E+09-2.29858E+06
 -1       895 3.49615E+10-9.40269E+05 1.32850E+10-2.14306E+08-1.53574E+09-2.32685E+06
 -1       896 3.30723E+10-3.62226E+06 1.25661E+10-2.17351E+08-1.50843E+09-2.35364E+06
 -1       897 3.11593E+10-6.25866E+06 1.18382E+10-2.20042E+08-1.48083E+09-2.37894E+06
 -1       898 2.92212E+10 1.10091E+06 1.11045E+10-2.22736E+08-1.45293E+09-2.40272E+06
 -1       899 2.72617E+10 1.06740E+06 1.03598E+10-2.25623E+08-1.42477E+09-2.42497E+06
 -1       900 2.52795E+10-6.43691E+06 9.60375E+09-2.27633E+08-1.39636E+09-2.44566E+06
 -1       901 2.32733E+10-2.25795E+06 8.84301E+09-2.30439E+08-1.36772E+09-2.46478E+06
 -1       902 2.12464E+10-1.39865E+06 8.07310E+09-2.32763E+08-1.33886E+09-2.48231E+06
 -1       903 1.91980E+10-4.98344E+05 7.29506E+09-2.35413E+08-1.30981E+09-2.49824E+06
 -1       904 1.71291E+10-4.67627E+06 6.50727E+09-2.37678E+08-1.28058E+09-2.51255E+06
 -1       905 1.50393E+10-7.57202E+05 5.71464E+09-2.40057E+08-1.25119E+09-2.52522E+06
 -1       906 1.29295E+10-1.25029E+06 4.91273E+09-2.42150E+08-1.22166E+09-2.53623E+06
 -1       907 1.08005E+10-2.82963E+06 4.10312E+09-2.44433E+08-1.19202E+09-2.54557E+06
 -1       908 8.65227E+09-1.97591E+06 3.28711E+09-2.46560E+08-1.16228E+09-2.55323E+06
 -1       909 6.48553E+09-1.55886E+06 2.46391E+09-2.48630E+08-1.13246E+09-2.55920E+06
 -1       910 4.30069E+09-1.44171E+06 1.63371E+09-2.50780E+08-1.10257E+09-2.56344E+06
 -1       911 2.09866E+09-2.01522E+06 7.96724E+08-2.52653E+08-1.07265E+09-2.56596E+06
 -1       912-1.21093E+08-1.65750E+06-4.66454E+07-2.54635E+08-1.04271E+09-2.56674E+06
 -1       913-2.35709E+09-1.68329E+06-8.96335E+08-2.56507E+08-1.01277E+09-2.56576E+06
 -1       914-4.60915E+09-1.75438E+06-1.75214E+09-2.58287E+08-9.82854E+08-2.56302E+06
 -1       915-6.87763E+09-6.28923E+05-2.61374E+09-2.59977E+08-9.52978E+08-2.55849E+06
 -1       916-9.16027E+09-2.13626E+06-3.48171E+09-2.61953E+08-9.23166E+08-2.55218E+06
 -1       917-1.14581E+10-2.00181E+06-4.35483E+09-2.63361E+08-8.93438E+08-2.54406E+06
 -1       918-1.37705E+10-9.16290E+05-5.23312E+09-2.65025E+08-8.63815E+08-2.53412E+06
 -1       919-1.60963E+10-1.27784E+05-6.11665E+09-2.66543E+08-8.34318E+08-2.52235E+06
 -1       920-1.84354E+10-2.29893E+06-7.00633E+09-2.67992E+08-8.04970E+08-2.50875E+06
 -1       921-2.07875E+10-2.97438E+06-7.90039E+09-2.69665E+08-7.75791E+08-2.49331E+06
 -1       922-2.31522E+10 2.50316E+06-8.79688E+09-2.70852E+08-7.46803E+08-2.47600E+06
 -1       923-2.55279E+10-3.29762E+06-9.70187E+09-2.72396E+08-7.18028E+08-2.45683E+06
 -1       924-2.79160E+10-2.73048E+06-1.06091E+10-2.73378E+08-6.89488E+08-2.43578E+06
 -1       925-3.03143E+10 2.12348E+06-1.15186E+10-2.74656E+08-6.61204E+08-2.41284E+06
 -1       926-3.27255E+10-2.68204E+05-1.24358E+10-2.75431E+08-6.33198E+08-2.38801E+06
 -1       927-3.51432E+10-4.68764E+06-1.33562E+10-2.77942E+08-6.05494E+08-2.36128E+06
 -1       928-3.75717E+10-2.35308E+06-1.42781E+10-2.77863E+08-5.78112E+08-2.33264E+06
 -1       929-4.00124E+10 5.90576E+06-1.52025E+10-2.79164E+08-5.51075E+08-2.30208E+06
 -1       930-4.24567E+10-5.27448E+06-1.61356E+10-2.80339E+08-5.24407E+08-2.26960E+06
 -1       931-4.49136E+10-2.66892E+06-1.70682E+10-2.80351E+08-4.98128E+08-2.23519E+06
 -1       932-4.73782E+10 2.09976E+06-1.80029E+10-2.82523E+08-4.72263E+08-2.19884E+06
 -1       933-4.98474E+10 1.31574E+06-1.89415E+10-2.82716E+08-4.46832E+08-2.16054E+06
 -1       934-5.23261E+10-2.40499E+06-1.98848E+10-2.83913E+08-4.21860E+08-2.12030E+06
 -1       935-5.48090E+10-4.72560E+06-2.08292E+10-2.84002E+08-3.97368E+08-2.07810E+06
 -1       936-5.73034E+10 2.76532E+06-2.17742E+10-2.84371E+08-3.73381E+08-2.03395E+06
 -1       937-5.98007E+10 2.53923E+06-2.27233E+10-2.86398E+08-3.49920E+08-1.98782E+06
 -1       938-6.22998E+10 3.83025E+05-2.36738E+10-2.86578E+08-3.27008E+08-1.93973E+06
 -1       939-6.48094E+10-9.52504E+06-2.46312E+10-2.86256E+08-3.04669E+08-1.88967E+06
 -1       940-6.73234E+10 6.20317E+06-2.55805E+10-2.87778E+08-2.82925E+08-1.83762E+06
 -1       941-6.98393E+10-1.43012E+06-2.65395E+10-2.87495E+08-2.61801E+08-1.78360E+06
 -1       942-7.23617E+10-4.54838E+06-2.74992E+10-2.88876E+08-2.41318E+08-1.72759E+06
 -1       943-7.48855E+10 2.48209E+06-2.84556E+10-2.88692E+08-2.21500E+08-1.66959E+06
 -1       944-7.74173E+10 5.76816E+06-2.94164E+10-2.89163E+08-2.02370E+08-1.60961E+06
 -1       945-7.99459E+10-6.05298E+06-3.03818E+10-2.90028E+08-1.83951E+08-1.54763E+06
 -1       946-8.24812E+10-3.93934E+06-3.13444E+10-2.89323E+08-1.66268E+08-1.48365E+06
 -1       947-8.50206E+10 2.71552E+06-3.23068E+10-2.89166E+08-1.49342E+08-1.41768E+06
 -1       948-8.75647E+10 7.99028E+06-3.32716E+10-2.91423E+08-1.33197E+08-1.34970E+06
 -1       949-9.00964E+10-9.06202E+06-3.42401E+10-2.91122E+08-1.17858E+08-1.27973E+06
 -1       950-9.26499E+10-2.62205E+06-3.52080E+10-2.90276E+08-1.03346E+08-1.20775E+06
 -1       951-9.51881E+10 7.34500E+06-3.61687E+10-2.90916E+08-8.96853E+07-1.13377E+06
 -1       952-9.77456E+10 5.35906E+06-3.71413E+10-2.90498E+08-7.68997E+07-1.05778E+06
 -1       953-1.00279E+11-1.84187E+07-3.81132E+10-2.91614E+08-6.50122E+07-9.79786E+05
 -1       954-1.02847E+11 9.15099E+06-3.90785E+10-2.91823E+08-5.40463E+07-8.99781E+05
 -1       955-1.05375E+11 7.42692E+05-4.00423E+10-2.91498E+08-4.40254E+07-8.17768E+05
 -1       956-1.07953E+11 8.66279E+06-4.10189E+10-2.91954E+08-3.49730E+07-7.33747E+05
 -1       957-1.10466E+11-2.54227E+07-4.19868E+10-2.89906E+08-2.69125E+07-6.47719E+05
 -1       958-1.13076E+11 1.81698E+07-4.29621E+10-2.93160E+08-1.98674E+07-5.59675E+05
 -1       959-1.15555E+11 6.98230E+07-4.38842E+10-2.90755E+08-1.38611E+07-4.69624E+05
 -1       960-1.18182E+11-3.98054E+08-4.50602E+10-2.97392E+08-8.91699E+06-3.77566E+05
 -1       961-1.20690E+11 1.55910E+09-4.52699E+10-2.67567E+08-5.05857E+06-2.83482E+05
 -1       962-1.23138E+11-5.78451E+09-4.89905E+10-3.80500E+08-2.30936E+06-1.87441E+05
 -1       963-1.26395E+11 2.12270E+10-3.99638E+10 3.70217E+07-6.92855E+05-8.91921E+04
 -1       964-1.28094E+11-7.84631E+10-7.84916E+10-1.51076E+09-1.70529E+05-3.94365E+04
 -1       965 7.65160E+02 4.48471E+02 4.61615E+02 7.43282E+05-3.04387E+09-4.28183E+02
 -1       966 2.53525E+03 3.07793E+02 1.07346E+03 7.59977E+06-3.01323E+09-4.28179E+02
 -1       967 8.39876E+03 4.25603E+02 3.34786E+03 1.51415E+07-2.95196E+09-4.28165E+02
 -1       968 1.79488E+04 3.15183E+02 6.94754E+03 2.23992E+07-2.89069E+09-4.28153E+02
 -1       969 3.11394E+04 3.47578E+02 1.19670E+04 2.96455E+07-2.82942E+09-4.28141E+02
 -1       970 4.80714E+04 4.17036E+02 1.84273E+04 3.65870E+07-2.76816E+09-4.28111E+02
 -1       971 6.83911E+04 3.23174E+02 2.61228E+04 4.34529E+07-2.70690E+09-4.28064E+02
 -1       972 9.22026E+04 2.96721E+02 3.51555E+04 5.02660E+07-2.64565E+09-4.28003E+02
 -1       973 1.19480E+05 3.77481E+02 4.55477E+04 5.66293E+07-2.58441E+09-4.27915E+02
 -1       974 1.49950E+05 3.67642E+02 5.71184E+04 6.32651E+07-2.52319E+09-4.27803E+02
 -1       975 1.83691E+05 3.11344E+02 6.99154E+04 6.93304E+07-2.46198E+09-4.27668E+02
 -1       976 2.20503E+05 2.95954E+02 8.39051E+04 7.53625E+07-2.40079E+09-4.27503E+02
 -1       977 2.60512E+05 3.36726E+02 9.91234E+04 8.16773E+07-2.33963E+09-4.27308E+02
 -1       978 3.03329E+05 2.36229E+02 1.15352E+05 8.69274E+07-2.27850E+09-4.27080E+02
 -1       979 3.49207E+05 2.99686E+02 1.32815E+05 9.29936E+07-2.21740E+09-4.26816E+02
 -1       980 3.97898E+05 2.46352E+02 1.51301E+05 9.85008E+07-2.15635E+09-4.26513E+02
 -1       981 4.49172E+05 1.91352E+02 1.70757E+05 1.03250E+08-2.09534E+09-4.26172E+02
 -1       982 5.03427E+05 3.35784E+02 1.91431E+05 1.09118E+08-2.03438E+09-4.25791E+02
 -1       983 5.59967E+05 1.90273E+02 2.12866E+05 1.13768E+08-1.97348E+09-4.25369E+02
 -1       984 6.19223E+05 2.76373E+02 2.35411E+05 1.18731E+08-1.91264E+09-4.24899E+02
 -1       985 6.80881E+05 2.30895E+02 2.58830E+05 1.23718E+08-1.85187E+09-4.24379E+02
 -1       986 7.44868E+05 2.91632E+02 2.83173E+05 1.27422E+08-1.79119E+09-4.23810E+02
 -1       987 8.11107E+05 1.79558E+02 3.08290E+05 1.32780E+08-1.73058E+09-4.23190E+02
 -1       988 8.79601E+05 1.69843E+02 3.34310E+05 1.36628E+08-1.67008E+09-4.22520E+02
 -1       989 9.50204E+05 1.64828E+02 3.61141E+05 1.40797E+08-1.60967E+09-4.21796E+02
 -1       990 1.02297E+06 1.77746E+02 3.88800E+05 1.44775E+08-1.54937E+09-4.21014E+02
 -1       991 1.09754E+06 1.91909E+02 4.17138E+05 1.48337E+08-1.48919E+09-4.20173E+02
 -1       992 1.17411E+06 1.78554E+02 4.46228E+05 1.52433E+08-1.42913E+09-4.19269E+02
 -1       993 1.25250E+06 1.31849E+02 4.76000E+05 1.55920E+08-1.36921E+09-4.18306E+02
 -1       994 1.33262E+06 1.45326E+02 5.06451E+05 1.58850E+08-1.30944E+09-4.17285E+02
 -1       995 1.41443E+06 1.63454E+02 5.37547E+05 1.62031E+08-1.24982E+09-4.16196E+02
 -1       996 1.49785E+06 2.04384E+02 5.69261E+05 1.65666E+08-1.19036E+09-4.15043E+02
 -1       997 1.58267E+06 1.22167E+02 6.01457E+05 1.68160E+08-1.13107E+09-4.13824E+02
 -1       998 1.66913E+06 1.24192E+02 6.34318E+05 1.71091E+08-1.07196E+09-4.12535E+02
 -1       999 1.75680E+06 1.32713E+02 6.67640E+05 1.73541E+08-1.01305E+09-4.11182E+02
 -1      1000 1.84585E+06 1.89652E+02 7.01495E+05 1.76162E+08-9.54336E+08-4.09765E+02
 -1      1001 1.93609E+06 7.12438E+01 7.35738E+05 1.78410E+08-8.95835E+08-4.08279E+02
 -1      1002 2.02736E+06 1.49612E+02 7.70450E+05 1.80150E+08-8.37557E+08-4.06717E+02
 -1      1003 2.11991E+06 7.31643E+01 8.05593E+05 1.83442E+08-7.79512E+08-4.05083E+02
 -1      1004 2.21338E+06 7.34873E+01 8.41114E+05 1.84002E+08-7.21710E+08-4.03380E+02
 -1      1005 2.30760E+06 1.67681E+02 8.76949E+05 1.86304E+08-6.64163E+08-4.01607E+02
 -1      1006 2.40294E+06 4.95772E+01 9.13129E+05 1.87383E+08-6.06880E+08-3.99756E+02
 -1      1007 2.49887E+06 2.73853E+01 9.49582E+05 1.89732E+08-5.49874E+08-3.97825E+02
 -1      1008 2.59548E+06 1.59797E+02 9.86344E+05 1.90522E+08-4.93155E+08-3.95820E+02
 -1      1009 2.69291E+06-1.84573E+00 1.02330E+06 1.91755E+08-4.36734E+08-3.93742E+02
 -1      1010 2.79075E+06 1.25467E+01 1.06049E+06 1.92759E+08-3.80623E+08-3.91590E+02
 -1      1011 2.88902E+06 7.10431E+01 1.09785E+06 1.93607E+08-3.24832E+08-3.89357E+02
 -1      1012 2.98788E+06 2.75563E+01 1.13541E+06 1.94546E+08-2.69372E+08-3.87042E+02
 -1      1013 3.08688E+06 1.06291E+02 1.17305E+06 1.94178E+08-2.14256E+08-3.84656E+02
 -1      1014 3.18648E+06 1.80004E+01 1.21086E+06 1.96915E+08-1.59495E+08-3.82192E+02
 -1      1015 3.28599E+06-6.68936E+01 1.24865E+06 1.94939E+08-1.05100E+08-3.79641E+02
 -1      1016 3.38555E+06 1.03284E+02 1.28655E+06 1.95566E+08-5.10827E+07-3.77014E+02
 -1      1017 3.48550E+06-7.98600E+01 1.32446E+06 1.96667E+08 2.54598E+06-3.74313E+02
 -1      1018 3.58516E+06 2.27527E+01 1.36237E+06 1.95826E+08 5.57745E+07-3.71530E+02
 -1      1019 3.68496E+06-3.93439E+00 1.40028E+06 1.96574E+08 1.08591E+08-3.68670E+02
 -1      1020 3.78463E+06-6.29702E+01 1.43813E+06 1.93965E+08 1.60984E+08-3.65731E+02
 -1      1021 3.88385E+06 2.10223E+01 1.47587E+06 1.95795E+08 2.12942E+08-3.62711E+02
 -1      1022 3.98300E+06-1.73453E+01 1.51353E+06 1.94267E+08 2.64455E+08-3.59615E+02
 -1      1023 4.08177E+06-4.62245E+01 1.55105E+06 1.93761E+08 3.15510E+08-3.56447E+02
 -1      1024 4.18006E+06 1.86024E+01 1.58843E+06 1.91864E+08 3.66095E+08-3.53195E+02
 -1      1025 4.27813E+06-9.38536E+01 1.62565E+06 1.93480E+08 4.16201E+08-3.49860E+02
 -1      1026 4.37537E+06-1.04549E+02 1.66260E+06 1.89826E+08 4.65815E+08-3.46454E+02
 -1      1027 4.47196E+06 8.14143E+00 1.69934E+06 1.88680E+08 5.14926E+08-3.42971E+02
 -1      1028 4.56842E+06-1.59448E+02 1.73594E+06 1.89120E+08 5.63524E+08-3.39414E+02
 -1      1029 4.66362E+06-5.38780E+01 1.77216E+06 1.86263E+08 6.11597E+08-3.35778E+02
 -1      1030 4.75819E+06-1.64943E+01 1.80811E+06 1.86283E+08 6.59134E+08-3.32068E+02
 -1      1031 4.85216E+06-1.72767E+02 1.84375E+06 1.81215E+08 7.06124E+08-3.28295E+02
 -1      1032 4.94479E+06-6.50556E+01 1.87899E+06 1.82792E+08 7.52557E+08-3.24441E+02
 -1      1033 5.03682E+06-1.22489E+02 1.91395E+06 1.79462E+08 7.98422E+08-3.20509E+02
 -1      1034 5.12756E+06-5.75450E+01 1.94845E+06 1.76356E+08 8.43709E+08-3.16512E+02
 -1      1035 5.21765E+06-2.03372E+02 1.98262E+06 1.77535E+08 8.88406E+08-3.12436E+02
 -1      1036 5.30618E+06-8.48289E+01 2.01632E+06 1.71721E+08 9.32504E+08-3.08292E+02
 -1      1037 5.39362E+06-7.45730E+01 2.04955E+06 1.70986E+08 9.75993E+08-3.04084E+02
 -1      1038 5.47993E+06-1.49129E+02 2.08231E+06 1.67096E+08 1.01886E+09-2.99800E+02
 -1      1039 5.56485E+06-1.13530E+02 2.11460E+06 1.66517E+08 1.06110E+09-2.95460E+02
 -1      1040 5.64845E+06-1.91836E+02 2.14633E+06 1.63823E+08 1.10270E+09-2.91053E+02
 -1      1041 5.73061E+06-7.05300E+01 2.17760E+06 1.58993E+08 1.14365E+09-2.86576E+02
 -1      1042 5.81134E+06-2.31163E+02 2.20822E+06 1.56158E+08 1.18395E+09-2.82039E+02
 -1      1043 5.89086E+06-6.57780E+01 2.23850E+06 1.55184E+08 1.22357E+09-2.77434E+02
 -1      1044 5.96792E+06-2.61003E+02 2.26770E+06 1.50978E+08 1.26252E+09-2.72766E+02
 -1      1045 6.04433E+06 9.01729E+01 2.29688E+06 1.46463E+08 1.30078E+09-2.68039E+02
 -1      1046 6.11862E+06-4.84852E+02 2.32488E+06 1.46959E+08 1.33835E+09-2.63254E+02
 -1      1047 6.19154E+06 6.82035E+01 2.35281E+06 1.39492E+08 1.37522E+09-2.58407E+02
 -1      1048 6.26184E+06-3.51151E+02 2.37936E+06 1.37993E+08 1.41137E+09-2.53505E+02
 -1      1049 6.33174E+06-1.53432E+01 2.40606E+06 1.32711E+08 1.44681E+09-2.48546E+02
 -1      1050 6.39818E+06-4.00387E+02 2.43116E+06 1.31386E+08 1.48152E+09-2.43531E+02
 -1      1051 6.46446E+06 1.34292E+02 2.45655E+06 1.27905E+08 1.51549E+09-2.38467E+02
 -1      1052 6.52704E+06-6.27786E+02 2.48004E+06 1.19965E+08 1.54872E+09-2.33353E+02
 -1      1053 6.58954E+06 3.96164E+02 2.50417E+06 1.20422E+08 1.58120E+09-2.28182E+02
 -1      1054 6.64760E+06-1.00328E+03 2.52571E+06 1.14570E+08 1.61292E+09-2.22959E+02
 -1      1055 6.70635E+06 7.92469E+02 2.54871E+06 1.10576E+08 1.64388E+09-2.17704E+02
 -1      1056 6.76032E+06-1.25815E+03 2.56844E+06 1.06840E+08 1.67407E+09-2.12408E+02
 -1      1057 6.81579E+06 8.33450E+02 2.59032E+06 1.01987E+08 1.70349E+09-2.07059E+02
 -1      1058 6.86333E+06-1.47220E+03 2.60751E+06 9.82028E+07 1.73212E+09-2.01669E+02
 -1      1059 6.91588E+06 1.43602E+03 2.62858E+06 9.37026E+07 1.75996E+09-1.96239E+02
 -1      1060 6.95826E+06-2.29565E+03 2.64327E+06 8.76365E+07 1.78701E+09-1.90766E+02
 -1      1061 7.00754E+06 2.26472E+03 2.66373E+06 8.75627E+07 1.81325E+09-1.85260E+02
 -1      1062 7.04360E+06-3.19686E+03 2.67536E+06 7.85039E+07 1.83870E+09-1.79722E+02
 -1      1063 7.09004E+06 3.31357E+03 2.69547E+06 7.42921E+07 1.86333E+09-1.74157E+02
 -1      1064 7.11903E+06-4.39429E+03 2.70356E+06 7.22702E+07 1.88715E+09-1.68557E+02
 -1      1065 7.16383E+06 4.57093E+03 2.72400E+06 6.56911E+07 1.91015E+09-1.62922E+02
 -1      1066 7.18386E+06-5.92307E+03 2.72762E+06 6.11862E+07 1.93233E+09-1.57262E+02
 -1      1067 7.22873E+06 6.48867E+03 2.74939E+06 5.64305E+07 1.95368E+09-1.51577E+02
 -1      1068 7.23866E+06-8.42505E+03 2.74750E+06 5.12284E+07 1.97421E+09-1.45873E+02
 -1      1069 7.28398E+06 9.43513E+03 2.77151E+06 4.64458E+07 1.99390E+09-1.40147E+02
 -1      1070 7.28162E+06-1.15253E+04 2.76264E+06 4.16249E+07 2.01275E+09-1.34388E+02
 -1      1071 7.33173E+06 1.29148E+04 2.79098E+06 3.45578E+07 2.03077E+09-1.28613E+02
 -1      1072 7.31207E+06-1.56551E+04 2.77265E+06 3.43010E+07 2.04795E+09-1.22826E+02
 -1      1073 7.37118E+06 1.74584E+04 2.80770E+06 2.43885E+07 2.06428E+09-1.17018E+02
 -1      1074 7.32908E+06-2.07706E+04 2.77717E+06 1.96583E+07 2.07977E+09-1.11199E+02
 -1      1075 7.40383E+06 2.42252E+04 2.82268E+06 1.72225E+07 2.09442E+09-1.05374E+02
 -1      1076 7.33163E+06-3.09487E+04 2.77428E+06 9.78631E+06 2.10822E+09-9.95381E+01
 -1      1077 7.42840E+06 4.22132E+04 2.83885E+06 6.94590E+06 2.12117E+09-9.36948E+01
 -1      1078 7.32630E+06-7.01635E+04 2.75735E+06-3.58019E+06 2.13327E+09-8.78445E+01
 -1      1079 7.42350E+06 1.36999E+05 2.87300E+06-3.54677E+06 2.14453E+09-8.20017E+01
 -1      1080 7.37184E+06-3.00954E+05 2.68695E+06-1.14591E+07 2.15494E+09-7.61201E+01
 -1      1081 7.48148E+06 6.26504E+05 3.08106E+06-1.78577E+07 2.16450E+09-6.35736E+01
 -1      1082 7.23182E+06-6.05161E+05 2.51815E+06-1.90057E+07 2.17322E+09-4.49328E+01
 -1      1083 7.35916E+06 2.72081E+05 2.89989E+06-2.92067E+07 2.18109E+09-3.43634E+01
 -1      1084 7.28264E+06-1.30282E+05 2.71792E+06-3.23390E+07 2.18812E+09-3.13093E+01
 -1      1085 7.36346E+06 7.10387E+04 2.82513E+06-3.96652E+07 2.19430E+09-2.82365E+01
 -1      1086 7.24224E+06-4.44156E+04 2.73520E+06-4.25007E+07 2.19965E+09-2.51704E+01
 -1      1087 7.30784E+06 3.29748E+04 2.78954E+06-4.95783E+07 2.20416E+09-2.21158E+01
 -1      1088 7.20609E+06-2.81817E+04 2.72764E+06-5.32712E+07 2.20783E+09-1.90766E+01
 -1      1089 7.24004E+06 2.14724E+04 2.75940E+06-6.33410E+07 2.21067E+09-1.60409E+01
 -1      1090 7.15381E+06-1.56954E+04 2.71250E+06-6.42592E+07 2.21268E+09-1.30183E+01
 -1      1091 7.16469E+06 1.20313E+04 2.72717E+06-7.14672E+07 2.21387E+09-1.00148E+01
 -1      1092 7.08855E+06-1.06259E+04 2.68963E+06-7.87738E+07 2.21424E+09-7.02301E+00
 -1      1093 7.07927E+06 1.07681E+04 2.69423E+06-7.94600E+07 2.21379E+09-4.04238E+00
 -1      1094 7.01100E+06-1.14573E+04 2.65985E+06-9.00878E+07 2.21253E+09-1.08165E+00
 -1      1095 6.98485E+06 8.58350E+03 2.65753E+06-9.30831E+07 2.21046E+09 1.85795E+00
 -1      1096 6.91847E+06-7.12655E+03 2.62634E+06-1.00753E+08 2.20760E+09 4.77808E+00
 -1      1097 6.88055E+06 8.06477E+03 2.61770E+06-1.03322E+08 2.20393E+09 7.67554E+00
 -1      1098 6.81530E+06-8.20345E+03 2.58673E+06-1.09158E+08 2.19948E+09 1.05509E+01
 -1      1099 6.76686E+06 4.36763E+03 2.57309E+06-1.18343E+08 2.19424E+09 1.34133E+01
 -1      1100 6.69749E+06-1.75674E+03 2.54440E+06-1.19758E+08 2.18823E+09 1.62460E+01
 -1      1101 6.64241E+06 1.63864E+03 2.52476E+06-1.26904E+08 2.18145E+09 1.90517E+01
 -1      1102 6.57049E+06-3.53176E+03 2.49547E+06-1.32148E+08 2.17390E+09 2.18336E+01
 -1      1103 6.50587E+06 3.63798E+03 2.47364E+06-1.38937E+08 2.16560E+09 2.45819E+01
 -1      1104 6.43104E+06-1.86548E+03 2.44312E+06-1.40488E+08 2.15655E+09 2.73079E+01
 -1      1105 6.36072E+06-4.08603E+02 2.41695E+06-1.49998E+08 2.14676E+09 3.00064E+01
 -1      1106 6.28002E+06-6.62123E+02 2.38619E+06-1.53471E+08 2.13625E+09 3.26723E+01
 -1      1107 6.20320E+06 5.65049E+02 2.35746E+06-1.60314E+08 2.12501E+09 3.53075E+01
 -1      1108 6.11796E+06 1.39210E+03 2.32539E+06-1.63460E+08 2.11306E+09 3.79029E+01
 -1      1109 6.03615E+06-2.36227E+03 2.29287E+06-1.68536E+08 2.10040E+09 4.04655E+01
 -1      1110 5.94603E+06-3.26770E+02 2.25940E+06-1.77476E+08 2.08705E+09 4.29967E+01
 -1      1111 5.85643E+06 1.93386E+03 2.22621E+06-1.78633E+08 2.07302E+09 4.54885E+01
 -1      1112 5.76335E+06-1.93022E+03 2.18937E+06-1.85811E+08 2.05832E+09 4.79452E+01
 -1      1113 5.66755E+06 8.21546E+02 2.15401E+06-1.90376E+08 2.04295E+09 5.03671E+01
 -1      1114 5.56922E+06-8.28171E+02 2.11602E+06-1.95611E+08 2.02694E+09 5.27479E+01
 -1      1115 5.46868E+06 4.57856E+02 2.07830E+06-2.00824E+08 2.01028E+09 5.50853E+01
 -1      1116 5.36482E+06-1.06036E+03 2.03825E+06-2.05481E+08 1.99300E+09 5.73767E+01
 -1      1117 5.25918E+06 2.65883E+02 1.99861E+06-2.11745E+08 1.97510E+09 5.96216E+01
 -1      1118 5.14982E+06 1.33672E+03 1.95746E+06-2.14675E+08 1.95659E+09 6.18236E+01
 -1      1119 5.03998E+06-1.31288E+03 1.91472E+06-2.19602E+08 1.93749E+09 6.39918E+01
 -1      1120 4.92630E+06-1.45467E+03 1.87147E+06-2.26294E+08 1.91782E+09 6.61116E+01
 -1      1121 4.80963E+06 1.37060E+03 1.82821E+06-2.30857E+08 1.89758E+09 6.81747E+01
 -1      1122 4.69159E+06 1.65825E+02 1.78289E+06-2.33849E+08 1.87678E+09 7.01953E+01
 -1      1123 4.57128E+06-9.15904E+02 1.73677E+06-2.39710E+08 1.85545E+09 7.21718E+01
 -1      1124 4.44751E+06 2.20982E+02 1.69017E+06-2.44137E+08 1.83359E+09 7.40942E+01
 -1      1125 4.32264E+06-2.88342E+02 1.64253E+06-2.48603E+08 1.81122E+09 7.59621E+01
 -1      1126 4.19475E+06 7.52347E+00 1.59404E+06-2.53300E+08 1.78836E+09 7.77761E+01
 -1      1127 4.06454E+06-6.31947E+02 1.54432E+06-2.57582E+08 1.76501E+09 7.95370E+01
 -1      1128 3.93229E+06 9.79197E+01 1.49434E+06-2.62788E+08 1.74120E+09 8.12462E+01
 -1      1129 3.79744E+06 9.55622E+02 1.44343E+06-2.65711E+08 1.71693E+09 8.29046E+01
 -1      1130 3.66134E+06-1.05862E+03 1.39094E+06-2.70042E+08 1.69223E+09 8.45097E+01
 -1      1131 3.52251E+06-9.38337E+02 1.33823E+06-2.75560E+08 1.66711E+09 8.60555E+01
 -1      1132 3.38085E+06 8.86021E+02 1.28510E+06-2.79547E+08 1.64158E+09 8.75548E+01
 -1      1133 3.23812E+06 1.18864E+02 1.23057E+06-2.82450E+08 1.61566E+09 8.89911E+01
 -1      1134 3.09300E+06-6.08699E+02 1.17515E+06-2.87254E+08 1.58938E+09 9.03632E+01
 -1      1135 2.94581E+06 2.85278E+01 1.11946E+06-2.90999E+08 1.56273E+09 9.16808E+01
 -1      1136 2.79667E+06-2.14872E+02 1.06269E+06-2.95038E+08 1.53575E+09 9.29337E+01
 -1      1137 2.64540E+06 1.34235E+02 1.00534E+06-2.98704E+08 1.50845E+09 9.41303E+01
 -1      1138 2.49251E+06-6.47005E+02 9.46954E+05-3.02524E+08 1.48084E+09 9.52677E+01
 -1      1139 2.33730E+06 5.87239E+02 8.88438E+05-3.06632E+08 1.45295E+09 9.63430E+01
 -1      1140 2.18074E+06-1.34136E+02 8.28677E+05-3.08962E+08 1.42479E+09 9.73584E+01
 -1      1141 2.02216E+06-6.61455E+02 7.68217E+05-3.13816E+08 1.39638E+09 9.83071E+01
 -1      1142 1.86154E+06 1.26680E+02 7.07480E+05-3.16701E+08 1.36773E+09 9.91842E+01
 -1      1143 1.69949E+06-5.83918E+01 6.45832E+05-3.20503E+08 1.33888E+09 9.99988E+01
 -1      1144 1.53558E+06 1.74357E+02 5.83635E+05-3.23230E+08 1.30982E+09 1.00752E+02
 -1      1145 1.37015E+06-3.69801E+02 5.20562E+05-3.26780E+08 1.28059E+09 1.01430E+02
 -1      1146 1.20295E+06 5.21303E+00 4.57166E+05-3.29941E+08 1.25121E+09 1.02040E+02
 -1      1147 1.03423E+06-9.40165E+01 3.93011E+05-3.33010E+08 1.22168E+09 1.02581E+02
 -1      1148 8.63830E+05-3.78892E+01 3.28281E+05-3.36073E+08 1.19204E+09 1.03054E+02
 -1      1149 6.92070E+05-1.73218E+02 2.62967E+05-3.38977E+08 1.16229E+09 1.03458E+02
 -1      1150 5.18672E+05-9.53904E+00 1.97140E+05-3.41999E+08 1.13247E+09 1.03784E+02
 -1      1151 3.43970E+05-1.25572E+01 1.30746E+05-3.44531E+08 1.10259E+09 1.04041E+02
 -1      1152 1.67807E+05-1.88547E+02 6.37335E+04-3.47461E+08 1.07267E+09 1.04225E+02
 -1      1153-9.77648E+03-3.92537E+01-3.68920E+03-3.50047E+08 1.04273E+09 1.04333E+02
 -1      1154-1.88622E+05-3.65743E+01-7.16477E+04-3.52673E+08 1.01279E+09 1.04361E+02
 -1      1155-3.68728E+05-2.18473E+02-1.40160E+05-3.55113E+08 9.82868E+08 1.04315E+02
 -1      1156-5.50265E+05 1.61331E+02-2.08999E+05-3.57693E+08 9.52992E+08 1.04199E+02
 -1      1157-7.32841E+05-9.39375E+01-2.78477E+05-3.59595E+08 9.23180E+08 1.04002E+02
 -1      1158-9.16574E+05-2.79793E+02-3.48368E+05-3.62425E+08 8.93451E+08 1.03726E+02
 -1      1159-1.10165E+06 1.22703E+02-4.18540E+05-3.64326E+08 8.63828E+08 1.03377E+02
 -1      1160-1.28759E+06-1.21579E+02-4.89289E+05-3.66547E+08 8.34332E+08 1.02947E+02
 -1      1161-1.47480E+06 9.95239E+00-5.60382E+05-3.68550E+08 8.04983E+08 1.02441E+02
 -1      1162-1.66293E+06-2.03773E+02-6.31954E+05-3.70566E+08 7.75804E+08 1.01857E+02
 -1      1163-1.85209E+06 3.54784E+02-7.03622E+05-3.72464E+08 7.46816E+08 1.01194E+02
 -1      1164-2.04208E+06-4.24279E+02-7.76111E+05-3.73928E+08 7.18041E+08 1.00453E+02
 -1      1165-2.23314E+06-6.39172E+01-8.48574E+05-3.76521E+08 6.89500E+08 9.96359E+01
 -1      1166-2.42483E+06-3.50701E+02-9.21528E+05-3.77608E+08 6.61216E+08 9.87387E+01
 -1      1167-2.61804E+06 6.91244E+02-9.94557E+05-3.79985E+08 6.33210E+08 9.77599E+01
 -1      1168-2.81142E+06 3.18030E+01-1.06829E+06-3.79712E+08 6.05506E+08 9.67042E+01
 -1      1169-3.00521E+06-1.17418E+03-1.14239E+06-3.83232E+08 5.78124E+08 9.55664E+01
 -1      1170-3.20108E+06 1.49805E+03-1.21581E+06-3.83660E+08 5.51087E+08 9.43520E+01
 -1      1171-3.39595E+06-1.39938E+03-1.29096E+06-3.84534E+08 5.24418E+08 9.30511E+01
 -1      1172-3.59295E+06 1.82581E+02-1.36521E+06-3.87907E+08 4.98140E+08 9.16732E+01
 -1      1173-3.79016E+06 8.33106E+02-1.43991E+06-3.86680E+08 4.72274E+08 9.02141E+01
 -1      1174-3.98739E+06-3.61029E+02-1.51531E+06-3.89056E+08 4.46843E+08 8.86677E+01
 -1      1175-4.18584E+06 1.04044E+02-1.59054E+06-3.89180E+08 4.21871E+08 8.70444E+01
 -1      1176-4.38409E+06-1.45380E+03-1.66647E+06-3.91595E+08 3.97379E+08 8.53363E+01
 -1      1177-4.58412E+06 1.00558E+03-1.74154E+06-3.92809E+08 3.73391E+08 8.35480E+01
 -1      1178-4.78406E+06 1.24955E+03-1.81743E+06-3.91751E+08 3.49930E+08 8.16767E+01
 -1      1179-4.98311E+06-1.43941E+03-1.89409E+06-3.92963E+08 3.27018E+08 7.97193E+01
 -1      1180-5.18448E+06-4.06516E+02-1.97022E+06-3.95444E+08 3.04679E+08 7.76812E+01
 -1      1181-5.38550E+06 8.28536E+02-2.04614E+06-3.95016E+08 2.82935E+08 7.55663E+01
 -1      1182-5.58670E+06-4.60722E+02-2.12309E+06-3.95865E+08 2.61810E+08 7.33649E+01
 -1      1183-5.78858E+06 3.56686E+02-2.19949E+06-3.96582E+08 2.41327E+08 7.10759E+01
 -1      1184-5.99030E+06-5.58646E+02-2.27649E+06-3.96893E+08 2.21508E+08 6.87058E+01
 -1      1185-6.19294E+06 1.18149E+03-2.35283E+06-3.97918E+08 2.02378E+08 6.62539E+01
 -1      1186-6.39532E+06-7.11800E+02-2.43046E+06-3.96567E+08 1.83959E+08 6.37203E+01
 -1      1187-6.59733E+06-1.58752E+03-2.50755E+06-4.00206E+08 1.66275E+08 6.11009E+01
 -1      1188-6.80170E+06 1.17755E+03-2.58416E+06-3.99449E+08 1.49349E+08 5.83953E+01
 -1      1189-7.00477E+06 2.24294E+03-2.66092E+06-3.98637E+08 1.33204E+08 5.56088E+01
 -1      1190-7.20700E+06-2.64668E+03-2.73963E+06-3.97493E+08 1.17864E+08 5.27395E+01
 -1      1191-7.41099E+06 1.56150E+02-2.81608E+06-4.02729E+08 1.03351E+08 4.97806E+01
 -1      1192-7.61500E+06 3.98907E+02-2.89351E+06-3.98028E+08 8.96903E+07 4.67394E+01
 -1      1193-7.81829E+06 3.25091E+02-2.97079E+06-4.02659E+08 7.69041E+07 4.36140E+01
 -1      1194-8.02281E+06-5.54685E+02-3.04884E+06-3.97608E+08 6.50162E+07 4.04051E+01
 -1      1195-8.22605E+06 3.42947E+02-3.12573E+06-4.04241E+08 5.40498E+07 3.71185E+01
 -1      1196-8.43072E+06 7.82120E+02-3.20334E+06-3.96255E+08 4.40283E+07 3.37388E+01
 -1      1197-8.63360E+06-1.27150E+03-3.28121E+06-4.05070E+08 3.49753E+07 3.02734E+01
 -1      1198-8.83842E+06-1.42512E+03-3.35910E+06-3.96725E+08 2.69143E+07 2.67358E+01
 -1      1199-9.04413E+06 3.95274E+03-3.43523E+06-4.08931E+08 1.98685E+07 2.31066E+01
 -1      1200-9.24478E+06 1.09432E+03-3.51256E+06-3.86658E+08 1.38616E+07 1.93858E+01
 -1      1201-9.45475E+06-1.88190E+04-3.59992E+06-4.19638E+08 8.91686E+06 1.55887E+01
 -1      1202-9.64053E+06 6.92483E+04-3.63705E+06-3.80052E+08 5.05792E+06 1.17075E+01
 -1      1203-9.91556E+06-2.46362E+05-3.86149E+06-4.24229E+08 2.30790E+06 7.73843E+00
 -1      1204-9.85396E+06 8.92632E+05-3.40526E+06-3.82063E+08 6.90870E+05 3.68312E+00
 -1      1205-9.59672E+06-3.30194E+06-4.90145E+06-5.53236E+08 1.69064E+05 1.63427E+00
 -1      1206 6.67687E+02 2.80112E+02 3.59728E+02 7.43588E+05 3.04386E+09 4.12100E+02
 -1      1207 2.66400E+03 4.55461E+02 1.19230E+03 7.60002E+06 3.01323E+09 4.12105E+02
 -1      1208 8.39656E+03 3.81673E+02 3.34113E+03 1.51415E+07 2.95196E+09 4.12106E+02
 -1      1209 1.79541E+04 3.72312E+02 6.95680E+03 2.23990E+07 2.89069E+09 4.12092E+02
 -1      1210 3.11580E+04 3.82604E+02 1.19835E+04 2.96451E+07 2.82942E+09 4.12074E+02
 -1      1211 4.79963E+04 2.72165E+02 1.83403E+04 3.65866E+07 2.76816E+09 4.12048E+02
 -1      1212 6.84372E+04 4.23840E+02 2.61558E+04 4.34525E+07 2.70690E+09 4.12004E+02
 -1      1213 9.22714E+04 4.20324E+02 3.52171E+04 5.02658E+07 2.64565E+09 4.11940E+02
 -1      1214 1.19420E+05 2.77882E+02 4.54833E+04 5.66292E+07 2.58441E+09 4.11852E+02
 -1      1215 1.49918E+05 2.92445E+02 5.70824E+04 6.32650E+07 2.52318E+09 4.11744E+02
 -1      1216 1.83686E+05 2.52600E+02 6.99021E+04 6.93306E+07 2.46198E+09 4.11620E+02
 -1      1217 2.20534E+05 3.10881E+02 8.39196E+04 7.53628E+07 2.40079E+09 4.11468E+02
 -1      1218 2.60471E+05 2.30469E+02 9.90658E+04 8.16776E+07 2.33963E+09 4.11287E+02
 -1      1219 3.03424E+05 3.50355E+02 1.15437E+05 8.69276E+07 2.27850E+09 4.11073E+02
 -1      1220 3.49232E+05 2.88701E+02 1.32815E+05 9.29939E+07 2.21740E+09 4.10824E+02
 -1      1221 3.97936E+05 2.61081E+02 1.51309E+05 9.85010E+07 2.15634E+09 4.10541E+02
 -1      1222 4.49289E+05 3.42968E+02 1.70862E+05 1.03250E+08 2.09533E+09 4.10215E+02
 -1      1223 5.03345E+05 1.89651E+02 1.91342E+05 1.09118E+08 2.03437E+09 4.09843E+02
 -1      1224 5.60051E+05 3.26151E+02 2.12938E+05 1.13768E+08 1.97347E+09 4.09425E+02
 -1      1225 6.19185E+05 1.74299E+02 2.35355E+05 1.18731E+08 1.91264E+09 4.08964E+02
 -1      1226 6.80902E+05 2.38166E+02 2.58826E+05 1.23718E+08 1.85187E+09 4.08459E+02
 -1      1227 7.44804E+05 1.76379E+02 2.83080E+05 1.27422E+08 1.79118E+09 4.07901E+02
 -1      1228 8.11201E+05 3.05633E+02 3.08371E+05 1.32780E+08 1.73058E+09 4.07291E+02
 -1      1229 8.79649E+05 2.16242E+02 3.34352E+05 1.36628E+08 1.67007E+09 4.06631E+02
 -1      1230 9.50314E+05 3.12980E+02 3.61237E+05 1.40797E+08 1.60967E+09 4.05919E+02
 -1      1231 1.02295E+06 1.24759E+02 3.88766E+05 1.44776E+08 1.54937E+09 4.05147E+02
 -1      1232 1.09759E+06 2.40296E+02 4.17174E+05 1.48338E+08 1.48919E+09 4.04320E+02
 -1      1233 1.17415E+06 1.89881E+02 4.46252E+05 1.52433E+08 1.42913E+09 4.03435E+02
 -1      1234 1.25256E+06 1.94678E+02 4.76048E+05 1.55921E+08 1.36921E+09 4.02488E+02
 -1      1235 1.33266E+06 1.76966E+02 5.06475E+05 1.58850E+08 1.30944E+09 4.01479E+02
 -1      1236 1.41443E+06 1.18796E+02 5.37526E+05 1.62032E+08 1.24981E+09 4.00404E+02
 -1      1237 1.49782E+06 1.14262E+02 5.69214E+05 1.65666E+08 1.19035E+09 3.99266E+02
 -1      1238 1.58272E+06 1.80962E+02 6.01507E+05 1.68160E+08 1.13107E+09 3.98057E+02
 -1      1239 1.66914E+06 1.24985E+02 6.34319E+05 1.71091E+08 1.07196E+09 3.96774E+02
 -1      1240 1.75684E+06 2.01417E+02 6.67671E+05 1.73541E+08 1.01305E+09 3.95422E+02
 -1      1241 1.84579E+06 9.07683E+01 7.01436E+05 1.76162E+08 9.54334E+08 3.94004E+02
 -1      1242 1.93610E+06 8.84115E+01 7.35757E+05 1.78410E+08 8.95833E+08 3.92516E+02
 -1      1243 2.02735E+06 1.17385E+02 7.70442E+05 1.80150E+08 8.37555E+08 3.90955E+02
 -1      1244 2.11992E+06 9.81732E+01 8.05607E+05 1.83442E+08 7.79510E+08 3.89318E+02
 -1      1245 2.21332E+06 2.15876E+01 8.41069E+05 1.84002E+08 7.21708E+08 3.87608E+02
 -1      1246 2.30758E+06 1.58094E+02 8.76945E+05 1.86304E+08 6.64161E+08 3.85827E+02
 -1      1247 2.40289E+06-1.75444E+01 9.13096E+05 1.87383E+08 6.06879E+08 3.83968E+02
 -1      1248 2.49890E+06 9.75130E+01 9.49618E+05 1.89732E+08 5.49873E+08 3.82028E+02
 -1      1249 2.59542E+06 7.27483E+01 9.86285E+05 1.90522E+08 4.93154E+08 3.80013E+02
 -1      1250 2.69294E+06 5.23329E+01 1.02334E+06 1.91755E+08 4.36733E+08 3.77929E+02
 -1      1251 2.79078E+06 7.61709E+01 1.06053E+06 1.92759E+08 3.80622E+08 3.75771E+02
 -1      1252 2.88904E+06 1.13175E+02 1.09788E+06 1.93607E+08 3.24831E+08 3.73531E+02
 -1      1253 2.98783E+06-1.99164E+01 1.13537E+06 1.94546E+08 2.69372E+08 3.71209E+02
 -1      1254 3.08684E+06 7.11408E+01 1.17302E+06 1.94178E+08 2.14256E+08 3.68814E+02
 -1      1255 3.18648E+06 3.34269E+00 1.21087E+06 1.96915E+08 1.59495E+08 3.66346E+02
 -1      1256 3.28600E+06-4.28998E+01 1.24867E+06 1.94939E+08 1.05101E+08 3.63793E+02
 -1      1257 3.38556E+06 1.34542E+02 1.28657E+06 1.95566E+08 5.10832E+07 3.61162E+02
 -1      1258 3.48550E+06-6.45401E+01 1.32447E+06 1.96666E+08-2.54534E+06 3.58455E+02
 -1      1259 3.58514E+06 1.25493E+01 1.36235E+06 1.95826E+08-5.57736E+07 3.55666E+02
 -1      1260 3.68497E+06 1.07155E+01 1.40029E+06 1.96574E+08-1.08590E+08 3.52800E+02
 -1      1261 3.78462E+06-6.71725E+01 1.43813E+06 1.93965E+08-1.60983E+08 3.49856E+02
 -1      1262 3.88384E+06 2.03148E+01 1.47587E+06 1.95795E+08-2.12941E+08 3.46831E+02
 -1      1263 3.98296E+06-7.12439E+01 1.51350E+06 1.94267E+08-2.64453E+08 3.43729E+02
 -1      1264 4.08175E+06-5.67014E+01 1.55105E+06 1.93761E+08-3.15508E+08 3.40554E+02
 -1      1265 4.18004E+06-4.01072E+00 1.58842E+06 1.91863E+08-3.66094E+08 3.37296E+02
 -1      1266 4.27811E+06-1.06059E+02 1.62564E+06 1.93480E+08-4.16199E+08 3.33957E+02
 -1      1267 4.37536E+06-1.01203E+02 1.66260E+06 1.89826E+08-4.65813E+08 3.30547E+02
 -1      1268 4.47199E+06 6.34731E+01 1.69939E+06 1.88680E+08-5.14924E+08 3.27060E+02
 -1      1269 4.56842E+06-1.54180E+02 1.73594E+06 1.89120E+08-5.63521E+08 3.23499E+02
 -1      1270 4.66359E+06-6.89429E+01 1.77214E+06 1.86263E+08-6.11594E+08 3.19856E+02
 -1      1271 4.75813E+06-7.76567E+01 1.80806E+06 1.86283E+08-6.59132E+08 3.16137E+02
 -1      1272 4.85216E+06-1.69225E+02 1.84376E+06 1.81215E+08-7.06122E+08 3.12355E+02
 -1      1273 4.94482E+06-1.96595E+01 1.87903E+06 1.82792E+08-7.52555E+08 3.08496E+02
 -1      1274 5.03674E+06-2.21667E+02 1.91387E+06 1.79463E+08-7.98420E+08 3.04556E+02
 -1      1275 5.12761E+06 4.29197E+01 1.94851E+06 1.76356E+08-8.43707E+08 3.00549E+02
 -1      1276 5.21766E+06-1.99193E+02 1.98264E+06 1.77535E+08-8.88404E+08 2.96467E+02
 -1      1277 5.30617E+06-7.52189E+01 2.01631E+06 1.71721E+08-9.32502E+08 2.92321E+02
 -1      1278 5.39358E+06-9.99431E+01 2.04952E+06 1.70986E+08-9.75991E+08 2.88104E+02
 -1      1279 5.47991E+06-1.61534E+02 2.08231E+06 1.67096E+08-1.01886E+09 2.83810E+02
 -1      1280 5.56483E+06-1.15175E+02 2.11460E+06 1.66517E+08-1.06110E+09 2.79457E+02
 -1      1281 5.64841E+06-2.31289E+02 2.14632E+06 1.63823E+08-1.10270E+09 2.75038E+02
 -1      1282 5.73060E+06-5.19381E+01 2.17761E+06 1.58993E+08-1.14365E+09 2.70552E+02
 -1      1283 5.81132E+06-2.28023E+02 2.20821E+06 1.56158E+08-1.18394E+09 2.66001E+02
 -1      1284 5.89084E+06-7.96401E+01 2.23849E+06 1.55184E+08-1.22357E+09 2.61385E+02
 -1      1285 5.96788E+06-3.02763E+02 2.26768E+06 1.50978E+08-1.26252E+09 2.56708E+02
 -1      1286 6.04432E+06 7.67207E+01 2.29687E+06 1.46463E+08-1.30078E+09 2.51976E+02
 -1      1287 6.11864E+06-4.41369E+02 2.32492E+06 1.46960E+08-1.33835E+09 2.47185E+02
 -1      1288 6.19154E+06 7.82060E+01 2.35282E+06 1.39492E+08-1.37522E+09 2.42331E+02
 -1      1289 6.26181E+06-3.83200E+02 2.37935E+06 1.37993E+08-1.41137E+09 2.37422E+02
 -1      1290 6.33176E+06 1.71543E+01 2.40607E+06 1.32711E+08-1.44681E+09 2.32458E+02
 -1      1291 6.39815E+06-4.48030E+02 2.43113E+06 1.31386E+08-1.48152E+09 2.27440E+02
 -1      1292 6.46448E+06 1.75881E+02 2.45657E+06 1.27905E+08-1.51549E+09 2.22378E+02
 -1      1293 6.52701E+06-6.68555E+02 2.48001E+06 1.19964E+08-1.54872E+09 2.17263E+02
 -1      1294 6.58952E+06 3.49089E+02 2.50415E+06 1.20422E+08-1.58120E+09 2.12093E+02
 -1      1295 6.64763E+06-9.55420E+02 2.52574E+06 1.14570E+08-1.61292E+09 2.06871E+02
 -1      1296 6.70636E+06 8.13874E+02 2.54873E+06 1.10576E+08-1.64388E+09 2.01618E+02
 -1      1297 6.76027E+06-1.32697E+03 2.56840E+06 1.06840E+08-1.67407E+09 1.96321E+02
 -1      1298 6.81586E+06 9.46521E+02 2.59038E+06 1.01986E+08-1.70349E+09 1.90970E+02
 -1      1299 6.86330E+06-1.54826E+03 2.60747E+06 9.82024E+07-1.73212E+09 1.85586E+02
 -1      1300 6.91591E+06 1.44633E+03 2.62860E+06 9.37022E+07-1.75996E+09 1.80167E+02
 -1      1301 6.95829E+06-2.27233E+03 2.64329E+06 8.76362E+07-1.78701E+09 1.74706E+02
 -1      1302 7.00755E+06 2.26840E+03 2.66373E+06 8.75625E+07-1.81325E+09 1.69208E+02
 -1      1303 7.04358E+06-3.24026E+03 2.67532E+06 7.85037E+07-1.83870E+09 1.63676E+02
 -1      1304 7.09006E+06 3.32935E+03 2.69549E+06 7.42921E+07-1.86333E+09 1.58118E+02
 -1      1305 7.11903E+06-4.42810E+03 2.70355E+06 7.22704E+07-1.88715E+09 1.52527E+02
 -1      1306 7.16387E+06 4.61510E+03 2.72402E+06 6.56915E+07-1.91015E+09 1.46902E+02
 -1      1307 7.18391E+06-5.86382E+03 2.72765E+06 6.11865E+07-1.93233E+09 1.41251E+02
 -1      1308 7.22876E+06 6.50874E+03 2.74940E+06 5.64307E+07-1.95368E+09 1.35580E+02
 -1      1309 7.23875E+06-8.32319E+03 2.74755E+06 5.12285E+07-1.97421E+09 1.29894E+02
 -1      1310 7.28402E+06 9.44046E+03 2.77151E+06 4.64461E+07-1.99390E+09 1.24193E+02
 -1      1311 7.28166E+06-1.15609E+04 2.76263E+06 4.16252E+07-2.01276E+09 1.18468E+02
 -1      1312 7.33179E+06 1.29200E+04 2.79098E+06 3.45581E+07-2.03077E+09 1.12733E+02
 -1      1313 7.31216E+06-1.56265E+04 2.77267E+06 3.43014E+07-2.04795E+09 1.06990E+02
 -1      1314 7.37120E+06 1.73689E+04 2.80765E+06 2.43889E+07-2.06429E+09 1.01230E+02
 -1      1315 7.32919E+06-2.07103E+04 2.77721E+06 1.96586E+07-2.07978E+09 9.54603E+01
 -1      1316 7.40388E+06 2.41748E+04 2.82264E+06 1.72225E+07-2.09442E+09 8.96868E+01
 -1      1317 7.33175E+06-3.08975E+04 2.77430E+06 9.78630E+06-2.10822E+09 8.39067E+01
 -1      1318 7.42849E+06 4.22183E+04 2.83885E+06 6.94575E+06-2.12117E+09 7.81234E+01
 -1      1319 7.32644E+06-7.01268E+04 2.75738E+06-3.58038E+06-2.13328E+09 7.23416E+01
 -1      1320 7.42358E+06 1.36907E+05 2.87297E+06-3.54677E+06-2.14454E+09 6.65794E+01
 -1      1321 7.37194E+06-3.01012E+05 2.68694E+06-1.14590E+07-2.15495E+09 6.07829E+01
 -1      1322 7.48161E+06 6.26521E+05 3.08107E+06-1.78576E+07-2.16451E+09 4.83132E+01
 -1      1323 7.23192E+06-6.05179E+05 2.51814E+06-1.90055E+07-2.17322E+09 2.97460E+01
 -1      1324 7.35925E+06 2.72058E+05 2.89988E+06-2.92065E+07-2.18109E+09 1.92473E+01
 -1      1325 7.28280E+06-1.30208E+05 2.71796E+06-3.23389E+07-2.18812E+09 1.62662E+01
 -1      1326 7.36356E+06 7.09853E+04 2.82511E+06-3.96652E+07-2.19431E+09 1.32738E+01
 -1      1327 7.24237E+06-4.44351E+04 2.73519E+06-4.25005E+07-2.19965E+09 1.02964E+01
 -1      1328 7.30800E+06 3.30308E+04 2.78956E+06-4.95781E+07-2.20416E+09 7.32931E+00
 -1      1329 7.20625E+06-2.81293E+04 2.72765E+06-5.32711E+07-2.20783E+09 4.37584E+00
 -1      1330 7.24018E+06 2.14719E+04 2.75940E+06-6.33410E+07-2.21067E+09 1.43045E+00
 -1      1331 7.15395E+06-1.57228E+04 2.71251E+06-6.42590E+07-2.21269E+09-1.49722E+00
 -1      1332 7.16479E+06 1.19540E+04 2.72714E+06-7.14671E+07-2.21388E+09-4.40579E+00
 -1      1333 7.08868E+06-1.06331E+04 2.68964E+06-7.87740E+07-2.21424E+09-7.30747E+00
 -1      1334 7.07941E+06 1.07653E+04 2.69425E+06-7.94605E+07-2.21380E+09-1.02003E+01
 -1      1335 7.01113E+06-1.14678E+04 2.65985E+06-9.00886E+07-2.21253E+09-1.30721E+01
 -1      1336 6.98499E+06 8.58743E+03 2.65753E+06-9.30838E+07-2.21047E+09-1.59207E+01
 -1      1337 6.91862E+06-7.11193E+03 2.62634E+06-1.00754E+08-2.20760E+09-1.87487E+01
 -1      1338 6.88068E+06 8.04904E+03 2.61769E+06-1.03322E+08-2.20394E+09-2.15530E+01
 -1      1339 6.81548E+06-8.14215E+03 2.58676E+06-1.09158E+08-2.19948E+09-2.43325E+01
 -1      1340 6.76698E+06 4.31594E+03 2.57307E+06-1.18343E+08-2.19425E+09-2.70937E+01
 -1      1341 6.69764E+06-1.75047E+03 2.54442E+06-1.19759E+08-2.18823E+09-2.98270E+01
 -1      1342 6.64253E+06 1.59029E+03 2.52474E+06-1.26904E+08-2.18145E+09-3.25386E+01
 -1      1343 6.57064E+06-3.52220E+03 2.49547E+06-1.32148E+08-2.17390E+09-3.52269E+01
 -1      1344 6.50603E+06 3.68500E+03 2.47366E+06-1.38937E+08-2.16560E+09-3.78812E+01
 -1      1345 6.43117E+06-1.89045E+03 2.44310E+06-1.40488E+08-2.15655E+09-4.05102E+01
 -1      1346 6.36084E+06-4.77294E+02 2.41691E+06-1.49997E+08-2.14677E+09-4.31049E+01
 -1      1347 6.28018E+06-6.39781E+02 2.38619E+06-1.53471E+08-2.13625E+09-4.56666E+01
 -1      1348 6.20334E+06 5.62555E+02 2.35745E+06-1.60314E+08-2.12501E+09-4.81998E+01
 -1      1349 6.11812E+06 1.39433E+03 2.32538E+06-1.63460E+08-2.11306E+09-5.06929E+01
 -1      1350 6.03630E+06-2.36025E+03 2.29287E+06-1.68536E+08-2.10040E+09-5.31551E+01
 -1      1351 5.94617E+06-3.48410E+02 2.25938E+06-1.77476E+08-2.08705E+09-5.55863E+01
 -1      1352 5.85661E+06 1.95962E+03 2.22622E+06-1.78633E+08-2.07302E+09-5.79715E+01
 -1      1353 5.76352E+06-1.93005E+03 2.18937E+06-1.85811E+08-2.05832E+09-6.03145E+01
 -1      1354 5.66774E+06 8.30278E+02 2.15402E+06-1.90377E+08-2.04295E+09-6.26200E+01
 -1      1355 5.56938E+06-8.26372E+02 2.11602E+06-1.95611E+08-2.02694E+09-6.48868E+01
 -1      1356 5.46888E+06 5.35236E+02 2.07835E+06-2.00824E+08-2.01028E+09-6.71198E+01
 -1      1357 5.36494E+06-1.11618E+03 2.03823E+06-2.05481E+08-1.99299E+09-6.93124E+01
 -1      1358 5.25936E+06 2.68525E+02 1.99864E+06-2.11745E+08-1.97509E+09-7.14535E+01
 -1      1359 5.14995E+06 1.23836E+03 1.95743E+06-2.14675E+08-1.95659E+09-7.35447E+01
 -1      1360 5.04018E+06-1.25696E+03 1.91477E+06-2.19602E+08-1.93749E+09-7.56021E+01
 -1      1361 4.92646E+06-1.47226E+03 1.87147E+06-2.26294E+08-1.91782E+09-7.76129E+01
 -1      1362 4.80985E+06 1.41985E+03 1.82825E+06-2.30857E+08-1.89757E+09-7.95615E+01
 -1      1363 4.69172E+06 1.00428E+02 1.78286E+06-2.33849E+08-1.87678E+09-8.14647E+01
 -1      1364 4.57148E+06-8.69653E+02 1.73680E+06-2.39711E+08-1.85545E+09-8.33273E+01
 -1      1365 4.44766E+06 2.02177E+02 1.69015E+06-2.44138E+08-1.83359E+09-8.51384E+01
 -1      1366 4.32283E+06-2.27154E+02 1.64255E+06-2.48603E+08-1.81122E+09-8.68975E+01
 -1      1367 4.19488E+06-3.83035E+01 1.59400E+06-2.53300E+08-1.78835E+09-8.86052E+01
 -1      1368 4.06475E+06-5.57986E+02 1.54436E+06-2.57582E+08-1.76501E+09-9.02568E+01
 -1      1369 3.93247E+06 1.22339E+02 1.49435E+06-2.62788E+08-1.74119E+09-9.18530E+01
 -1      1370 3.79764E+06 9.81756E+02 1.44344E+06-2.65711E+08-1.71693E+09-9.33948E+01
 -1      1371 3.66154E+06-1.04682E+03 1.39095E+06-2.70042E+08-1.69223E+09-9.48770E+01
 -1      1372 3.52268E+06-9.73830E+02 1.33822E+06-2.75560E+08-1.66710E+09-9.62961E+01
 -1      1373 3.38104E+06 8.66492E+02 1.28509E+06-2.79547E+08-1.64158E+09-9.76653E+01
 -1      1374 3.23831E+06 9.35736E+01 1.23056E+06-2.82450E+08-1.61566E+09-9.89695E+01
 -1      1375 3.09321E+06-5.95298E+02 1.17515E+06-2.87254E+08-1.58937E+09-1.00210E+02
 -1      1376 2.94604E+06 7.46812E+01 1.11948E+06-2.90999E+08-1.56273E+09-1.01392E+02
 -1      1377 2.79688E+06-2.21644E+02 1.06269E+06-2.95038E+08-1.53575E+09-1.02504E+02
 -1      1378 2.64558E+06 8.46308E+01 1.00531E+06-2.98704E+08-1.50845E+09-1.03557E+02
 -1      1379 2.49274E+06-6.38225E+02 9.46956E+05-3.02524E+08-1.48084E+09-1.04548E+02
 -1      1380 2.33751E+06 5.43432E+02 8.88418E+05-3.06632E+08-1.45295E+09-1.05471E+02
 -1      1381 2.18098E+06-1.29438E+02 8.28679E+05-3.08962E+08-1.42478E+09-1.06328E+02
 -1      1382 2.02242E+06-6.15477E+02 7.68238E+05-3.13816E+08-1.39637E+09-1.07119E+02
 -1      1383 1.86177E+06 1.05034E+02 7.07466E+05-3.16701E+08-1.36773E+09-1.07839E+02
 -1      1384 1.69974E+06-4.67040E+01 6.45835E+05-3.20503E+08-1.33887E+09-1.08496E+02
 -1      1385 1.53579E+06 1.27419E+02 5.83603E+05-3.23230E+08-1.30982E+09-1.09091E+02
 -1      1386 1.37039E+06-3.63047E+02 5.20565E+05-3.26780E+08-1.28059E+09-1.09614E+02
 -1      1387 1.20319E+06 1.13870E+01 4.57171E+05-3.29941E+08-1.25120E+09-1.10068E+02
 -1      1388 1.03446E+06-1.34526E+02 3.93004E+05-3.33010E+08-1.22168E+09-1.10450E+02
 -1      1389 8.64090E+05-2.72096E+01 3.28304E+05-3.36073E+08-1.19203E+09-1.10761E+02
 -1      1390 6.92294E+05-1.93064E+02 2.62952E+05-3.38976E+08-1.16229E+09-1.11005E+02
 -1      1391 5.18936E+05 4.19045E+01 1.97164E+05-3.41999E+08-1.13247E+09-1.11174E+02
 -1      1392 3.44182E+05-6.10734E+01 1.30723E+05-3.44530E+08-1.10259E+09-1.11274E+02
 -1      1393 1.68047E+05-1.82906E+02 6.37499E+04-3.47460E+08-1.07266E+09-1.11303E+02
 -1      1394-9.54620E+03-2.04818E+01-3.67611E+03-3.50047E+08-1.04272E+09-1.11263E+02
 -1      1395-1.88429E+05-7.08254E+01-7.16724E+04-3.52673E+08-1.01278E+09-1.11148E+02
 -1      1396-3.68502E+05-2.06259E+02-1.40149E+05-3.55112E+08-9.82866E+08-1.10958E+02
 -1      1397-5.50063E+05 1.46112E+02-2.09008E+05-3.57692E+08-9.52991E+08-1.10701E+02
 -1      1398-7.32625E+05-7.77195E+01-2.78465E+05-3.59594E+08-9.23178E+08-1.10366E+02
 -1      1399-9.16363E+05-2.68930E+02-3.48356E+05-3.62425E+08-8.93450E+08-1.09955E+02
 -1      1400-1.10144E+06 1.35448E+02-4.18535E+05-3.64326E+08-8.63827E+08-1.09474E+02
 -1      1401-1.28741E+06-1.48536E+02-4.89313E+05-3.66547E+08-8.34331E+08-1.08916E+02
 -1      1402-1.47461E+06 7.53006E+00-5.60385E+05-3.68550E+08-8.04982E+08-1.08282E+02
 -1      1403-1.66271E+06-1.73258E+02-6.31930E+05-3.70566E+08-7.75804E+08-1.07568E+02
 -1      1404-1.85191E+06 3.21182E+02-7.03640E+05-3.72464E+08-7.46816E+08-1.06775E+02
 -1      1405-2.04186E+06-3.81513E+02-7.76089E+05-3.73928E+08-7.18040E+08-1.05906E+02
 -1      1406-2.23297E+06-1.00341E+02-8.48608E+05-3.76522E+08-6.89500E+08-1.04960E+02
 -1      1407-2.42463E+06-3.37460E+02-9.21529E+05-3.77609E+08-6.61216E+08-1.03933E+02
 -1      1408-2.61784E+06 6.82113E+02-9.94559E+05-3.79985E+08-6.33210E+08-1.02821E+02
 -1      1409-2.81121E+06 3.44409E+01-1.06828E+06-3.79712E+08-6.05505E+08-1.01632E+02
 -1      1410-3.00498E+06-1.14012E+03-1.14236E+06-3.83232E+08-5.78124E+08-1.00361E+02
 -1      1411-3.20089E+06 1.46532E+03-1.21582E+06-3.83660E+08-5.51087E+08-9.90122E+01
 -1      1412-3.39578E+06-1.44440E+03-1.29098E+06-3.84534E+08-5.24418E+08-9.75781E+01
 -1      1413-3.59275E+06 1.87988E+02-1.36521E+06-3.87907E+08-4.98139E+08-9.60698E+01
 -1      1414-3.78997E+06 8.28480E+02-1.43991E+06-3.86680E+08-4.72274E+08-9.44813E+01
 -1      1415-3.98719E+06-3.55087E+02-1.51530E+06-3.89056E+08-4.46843E+08-9.28057E+01
 -1      1416-4.18564E+06 1.17880E+02-1.59054E+06-3.89180E+08-4.21870E+08-9.10536E+01
 -1      1417-4.38389E+06-1.43993E+03-1.66646E+06-3.91595E+08-3.97379E+08-8.92164E+01
 -1      1418-4.58392E+06 1.01115E+03-1.74154E+06-3.92809E+08-3.73391E+08-8.72983E+01
 -1      1419-4.78386E+06 1.25626E+03-1.81743E+06-3.91751E+08-3.49929E+08-8.52957E+01
 -1      1420-4.98292E+06-1.44587E+03-1.89410E+06-3.92963E+08-3.27018E+08-8.32069E+01
 -1      1421-5.18429E+06-4.21315E+02-1.97023E+06-3.95444E+08-3.04678E+08-8.10373E+01
 -1      1422-5.38529E+06 8.49095E+02-2.04612E+06-3.95016E+08-2.82934E+08-7.87893E+01
 -1      1423-5.58649E+06-4.45744E+02-2.12307E+06-3.95865E+08-2.61809E+08-7.64535E+01
 -1      1424-5.78839E+06 3.46575E+02-2.19949E+06-3.96582E+08-2.41326E+08-7.40310E+01
 -1      1425-5.99010E+06-5.62572E+02-2.27649E+06-3.96893E+08-2.21508E+08-7.15283E+01
 -1      1426-6.19274E+06 1.17953E+03-2.35283E+06-3.97918E+08-2.02377E+08-6.89431E+01
 -1      1427-6.39512E+06-7.14486E+02-2.43046E+06-3.96567E+08-1.83959E+08-6.62757E+01
 -1      1428-6.59713E+06-1.59267E+03-2.50755E+06-4.00206E+08-1.66274E+08-6.35226E+01
 -1      1429-6.80150E+06 1.18077E+03-2.58416E+06-3.99449E+08-1.49348E+08-6.06836E+01
 -1      1430-7.00457E+06 2.23504E+03-2.66093E+06-3.98637E+08-1.33203E+08-5.77635E+01
 -1      1431-7.20680E+06-2.64396E+03-2.73963E+06-3.97493E+08-1.17863E+08-5.47604E+01
 -1      1432-7.41079E+06 1.54812E+02-2.81608E+06-4.02729E+08-1.03351E+08-5.16672E+01
 -1      1433-7.61479E+06 3.96115E+02-2.89351E+06-3.98027E+08-8.96900E+07-4.84917E+01
 -1      1434-7.81808E+06 3.29091E+02-2.97078E+06-4.02659E+08-7.69039E+07-4.52315E+01
 -1      1435-8.02260E+06-5.49660E+02-3.04884E+06-3.97608E+08-6.50160E+07-4.18870E+01
 -1      1436-8.22584E+06 3.39095E+02-3.12573E+06-4.04241E+08-5.40496E+07-3.84649E+01
 -1      1437-8.43052E+06 7.80294E+02-3.20334E+06-3.96255E+08-4.40282E+07-3.49499E+01
 -1      1438-8.63340E+06-1.27266E+03-3.28122E+06-4.05070E+08-3.49752E+07-3.13492E+01
 -1      1439-8.83821E+06-1.42111E+03-3.35910E+06-3.96725E+08-2.69142E+07-2.76761E+01
 -1      1440-9.04392E+06 3.95422E+03-3.43523E+06-4.08931E+08-1.98685E+07-2.39111E+01
 -1      1441-9.24457E+06 1.09142E+03-3.51256E+06-3.86658E+08-1.38616E+07-2.00551E+01
 -1      1442-9.45454E+06-1.88189E+04-3.59992E+06-4.19638E+08-8.91682E+06-1.61228E+01
 -1      1443-9.64032E+06 6.92492E+04-3.63705E+06-3.80052E+08-5.05790E+06-1.21062E+01
 -1      1444-9.91535E+06-2.46359E+05-3.86149E+06-4.24229E+08-2.30789E+06-8.00146E+00
 -1      1445-9.85378E+06 8.92602E+05-3.40529E+06-3.82063E+08-6.90867E+05-3.81227E+00
 -1      1446-9.59647E+06-3.30182E+06-4.90140E+06-5.53238E+08-1.69064E+05-1.69765E+00
 -1      1447-9.18249E+06-4.87567E+06-5.34205E+06 8.83708E+03-3.04387E+09 5.25144E+06
 -1      1448-3.26123E+07-4.79044E+06-1.42129E+07 5.55746E+06-3.01323E+09 5.25143E+06
 -1      1449-1.04742E+08-4.78484E+06-4.16202E+07 1.09955E+07-2.95196E+09 5.25138E+06
 -1      1450-2.24167E+08-4.57508E+06-8.69219E+07 1.63311E+07-2.89069E+09 5.25125E+06
 -1      1451-3.89534E+08-4.64224E+06-1.49787E+08 2.15169E+07-2.82942E+09 5.25100E+06
 -1      1452-6.00270E+08-4.09933E+06-2.29660E+08 2.66526E+07-2.76816E+09 5.25061E+06
 -1      1453-8.54725E+08-4.86137E+06-3.26643E+08 3.16408E+07-2.70690E+09 5.25004E+06
 -1      1454-1.15291E+09-3.73948E+06-4.39527E+08 3.64800E+07-2.64565E+09 5.24925E+06
 -1      1455-1.49280E+09-4.45775E+06-5.68956E+08 4.13080E+07-2.58441E+09 5.24821E+06
 -1      1456-1.87413E+09-3.96076E+06-7.13676E+08 4.58845E+07-2.52319E+09 5.24688E+06
 -1      1457-2.29602E+09-3.46062E+06-8.73804E+08 5.04755E+07-2.46198E+09 5.24524E+06
 -1      1458-2.75622E+09-4.71631E+06-1.04916E+09 5.50054E+07-2.40079E+09 5.24325E+06
 -1      1459-3.25587E+09-3.36387E+06-1.23851E+09 5.90736E+07-2.33963E+09 5.24088E+06
 -1      1460-3.79225E+09-2.90360E+06-1.44216E+09 6.36110E+07-2.27850E+09 5.23810E+06
 -1      1461-4.36438E+09-4.43189E+06-1.66015E+09 6.73873E+07-2.21740E+09 5.23489E+06
 -1      1462-4.97366E+09-3.88669E+06-1.89147E+09 7.14785E+07-2.15635E+09 5.23122E+06
 -1      1463-5.61537E+09-1.47140E+06-2.13440E+09 7.56508E+07-2.09533E+09 5.22704E+06
 -1      1464-6.29128E+09-5.89792E+06-2.39293E+09 7.89528E+07-2.03437E+09 5.22236E+06
 -1      1465-7.00020E+09-9.88054E+05-2.66045E+09 8.29705E+07-1.97347E+09 5.21711E+06
 -1      1466-7.73939E+09-4.36017E+06-2.94263E+09 8.61756E+07-1.91264E+09 5.21131E+06
 -1      1467-8.51075E+09-2.39832E+06-3.23500E+09 8.97946E+07-1.85187E+09 5.20491E+06
 -1      1468-9.31004E+09-1.40729E+06-3.53835E+09 9.33128E+07-1.79118E+09 5.19789E+06
 -1      1469-1.01381E+10-6.13098E+06-3.85480E+09 9.62145E+07-1.73058E+09 5.19023E+06
 -1      1470-1.09950E+10 4.95772E+05-4.17793E+09 9.94135E+07-1.67007E+09 5.18190E+06
 -1      1471-1.18773E+10-4.33380E+06-4.51502E+09 1.02341E+08-1.60966E+09 5.17290E+06
 -1      1472-1.27860E+10-1.76822E+06-4.85936E+09 1.05371E+08-1.54937E+09 5.16318E+06
 -1      1473-1.37188E+10-2.42375E+06-5.21408E+09 1.08129E+08-1.48919E+09 5.15274E+06
 -1      1474-1.46753E+10-3.45933E+06-5.57794E+09 1.10634E+08-1.42913E+09 5.14156E+06
 -1      1475-1.56559E+10-1.23934E+06-5.94970E+09 1.13087E+08-1.36921E+09 5.12961E+06
 -1      1476-1.66574E+10-9.40428E+05-6.33016E+09 1.15902E+08-1.30944E+09 5.11688E+06
 -1      1477-1.76788E+10-3.18183E+06-6.71914E+09 1.18139E+08-1.24981E+09 5.10336E+06
 -1      1478-1.87216E+10-3.26095E+06-7.11545E+09 1.20162E+08-1.19035E+09 5.08902E+06
 -1      1479-1.97831E+10 1.20344E+06-7.51710E+09 1.22370E+08-1.13106E+09 5.07386E+06
 -1      1480-2.08624E+10-3.78548E+06-7.92915E+09 1.24277E+08-1.07196E+09 5.05785E+06
 -1      1481-2.19586E+10-8.75339E+05-8.34459E+09 1.26419E+08-1.01304E+09 5.04098E+06
 -1      1482-2.30713E+10-2.07538E+06-8.76788E+09 1.27953E+08-9.54332E+08 5.02325E+06
 -1      1483-2.41996E+10-8.40029E+05-9.19618E+09 1.29910E+08-8.95831E+08 5.00463E+06
 -1      1484-2.53405E+10-1.44708E+06-9.62992E+09 1.31501E+08-8.37552E+08 4.98512E+06
 -1      1485-2.64967E+10-3.09048E+06-1.00699E+10 1.32364E+08-7.79507E+08 4.96470E+06
 -1      1486-2.76653E+10 5.15739E+05-1.05126E+10 1.34508E+08-7.21706E+08 4.94337E+06
 -1      1487-2.88439E+10 5.89488E+05-1.09605E+10 1.35453E+08-6.64158E+08 4.92111E+06
 -1      1488-3.00337E+10-2.50862E+06-1.14137E+10 1.36773E+08-6.06876E+08 4.89792E+06
 -1      1489-3.12335E+10-3.48493E+06-1.18701E+10 1.37497E+08-5.49870E+08 4.87379E+06
 -1      1490-3.24424E+10 4.17352E+06-1.23265E+10 1.38598E+08-4.93150E+08 4.84871E+06
 -1      1491-3.36586E+10-3.43645E+06-1.27916E+10 1.39280E+08-4.36729E+08 4.82268E+06
 -1      1492-3.48817E+10-2.07457E+06-1.32558E+10 1.40420E+08-3.80618E+08 4.79568E+06
 -1      1493-3.61109E+10 8.71988E+05-1.37218E+10 1.40834E+08-3.24827E+08 4.76772E+06
 -1      1494-3.73466E+10 1.91155E+06-1.41910E+10 1.41389E+08-2.69368E+08 4.73878E+06
 -1      1495-3.85830E+10-2.07438E+05-1.46616E+10 1.42043E+08-2.14251E+08 4.70888E+06
 -1      1496-3.98269E+10-5.74885E+06-1.51364E+10 1.41276E+08-1.59490E+08 4.67800E+06
 -1      1497-4.10732E+10 4.66662E+06-1.56060E+10 1.43140E+08-1.05095E+08 4.64613E+06
 -1      1498-4.23167E+10-1.77919E+06-1.60810E+10 1.42786E+08-5.10773E+07 4.61328E+06
 -1      1499-4.35650E+10-1.96198E+06-1.65554E+10 1.42368E+08 2.55148E+06 4.57946E+06
 -1      1500-4.48124E+10 1.97680E+06-1.70280E+10 1.42509E+08 5.57800E+07 4.54465E+06
 -1      1501-4.60599E+10 3.02283E+06-1.75016E+10 1.41873E+08 1.08597E+08 4.50885E+06
 -1      1502-4.73037E+10-2.02415E+06-1.79762E+10 1.42977E+08 1.60989E+08 4.47208E+06
 -1      1503-4.85442E+10-2.90260E+06-1.84479E+10 1.41524E+08 2.12948E+08 4.43433E+06
 -1      1504-4.97848E+10 3.17734E+06-1.89170E+10 1.41377E+08 2.64460E+08 4.39560E+06
 -1      1505-5.10198E+10 3.97766E+06-1.93860E+10 1.40801E+08 3.15515E+08 4.35589E+06
 -1      1506-5.22463E+10-2.68330E+06-1.98546E+10 1.40529E+08 3.66101E+08 4.31522E+06
 -1      1507-5.34719E+10-3.62727E+06-2.03207E+10 1.38610E+08 4.16206E+08 4.27358E+06
 -1      1508-5.46907E+10 8.95822E+06-2.07791E+10 1.39315E+08 4.65820E+08 4.23097E+06
 -1      1509-5.58964E+10-4.03485E+05-2.12408E+10 1.38105E+08 5.14932E+08 4.18742E+06
 -1      1510-5.70992E+10-4.65942E+06-2.16995E+10 1.36218E+08 5.63529E+08 4.14291E+06
 -1      1511-5.82914E+10 3.70499E+04-2.21507E+10 1.36067E+08 6.11602E+08 4.09746E+06
 -1      1512-5.94758E+10 9.20817E+06-2.25973E+10 1.33889E+08 6.59140E+08 4.05107E+06
 -1      1513-6.06463E+10-2.69612E+06-2.30466E+10 1.34449E+08 7.06130E+08 4.00376E+06
 -1      1514-6.18051E+10-4.94733E+06-2.34878E+10 1.31612E+08 7.52563E+08 3.95553E+06
 -1      1515-6.29584E+10 1.26895E+07-2.39194E+10 1.30612E+08 7.98428E+08 3.90638E+06
 -1      1516-6.40898E+10-5.23585E+06-2.43561E+10 1.29478E+08 8.43715E+08 3.85634E+06
 -1      1517-6.52146E+10-1.55266E+06-2.47821E+10 1.26396E+08 8.88412E+08 3.80541E+06
 -1      1518-6.63247E+10 5.60571E+06-2.52013E+10 1.26634E+08 9.32510E+08 3.75360E+06
 -1      1519-6.74161E+10 4.84748E+06-2.56163E+10 1.24109E+08 9.75998E+08 3.70092E+06
 -1      1520-6.84942E+10-1.91516E+06-2.60285E+10 1.22708E+08 1.01887E+09 3.64739E+06
 -1      1521-6.95544E+10-2.22256E+06-2.64315E+10 1.20003E+08 1.06111E+09 3.59302E+06
 -1      1522-7.06024E+10 4.22904E+06-2.68273E+10 1.17617E+08 1.10271E+09 3.53781E+06
 -1      1523-7.16304E+10 1.19839E+07-2.72150E+10 1.17184E+08 1.14366E+09 3.48179E+06
 -1      1524-7.26349E+10-6.70441E+06-2.76038E+10 1.14284E+08 1.18395E+09 3.42497E+06
 -1      1525-7.36268E+10-8.51557E+06-2.79814E+10 1.12155E+08 1.22358E+09 3.36736E+06
 -1      1526-7.46003E+10 1.99431E+07-2.83405E+10 1.09712E+08 1.26252E+09 3.30897E+06
 -1      1527-7.55459E+10-7.08213E+06-2.87101E+10 1.07920E+08 1.30079E+09 3.24984E+06
 -1      1528-7.64785E+10-1.14050E+05-2.90619E+10 1.03752E+08 1.33836E+09 3.18996E+06
 -1      1529-7.73881E+10 6.12980E+06-2.94051E+10 1.03478E+08 1.37522E+09 3.12935E+06
 -1      1530-7.82727E+10 5.98409E+06-2.97414E+10 1.00022E+08 1.41138E+09 3.06804E+06
 -1      1531-7.91364E+10-2.01305E+05-3.00719E+10 9.78907E+07 1.44681E+09 3.00605E+06
 -1      1532-7.99752E+10-6.47612E+06-3.03930E+10 9.43100E+07 1.48152E+09 2.94338E+06
 -1      1533-8.07982E+10 1.67166E+07-3.06970E+10 9.10827E+07 1.51549E+09 2.88005E+06
 -1      1534-8.15880E+10-4.13069E+06-3.10050E+10 9.07094E+07 1.54872E+09 2.81609E+06
 -1      1535-8.23534E+10-3.07475E+06-3.12954E+10 8.58834E+07 1.58120E+09 2.75152E+06
 -1      1536-8.31016E+10 7.65440E+06-3.15757E+10 8.34980E+07 1.61293E+09 2.68635E+06
 -1      1537-8.38157E+10 1.22155E+07-3.18453E+10 8.03896E+07 1.64389E+09 2.62061E+06
 -1      1538-8.45085E+10-6.87114E+06-3.21158E+10 7.65864E+07 1.67408E+09 2.55431E+06
 -1      1539-8.51727E+10-6.14243E+06-3.23679E+10 7.54886E+07 1.70349E+09 2.48748E+06
 -1      1540-8.58088E+10 1.26179E+07-3.26025E+10 7.11538E+07 1.73212E+09 2.42013E+06
 -1      1541-8.64217E+10 7.48713E+06-3.28374E+10 6.80915E+07 1.75996E+09 2.35229E+06
 -1      1542-8.69981E+10-2.73364E+06-3.30603E+10 6.53598E+07 1.78701E+09 2.28398E+06
 -1      1543-8.75542E+10-4.01845E+06-3.32721E+10 6.00601E+07 1.81326E+09 2.21523E+06
 -1      1544-8.80822E+10 1.81190E+07-3.34644E+10 5.92507E+07 1.83870E+09 2.14605E+06
 -1      1545-8.85704E+10-6.24393E+06-3.36591E+10 5.53900E+07 1.86333E+09 2.07647E+06
 -1      1546-8.90374E+10-7.91035E+05-3.38345E+10 5.08970E+07 1.88715E+09 2.00652E+06
 -1      1547-8.94755E+10 8.51871E+06-3.39974E+10 4.80020E+07 1.91015E+09 1.93620E+06
 -1      1548-8.98769E+10 7.11552E+06-3.41505E+10 4.44416E+07 1.93233E+09 1.86556E+06
 -1      1549-9.02525E+10-7.74102E+05-3.42963E+10 4.04233E+07 1.95369E+09 1.79461E+06
 -1      1550-9.05944E+10-3.50956E+06-3.44272E+10 3.79509E+07 1.97421E+09 1.72338E+06
 -1      1551-9.09047E+10 1.37245E+07-3.45386E+10 3.36236E+07 1.99390E+09 1.65189E+06
 -1      1552-9.11872E+10 4.74170E+06-3.46493E+10 2.96107E+07 2.01276E+09 1.58017E+06
 -1      1553-9.14293E+10-7.81013E+06-3.47461E+10 2.74759E+07 2.03077E+09 1.50824E+06
 -1      1554-9.16467E+10 1.66742E+06-3.48251E+10 2.10782E+07 2.04795E+09 1.43613E+06
 -1      1555-9.18332E+10 1.82013E+07-3.48897E+10 1.99838E+07 2.06428E+09 1.36386E+06
 -1      1556-9.19752E+10-6.14241E+06-3.49529E+10 1.56716E+07 2.07978E+09 1.29147E+06
 -1      1557-9.20943E+10 1.52719E+05-3.49958E+10 1.08431E+07 2.09442E+09 1.21897E+06
 -1      1558-9.21764E+10 7.10102E+06-3.50243E+10 7.42459E+06 2.10822E+09 1.14639E+06
 -1      1559-9.22290E+10 9.41995E+06-3.50434E+10 2.64452E+06 2.12117E+09 1.07376E+06
 -1      1560-9.22409E+10-7.62439E+05-3.50518E+10 1.44051E+06 2.13328E+09 1.00110E+06
 -1      1561-9.22201E+10-5.91262E+06-3.50459E+10-4.73380E+06 2.14453E+09 9.28446E+05
 -1      1562-9.21726E+10 2.00194E+07-3.50180E+10-7.98569E+06 2.15494E+09 8.55818E+05
 -1      1563-9.20829E+10-7.53299E+06-3.49944E+10-1.15503E+07 2.16450E+09 7.83261E+05
 -1      1564-9.19707E+10-7.74962E+05-3.49492E+10-1.74398E+07 2.17322E+09 7.10799E+05
 -1      1565-9.18206E+10 1.68166E+07-3.48854E+10-1.88465E+07 2.18109E+09 6.38428E+05
 -1      1566-9.16252E+10 1.34134E+06-3.48171E+10-2.44608E+07 2.18812E+09 5.66180E+05
 -1      1567-9.14000E+10-5.81741E+06-3.47342E+10-2.67609E+07 2.19430E+09 4.94097E+05
 -1      1568-9.11380E+10 5.37934E+06-3.46304E+10-3.24208E+07 2.19965E+09 4.22206E+05
 -1      1569-9.08414E+10 5.51701E+06-3.45176E+10-3.59528E+07 2.20415E+09 3.50536E+05
 -1      1570-9.05139E+10 1.00341E+07-3.43915E+10-4.09807E+07 2.20783E+09 2.79111E+05
 -1      1571-9.01437E+10-6.39011E+05-3.42549E+10-4.22873E+07 2.21067E+09 2.07962E+05
 -1      1572-8.97395E+10-5.65698E+06-3.41031E+10-4.85597E+07 2.21268E+09 1.37118E+05
 -1      1573-8.93082E+10 1.96334E+07-3.39297E+10-5.20525E+07 2.21387E+09 6.66024E+04
 -1      1574-8.88294E+10-5.45711E+06-3.37573E+10-5.55231E+07 2.21424E+09-3.55468E+03
 -1      1575-8.83242E+10-7.16824E+05-3.35635E+10-6.16039E+07 2.21379E+09-7.33238E+04
 -1      1576-8.77834E+10 9.62052E+06-3.33540E+10-6.30946E+07 2.21253E+09-1.42681E+05
 -1      1577-8.72020E+10 5.90986E+06-3.31345E+10-6.81688E+07 2.21046E+09-2.11597E+05
 -1      1578-8.65880E+10 6.21722E+06-3.29011E+10-7.17494E+07 2.20759E+09-2.80043E+05
 -1      1579-8.59373E+10-9.95186E+06-3.26600E+10-7.71493E+07 2.20393E+09-3.47992E+05
 -1      1580-8.52589E+10 1.32227E+07-3.23934E+10-8.06964E+07 2.19948E+09-4.15416E+05
 -1      1581-8.45363E+10 2.68028E+06-3.21228E+10-8.27743E+07 2.19424E+09-4.82289E+05
 -1      1582-8.37791E+10-3.42885E+06-3.18374E+10-8.87225E+07 2.18823E+09-5.48579E+05
 -1      1583-8.29945E+10 9.15407E+06-3.15344E+10-9.21887E+07 2.18144E+09-6.14262E+05
 -1      1584-8.21700E+10 8.78868E+06-3.12213E+10-9.61923E+07 2.17390E+09-6.79311E+05
 -1      1585-8.13076E+10-2.63108E+06-3.08979E+10-9.96769E+07 2.16559E+09-7.43696E+05
 -1      1586-8.04175E+10-3.18569E+05-3.05588E+10-1.05440E+08 2.15655E+09-8.07390E+05
 -1      1587-7.94910E+10 8.49634E+06-3.02034E+10-1.07051E+08 2.14676E+09-8.70369E+05
 -1      1588-7.85275E+10 6.48173E+06-2.98380E+10-1.11935E+08 2.13624E+09-9.32603E+05
 -1      1589-7.75311E+10 1.03781E+06-2.94614E+10-1.15312E+08 2.12500E+09-9.94065E+05
 -1      1590-7.64998E+10-4.34551E+06-2.90716E+10-1.20121E+08 2.11305E+09-1.05473E+06
 -1      1591-7.54414E+10 1.47385E+07-2.86621E+10-1.24306E+08 2.10040E+09-1.11457E+06
 -1      1592-7.43413E+10 2.61503E+06-2.82487E+10-1.26083E+08 2.08705E+09-1.17356E+06
 -1      1593-7.32088E+10-5.53068E+06-2.78215E+10-1.31903E+08 2.07302E+09-1.23167E+06
 -1      1594-7.20494E+10 4.49434E+06-2.73771E+10-1.34384E+08 2.05831E+09-1.28888E+06
 -1      1595-7.08507E+10 1.08745E+07-2.69191E+10-1.38736E+08 2.04295E+09-1.34516E+06
 -1      1596-6.96230E+10-3.31473E+05-2.64569E+10-1.42641E+08 2.02693E+09-1.40048E+06
 -1      1597-6.83613E+10-2.64918E+06-2.59783E+10-1.45541E+08 2.01027E+09-1.45483E+06
 -1      1598-6.70690E+10 1.33758E+07-2.54812E+10-1.49735E+08 1.99299E+09-1.50817E+06
 -1      1599-6.57431E+10-1.47246E+06-2.49829E+10-1.52838E+08 1.97509E+09-1.56047E+06
 -1      1600-6.43848E+10-1.47856E+06-2.44668E+10-1.57203E+08 1.95658E+09-1.61172E+06
 -1      1601-6.30008E+10 7.61706E+06-2.39374E+10-1.61127E+08 1.93749E+09-1.66189E+06
 -1      1602-6.15822E+10 6.84545E+06-2.33986E+10-1.63170E+08 1.91781E+09-1.71096E+06
 -1      1603-6.01293E+10-1.54238E+06-2.28497E+10-1.67033E+08 1.89757E+09-1.75890E+06
 -1      1604-5.86516E+10 5.62693E+05-2.22874E+10-1.71171E+08 1.87677E+09-1.80568E+06
 -1      1605-5.71434E+10 5.72146E+06-2.17123E+10-1.74204E+08 1.85544E+09-1.85128E+06
 -1      1606-5.56029E+10 8.87726E+06-2.11257E+10-1.77643E+08 1.83358E+09-1.89569E+06
 -1      1607-5.40353E+10-2.48126E+06-2.05344E+10-1.81500E+08 1.81121E+09-1.93887E+06
 -1      1608-5.24381E+10-4.38612E+06-1.99281E+10-1.83518E+08 1.78835E+09-1.98080E+06
 -1      1609-5.08128E+10 1.44170E+07-1.93034E+10-1.87523E+08 1.76500E+09-2.02147E+06
 -1      1610-4.91583E+10-2.20835E+06-1.86810E+10-1.90300E+08 1.74119E+09-2.06084E+06
 -1      1611-4.74755E+10 2.94265E+05-1.80406E+10-1.94067E+08 1.71692E+09-2.09890E+06
 -1      1612-4.57691E+10 5.60437E+06-1.73901E+10-1.97404E+08 1.69222E+09-2.13562E+06
 -1      1613-4.40331E+10 5.19153E+06-1.67306E+10-1.99416E+08 1.66710E+09-2.17099E+06
 -1      1614-4.22680E+10 6.40715E+04-1.60618E+10-2.02730E+08 1.64157E+09-2.20498E+06
 -1      1615-4.04804E+10-5.84406E+05-1.53828E+10-2.06137E+08 1.61565E+09-2.23757E+06
 -1      1616-3.86664E+10 8.56696E+06-1.46900E+10-2.08896E+08 1.58937E+09-2.26874E+06
 -1      1617-3.68262E+10-6.06742E+05-1.39942E+10-2.11907E+08 1.56272E+09-2.29847E+06
 -1      1618-3.49612E+10 9.40078E+05-1.32849E+10-2.14309E+08 1.53574E+09-2.32675E+06
 -1      1619-3.30720E+10 3.62230E+06-1.25660E+10-2.17354E+08 1.50844E+09-2.35354E+06
 -1      1620-3.11591E+10 6.25803E+06-1.18381E+10-2.20045E+08 1.48083E+09-2.37884E+06
 -1      1621-2.92210E+10-1.10027E+06-1.11044E+10-2.22739E+08 1.45294E+09-2.40262E+06
 -1      1622-2.72615E+10-1.06749E+06-1.03598E+10-2.25625E+08 1.42478E+09-2.42486E+06
 -1      1623-2.52793E+10 6.43628E+06-9.60367E+09-2.27636E+08 1.39637E+09-2.44555E+06
 -1      1624-2.32731E+10 2.25809E+06-8.84294E+09-2.30442E+08 1.36772E+09-2.46468E+06
 -1      1625-2.12462E+10 1.39863E+06-8.07304E+09-2.32766E+08 1.33886E+09-2.48221E+06
 -1      1626-1.91979E+10 4.98473E+05-7.29500E+09-2.35416E+08 1.30981E+09-2.49814E+06
 -1      1627-1.71289E+10 4.67590E+06-6.50722E+09-2.37681E+08 1.28058E+09-2.51245E+06
 -1      1628-1.50392E+10 7.57159E+05-5.71459E+09-2.40060E+08 1.25119E+09-2.52512E+06
 -1      1629-1.29294E+10 1.25017E+06-4.91269E+09-2.42153E+08 1.22167E+09-2.53613E+06
 -1      1630-1.08004E+10 2.82957E+06-4.10308E+09-2.44437E+08 1.19202E+09-2.54548E+06
 -1      1631-8.65220E+09 1.97575E+06-3.28709E+09-2.46564E+08 1.16228E+09-2.55314E+06
 -1      1632-6.48548E+09 1.55889E+06-2.46389E+09-2.48634E+08 1.13246E+09-2.55910E+06
 -1      1633-4.30066E+09 1.44168E+06-1.63370E+09-2.50783E+08 1.10258E+09-2.56335E+06
 -1      1634-2.09864E+09 2.01499E+06-7.96718E+08-2.52656E+08 1.07265E+09-2.56587E+06
 -1      1635 1.21093E+08 1.65748E+06 4.66450E+07-2.54639E+08 1.04271E+09-2.56665E+06
 -1      1636 2.35707E+09 1.68320E+06 8.96328E+08-2.56511E+08 1.01277E+09-2.56567E+06
 -1      1637 4.60911E+09 1.75415E+06 1.75213E+09-2.58290E+08 9.82855E+08-2.56292E+06
 -1      1638 6.87757E+09 6.29044E+05 2.61372E+09-2.59981E+08 9.52980E+08-2.55840E+06
 -1      1639 9.16019E+09 2.13619E+06 3.48169E+09-2.61957E+08 9.23167E+08-2.55208E+06
 -1      1640 1.14580E+10 2.00159E+06 4.35480E+09-2.63365E+08 8.93439E+08-2.54396E+06
 -1      1641 1.37703E+10 9.16435E+05 5.23308E+09-2.65029E+08 8.63816E+08-2.53402E+06
 -1      1642 1.60962E+10 1.27680E+05 6.11660E+09-2.66546E+08 8.34319E+08-2.52226E+06
 -1      1643 1.84353E+10 2.29895E+06 7.00627E+09-2.67995E+08 8.04971E+08-2.50865E+06
 -1      1644 2.07873E+10 2.97418E+06 7.90032E+09-2.69668E+08 7.75792E+08-2.49321E+06
 -1      1645 2.31520E+10-2.50278E+06 8.79681E+09-2.70855E+08 7.46804E+08-2.47590E+06
 -1      1646 2.55277E+10 3.29720E+06 9.70179E+09-2.72399E+08 7.18029E+08-2.45672E+06
 -1      1647 2.79157E+10 2.73041E+06 1.06090E+10-2.73381E+08 6.89488E+08-2.43567E+06
 -1      1648 3.03140E+10-2.12375E+06 1.15185E+10-2.74659E+08 6.61204E+08-2.41274E+06
 -1      1649 3.27252E+10 2.68904E+05 1.24357E+10-2.75434E+08 6.33199E+08-2.38791E+06
 -1      1650 3.51430E+10 4.68765E+06 1.33561E+10-2.77946E+08 6.05494E+08-2.36118E+06
 -1      1651 3.75714E+10 2.35201E+06 1.42780E+10-2.77866E+08 5.78112E+08-2.33254E+06
 -1      1652 4.00121E+10-5.90432E+06 1.52023E+10-2.79168E+08 5.51076E+08-2.30198E+06
 -1      1653 4.24564E+10 5.27311E+06 1.61354E+10-2.80342E+08 5.24407E+08-2.26950E+06
 -1      1654 4.49133E+10 2.66905E+06 1.70681E+10-2.80355E+08 4.98129E+08-2.23509E+06
 -1      1655 4.73778E+10-2.09893E+06 1.80028E+10-2.82527E+08 4.72263E+08-2.19874E+06
 -1      1656 4.98470E+10-1.31608E+06 1.89414E+10-2.82719E+08 4.46833E+08-2.16045E+06
 -1      1657 5.23257E+10 2.40511E+06 1.98847E+10-2.83917E+08 4.21860E+08-2.12021E+06
 -1      1658 5.48086E+10 4.72417E+06 2.08291E+10-2.84006E+08 3.97369E+08-2.07801E+06
 -1      1659 5.73029E+10-2.76432E+06 2.17741E+10-2.84374E+08 3.73381E+08-2.03386E+06
 -1      1660 5.98002E+10-2.53806E+06 2.27231E+10-2.86401E+08 3.49920E+08-1.98773E+06
 -1      1661 6.22993E+10-3.84322E+05 2.36736E+10-2.86582E+08 3.27009E+08-1.93965E+06
 -1      1662 6.48089E+10 9.52453E+06 2.46310E+10-2.86260E+08 3.04669E+08-1.88958E+06
 -1      1663 6.73229E+10-6.20225E+06 2.55803E+10-2.87782E+08 2.82926E+08-1.83754E+06
 -1      1664 6.98387E+10 1.42961E+06 2.65393E+10-2.87499E+08 2.61801E+08-1.78352E+06
 -1      1665 7.23611E+10 4.54876E+06 2.74990E+10-2.88880E+08 2.41318E+08-1.72752E+06
 -1      1666 7.48849E+10-2.48271E+06 2.84553E+10-2.88696E+08 2.21500E+08-1.66952E+06
 -1      1667 7.74167E+10-5.76686E+06 2.94161E+10-2.89167E+08 2.02370E+08-1.60954E+06
 -1      1668 7.99453E+10 6.05209E+06 3.03815E+10-2.90032E+08 1.83952E+08-1.54756E+06
 -1      1669 8.24806E+10 3.93800E+06 3.13441E+10-2.89326E+08 1.66268E+08-1.48359E+06
 -1      1670 8.50199E+10-2.71463E+06 3.23065E+10-2.89170E+08 1.49342E+08-1.41762E+06
 -1      1671 8.75640E+10-7.98782E+06 3.32713E+10-2.91426E+08 1.33198E+08-1.34965E+06
 -1      1672 9.00957E+10 9.05912E+06 3.42398E+10-2.91126E+08 1.17858E+08-1.27968E+06
 -1      1673 9.26492E+10 2.62256E+06 3.52077E+10-2.90280E+08 1.03346E+08-1.20770E+06
 -1      1674 9.51873E+10-7.34503E+06 3.61684E+10-2.90920E+08 8.96856E+07-1.13372E+06
 -1      1675 9.77448E+10-5.35816E+06 3.71410E+10-2.90501E+08 7.68999E+07-1.05774E+06
 -1      1676 1.00279E+11 1.84173E+07 3.81129E+10-2.91618E+08 6.50124E+07-9.79745E+05
 -1      1677 1.02847E+11-9.14984E+06 3.90782E+10-2.91827E+08 5.40465E+07-8.99744E+05
 -1      1678 1.05374E+11-7.42844E+05 4.00420E+10-2.91502E+08 4.40256E+07-8.17735E+05
 -1      1679 1.07952E+11-8.66285E+06 4.10186E+10-2.91958E+08 3.49731E+07-7.33717E+05
 -1      1680 1.10465E+11 2.54199E+07 4.19865E+10-2.89910E+08 2.69126E+07-6.47692E+05
 -1      1681 1.13075E+11-1.81644E+07 4.29617E+10-2.93163E+08 1.98675E+07-5.59652E+05
 -1      1682 1.15554E+11-6.98233E+07 4.38838E+10-2.90760E+08 1.38611E+07-4.69605E+05
 -1      1683 1.18181E+11 3.98036E+08 4.50599E+10-2.97394E+08 8.91703E+06-3.77551E+05
 -1      1684 1.20689E+11-1.55903E+09 4.52695E+10-2.67573E+08 5.05859E+06-2.83471E+05
 -1      1685 1.23137E+11 5.78425E+09 4.89900E+10-3.80504E+08 2.30936E+06-1.87434E+05
 -1      1686 1.26394E+11-2.12261E+10 3.99637E+10 3.70248E+07 6.92858E+05-8.91886E+04
 -1      1687 1.28092E+11 7.84597E+10 7.84896E+10-1.51068E+09 1.70529E+05-3.94350E+04
 -1      1688-9.18218E+06-4.87564E+06-5.34202E+06 9.16895E+03 3.04386E+09-5.25144E+06
 -1      1689-3.26117E+07-4.79043E+06-1.42129E+07 5.55774E+06 3.01323E+09-5.25143E+06
 -1      1690-1.04742E+08-4.78499E+06-4.16203E+07 1.09955E+07 2.95196E+09-5.25138E+06
 -1      1691-2.24167E+08-4.57511E+06-8.69220E+07 1.63308E+07 2.89069E+09-5.25125E+06
 -1      1692-3.89534E+08-4.64233E+06-1.49787E+08 2.15165E+07 2.82942E+09-5.25100E+06
 -1      1693-6.00270E+08-4.09940E+06-2.29660E+08 2.66522E+07 2.76816E+09-5.25061E+06
 -1      1694-8.54727E+08-4.86133E+06-3.26643E+08 3.16404E+07 2.70690E+09-5.25004E+06
 -1      1695-1.15291E+09-3.73938E+06-4.39527E+08 3.64797E+07 2.64565E+09-5.24925E+06
 -1      1696-1.49280E+09-4.45777E+06-5.68957E+08 4.13078E+07 2.58441E+09-5.24821E+06
 -1      1697-1.87414E+09-3.96061E+06-7.13676E+08 4.58844E+07 2.52318E+09-5.24688E+06
 -1      1698-2.29602E+09-3.46056E+06-8.73803E+08 5.04758E+07 2.46198E+09-5.24524E+06
 -1      1699-2.75623E+09-4.71632E+06-1.04916E+09 5.50058E+07 2.40079E+09-5.24326E+06
 -1      1700-3.25588E+09-3.36396E+06-1.23851E+09 5.90739E+07 2.33963E+09-5.24088E+06
 -1      1701-3.79226E+09-2.90356E+06-1.44216E+09 6.36113E+07 2.27850E+09-5.23811E+06
 -1      1702-4.36438E+09-4.43192E+06-1.66015E+09 6.73876E+07 2.21740E+09-5.23490E+06
 -1      1703-4.97366E+09-3.88673E+06-1.89147E+09 7.14786E+07 2.15634E+09-5.23122E+06
 -1      1704-5.61537E+09-1.47137E+06-2.13440E+09 7.56506E+07 2.09533E+09-5.22705E+06
 -1      1705-6.29128E+09-5.89804E+06-2.39293E+09 7.89525E+07 2.03437E+09-5.22236E+06
 -1      1706-7.00020E+09-9.87955E+05-2.66045E+09 8.29702E+07 1.97347E+09-5.21712E+06
 -1      1707-7.73939E+09-4.36027E+06-2.94263E+09 8.61754E+07 1.91263E+09-5.21132E+06
 -1      1708-8.51075E+09-2.39832E+06-3.23500E+09 8.97945E+07 1.85187E+09-5.20492E+06
 -1      1709-9.31004E+09-1.40730E+06-3.53835E+09 9.33128E+07 1.79118E+09-5.19790E+06
 -1      1710-1.01381E+10-6.13090E+06-3.85480E+09 9.62143E+07 1.73058E+09-5.19025E+06
 -1      1711-1.09950E+10 4.95852E+05-4.17793E+09 9.94133E+07 1.67007E+09-5.18192E+06
 -1      1712-1.18773E+10-4.33367E+06-4.51502E+09 1.02341E+08 1.60966E+09-5.17291E+06
 -1      1713-1.27860E+10-1.76825E+06-4.85936E+09 1.05371E+08 1.54936E+09-5.16320E+06
 -1      1714-1.37188E+10-2.42364E+06-5.21408E+09 1.08130E+08 1.48918E+09-5.15276E+06
 -1      1715-1.46753E+10-3.45932E+06-5.57794E+09 1.10634E+08 1.42913E+09-5.14158E+06
 -1      1716-1.56559E+10-1.23936E+06-5.94970E+09 1.13088E+08 1.36921E+09-5.12963E+06
 -1      1717-1.66574E+10-9.40516E+05-6.33016E+09 1.15902E+08 1.30943E+09-5.11690E+06
 -1      1718-1.76788E+10-3.18184E+06-6.71914E+09 1.18140E+08 1.24981E+09-5.10338E+06
 -1      1719-1.87216E+10-3.26097E+06-7.11545E+09 1.20162E+08 1.19035E+09-5.08904E+06
 -1      1720-1.97831E+10 1.20347E+06-7.51710E+09 1.22371E+08 1.13106E+09-5.07387E+06
 -1      1721-2.08624E+10-3.78552E+06-7.92915E+09 1.24277E+08 1.07196E+09-5.05786E+06
 -1      1722-2.19586E+10-8.75314E+05-8.34459E+09 1.26418E+08 1.01304E+09-5.04100E+06
 -1      1723-2.30713E+10-2.07544E+06-8.76788E+09 1.27953E+08 9.54329E+08-5.02326E+06
 -1      1724-2.41996E+10-8.40001E+05-9.19618E+09 1.29910E+08 8.95829E+08-5.00464E+06
 -1      1725-2.53405E+10-1.44712E+06-9.62992E+09 1.31501E+08 8.37550E+08-4.98512E+06
 -1      1726-2.64967E+10-3.09044E+06-1.00699E+10 1.32364E+08 7.79505E+08-4.96471E+06
 -1      1727-2.76653E+10 5.15719E+05-1.05126E+10 1.34508E+08 7.21704E+08-4.94337E+06
 -1      1728-2.88439E+10 5.89509E+05-1.09605E+10 1.35453E+08 6.64157E+08-4.92111E+06
 -1      1729-3.00337E+10-2.50865E+06-1.14137E+10 1.36773E+08 6.06874E+08-4.89792E+06
 -1      1730-3.12335E+10-3.48494E+06-1.18701E+10 1.37497E+08 5.49868E+08-4.87379E+06
 -1      1731-3.24424E+10 4.17351E+06-1.23265E+10 1.38598E+08 4.93149E+08-4.84871E+06
 -1      1732-3.36586E+10-3.43639E+06-1.27916E+10 1.39280E+08 4.36728E+08-4.82268E+06
 -1      1733-3.48817E+10-2.07459E+06-1.32558E+10 1.40420E+08 3.80617E+08-4.79568E+06
 -1      1734-3.61109E+10 8.72073E+05-1.37218E+10 1.40833E+08 3.24826E+08-4.76771E+06
 -1      1735-3.73466E+10 1.91152E+06-1.41910E+10 1.41389E+08 2.69367E+08-4.73878E+06
 -1      1736-3.85830E+10-2.07483E+05-1.46616E+10 1.42043E+08 2.14251E+08-4.70888E+06
 -1      1737-3.98269E+10-5.74884E+06-1.51364E+10 1.41276E+08 1.59490E+08-4.67800E+06
 -1      1738-4.10732E+10 4.66666E+06-1.56060E+10 1.43140E+08 1.05095E+08-4.64613E+06
 -1      1739-4.23167E+10-1.77920E+06-1.60810E+10 1.42785E+08 5.10778E+07-4.61328E+06
 -1      1740-4.35650E+10-1.96196E+06-1.65554E+10 1.42368E+08-2.55083E+06-4.57946E+06
 -1      1741-4.48124E+10 1.97679E+06-1.70280E+10 1.42508E+08-5.57791E+07-4.54464E+06
 -1      1742-4.60599E+10 3.02278E+06-1.75016E+10 1.41873E+08-1.08595E+08-4.50885E+06
 -1      1743-4.73037E+10-2.02410E+06-1.79762E+10 1.42977E+08-1.60988E+08-4.47208E+06
 -1      1744-4.85442E+10-2.90261E+06-1.84479E+10 1.41524E+08-2.12946E+08-4.43433E+06
 -1      1745-4.97848E+10 3.17730E+06-1.89170E+10 1.41377E+08-2.64459E+08-4.39560E+06
 -1      1746-5.10198E+10 3.97762E+06-1.93860E+10 1.40800E+08-3.15513E+08-4.35589E+06
 -1      1747-5.22463E+10-2.68329E+06-1.98546E+10 1.40529E+08-3.66099E+08-4.31522E+06
 -1      1748-5.34719E+10-3.62729E+06-2.03207E+10 1.38610E+08-4.16204E+08-4.27358E+06
 -1      1749-5.46907E+10 8.95829E+06-2.07791E+10 1.39315E+08-4.65818E+08-4.23098E+06
 -1      1750-5.58964E+10-4.03495E+05-2.12408E+10 1.38105E+08-5.14929E+08-4.18743E+06
 -1      1751-5.70992E+10-4.65936E+06-2.16995E+10 1.36218E+08-5.63527E+08-4.14292E+06
 -1      1752-5.82914E+10 3.71042E+04-2.21507E+10 1.36067E+08-6.11600E+08-4.09747E+06
 -1      1753-5.94758E+10 9.20812E+06-2.25973E+10 1.33889E+08-6.59137E+08-4.05109E+06
 -1      1754-6.06463E+10-2.69612E+06-2.30466E+10 1.34449E+08-7.06128E+08-4.00378E+06
 -1      1755-6.18051E+10-4.94730E+06-2.34878E+10 1.31612E+08-7.52561E+08-3.95555E+06
 -1      1756-6.29584E+10 1.26895E+07-2.39194E+10 1.30612E+08-7.98426E+08-3.90640E+06
 -1      1757-6.40898E+10-5.23580E+06-2.43561E+10 1.29478E+08-8.43713E+08-3.85637E+06
 -1      1758-6.52146E+10-1.55267E+06-2.47821E+10 1.26396E+08-8.88410E+08-3.80544E+06
 -1      1759-6.63247E+10 5.60572E+06-2.52013E+10 1.26634E+08-9.32508E+08-3.75363E+06
 -1      1760-6.74161E+10 4.84749E+06-2.56163E+10 1.24109E+08-9.75997E+08-3.70095E+06
 -1      1761-6.84942E+10-1.91520E+06-2.60285E+10 1.22709E+08-1.01887E+09-3.64742E+06
 -1      1762-6.95544E+10-2.22258E+06-2.64315E+10 1.20003E+08-1.06111E+09-3.59305E+06
 -1      1763-7.06024E+10 4.22907E+06-2.68273E+10 1.17617E+08-1.10271E+09-3.53784E+06
 -1      1764-7.16304E+10 1.19839E+07-2.72150E+10 1.17184E+08-1.14366E+09-3.48182E+06
 -1      1765-7.26349E+10-6.70437E+06-2.76038E+10 1.14284E+08-1.18395E+09-3.42500E+06
 -1      1766-7.36268E+10-8.51557E+06-2.79814E+10 1.12155E+08-1.22358E+09-3.36739E+06
 -1      1767-7.46003E+10 1.99430E+07-2.83405E+10 1.09712E+08-1.26252E+09-3.30900E+06
 -1      1768-7.55459E+10-7.08212E+06-2.87101E+10 1.07920E+08-1.30079E+09-3.24986E+06
 -1      1769-7.64785E+10-1.14076E+05-2.90619E+10 1.03752E+08-1.33836E+09-3.18998E+06
 -1      1770-7.73881E+10 6.12981E+06-2.94051E+10 1.03478E+08-1.37522E+09-3.12938E+06
 -1      1771-7.82727E+10 5.98407E+06-2.97414E+10 1.00022E+08-1.41138E+09-3.06807E+06
 -1      1772-7.91364E+10-2.01281E+05-3.00719E+10 9.78907E+07-1.44681E+09-3.00607E+06
 -1      1773-7.99752E+10-6.47614E+06-3.03930E+10 9.43100E+07-1.48152E+09-2.94340E+06
 -1      1774-8.07982E+10 1.67166E+07-3.06970E+10 9.10824E+07-1.51549E+09-2.88007E+06
 -1      1775-8.15880E+10-4.13066E+06-3.10050E+10 9.07091E+07-1.54872E+09-2.81611E+06
 -1      1776-8.23534E+10-3.07475E+06-3.12954E+10 8.58833E+07-1.58120E+09-2.75154E+06
 -1      1777-8.31016E+10 7.65442E+06-3.15757E+10 8.34979E+07-1.61293E+09-2.68637E+06
 -1      1778-8.38157E+10 1.22155E+07-3.18453E+10 8.03894E+07-1.64389E+09-2.62062E+06
 -1      1779-8.45085E+10-6.87123E+06-3.21158E+10 7.65860E+07-1.67408E+09-2.55433E+06
 -1      1780-8.51727E+10-6.14237E+06-3.23679E+10 7.54882E+07-1.70349E+09-2.48750E+06
 -1      1781-8.58088E+10 1.26178E+07-3.26025E+10 7.11534E+07-1.73212E+09-2.42015E+06
 -1      1782-8.64217E+10 7.48715E+06-3.28374E+10 6.80911E+07-1.75996E+09-2.35231E+06
 -1      1783-8.69981E+10-2.73366E+06-3.30603E+10 6.53595E+07-1.78701E+09-2.28401E+06
 -1      1784-8.75542E+10-4.01842E+06-3.32721E+10 6.00599E+07-1.81326E+09-2.21526E+06
 -1      1785-8.80822E+10 1.81190E+07-3.34644E+10 5.92505E+07-1.83870E+09-2.14608E+06
 -1      1786-8.85704E+10-6.24388E+06-3.36591E+10 5.53900E+07-1.86333E+09-2.07650E+06
 -1      1787-8.90374E+10-7.91036E+05-3.38345E+10 5.08973E+07-1.88715E+09-2.00655E+06
 -1      1788-8.94755E+10 8.51875E+06-3.39974E+10 4.80024E+07-1.91016E+09-1.93624E+06
 -1      1789-8.98769E+10 7.11551E+06-3.41505E+10 4.44420E+07-1.93233E+09-1.86559E+06
 -1      1790-9.02525E+10-7.74152E+05-3.42963E+10 4.04235E+07-1.95369E+09-1.79465E+06
 -1      1791-9.05944E+10-3.50950E+06-3.44272E+10 3.79509E+07-1.97421E+09-1.72342E+06
 -1      1792-9.09047E+10 1.37245E+07-3.45386E+10 3.36239E+07-1.99390E+09-1.65193E+06
 -1      1793-9.11872E+10 4.74173E+06-3.46493E+10 2.96111E+07-2.01276E+09-1.58021E+06
 -1      1794-9.14293E+10-7.81013E+06-3.47461E+10 2.74762E+07-2.03078E+09-1.50828E+06
 -1      1795-9.16467E+10 1.66740E+06-3.48251E+10 2.10786E+07-2.04795E+09-1.43617E+06
 -1      1796-9.18332E+10 1.82012E+07-3.48897E+10 1.99842E+07-2.06429E+09-1.36390E+06
 -1      1797-9.19752E+10-6.14239E+06-3.49529E+10 1.56720E+07-2.07978E+09-1.29150E+06
 -1      1798-9.20943E+10 1.52632E+05-3.49958E+10 1.08431E+07-2.09442E+09-1.21900E+06
 -1      1799-9.21764E+10 7.10099E+06-3.50243E+10 7.42459E+06-2.10822E+09-1.14642E+06
 -1      1800-9.22290E+10 9.41994E+06-3.50434E+10 2.64436E+06-2.12118E+09-1.07379E+06
 -1      1801-9.22409E+10-7.62389E+05-3.50518E+10 1.44030E+06-2.13328E+09-1.00113E+06
 -1      1802-9.22201E+10-5.91263E+06-3.50459E+10-4.73380E+06-2.14454E+09-9.28475E+05
 -1      1803-9.21726E+10 2.00194E+07-3.50180E+10-7.98567E+06-2.15495E+09-8.55846E+05
 -1      1804-9.20829E+10-7.53293E+06-3.49944E+10-1.15502E+07-2.16451E+09-7.83288E+05
 -1      1805-9.19707E+10-7.74920E+05-3.49492E+10-1.74395E+07-2.17322E+09-7.10824E+05
 -1      1806-9.18206E+10 1.68166E+07-3.48854E+10-1.88463E+07-2.18109E+09-6.38451E+05
 -1      1807-9.16252E+10 1.34135E+06-3.48171E+10-2.44607E+07-2.18812E+09-5.66201E+05
 -1      1808-9.14000E+10-5.81747E+06-3.47342E+10-2.67609E+07-2.19431E+09-4.94116E+05
 -1      1809-9.11380E+10 5.37937E+06-3.46304E+10-3.24206E+07-2.19965E+09-4.22223E+05
 -1      1810-9.08414E+10 5.51704E+06-3.45176E+10-3.59526E+07-2.20416E+09-3.50550E+05
 -1      1811-9.05139E+10 1.00341E+07-3.43915E+10-4.09805E+07-2.20783E+09-2.79123E+05
 -1      1812-9.01437E+10-6.39024E+05-3.42549E+10-4.22873E+07-2.21067E+09-2.07971E+05
 -1      1813-8.97395E+10-5.65697E+06-3.41031E+10-4.85596E+07-2.21269E+09-1.37124E+05
 -1      1814-8.93082E+10 1.96333E+07-3.39297E+10-5.20524E+07-2.21387E+09-6.66056E+04
 -1      1815-8.88294E+10-5.45715E+06-3.37573E+10-5.55233E+07-2.21424E+09 3.55468E+03
 -1      1816-8.83242E+10-7.16941E+05-3.35635E+10-6.16044E+07-2.21379E+09 7.33267E+04
 -1      1817-8.77834E+10 9.62042E+06-3.33540E+10-6.30954E+07-2.21253E+09 1.42687E+05
 -1      1818-8.72020E+10 5.90983E+06-3.31345E+10-6.81696E+07-2.21047E+09 2.11604E+05
 -1      1819-8.65880E+10 6.21730E+06-3.29011E+10-7.17498E+07-2.20760E+09 2.80051E+05
 -1      1820-8.59373E+10-9.95184E+06-3.26600E+10-7.71495E+07-2.20393E+09 3.48000E+05
 -1      1821-8.52589E+10 1.32228E+07-3.23934E+10-8.06965E+07-2.19948E+09 4.15424E+05
 -1      1822-8.45363E+10 2.68023E+06-3.21228E+10-8.27744E+07-2.19424E+09 4.82297E+05
 -1      1823-8.37791E+10-3.42886E+06-3.18374E+10-8.87226E+07-2.18823E+09 5.48586E+05
 -1      1824-8.29945E+10 9.15409E+06-3.15344E+10-9.21888E+07-2.18144E+09 6.14269E+05
 -1      1825-8.21700E+10 8.78872E+06-3.12213E+10-9.61924E+07-2.17390E+09 6.79318E+05
 -1      1826-8.13076E+10-2.63098E+06-3.08979E+10-9.96767E+07-2.16560E+09 7.43703E+05
 -1      1827-8.04175E+10-3.18510E+05-3.05588E+10-1.05439E+08-2.15655E+09 8.07397E+05
 -1      1828-7.94910E+10 8.49630E+06-3.02034E+10-1.07051E+08-2.14676E+09 8.70375E+05
 -1      1829-7.85275E+10 6.48178E+06-2.98380E+10-1.11935E+08-2.13624E+09 9.32610E+05
 -1      1830-7.75311E+10 1.03775E+06-2.94614E+10-1.15312E+08-2.12500E+09 9.94073E+05
 -1      1831-7.64998E+10-4.34554E+06-2.90716E+10-1.20121E+08-2.11305E+09 1.05474E+06
 -1      1832-7.54414E+10 1.47384E+07-2.86621E+10-1.24307E+08-2.10040E+09 1.11458E+06
 -1      1833-7.43413E+10 2.61508E+06-2.82487E+10-1.26083E+08-2.08705E+09 1.17357E+06
 -1      1834-7.32088E+10-5.53071E+06-2.78215E+10-1.31904E+08-2.07302E+09 1.23168E+06
 -1      1835-7.20494E+10 4.49437E+06-2.73771E+10-1.34384E+08-2.05831E+09 1.28889E+06
 -1      1836-7.08507E+10 1.08745E+07-2.69191E+10-1.38736E+08-2.04295E+09 1.34517E+06
 -1      1837-6.96230E+10-3.31484E+05-2.64569E+10-1.42641E+08-2.02693E+09 1.40050E+06
 -1      1838-6.83613E+10-2.64913E+06-2.59783E+10-1.45541E+08-2.01027E+09 1.45484E+06
 -1      1839-6.70690E+10 1.33758E+07-2.54812E+10-1.49735E+08-1.99299E+09 1.50818E+06
 -1      1840-6.57431E+10-1.47244E+06-2.49829E+10-1.52838E+08-1.97509E+09 1.56048E+06
 -1      1841-6.43848E+10-1.47863E+06-2.44668E+10-1.57203E+08-1.95658E+09 1.61173E+06
 -1      1842-6.30008E+10 7.61702E+06-2.39374E+10-1.61128E+08-1.93748E+09 1.66190E+06
 -1      1843-6.15822E+10 6.84551E+06-2.33986E+10-1.63170E+08-1.91781E+09 1.71097E+06
 -1      1844-6.01293E+10-1.54236E+06-2.28497E+10-1.67033E+08-1.89757E+09 1.75890E+06
 -1      1845-5.86516E+10 5.62610E+05-2.22874E+10-1.71171E+08-1.87677E+09 1.80568E+06
 -1      1846-5.71434E+10 5.72143E+06-2.17123E+10-1.74205E+08-1.85544E+09 1.85129E+06
 -1      1847-5.56029E+10 8.87724E+06-2.11257E+10-1.77644E+08-1.83358E+09 1.89569E+06
 -1      1848-5.40353E+10-2.48122E+06-2.05344E+10-1.81500E+08-1.81121E+09 1.93887E+06
 -1      1849-5.24381E+10-4.38609E+06-1.99281E+10-1.83518E+08-1.78835E+09 1.98080E+06
 -1      1850-5.08128E+10 1.44170E+07-1.93034E+10-1.87523E+08-1.76500E+09 2.02147E+06
 -1      1851-4.91583E+10-2.20829E+06-1.86810E+10-1.90300E+08-1.74118E+09 2.06084E+06
 -1      1852-4.74755E+10 2.94283E+05-1.80406E+10-1.94067E+08-1.71692E+09 2.09890E+06
 -1      1853-4.57691E+10 5.60434E+06-1.73901E+10-1.97404E+08-1.69222E+09 2.13562E+06
 -1      1854-4.40331E+10 5.19147E+06-1.67306E+10-1.99416E+08-1.66709E+09 2.17099E+06
 -1      1855-4.22680E+10 6.40411E+04-1.60618E+10-2.02730E+08-1.64156E+09 2.20497E+06
 -1      1856-4.04804E+10-5.84404E+05-1.53828E+10-2.06137E+08-1.61565E+09 2.23756E+06
 -1      1857-3.86664E+10 8.56703E+06-1.46900E+10-2.08896E+08-1.58936E+09 2.26873E+06
 -1      1858-3.68262E+10-6.06780E+05-1.39942E+10-2.11907E+08-1.56272E+09 2.29847E+06
 -1      1859-3.49612E+10 9.40077E+05-1.32849E+10-2.14309E+08-1.53574E+09 2.32674E+06
 -1      1860-3.30720E+10 3.62234E+06-1.25660E+10-2.17354E+08-1.50843E+09 2.35353E+06
 -1      1861-3.11591E+10 6.25803E+06-1.18381E+10-2.20045E+08-1.48083E+09 2.37883E+06
 -1      1862-2.92210E+10-1.10036E+06-1.11044E+10-2.22739E+08-1.45293E+09 2.40261E+06
 -1      1863-2.72615E+10-1.06747E+06-1.03598E+10-2.25626E+08-1.42477E+09 2.42485E+06
 -1      1864-2.52793E+10 6.43629E+06-9.60367E+09-2.27636E+08-1.39636E+09 2.44554E+06
 -1      1865-2.32732E+10 2.25805E+06-8.84294E+09-2.30442E+08-1.36772E+09 2.46466E+06
 -1      1866-2.12462E+10 1.39865E+06-8.07304E+09-2.32766E+08-1.33886E+09 2.48220E+06
 -1      1867-1.91979E+10 4.98467E+05-7.29500E+09-2.35416E+08-1.30981E+09 2.49812E+06
 -1      1868-1.71289E+10 4.67590E+06-6.50722E+09-2.37681E+08-1.28058E+09 2.51243E+06
 -1      1869-1.50392E+10 7.57187E+05-5.71459E+09-2.40060E+08-1.25119E+09 2.52510E+06
 -1      1870-1.29294E+10 1.25015E+06-4.91269E+09-2.42153E+08-1.22166E+09 2.53611E+06
 -1      1871-1.08004E+10 2.82959E+06-4.10308E+09-2.44436E+08-1.19202E+09 2.54545E+06
 -1      1872-8.65221E+09 1.97573E+06-3.28709E+09-2.46563E+08-1.16228E+09 2.55311E+06
 -1      1873-6.48548E+09 1.55894E+06-2.46389E+09-2.48633E+08-1.13246E+09 2.55908E+06
 -1      1874-4.30066E+09 1.44165E+06-1.63370E+09-2.50783E+08-1.10257E+09 2.56332E+06
 -1      1875-2.09864E+09 2.01505E+06-7.96717E+08-2.52656E+08-1.07265E+09 2.56584E+06
 -1      1876 1.21093E+08 1.65751E+06 4.66451E+07-2.54638E+08-1.04271E+09 2.56662E+06
 -1      1877 2.35707E+09 1.68321E+06 8.96328E+08-2.56510E+08-1.01277E+09 2.56564E+06
 -1      1878 4.60911E+09 1.75419E+06 1.75213E+09-2.58290E+08-9.82854E+08 2.56290E+06
 -1      1879 6.87758E+09 6.29054E+05 2.61372E+09-2.59981E+08-9.52978E+08 2.55837E+06
 -1      1880 9.16020E+09 2.13620E+06 3.48169E+09-2.61957E+08-9.23166E+08 2.55206E+06
 -1      1881 1.14580E+10 2.00156E+06 4.35480E+09-2.63365E+08-8.93438E+08 2.54394E+06
 -1      1882 1.37704E+10 9.16422E+05 5.23308E+09-2.65029E+08-8.63815E+08 2.53400E+06
 -1      1883 1.60962E+10 1.27651E+05 6.11660E+09-2.66546E+08-8.34318E+08 2.52224E+06
 -1      1884 1.84353E+10 2.29894E+06 7.00627E+09-2.67995E+08-8.04970E+08 2.50864E+06
 -1      1885 2.07873E+10 2.97420E+06 7.90032E+09-2.69669E+08-7.75791E+08 2.49319E+06
 -1      1886 2.31520E+10-2.50283E+06 8.79681E+09-2.70856E+08-7.46803E+08 2.47588E+06
 -1      1887 2.55277E+10 3.29726E+06 9.70179E+09-2.72399E+08-7.18028E+08 2.45671E+06
 -1      1888 2.79157E+10 2.73037E+06 1.06090E+10-2.73381E+08-6.89488E+08 2.43566E+06
 -1      1889 3.03140E+10-2.12378E+06 1.15185E+10-2.74659E+08-6.61204E+08 2.41273E+06
 -1      1890 3.27252E+10 2.68859E+05 1.24357E+10-2.75434E+08-6.33198E+08 2.38790E+06
 -1      1891 3.51430E+10 4.68764E+06 1.33561E+10-2.77946E+08-6.05494E+08 2.36117E+06
 -1      1892 3.75714E+10 2.35201E+06 1.42780E+10-2.77867E+08-5.78112E+08 2.33253E+06
 -1      1893 4.00121E+10-5.90434E+06 1.52023E+10-2.79168E+08-5.51075E+08 2.30198E+06
 -1      1894 4.24564E+10 5.27309E+06 1.61354E+10-2.80342E+08-5.24407E+08 2.26950E+06
 -1      1895 4.49133E+10 2.66906E+06 1.70681E+10-2.80355E+08-4.98128E+08 2.23509E+06
 -1      1896 4.73778E+10-2.09892E+06 1.80028E+10-2.82527E+08-4.72263E+08 2.19874E+06
 -1      1897 4.98470E+10-1.31608E+06 1.89414E+10-2.82719E+08-4.46832E+08 2.16044E+06
 -1      1898 5.23257E+10 2.40513E+06 1.98847E+10-2.83917E+08-4.21860E+08 2.12020E+06
 -1      1899 5.48086E+10 4.72418E+06 2.08291E+10-2.84006E+08-3.97368E+08 2.07801E+06
 -1      1900 5.73029E+10-2.76431E+06 2.17741E+10-2.84374E+08-3.73381E+08 2.03385E+06
 -1      1901 5.98002E+10-2.53805E+06 2.27231E+10-2.86401E+08-3.49920E+08 1.98773E+06
 -1      1902 6.22993E+10-3.84322E+05 2.36736E+10-2.86582E+08-3.27008E+08 1.93964E+06
 -1      1903 6.48089E+10 9.52451E+06 2.46310E+10-2.86260E+08-3.04669E+08 1.88958E+06
 -1      1904 6.73229E+10-6.20224E+06 2.55803E+10-2.87782E+08-2.82925E+08 1.83754E+06
 -1      1905 6.98387E+10 1.42961E+06 2.65393E+10-2.87499E+08-2.61801E+08 1.78352E+06
 -1      1906 7.23611E+10 4.54876E+06 2.74990E+10-2.88880E+08-2.41318E+08 1.72751E+06
 -1      1907 7.48849E+10-2.48271E+06 2.84553E+10-2.88696E+08-2.21500E+08 1.66952E+06
 -1      1908 7.74167E+10-5.76686E+06 2.94161E+10-2.89167E+08-2.02370E+08 1.60953E+06
 -1      1909 7.99453E+10 6.05210E+06 3.03815E+10-2.90032E+08-1.83951E+08 1.54756E+06
 -1      1910 8.24806E+10 3.93800E+06 3.13441E+10-2.89326E+08-1.66268E+08 1.48359E+06
 -1      1911 8.50199E+10-2.71462E+06 3.23065E+10-2.89170E+08-1.49342E+08 1.41761E+06
 -1      1912 8.75640E+10-7.98783E+06 3.32713E+10-2.91426E+08-1.33197E+08 1.34964E+06
 -1      1913 9.00957E+10 9.05913E+06 3.42398E+10-2.91126E+08-1.17858E+08 1.27967E+06
 -1      1914 9.26492E+10 2.62256E+06 3.52077E+10-2.90280E+08-1.03346E+08 1.20770E+06
 -1      1915 9.51873E+10-7.34503E+06 3.61684E+10-2.90920E+08-8.96853E+07 1.13372E+06
 -1      1916 9.77448E+10-5.35815E+06 3.71410E+10-2.90501E+08-7.68997E+07 1.05773E+06
 -1      1917 1.00279E+11 1.84173E+07 3.81129E+10-2.91618E+08-6.50122E+07 9.79741E+05
 -1      1918 1.02847E+11-9.14984E+06 3.90782E+10-2.91827E+08-5.40463E+07 8.99740E+05
 -1      1919 1.05374E+11-7.42840E+05 4.00420E+10-2.91502E+08-4.40254E+07 8.17731E+05
 -1      1920 1.07952E+11-8.66285E+06 4.10186E+10-2.91958E+08-3.49730E+07 7.33714E+05
 -1      1921 1.10465E+11 2.54199E+07 4.19865E+10-2.89910E+08-2.69125E+07 6.47689E+05
 -1      1922 1.13075E+11-1.81644E+07 4.29617E+10-2.93163E+08-1.98674E+07 5.59650E+05
 -1      1923 1.15554E+11-6.98233E+07 4.38838E+10-2.90760E+08-1.38611E+07 4.69603E+05
 -1      1924 1.18181E+11 3.98036E+08 4.50599E+10-2.97394E+08-8.91699E+06 3.77549E+05
 -1      1925 1.20689E+11-1.55903E+09 4.52695E+10-2.67573E+08-5.05857E+06 2.83469E+05
 -1      1926 1.23137E+11 5.78425E+09 4.89900E+10-3.80504E+08-2.30935E+06 1.87433E+05
 -1      1927 1.26394E+11-2.12261E+10 3.99637E+10 3.70248E+07-6.92855E+05 8.91880E+04
 -1      1928 1.28092E+11 7.84597E+10 7.84896E+10-1.51068E+09-1.70529E+05 3.94347E+04
 -1      1929-1.55672E+07-7.78041E+06-8.87201E+06-7.24850E+05-3.04387E+09 7.87738E+06
 -1      1930-6.50095E+07-7.32158E+06-2.74857E+07 3.51580E+06-3.01323E+09 7.87736E+06
 -1      1931-2.09705E+08-7.59383E+06-8.25734E+07 6.85668E+06-2.95196E+09 7.87729E+06
 -1      1932-4.48285E+08-6.99322E+06-1.73006E+08 1.02298E+07-2.89069E+09 7.87709E+06
 -1      1933-7.79303E+08-7.03627E+06-2.98809E+08 1.34603E+07-2.82942E+09 7.87673E+06
 -1      1934-1.20030E+09-7.18112E+06-4.58843E+08 1.66723E+07-2.76816E+09 7.87615E+06
 -1      1935-1.71007E+09-6.50572E+06-6.52298E+08 1.97841E+07-2.70690E+09 7.87528E+06
 -1      1936-2.30558E+09-6.61577E+06-8.78633E+08 2.27994E+07-2.64565E+09 7.87410E+06
 -1      1937-2.98608E+09-6.78067E+06-1.13729E+09 2.58472E+07-2.58441E+09 7.87253E+06
 -1      1938-3.74864E+09-4.96689E+06-1.42637E+09 2.86799E+07-2.52319E+09 7.87054E+06
 -1      1939-4.59162E+09-8.38609E+06-1.74800E+09 3.16352E+07-2.46198E+09 7.86809E+06
 -1      1940-5.51382E+09-4.07535E+06-2.09680E+09 3.42554E+07-2.40079E+09 7.86509E+06
 -1      1941-6.51164E+09-6.74750E+06-2.47699E+09 3.70744E+07-2.33963E+09 7.86154E+06
 -1      1942-7.58462E+09-6.14467E+06-2.88449E+09 3.95882E+07-2.27850E+09 7.85737E+06
 -1      1943-8.73076E+09-1.44963E+06-3.31824E+09 4.23772E+07-2.21740E+09 7.85255E+06
 -1      1944-9.94642E+09-1.24319E+07-3.78436E+09 4.47216E+07-2.15634E+09 7.84706E+06
 -1      1945-1.12318E+10-2.22329E+05-4.26818E+09 4.70127E+07-2.09533E+09 7.84078E+06
 -1      1946-1.25843E+10-6.83146E+06-4.78462E+09 4.96427E+07-2.03437E+09 7.83374E+06
 -1      1947-1.40005E+10-4.87753E+06-5.32203E+09 5.15330E+07-1.97347E+09 7.82589E+06
 -1      1948-1.54810E+10-1.77037E+06-5.88344E+09 5.43287E+07-1.91263E+09 7.81718E+06
 -1      1949-1.70211E+10-1.00055E+07-6.47183E+09 5.58902E+07-1.85187E+09 7.80759E+06
 -1      1950-1.86213E+10-8.76146E+05-7.07642E+09 5.83587E+07-1.79118E+09 7.79705E+06
 -1      1951-2.02792E+10-5.57266E+06-7.70821E+09 6.00903E+07-1.73058E+09 7.78556E+06
 -1      1952-2.19903E+10-2.36418E+06-8.35720E+09 6.21896E+07-1.67007E+09 7.77307E+06
 -1      1953-2.37566E+10-5.30958E+06-9.02952E+09 6.41800E+07-1.60966E+09 7.75956E+06
 -1      1954-2.55731E+10-5.26613E+06-9.71979E+09 6.56563E+07-1.54936E+09 7.74499E+06
 -1      1955-2.74397E+10-2.48128E+06-1.04280E+10 6.76208E+07-1.48918E+09 7.72932E+06
 -1      1956-2.93539E+10-1.60093E+06-1.11551E+10 6.91604E+07-1.42913E+09 7.71255E+06
 -1      1957-3.13125E+10-5.14764E+06-1.19007E+10 7.09808E+07-1.36921E+09 7.69463E+06
 -1      1958-3.33156E+10-5.51860E+06-1.26620E+10 7.21967E+07-1.30943E+09 7.67554E+06
 -1      1959-3.53614E+10-1.21671E+05-1.34374E+10 7.38398E+07-1.24981E+09 7.65525E+06
 -1      1960-3.74458E+10-4.66864E+06-1.42312E+10 7.50748E+07-1.19035E+09 7.63374E+06
 -1      1961-3.95681E+10 7.00753E+05-1.50356E+10 7.65777E+07-1.13106E+09 7.61100E+06
 -1      1962-4.17273E+10-5.95502E+06-1.58586E+10 7.79508E+07-1.07195E+09 7.58699E+06
 -1      1963-4.39203E+10-1.95822E+06-1.66905E+10 7.88011E+07-1.01304E+09 7.56169E+06
 -1      1964-4.61455E+10-9.00330E+05-1.75356E+10 8.02817E+07-9.54328E+08 7.53509E+06
 -1      1965-4.84011E+10-8.08063E+06-1.83955E+10 8.08942E+07-8.95826E+08 7.50716E+06
 -1      1966-5.06861E+10 6.63576E+06-1.92582E+10 8.21940E+07-8.37548E+08 7.47789E+06
 -1      1967-5.29970E+10-6.29991E+06-2.01413E+10 8.31680E+07-7.79503E+08 7.44726E+06
 -1      1968-5.53321E+10-5.24567E+06-2.10282E+10 8.37652E+07-7.21701E+08 7.41527E+06
 -1      1969-5.76915E+10 2.86463E+06-2.19217E+10 8.45455E+07-6.64154E+08 7.38187E+06
 -1      1970-6.00723E+10-2.54501E+06-2.28284E+10 8.55149E+07-6.06871E+08 7.34709E+06
 -1      1971-6.24716E+10-2.25546E+06-2.37401E+10 8.59442E+07-5.49865E+08 7.31089E+06
 -1      1972-6.48878E+10 3.41860E+06-2.46561E+10 8.66712E+07-4.93145E+08 7.27327E+06
 -1      1973-6.73212E+10-4.50623E+06-2.55838E+10 8.75870E+07-4.36724E+08 7.23422E+06
 -1      1974-6.97682E+10-5.86698E+06-2.65142E+10 8.72892E+07-3.80613E+08 7.19373E+06
 -1      1975-7.22266E+10 6.12519E+06-2.74438E+10 8.80567E+07-3.24822E+08 7.15178E+06
 -1      1976-7.46952E+10-6.50777E+06-2.83866E+10 8.82281E+07-2.69363E+08 7.10838E+06
 -1      1977-7.71747E+10 1.26510E+07-2.93216E+10 8.89840E+07-2.14247E+08 7.06352E+06
 -1      1978-7.96587E+10-9.31922E+06-3.02738E+10 8.93642E+07-1.59485E+08 7.01720E+06
 -1      1979-8.21468E+10-1.16656E+07-3.12202E+10 8.85494E+07-1.05090E+08 6.96940E+06
 -1      1980-8.46420E+10 1.41148E+07-3.21586E+10 8.89929E+07-5.10719E+07 6.92012E+06
 -1      1981-8.71367E+10-6.30870E+06-3.31143E+10 8.90256E+07 2.55698E+06 6.86938E+06
 -1      1982-8.96303E+10 9.26822E+06-3.40560E+10 8.92432E+07 5.57855E+07 6.81716E+06
 -1      1983-9.21227E+10-6.71790E+06-3.50092E+10 8.92786E+07 1.08602E+08 6.76348E+06
 -1      1984-9.46129E+10-4.57452E+06-3.59546E+10 8.87432E+07 1.60995E+08 6.70832E+06
 -1      1985-9.70984E+10 7.60955E+06-3.68945E+10 8.83514E+07 2.12953E+08 6.65168E+06
 -1      1986-9.95740E+10-6.89667E+05-3.78384E+10 8.84214E+07 2.64466E+08 6.59358E+06
 -1      1987-1.02042E+11-1.08887E+06-3.87765E+10 8.79633E+07 3.15520E+08 6.53402E+06
 -1      1988-1.04504E+11 8.44121E+06-3.97085E+10 8.79166E+07 3.66106E+08 6.47301E+06
 -1      1989-1.06950E+11-3.18002E+06-4.06422E+10 8.73975E+07 4.16212E+08 6.41055E+06
 -1      1990-1.09382E+11-1.02837E+07-4.15691E+10 8.63840E+07 4.65826E+08 6.34664E+06
 -1      1991-1.11804E+11 2.12949E+07-4.24774E+10 8.61988E+07 5.14937E+08 6.28130E+06
 -1      1992-1.14207E+11-1.19401E+07-4.34031E+10 8.58989E+07 5.63535E+08 6.21454E+06
 -1      1993-1.16591E+11 5.86945E+06-4.43023E+10 8.46146E+07 6.11608E+08 6.14636E+06
 -1      1994-1.18954E+11 2.12457E+06-4.52017E+10 8.42440E+07 6.59145E+08 6.07677E+06
 -1      1995-1.21301E+11-8.60390E+06-4.60975E+10 8.34043E+07 7.06136E+08 6.00580E+06
 -1      1996-1.23623E+11 1.52674E+07-4.69711E+10 8.19894E+07 7.52569E+08 5.93345E+06
 -1      1997-1.25917E+11-7.63844E+06-4.78513E+10 8.16808E+07 7.98434E+08 5.85973E+06
 -1      1998-1.28193E+11 1.61858E+07-4.87074E+10 8.10359E+07 8.43720E+08 5.78466E+06
 -1      1999-1.30437E+11-6.65344E+06-4.95687E+10 7.98750E+07 8.88418E+08 5.70827E+06
 -1      2000-1.32652E+11-6.67226E+06-5.04104E+10 7.85230E+07 9.32515E+08 5.63055E+06
 -1      2001-1.34841E+11 1.47365E+07-5.12339E+10 7.71457E+07 9.76004E+08 5.55153E+06
 -1      2002-1.36998E+11-5.33047E+06-5.20613E+10 7.67781E+07 1.01887E+09 5.47123E+06
 -1      2003-1.39122E+11 1.74116E+07-5.28598E+10 7.50283E+07 1.06111E+09 5.38966E+06
 -1      2004-1.41210E+11-1.03351E+07-5.36636E+10 7.47563E+07 1.10271E+09 5.30686E+06
 -1      2005-1.43262E+11 5.53401E+06-5.44376E+10 7.21058E+07 1.14366E+09 5.22283E+06
 -1      2006-1.45286E+11 4.63441E+06-5.52068E+10 7.24092E+07 1.18396E+09 5.13759E+06
 -1      2007-1.47265E+11-6.16474E+06-5.59629E+10 6.89873E+07 1.22358E+09 5.05117E+06
 -1      2008-1.49202E+11 9.40954E+06-5.66930E+10 6.85815E+07 1.26253E+09 4.96359E+06
 -1      2009-1.51108E+11 1.31204E+07-5.74161E+10 6.75377E+07 1.30079E+09 4.87488E+06
 -1      2010-1.52965E+11-4.10989E+06-5.81283E+10 6.58627E+07 1.33836E+09 4.78506E+06
 -1      2011-1.54781E+11-8.34222E+06-5.88198E+10 6.39764E+07 1.37523E+09 4.69416E+06
 -1      2012-1.56554E+11 1.83131E+07-5.94837E+10 6.19513E+07 1.41138E+09 4.60219E+06
 -1      2013-1.58284E+11-5.17121E+06-6.01498E+10 6.13426E+07 1.44682E+09 4.50918E+06
 -1      2014-1.59967E+11 1.95219E+07-6.07799E+10 5.90091E+07 1.48153E+09 4.41518E+06
 -1      2015-1.61596E+11-8.53343E+06-6.14096E+10 5.80318E+07 1.51550E+09 4.32019E+06
 -1      2016-1.63186E+11-5.27758E+06-6.20125E+10 5.57434E+07 1.54873E+09 4.22425E+06
 -1      2017-1.64724E+11 1.89933E+07-6.25881E+10 5.32758E+07 1.58121E+09 4.12739E+06
 -1      2018-1.66206E+11-7.92324E+06-6.31614E+10 5.23725E+07 1.61293E+09 4.02963E+06
 -1      2019-1.67643E+11 3.23768E+07-6.36920E+10 5.03045E+07 1.64389E+09 3.93101E+06
 -1      2020-1.69026E+11-1.75420E+07-6.42366E+10 5.02240E+07 1.67408E+09 3.83156E+06
 -1      2021-1.70355E+11-1.62758E+07-6.47413E+10 4.49880E+07 1.70349E+09 3.73131E+06
 -1      2022-1.71629E+11 3.33524E+07-6.52062E+10 4.41566E+07 1.73212E+09 3.63029E+06
 -1      2023-1.72847E+11-9.53605E+06-6.56854E+10 4.25319E+07 1.75997E+09 3.52853E+06
 -1      2024-1.74014E+11 2.10636E+07-6.61175E+10 4.09188E+07 1.78701E+09 3.42606E+06
 -1      2025-1.75119E+11-4.40151E+06-6.65468E+10 3.87501E+07 1.81326E+09 3.32293E+06
 -1      2026-1.76163E+11-9.73192E+06-6.69456E+10 3.59659E+07 1.83870E+09 3.21916E+06
 -1      2027-1.77159E+11 2.08626E+07-6.73124E+10 3.42838E+07 1.86334E+09 3.11478E+06
 -1      2028-1.78088E+11 1.43598E+06-6.76729E+10 3.17834E+07 1.88716E+09 3.00984E+06
 -1      2029-1.78955E+11 6.36197E+05-6.80025E+10 3.01992E+07 1.91016E+09 2.90437E+06
 -1      2030-1.79767E+11 1.93148E+07-6.83039E+10 2.76423E+07 1.93234E+09 2.79840E+06
 -1      2031-1.80513E+11-4.45407E+06-6.85967E+10 2.65989E+07 1.95369E+09 2.69198E+06
 -1      2032-1.81200E+11-1.14670E+07-6.88603E+10 2.25443E+07 1.97421E+09 2.58513E+06
 -1      2033-1.81820E+11 3.56096E+07-6.90781E+10 2.07970E+07 1.99390E+09 2.47789E+06
 -1      2034-1.82378E+11-1.56259E+07-6.93096E+10 1.96955E+07 2.01276E+09 2.37031E+06
 -1      2035-1.82877E+11 1.04002E+07-6.94894E+10 1.61359E+07 2.03078E+09 2.26241E+06
 -1      2036-1.83304E+11 9.14534E+06-6.96519E+10 1.42283E+07 2.04795E+09 2.15424E+06
 -1      2037-1.83664E+11-1.33268E+07-6.97975E+10 1.14173E+07 2.06429E+09 2.04584E+06
 -1      2038-1.83969E+11 2.47794E+07-6.98988E+10 9.46863E+06 2.07978E+09 1.93724E+06
 -1      2039-1.84199E+11-4.96696E+06-6.99977E+10 6.62115E+06 2.09442E+09 1.82848E+06
 -1      2040-1.84364E+11 2.18153E+07-7.00500E+10 5.19111E+06 2.10822E+09 1.71961E+06
 -1      2041-1.84459E+11-7.36255E+06-7.00974E+10 2.44475E+06 2.12117E+09 1.61067E+06
 -1      2042-1.84494E+11-6.02244E+06-7.01098E+10 1.73663E+04 2.13328E+09 1.50168E+06
 -1      2043-1.84457E+11 2.36233E+07-7.00845E+10-3.59602E+06 2.14453E+09 1.39269E+06
 -1      2044-1.84346E+11-7.39726E+06-7.00542E+10-4.72520E+06 2.15494E+09 1.28375E+06
 -1      2045-1.84169E+11 2.87651E+07-6.99734E+10-7.07700E+06 2.16450E+09 1.17490E+06
 -1      2046-1.83938E+11-1.54585E+07-6.99023E+10-9.51386E+06 2.17322E+09 1.06619E+06
 -1      2047-1.83613E+11 9.62781E+06-6.97693E+10-1.28555E+07 2.18109E+09 9.57632E+05
 -1      2048-1.83235E+11 8.46069E+06-6.96262E+10-1.43317E+07 2.18812E+09 8.49261E+05
 -1      2049-1.82782E+11-8.92391E+06-6.94607E+10-1.80320E+07 2.19430E+09 7.41136E+05
 -1      2050-1.82259E+11 1.69332E+07-6.92521E+10-2.03763E+07 2.19965E+09 6.33298E+05
 -1      2051-1.81667E+11 1.56007E+07-6.90275E+10-2.22569E+07 2.20415E+09 5.25791E+05
 -1      2052-1.81000E+11-4.53121E+06-6.87818E+10-2.44432E+07 2.20783E+09 4.18657E+05
 -1      2053-1.80271E+11-7.67012E+06-6.85059E+10-2.76553E+07 2.21067E+09 3.11936E+05
 -1      2054-1.79468E+11 2.53631E+07-6.81881E+10-3.06934E+07 2.21268E+09 2.05667E+05
 -1      2055-1.78588E+11-8.04340E+06-6.78664E+10-3.25203E+07 2.21387E+09 9.98945E+04
 -1      2056-1.77648E+11 2.40321E+07-6.74972E+10-3.45305E+07 2.21424E+09-5.33996E+03
 -1      2057-1.76631E+11-6.05334E+06-6.71220E+10-3.75053E+07 2.21379E+09-1.09997E+05
 -1      2058-1.75541E+11-6.20108E+06-6.67081E+10-4.01433E+07 2.21253E+09-2.14030E+05
 -1      2059-1.74386E+11 1.90720E+07-6.62596E+10-4.34127E+07 2.21046E+09-3.17402E+05
 -1      2060-1.73160E+11 8.16786E+06-6.57975E+10-4.45663E+07 2.20759E+09-4.20072E+05
 -1      2061-1.71863E+11 1.28698E+07-6.53032E+10-4.71388E+07 2.20393E+09-5.21998E+05
 -1      2062-1.70490E+11-1.80858E+07-6.47930E+10-5.01957E+07 2.19947E+09-6.23135E+05
 -1      2063-1.69054E+11 9.79481E+06-6.42367E+10-5.30815E+07 2.19424E+09-7.23440E+05
 -1      2064-1.67549E+11 1.43909E+07-6.36630E+10-5.57058E+07 2.18822E+09-8.22878E+05
 -1      2065-1.65966E+11 3.48354E+06-6.30656E+10-5.75743E+07 2.18144E+09-9.21404E+05
 -1      2066-1.64318E+11 2.58249E+06-6.24400E+10-6.01853E+07 2.17389E+09-1.01898E+06
 -1      2067-1.62605E+11 1.77856E+07-6.17831E+10-6.23221E+07 2.16559E+09-1.11555E+06
 -1      2068-1.60816E+11-3.23645E+06-6.11113E+10-6.47663E+07 2.15654E+09-1.21110E+06
 -1      2069-1.58960E+11-6.46135E+06-6.04072E+10-6.77697E+07 2.14675E+09-1.30556E+06
 -1      2070-1.57037E+11 2.02059E+07-5.96664E+10-7.04955E+07 2.13624E+09-1.39891E+06
 -1      2071-1.55047E+11-2.92529E+06-5.89190E+10-7.20300E+07 2.12500E+09-1.49111E+06
 -1      2072-1.52988E+11 2.05609E+07-5.81277E+10-7.49700E+07 2.11304E+09-1.58211E+06
 -1      2073-1.50857E+11-9.40873E+06-5.73292E+10-7.67763E+07 2.10039E+09-1.67187E+06
 -1      2074-1.48666E+11 8.52062E+06-5.64897E+10-7.96319E+07 2.08704E+09-1.76035E+06
 -1      2075-1.46408E+11 8.99733E+06-5.56315E+10-8.19065E+07 2.07301E+09-1.84752E+06
 -1      2076-1.44077E+11-1.07630E+07-5.47535E+10-8.46648E+07 2.05831E+09-1.93333E+06
 -1      2077-1.41686E+11 2.86430E+07-5.38297E+10-8.70065E+07 2.04294E+09-2.01775E+06
 -1      2078-1.39229E+11-7.32639E+06-5.29099E+10-8.81290E+07 2.02692E+09-2.10074E+06
 -1      2079-1.36707E+11-1.68197E+06-5.19495E+10-9.18804E+07 2.01027E+09-2.18226E+06
 -1      2080-1.34119E+11 1.56182E+07-5.09593E+10-9.39042E+07 1.99298E+09-2.26226E+06
 -1      2081-1.31471E+11-1.21001E+06-4.99596E+10-9.54258E+07 1.97508E+09-2.34072E+06
 -1      2082-1.28760E+11 1.60089E+07-4.89226E+10-9.83600E+07 1.95657E+09-2.41760E+06
 -1      2083-1.25981E+11-2.62392E+06-4.78739E+10-9.96712E+07 1.93748E+09-2.49286E+06
 -1      2084-1.23144E+11-3.70834E+06-4.67963E+10-1.02900E+08 1.91780E+09-2.56645E+06
 -1      2085-1.20249E+11 1.45940E+07-4.56892E+10-1.04684E+08 1.89756E+09-2.63835E+06
 -1      2086-1.17289E+11 4.01901E+06-4.45684E+10-1.07023E+08 1.87677E+09-2.70853E+06
 -1      2087-1.14269E+11-6.09129E+05-4.34226E+10-1.08698E+08 1.85543E+09-2.77694E+06
 -1      2088-1.11192E+11 2.14826E+07-4.22448E+10-1.11251E+08 1.83357E+09-2.84354E+06
 -1      2089-1.08057E+11-8.21694E+06-4.10646E+10-1.11848E+08 1.81121E+09-2.90832E+06
 -1      2090-1.04863E+11-8.39845E+06-3.98510E+10-1.16175E+08 1.78834E+09-2.97122E+06
 -1      2091-1.01609E+11 2.10985E+07-3.86036E+10-1.17525E+08 1.76499E+09-3.03221E+06
 -1      2092-9.83043E+10-2.58063E+06-3.73566E+10-1.18891E+08 1.74118E+09-3.09127E+06
 -1      2093-9.49417E+10 1.34010E+07-3.60728E+10-1.21345E+08 1.71691E+09-3.14836E+06
 -1      2094-9.15218E+10-1.87416E+06-3.47790E+10-1.22643E+08 1.69221E+09-3.20345E+06
 -1      2095-8.80502E+10-1.86844E+06-3.34598E+10-1.25327E+08 1.66709E+09-3.25650E+06
 -1      2096-8.45275E+10 1.21134E+07-3.21158E+10-1.26917E+08 1.64156E+09-3.30748E+06
 -1      2097-8.09494E+10 4.08327E+05-3.07606E+10-1.28851E+08 1.61564E+09-3.35637E+06
 -1      2098-7.73194E+10 9.78548E+06-2.93777E+10-1.30514E+08 1.58935E+09-3.40313E+06
 -1      2099-7.36409E+10-4.10175E+05-2.79837E+10-1.31988E+08 1.56271E+09-3.44773E+06
 -1      2100-6.99118E+10-4.41658E+05-2.65666E+10-1.34464E+08 1.53573E+09-3.49013E+06
 -1      2101-6.61328E+10 8.90655E+06-2.51271E+10-1.35939E+08 1.50843E+09-3.53032E+06
 -1      2102-6.23061E+10 4.45737E+06-2.36746E+10-1.37603E+08 1.48082E+09-3.56827E+06
 -1      2103-5.84336E+10 5.59131E+06-2.22027E+10-1.38810E+08 1.45293E+09-3.60394E+06
 -1      2104-5.45132E+10-3.59114E+06-2.07164E+10-1.41095E+08 1.42477E+09-3.63731E+06
 -1      2105-5.05464E+10 4.74201E+06-1.92058E+10-1.42668E+08 1.39635E+09-3.66835E+06
 -1      2106-4.65374E+10 6.43730E+06-1.76818E+10-1.44152E+08 1.36771E+09-3.69703E+06
 -1      2107-4.24839E+10 2.25804E+06-1.61430E+10-1.45509E+08 1.33885E+09-3.72333E+06
 -1      2108-3.83874E+10 3.37677E+06-1.45859E+10-1.47139E+08 1.30980E+09-3.74722E+06
 -1      2109-3.42488E+10 4.81161E+06-1.30127E+10-1.48579E+08 1.28057E+09-3.76868E+06
 -1      2110-3.00701E+10 1.81224E+06-1.14260E+10-1.49855E+08 1.25118E+09-3.78769E+06
 -1      2111-2.58514E+10 1.12398E+06-9.82310E+09-1.51612E+08 1.22166E+09-3.80421E+06
 -1      2112-2.15931E+10 5.36725E+06-8.20333E+09-1.52798E+08 1.19201E+09-3.81823E+06
 -1      2113-1.72974E+10 1.92633E+06-6.57229E+09-1.54144E+08 1.16227E+09-3.82972E+06
 -1      2114-1.29644E+10 3.60028E+06-4.92510E+09-1.55401E+08 1.13245E+09-3.83866E+06
 -1      2115-8.59541E+09 2.35067E+06-3.26536E+09-1.56757E+08 1.10256E+09-3.84504E+06
 -1      2116-4.19078E+09 2.11474E+06-1.59169E+09-1.57990E+08 1.07264E+09-3.84882E+06
 -1      2117 2.47463E+08 3.08749E+06 9.52091E+07-1.59230E+08 1.04270E+09-3.84998E+06
 -1      2118 4.71942E+09 3.00057E+06 1.79452E+09-1.60354E+08 1.01276E+09-3.84852E+06
 -1      2119 9.22365E+09 8.97962E+05 3.50533E+09-1.61454E+08 9.82843E+08-3.84440E+06
 -1      2120 1.37586E+10 3.43905E+06 5.22956E+09-1.62645E+08 9.52967E+08-3.83761E+06
 -1      2121 1.83250E+10 3.42182E+06 6.96479E+09-1.63701E+08 9.23154E+08-3.82814E+06
 -1      2122 2.29201E+10 4.71850E+05 8.70983E+09-1.64543E+08 8.93426E+08-3.81595E+06
 -1      2123 2.75438E+10 3.70767E+06 1.04681E+10-1.65729E+08 8.63803E+08-3.80104E+06
 -1      2124 3.21949E+10-1.42722E+06 1.22335E+10-1.66543E+08 8.34307E+08-3.78339E+06
 -1      2125 3.68733E+10 4.82285E+06 1.40137E+10-1.67897E+08 8.04958E+08-3.76299E+06
 -1      2126 4.15768E+10 3.76030E+06 1.58006E+10-1.68290E+08 7.75780E+08-3.73982E+06
 -1      2127 4.63046E+10-5.10134E+05 1.75956E+10-1.69258E+08 7.46792E+08-3.71385E+06
 -1      2128 5.10577E+10 1.49610E+06 1.94025E+10-1.70243E+08 7.18017E+08-3.68509E+06
 -1      2129 5.58327E+10 4.52080E+06 2.12181E+10-1.70873E+08 6.89476E+08-3.65351E+06
 -1      2130 6.06296E+10-8.62970E+06 2.30360E+10-1.71746E+08 6.61192E+08-3.61911E+06
 -1      2131 6.54466E+10 9.45410E+06 2.48733E+10-1.73127E+08 6.33187E+08-3.58187E+06
 -1      2132 7.02871E+10 1.02074E+07 2.67130E+10-1.73067E+08 6.05482E+08-3.54177E+06
 -1      2133 7.51444E+10-1.05075E+07 2.85509E+10-1.73338E+08 5.78101E+08-3.49881E+06
 -1      2134 8.00188E+10 7.84904E+06 3.04101E+10-1.74597E+08 5.51064E+08-3.45297E+06
 -1      2135 8.49149E+10-8.18674E+06 3.22646E+10-1.75229E+08 5.24396E+08-3.40425E+06
 -1      2136 8.98245E+10 7.82282E+06 3.41363E+10-1.75918E+08 4.98117E+08-3.35263E+06
 -1      2137 9.47495E+10 6.79726E+06 3.60074E+10-1.76188E+08 4.72252E+08-3.29811E+06
 -1      2138 9.96921E+10-7.03840E+06 3.78803E+10-1.76410E+08 4.46822E+08-3.24067E+06
 -1      2139 1.04648E+11 6.22470E+06 3.97686E+10-1.77461E+08 4.21850E+08-3.18030E+06
 -1      2140 1.09618E+11-9.15022E+06 4.16515E+10-1.77580E+08 3.97359E+08-3.11701E+06
 -1      2141 1.14597E+11 7.15927E+06 4.35497E+10-1.78651E+08 3.73371E+08-3.05078E+06
 -1      2142 1.19591E+11 1.21624E+07 4.54492E+10-1.78431E+08 3.49910E+08-2.98160E+06
 -1      2143 1.24598E+11-2.02561E+07 4.73397E+10-1.78591E+08 3.26999E+08-2.90946E+06
 -1      2144 1.29614E+11 1.42211E+07 4.92586E+10-1.80169E+08 3.04660E+08-2.83437E+06
 -1      2145 1.34636E+11-2.01378E+06 5.11611E+10-1.78943E+08 2.82917E+08-2.75630E+06
 -1      2146 1.39672E+11-2.26160E+06 5.30746E+10-1.80801E+08 2.61792E+08-2.67527E+06
 -1      2147 1.44714E+11 1.28633E+07 5.49963E+10-1.79587E+08 2.41310E+08-2.59126E+06
 -1      2148 1.49765E+11-1.11007E+07 5.69064E+10-1.80497E+08 2.21492E+08-2.50427E+06
 -1      2149 1.54819E+11 2.73731E+06 5.88324E+10-1.80318E+08 2.02363E+08-2.41429E+06
 -1      2150 1.59887E+11 4.26152E+06 6.07587E+10-1.81684E+08 1.83944E+08-2.32133E+06
 -1      2151 1.64955E+11-1.46479E+07 6.26774E+10-1.80260E+08 1.66261E+08-2.22537E+06
 -1      2152 1.70029E+11 1.15921E+07 6.46156E+10-1.82946E+08 1.49336E+08-2.12641E+06
 -1      2153 1.75104E+11 1.18656E+07 6.65441E+10-1.80192E+08 1.33192E+08-2.02446E+06
 -1      2154 1.80199E+11-1.46485E+07 6.84700E+10-1.82552E+08 1.17852E+08-1.91950E+06
 -1      2155 1.85277E+11 5.41187E+06 7.04072E+10-1.80158E+08 1.03341E+08-1.81153E+06
 -1      2156 1.90376E+11-7.90995E+06 7.23397E+10-1.83692E+08 8.96809E+07-1.70056E+06
 -1      2157 1.95457E+11-7.48435E+06 7.42709E+10-1.80669E+08 7.68957E+07-1.58658E+06
 -1      2158 2.00573E+11 2.92023E+07 7.62287E+10-1.85561E+08 6.50086E+07-1.46960E+06
 -1      2159 2.05647E+11-1.10829E+07 7.81416E+10-1.77201E+08 5.40432E+07-1.34959E+06
 -1      2160 2.10774E+11 2.72760E+06 8.00951E+10-1.86615E+08 4.40228E+07-1.22658E+06
 -1      2161 2.15842E+11-2.21986E+07 8.20116E+10-1.76406E+08 3.49709E+07-1.10055E+06
 -1      2162 2.20992E+11 1.12084E+07 8.39812E+10-1.90802E+08 2.69109E+07-9.71507E+05
 -1      2163 2.26029E+11 4.97569E+07 8.59101E+10-1.72111E+08 1.98664E+07-8.39454E+05
 -1      2164 2.31206E+11-1.78546E+08 8.77906E+10-1.92334E+08 1.38606E+07-7.04380E+05
 -1      2165 2.36274E+11 6.32834E+08 9.00246E+10-1.77750E+08 8.91720E+06-5.66294E+05
 -1      2166 2.41243E+11-2.35579E+09 9.07773E+10-1.54940E+08 5.05926E+06-4.25175E+05
 -1      2167 2.47157E+11 8.67176E+09 9.72151E+10-3.38433E+08 2.31083E+06-2.81110E+05
 -1      2168 2.48908E+11-3.18085E+10 8.24978E+10 4.57544E+08 6.94846E+05-1.33773E+05
 -1      2169 2.47621E+11 1.17712E+11 1.38826E+11-2.46806E+09 1.71994E+05-5.91759E+04
 -1      2170-1.55664E+07-7.78012E+06-8.87174E+06-7.24484E+05 3.04386E+09-7.87737E+06
 -1      2171-6.50082E+07-7.32139E+06-2.74854E+07 3.51611E+06 3.01323E+09-7.87735E+06
 -1      2172-2.09703E+08-7.59355E+06-8.25730E+07 6.85673E+06 2.95195E+09-7.87728E+06
 -1      2173-4.48284E+08-6.99300E+06-1.73005E+08 1.02296E+07 2.89069E+09-7.87707E+06
 -1      2174-7.79303E+08-7.03633E+06-2.98809E+08 1.34598E+07 2.82942E+09-7.87671E+06
 -1      2175-1.20030E+09-7.18157E+06-4.58843E+08 1.66718E+07 2.76815E+09-7.87614E+06
 -1      2176-1.71007E+09-6.50650E+06-6.52299E+08 1.97837E+07 2.70690E+09-7.87527E+06
 -1      2177-2.30558E+09-6.61674E+06-8.78634E+08 2.27992E+07 2.64565E+09-7.87408E+06
 -1      2178-2.98608E+09-6.78197E+06-1.13729E+09 2.58470E+07 2.58441E+09-7.87252E+06
 -1      2179-3.74865E+09-4.96796E+06-1.42637E+09 2.86798E+07 2.52318E+09-7.87053E+06
 -1      2180-4.59162E+09-8.38728E+06-1.74800E+09 3.16355E+07 2.46197E+09-7.86808E+06
 -1      2181-5.51383E+09-4.07636E+06-2.09680E+09 3.42558E+07 2.40079E+09-7.86509E+06
 -1      2182-6.51165E+09-6.74820E+06-2.47699E+09 3.70747E+07 2.33963E+09-7.86154E+06
 -1      2183-7.58462E+09-6.14527E+06-2.88449E+09 3.95885E+07 2.27849E+09-7.85737E+06
 -1      2184-8.73076E+09-1.44985E+06-3.31824E+09 4.23775E+07 2.21740E+09-7.85255E+06
 -1      2185-9.94642E+09-1.24319E+07-3.78436E+09 4.47218E+07 2.15634E+09-7.84706E+06
 -1      2186-1.12318E+10-2.22362E+05-4.26818E+09 4.70125E+07 2.09533E+09-7.84078E+06
 -1      2187-1.25843E+10-6.83183E+06-4.78462E+09 4.96423E+07 2.03437E+09-7.83375E+06
 -1      2188-1.40005E+10-4.87790E+06-5.32203E+09 5.15327E+07 1.97347E+09-7.82589E+06
 -1      2189-1.54810E+10-1.77111E+06-5.88344E+09 5.43285E+07 1.91263E+09-7.81719E+06
 -1      2190-1.70211E+10-1.00064E+07-6.47183E+09 5.58900E+07 1.85187E+09-7.80760E+06
 -1      2191-1.86213E+10-8.77051E+05-7.07642E+09 5.83586E+07 1.79118E+09-7.79706E+06
 -1      2192-2.02792E+10-5.57370E+06-7.70821E+09 6.00901E+07 1.73058E+09-7.78557E+06
 -1      2193-2.19903E+10-2.36545E+06-8.35720E+09 6.21894E+07 1.67007E+09-7.77308E+06
 -1      2194-2.37566E+10-5.31079E+06-9.02952E+09 6.41801E+07 1.60966E+09-7.75958E+06
 -1      2195-2.55731E+10-5.26723E+06-9.71979E+09 6.56566E+07 1.54936E+09-7.74501E+06
 -1      2196-2.74397E+10-2.48193E+06-1.04280E+10 6.76213E+07 1.48918E+09-7.72934E+06
 -1      2197-2.93539E+10-1.60116E+06-1.11551E+10 6.91609E+07 1.42913E+09-7.71257E+06
 -1      2198-3.13125E+10-5.14754E+06-1.19007E+10 7.09812E+07 1.36921E+09-7.69465E+06
 -1      2199-3.33156E+10-5.51814E+06-1.26620E+10 7.21971E+07 1.30943E+09-7.67556E+06
 -1      2200-3.53614E+10-1.20786E+05-1.34374E+10 7.38401E+07 1.24981E+09-7.65527E+06
 -1      2201-3.74458E+10-4.66752E+06-1.42312E+10 7.50751E+07 1.19035E+09-7.63376E+06
 -1      2202-3.95680E+10 7.02073E+05-1.50356E+10 7.65780E+07 1.13106E+09-7.61101E+06
 -1      2203-4.17273E+10-5.95349E+06-1.58586E+10 7.79509E+07 1.07195E+09-7.58700E+06
 -1      2204-4.39203E+10-1.95680E+06-1.66905E+10 7.88009E+07 1.01304E+09-7.56170E+06
 -1      2205-4.61455E+10-8.98980E+05-1.75356E+10 8.02815E+07 9.54325E+08-7.53509E+06
 -1      2206-4.84011E+10-8.07939E+06-1.83955E+10 8.08941E+07 8.95824E+08-7.50716E+06
 -1      2207-5.06861E+10 6.63690E+06-1.92582E+10 8.21938E+07 8.37546E+08-7.47788E+06
 -1      2208-5.29970E+10-6.29892E+06-2.01413E+10 8.31678E+07 7.79501E+08-7.44726E+06
 -1      2209-5.53321E+10-5.24486E+06-2.10282E+10 8.37651E+07 7.21699E+08-7.41526E+06
 -1      2210-5.76915E+10 2.86548E+06-2.19217E+10 8.45454E+07 6.64152E+08-7.38187E+06
 -1      2211-6.00723E+10-2.54433E+06-2.28284E+10 8.55149E+07 6.06870E+08-7.34708E+06
 -1      2212-6.24716E+10-2.25484E+06-2.37401E+10 8.59442E+07 5.49863E+08-7.31088E+06
 -1      2213-6.48878E+10 3.41936E+06-2.46561E+10 8.66712E+07 4.93144E+08-7.27326E+06
 -1      2214-6.73212E+10-4.50556E+06-2.55838E+10 8.75870E+07 4.36723E+08-7.23421E+06
 -1      2215-6.97682E+10-5.86644E+06-2.65142E+10 8.72891E+07 3.80612E+08-7.19371E+06
 -1      2216-7.22266E+10 6.12579E+06-2.74438E+10 8.80566E+07 3.24821E+08-7.15176E+06
 -1      2217-7.46952E+10-6.50735E+06-2.83866E+10 8.82280E+07 2.69362E+08-7.10836E+06
 -1      2218-7.71747E+10 1.26513E+07-2.93216E+10 8.89839E+07 2.14246E+08-7.06350E+06
 -1      2219-7.96587E+10-9.31903E+06-3.02738E+10 8.93640E+07 1.59485E+08-7.01718E+06
 -1      2220-8.21468E+10-1.16656E+07-3.12202E+10 8.85492E+07 1.05090E+08-6.96938E+06
 -1      2221-8.46420E+10 1.41147E+07-3.21586E+10 8.89927E+07 5.10724E+07-6.92010E+06
 -1      2222-8.71367E+10-6.30892E+06-3.31143E+10 8.90255E+07-2.55633E+06-6.86936E+06
 -1      2223-8.96303E+10 9.26781E+06-3.40560E+10 8.92430E+07-5.57846E+07-6.81714E+06
 -1      2224-9.21227E+10-6.71858E+06-3.50092E+10 8.92785E+07-1.08601E+08-6.76346E+06
 -1      2225-9.46129E+10-4.57522E+06-3.59546E+10 8.87430E+07-1.60994E+08-6.70830E+06
 -1      2226-9.70984E+10 7.60865E+06-3.68945E+10 8.83512E+07-2.12952E+08-6.65166E+06
 -1      2227-9.95740E+10-6.90829E+05-3.78384E+10 8.84212E+07-2.64464E+08-6.59357E+06
 -1      2228-1.02042E+11-1.09018E+06-3.87765E+10 8.79631E+07-3.15519E+08-6.53401E+06
 -1      2229-1.04504E+11 8.43986E+06-3.97085E+10 8.79164E+07-3.66104E+08-6.47300E+06
 -1      2230-1.06950E+11-3.18164E+06-4.06422E+10 8.73973E+07-4.16210E+08-6.41054E+06
 -1      2231-1.09382E+11-1.02854E+07-4.15691E+10 8.63838E+07-4.65824E+08-6.34664E+06
 -1      2232-1.11804E+11 2.12930E+07-4.24774E+10 8.61987E+07-5.14935E+08-6.28130E+06
 -1      2233-1.14207E+11-1.19419E+07-4.34031E+10 8.58988E+07-5.63533E+08-6.21454E+06
 -1      2234-1.16591E+11 5.86762E+06-4.43023E+10 8.46146E+07-6.11606E+08-6.14637E+06
 -1      2235-1.18954E+11 2.12263E+06-4.52017E+10 8.42440E+07-6.59143E+08-6.07679E+06
 -1      2236-1.21301E+11-8.60580E+06-4.60975E+10 8.34043E+07-7.06133E+08-6.00582E+06
 -1      2237-1.23623E+11 1.52656E+07-4.69711E+10 8.19895E+07-7.52567E+08-5.93347E+06
 -1      2238-1.25917E+11-7.64004E+06-4.78513E+10 8.16811E+07-7.98432E+08-5.85976E+06
 -1      2239-1.28193E+11 1.61844E+07-4.87074E+10 8.10363E+07-8.43718E+08-5.78470E+06
 -1      2240-1.30437E+11-6.65456E+06-4.95687E+10 7.98753E+07-8.88416E+08-5.70831E+06
 -1      2241-1.32652E+11-6.67308E+06-5.04104E+10 7.85233E+07-9.32514E+08-5.63059E+06
 -1      2242-1.34841E+11 1.47360E+07-5.12339E+10 7.71460E+07-9.76002E+08-5.55157E+06
 -1      2243-1.36998E+11-5.33082E+06-5.20613E+10 7.67784E+07-1.01887E+09-5.47127E+06
 -1      2244-1.39122E+11 1.74117E+07-5.28598E+10 7.50285E+07-1.06111E+09-5.38971E+06
 -1      2245-1.41210E+11-1.03349E+07-5.36636E+10 7.47564E+07-1.10271E+09-5.30690E+06
 -1      2246-1.43262E+11 5.53429E+06-5.44376E+10 7.21060E+07-1.14366E+09-5.22287E+06
 -1      2247-1.45286E+11 4.63485E+06-5.52068E+10 7.24093E+07-1.18396E+09-5.13763E+06
 -1      2248-1.47265E+11-6.16427E+06-5.59629E+10 6.89873E+07-1.22358E+09-5.05121E+06
 -1      2249-1.49202E+11 9.41001E+06-5.66930E+10 6.85815E+07-1.26253E+09-4.96363E+06
 -1      2250-1.51108E+11 1.31210E+07-5.74161E+10 6.75379E+07-1.30079E+09-4.87492E+06
 -1      2251-1.52965E+11-4.10917E+06-5.81283E+10 6.58629E+07-1.33836E+09-4.78510E+06
 -1      2252-1.54781E+11-8.34143E+06-5.88198E+10 6.39765E+07-1.37523E+09-4.69419E+06
 -1      2253-1.56554E+11 1.83140E+07-5.94837E+10 6.19513E+07-1.41138E+09-4.60222E+06
 -1      2254-1.58284E+11-5.17033E+06-6.01498E+10 6.13426E+07-1.44682E+09-4.50922E+06
 -1      2255-1.59967E+11 1.95228E+07-6.07799E+10 5.90092E+07-1.48153E+09-4.41520E+06
 -1      2256-1.61596E+11-8.53268E+06-6.14096E+10 5.80315E+07-1.51550E+09-4.32022E+06
 -1      2257-1.63186E+11-5.27692E+06-6.20125E+10 5.57431E+07-1.54873E+09-4.22428E+06
 -1      2258-1.64724E+11 1.89937E+07-6.25881E+10 5.32758E+07-1.58121E+09-4.12741E+06
 -1      2259-1.66206E+11-7.92285E+06-6.31614E+10 5.23724E+07-1.61293E+09-4.02965E+06
 -1      2260-1.67643E+11 3.23771E+07-6.36920E+10 5.03044E+07-1.64389E+09-3.93103E+06
 -1      2261-1.69026E+11-1.75421E+07-6.42366E+10 5.02236E+07-1.67408E+09-3.83159E+06
 -1      2262-1.70355E+11-1.62761E+07-6.47413E+10 4.49875E+07-1.70350E+09-3.73133E+06
 -1      2263-1.71629E+11 3.33516E+07-6.52062E+10 4.41561E+07-1.73213E+09-3.63031E+06
 -1      2264-1.72847E+11-9.53726E+06-6.56854E+10 4.25315E+07-1.75997E+09-3.52855E+06
 -1      2265-1.74014E+11 2.10620E+07-6.61175E+10 4.09185E+07-1.78701E+09-3.42609E+06
 -1      2266-1.75119E+11-4.40334E+06-6.65468E+10 3.87498E+07-1.81326E+09-3.32296E+06
 -1      2267-1.76163E+11-9.73388E+06-6.69456E+10 3.59657E+07-1.83870E+09-3.21920E+06
 -1      2268-1.77159E+11 2.08606E+07-6.73124E+10 3.42838E+07-1.86334E+09-3.11483E+06
 -1      2269-1.78088E+11 1.43400E+06-6.76729E+10 3.17837E+07-1.88716E+09-3.00989E+06
 -1      2270-1.78955E+11 6.34589E+05-6.80026E+10 3.01996E+07-1.91016E+09-2.90442E+06
 -1      2271-1.79767E+11 1.93135E+07-6.83039E+10 2.76428E+07-1.93234E+09-2.79846E+06
 -1      2272-1.80513E+11-4.45511E+06-6.85967E+10 2.65991E+07-1.95369E+09-2.69203E+06
 -1      2273-1.81200E+11-1.14678E+07-6.88603E+10 2.25444E+07-1.97421E+09-2.58519E+06
 -1      2274-1.81820E+11 3.56091E+07-6.90781E+10 2.07972E+07-1.99390E+09-2.47795E+06
 -1      2275-1.82378E+11-1.56263E+07-6.93096E+10 1.96959E+07-2.01276E+09-2.37037E+06
 -1      2276-1.82877E+11 1.04003E+07-6.94894E+10 1.61363E+07-2.03078E+09-2.26247E+06
 -1      2277-1.83304E+11 9.14577E+06-6.96519E+10 1.42287E+07-2.04795E+09-2.15430E+06
 -1      2278-1.83664E+11-1.33261E+07-6.97975E+10 1.14178E+07-2.06429E+09-2.04590E+06
 -1      2279-1.83969E+11 2.47805E+07-6.98988E+10 9.46905E+06-2.07978E+09-1.93730E+06
 -1      2280-1.84199E+11-4.96570E+06-6.99977E+10 6.62119E+06-2.09443E+09-1.82854E+06
 -1      2281-1.84364E+11 2.18167E+07-7.00500E+10 5.19112E+06-2.10823E+09-1.71966E+06
 -1      2282-1.84459E+11-7.36122E+06-7.00974E+10 2.44459E+06-2.12118E+09-1.61071E+06
 -1      2283-1.84494E+11-6.02128E+06-7.01098E+10 1.71388E+04-2.13328E+09-1.50172E+06
 -1      2284-1.84457E+11 2.36244E+07-7.00845E+10-3.59599E+06-2.14454E+09-1.39273E+06
 -1      2285-1.84346E+11-7.39619E+06-7.00542E+10-4.72517E+06-2.15495E+09-1.28379E+06
 -1      2286-1.84169E+11 2.87663E+07-6.99734E+10-7.07689E+06-2.16451E+09-1.17494E+06
 -1      2287-1.83938E+11-1.54572E+07-6.99023E+10-9.51355E+06-2.17322E+09-1.06623E+06
 -1      2288-1.83613E+11 9.62934E+06-6.97693E+10-1.28552E+07-2.18109E+09-9.57663E+05
 -1      2289-1.83235E+11 8.46244E+06-6.96262E+10-1.43316E+07-2.18812E+09-8.49288E+05
 -1      2290-1.82782E+11-8.92223E+06-6.94607E+10-1.80319E+07-2.19431E+09-7.41159E+05
 -1      2291-1.82259E+11 1.69351E+07-6.92521E+10-2.03760E+07-2.19965E+09-6.33318E+05
 -1      2292-1.81667E+11 1.56028E+07-6.90275E+10-2.22566E+07-2.20416E+09-5.25805E+05
 -1      2293-1.81000E+11-4.52891E+06-6.87818E+10-2.44430E+07-2.20783E+09-4.18666E+05
 -1      2294-1.80271E+11-7.66766E+06-6.85058E+10-2.76552E+07-2.21067E+09-3.11940E+05
 -1      2295-1.79468E+11 2.53657E+07-6.81881E+10-3.06933E+07-2.21268E+09-2.05665E+05
 -1      2296-1.78588E+11-8.04090E+06-6.78664E+10-3.25201E+07-2.21387E+09-9.98864E+04
 -1      2297-1.77648E+11 2.40346E+07-6.74972E+10-3.45307E+07-2.21424E+09 5.35428E+03
 -1      2298-1.76631E+11-6.05117E+06-6.71220E+10-3.75059E+07-2.21379E+09 1.10017E+05
 -1      2299-1.75541E+11-6.19954E+06-6.67081E+10-4.01442E+07-2.21253E+09 2.14054E+05
 -1      2300-1.74386E+11 1.90729E+07-6.62596E+10-4.34135E+07-2.21046E+09 3.17430E+05
 -1      2301-1.73160E+11 8.16817E+06-6.57975E+10-4.45666E+07-2.20759E+09 4.20101E+05
 -1      2302-1.71863E+11 1.28699E+07-6.53032E+10-4.71389E+07-2.20393E+09 5.22028E+05
 -1      2303-1.70490E+11-1.80858E+07-6.47930E+10-5.01958E+07-2.19948E+09 6.23164E+05
 -1      2304-1.69054E+11 9.79448E+06-6.42367E+10-5.30816E+07-2.19424E+09 7.23469E+05
 -1      2305-1.67549E+11 1.43906E+07-6.36630E+10-5.57059E+07-2.18822E+09 8.22906E+05
 -1      2306-1.65966E+11 3.48303E+06-6.30656E+10-5.75744E+07-2.18144E+09 9.21431E+05
 -1      2307-1.64318E+11 2.58209E+06-6.24401E+10-6.01854E+07-2.17389E+09 1.01900E+06
 -1      2308-1.62605E+11 1.77852E+07-6.17831E+10-6.23219E+07-2.16559E+09 1.11558E+06
 -1      2309-1.60816E+11-3.23654E+06-6.11113E+10-6.47659E+07-2.15654E+09 1.21112E+06
 -1      2310-1.58960E+11-6.46109E+06-6.04072E+10-6.77692E+07-2.14676E+09 1.30559E+06
 -1      2311-1.57037E+11 2.02066E+07-5.96664E+10-7.04952E+07-2.13624E+09 1.39894E+06
 -1      2312-1.55047E+11-2.92451E+06-5.89190E+10-7.20299E+07-2.12500E+09 1.49114E+06
 -1      2313-1.52988E+11 2.05616E+07-5.81277E+10-7.49701E+07-2.11305E+09 1.58214E+06
 -1      2314-1.50857E+11-9.40815E+06-5.73292E+10-7.67766E+07-2.10039E+09 1.67190E+06
 -1      2315-1.48666E+11 8.52094E+06-5.64897E+10-7.96321E+07-2.08704E+09 1.76038E+06
 -1      2316-1.46408E+11 8.99736E+06-5.56315E+10-8.19067E+07-2.07301E+09 1.84755E+06
 -1      2317-1.44077E+11-1.07630E+07-5.47535E+10-8.46650E+07-2.05831E+09 1.93337E+06
 -1      2318-1.41686E+11 2.86428E+07-5.38297E+10-8.70066E+07-2.04294E+09 2.01778E+06
 -1      2319-1.39229E+11-7.32674E+06-5.29099E+10-8.81290E+07-2.02692E+09 2.10077E+06
 -1      2320-1.36707E+11-1.68226E+06-5.19495E+10-9.18804E+07-2.01027E+09 2.18229E+06
 -1      2321-1.34119E+11 1.56178E+07-5.09593E+10-9.39044E+07-1.99298E+09 2.26229E+06
 -1      2322-1.31471E+11-1.21055E+06-4.99596E+10-9.54260E+07-1.97508E+09 2.34075E+06
 -1      2323-1.28760E+11 1.60083E+07-4.89227E+10-9.83600E+07-1.95657E+09 2.41763E+06
 -1      2324-1.25981E+11-2.62470E+06-4.78739E+10-9.96713E+07-1.93748E+09 2.49288E+06
 -1      2325-1.23144E+11-3.70896E+06-4.67963E+10-1.02900E+08-1.91780E+09 2.56648E+06
 -1      2326-1.20249E+11 1.45932E+07-4.56892E+10-1.04684E+08-1.89756E+09 2.63838E+06
 -1      2327-1.17289E+11 4.01826E+06-4.45684E+10-1.07023E+08-1.87676E+09 2.70855E+06
 -1      2328-1.14269E+11-6.10050E+05-4.34226E+10-1.08698E+08-1.85543E+09 2.77696E+06
 -1      2329-1.11192E+11 2.14814E+07-4.22448E+10-1.11251E+08-1.83357E+09 2.84356E+06
 -1      2330-1.08057E+11-8.21837E+06-4.10646E+10-1.11848E+08-1.81120E+09 2.90834E+06
 -1      2331-1.04863E+11-8.40002E+06-3.98510E+10-1.16175E+08-1.78834E+09 2.97123E+06
 -1      2332-1.01609E+11 2.10970E+07-3.86036E+10-1.17525E+08-1.76499E+09 3.03222E+06
 -1      2333-9.83043E+10-2.58193E+06-3.73566E+10-1.18891E+08-1.74117E+09 3.09128E+06
 -1      2334-9.49417E+10 1.34000E+07-3.60728E+10-1.21345E+08-1.71691E+09 3.14837E+06
 -1      2335-9.15218E+10-1.87494E+06-3.47790E+10-1.22642E+08-1.69220E+09 3.20345E+06
 -1      2336-8.80502E+10-1.86894E+06-3.34598E+10-1.25327E+08-1.66708E+09 3.25650E+06
 -1      2337-8.45275E+10 1.21130E+07-3.21158E+10-1.26917E+08-1.64155E+09 3.30748E+06
 -1      2338-8.09494E+10 4.07853E+05-3.07606E+10-1.28852E+08-1.61564E+09 3.35637E+06
 -1      2339-7.73194E+10 9.78497E+06-2.93777E+10-1.30514E+08-1.58935E+09 3.40312E+06
 -1      2340-7.36409E+10-4.10752E+05-2.79837E+10-1.31988E+08-1.56271E+09 3.44772E+06
 -1      2341-6.99118E+10-4.42249E+05-2.65666E+10-1.34464E+08-1.53573E+09 3.49013E+06
 -1      2342-6.61328E+10 8.90596E+06-2.51271E+10-1.35939E+08-1.50842E+09 3.53032E+06
 -1      2343-6.23061E+10 4.45673E+06-2.36746E+10-1.37603E+08-1.48082E+09 3.56826E+06
 -1      2344-5.84336E+10 5.59050E+06-2.22027E+10-1.38810E+08-1.45292E+09 3.60393E+06
 -1      2345-5.45132E+10-3.59200E+06-2.07164E+10-1.41095E+08-1.42476E+09 3.63730E+06
 -1      2346-5.05464E+10 4.74083E+06-1.92058E+10-1.42669E+08-1.39635E+09 3.66833E+06
 -1      2347-4.65374E+10 6.43584E+06-1.76818E+10-1.44152E+08-1.36771E+09 3.69701E+06
 -1      2348-4.24839E+10 2.25637E+06-1.61430E+10-1.45510E+08-1.33885E+09 3.72331E+06
 -1      2349-3.83875E+10 3.37490E+06-1.45860E+10-1.47139E+08-1.30979E+09 3.74720E+06
 -1      2350-3.42488E+10 4.80966E+06-1.30127E+10-1.48579E+08-1.28056E+09 3.76866E+06
 -1      2351-3.00701E+10 1.81037E+06-1.14260E+10-1.49855E+08-1.25118E+09 3.78766E+06
 -1      2352-2.58514E+10 1.12229E+06-9.82310E+09-1.51612E+08-1.22165E+09 3.80418E+06
 -1      2353-2.15931E+10 5.36587E+06-8.20333E+09-1.52797E+08-1.19201E+09 3.81819E+06
 -1      2354-1.72974E+10 1.92522E+06-6.57229E+09-1.54143E+08-1.16227E+09 3.82968E+06
 -1      2355-1.29644E+10 3.59947E+06-4.92510E+09-1.55401E+08-1.13244E+09 3.83862E+06
 -1      2356-8.59541E+09 2.34996E+06-3.26536E+09-1.56757E+08-1.10256E+09 3.84499E+06
 -1      2357-4.19078E+09 2.11435E+06-1.59169E+09-1.57989E+08-1.07264E+09 3.84877E+06
 -1      2358 2.47462E+08 3.08734E+06 9.52089E+07-1.59229E+08-1.04270E+09 3.84994E+06
 -1      2359 4.71942E+09 3.00070E+06 1.79452E+09-1.60354E+08-1.01276E+09 3.84847E+06
 -1      2360 9.22365E+09 8.98469E+05 3.50533E+09-1.61454E+08-9.82841E+08 3.84435E+06
 -1      2361 1.37586E+10 3.43994E+06 5.22956E+09-1.62645E+08-9.52965E+08 3.83757E+06
 -1      2362 1.83250E+10 3.42312E+06 6.96479E+09-1.63700E+08-9.23153E+08 3.82809E+06
 -1      2363 2.29201E+10 4.73365E+05 8.70983E+09-1.64543E+08-8.93425E+08 3.81591E+06
 -1      2364 2.75438E+10 3.70936E+06 1.04681E+10-1.65729E+08-8.63802E+08 3.80101E+06
 -1      2365 3.21949E+10-1.42558E+06 1.22335E+10-1.66543E+08-8.34306E+08 3.78336E+06
 -1      2366 3.68733E+10 4.82445E+06 1.40137E+10-1.67897E+08-8.04958E+08 3.76296E+06
 -1      2367 4.15768E+10 3.76179E+06 1.58006E+10-1.68290E+08-7.75779E+08 3.73979E+06
 -1      2368 4.63046E+10-5.08776E+05 1.75956E+10-1.69258E+08-7.46791E+08 3.71383E+06
 -1      2369 5.10577E+10 1.49743E+06 1.94025E+10-1.70243E+08-7.18016E+08 3.68507E+06
 -1      2370 5.58327E+10 4.52201E+06 2.12181E+10-1.70873E+08-6.89476E+08 3.65350E+06
 -1      2371 6.06296E+10-8.62863E+06 2.30360E+10-1.71746E+08-6.61192E+08 3.61910E+06
 -1      2372 6.54466E+10 9.45496E+06 2.48733E+10-1.73127E+08-6.33186E+08 3.58186E+06
 -1      2373 7.02871E+10 1.02081E+07 2.67130E+10-1.73067E+08-6.05482E+08 3.54177E+06
 -1      2374 7.51444E+10-1.05070E+07 2.85509E+10-1.73339E+08-5.78100E+08 3.49880E+06
 -1      2375 8.00188E+10 7.84929E+06 3.04101E+10-1.74598E+08-5.51064E+08 3.45297E+06
 -1      2376 8.49149E+10-8.18660E+06 3.22646E+10-1.75229E+08-5.24395E+08 3.40425E+06
 -1      2377 8.98245E+10 7.82286E+06 3.41363E+10-1.75918E+08-4.98117E+08 3.35263E+06
 -1      2378 9.47495E+10 6.79725E+06 3.60074E+10-1.76189E+08-4.72252E+08 3.29811E+06
 -1      2379 9.96921E+10-7.03848E+06 3.78803E+10-1.76410E+08-4.46822E+08 3.24067E+06
 -1      2380 1.04648E+11 6.22458E+06 3.97686E+10-1.77461E+08-4.21849E+08 3.18030E+06
 -1      2381 1.09618E+11-9.15040E+06 4.16515E+10-1.77580E+08-3.97358E+08 3.11701E+06
 -1      2382 1.14597E+11 7.15907E+06 4.35497E+10-1.78651E+08-3.73371E+08 3.05077E+06
 -1      2383 1.19591E+11 1.21622E+07 4.54492E+10-1.78431E+08-3.49910E+08 2.98159E+06
 -1      2384 1.24598E+11-2.02563E+07 4.73397E+10-1.78591E+08-3.26999E+08 2.90946E+06
 -1      2385 1.29614E+11 1.42209E+07 4.92586E+10-1.80169E+08-3.04660E+08 2.83436E+06
 -1      2386 1.34636E+11-2.01399E+06 5.11611E+10-1.78943E+08-2.82916E+08 2.75630E+06
 -1      2387 1.39672E+11-2.26184E+06 5.30746E+10-1.80801E+08-2.61792E+08 2.67527E+06
 -1      2388 1.44714E+11 1.28630E+07 5.49963E+10-1.79587E+08-2.41309E+08 2.59126E+06
 -1      2389 1.49765E+11-1.11009E+07 5.69064E+10-1.80497E+08-2.21492E+08 2.50427E+06
 -1      2390 1.54819E+11 2.73712E+06 5.88324E+10-1.80318E+08-2.02362E+08 2.41429E+06
 -1      2391 1.59887E+11 4.26136E+06 6.07587E+10-1.81684E+08-1.83944E+08 2.32132E+06
 -1      2392 1.64955E+11-1.46481E+07 6.26774E+10-1.80260E+08-1.66261E+08 2.22536E+06
 -1      2393 1.70029E+11 1.15920E+07 6.46156E+10-1.82946E+08-1.49335E+08 2.12641E+06
 -1      2394 1.75104E+11 1.18655E+07 6.65441E+10-1.80192E+08-1.33191E+08 2.02445E+06
 -1      2395 1.80199E+11-1.46486E+07 6.84700E+10-1.82552E+08-1.17852E+08 1.91949E+06
 -1      2396 1.85277E+11 5.41182E+06 7.04072E+10-1.80158E+08-1.03341E+08 1.81153E+06
 -1      2397 1.90376E+11-7.90999E+06 7.23397E+10-1.83692E+08-8.96806E+07 1.70056E+06
 -1      2398 1.95457E+11-7.48437E+06 7.42709E+10-1.80669E+08-7.68954E+07 1.58658E+06
 -1      2399 2.00573E+11 2.92023E+07 7.62287E+10-1.85561E+08-6.50084E+07 1.46959E+06
 -1      2400 2.05647E+11-1.10829E+07 7.81416E+10-1.77201E+08-5.40430E+07 1.34959E+06
 -1      2401 2.10774E+11 2.72765E+06 8.00951E+10-1.86615E+08-4.40226E+07 1.22657E+06
 -1      2402 2.15842E+11-2.21985E+07 8.20116E+10-1.76406E+08-3.49708E+07 1.10054E+06
 -1      2403 2.20992E+11 1.12086E+07 8.39812E+10-1.90802E+08-2.69108E+07 9.71502E+05
 -1      2404 2.26029E+11 4.97571E+07 8.59101E+10-1.72111E+08-1.98664E+07 8.39449E+05
 -1      2405 2.31206E+11-1.78545E+08 8.77906E+10-1.92334E+08-1.38605E+07 7.04376E+05
 -1      2406 2.36274E+11 6.32835E+08 9.00246E+10-1.77750E+08-8.91716E+06 5.66290E+05
 -1      2407 2.41243E+11-2.35579E+09 9.07773E+10-1.54940E+08-5.05924E+06 4.25172E+05
 -1      2408 2.47157E+11 8.67176E+09 9.72151E+10-3.38433E+08-2.31082E+06 2.81108E+05
 -1      2409 2.48908E+11-3.18085E+10 8.24978E+10 4.57544E+08-6.94843E+05 1.33772E+05
 -1      2410 2.47621E+11 1.17712E+11 1.38826E+11-2.46806E+09-1.71994E+05 5.91755E+04
 -3
    1PSTEP                         7           1           1          
    1PGM                1.000000E+00                                  
    1PGK                2.726657E+05                                  
    1PHID                         -1                                  
    1PSUBC                         0                                  
    1PMODE                         2                                  
  100CL  102 83.10657170        2410                     2    2MODAL      1
 -4  TOSTRAIN    6    1
 -5  EXX         1    4    1    1
 -5  EYY         1    4    2    2
 -5  EZZ         1    4    3    3
 -5  EXY         1    4    1    2
 -5  EYZ         1    4    2    3
 -5  EZX         1    4    3    1
 -1         1 1.92275E-03-3.13418E-04-1.45976E-08-2.08222E-04-8.74201E-01-2.26252E-03
 -1         2 1.07768E-02-5.79109E-03-3.13803E-08 1.00962E-03-8.65402E-01-2.26251E-03
 -1         3 3.65122E-02-2.15341E-02-4.90376E-08 1.96899E-03-8.47805E-01-2.26249E-03
 -1         4 7.90604E-02-4.76789E-02-3.98696E-08 2.93763E-03-8.30208E-01-2.26243E-03
 -1         5 1.37998E-01-8.37972E-02-8.07255E-09 3.86530E-03-8.12612E-01-2.26233E-03
 -1         6 2.12947E-01-1.29717E-01 3.89758E-08 4.78768E-03-7.95018E-01-2.26216E-03
 -1         7 3.03792E-01-1.85472E-01 8.35164E-08 5.68129E-03-7.77424E-01-2.26191E-03
 -1         8 4.09819E-01-2.50444E-01 1.14205E-07 6.54718E-03-7.59833E-01-2.26157E-03
 -1         9 5.30974E-01-3.24682E-01 1.35328E-07 7.42238E-03-7.42245E-01-2.26112E-03
 -1        10 6.66958E-01-4.08228E-01 1.47392E-07 8.23583E-03-7.24661E-01-2.26055E-03
 -1        11 8.16689E-01-4.99619E-01 1.36609E-07 9.08449E-03-7.07082E-01-2.25985E-03
 -1        12 9.81372E-01-6.01033E-01 1.03840E-07 9.83692E-03-6.89509E-01-2.25899E-03
 -1        13 1.15876E+00-7.09455E-01 7.02583E-08 1.06464E-02-6.71943E-01-2.25796E-03
 -1        14 1.34988E+00-8.26663E-01 4.41342E-08 1.13683E-02-6.54386E-01-2.25677E-03
 -1        15 1.55448E+00-9.52585E-01 1.70846E-08 1.21692E-02-6.36839E-01-2.25538E-03
 -1        16 1.76975E+00-1.08330E+00-4.28178E-09 1.28425E-02-6.19303E-01-2.25381E-03
 -1        17 1.99997E+00-1.22576E+00-5.54217E-09 1.35004E-02-6.01781E-01-2.25200E-03
 -1        18 2.24007E+00-1.37219E+00 1.82489E-08 1.42556E-02-5.84273E-01-2.24998E-03
 -1        19 2.49245E+00-1.52709E+00 5.28059E-08 1.47984E-02-5.66782E-01-2.24773E-03
 -1        20 2.75642E+00-1.68922E+00 7.79604E-08 1.56013E-02-5.49310E-01-2.24523E-03
 -1        21 3.02977E+00-1.85584E+00 9.54837E-08 1.60497E-02-5.31858E-01-2.24247E-03
 -1        22 3.31569E+00-2.03210E+00 1.04944E-07 1.67585E-02-5.14429E-01-2.23944E-03
 -1        23 3.61040E+00-2.21220E+00 1.15746E-07 1.72558E-02-4.97024E-01-2.23614E-03
 -1        24 3.91543E+00-2.39951E+00 1.34396E-07 1.78586E-02-4.79645E-01-2.23256E-03
 -1        25 4.22962E+00-2.59176E+00 1.39404E-07 1.84302E-02-4.62296E-01-2.22868E-03
 -1        26 4.55309E+00-2.79002E+00 1.18596E-07 1.88541E-02-4.44978E-01-2.22449E-03
 -1        27 4.88576E+00-2.99422E+00 7.71523E-08 1.94183E-02-4.27694E-01-2.21999E-03
 -1        28 5.22672E+00-3.20329E+00 2.40202E-08 1.98604E-02-4.10447E-01-2.21517E-03
 -1        29 5.57509E+00-3.41642E+00-2.36595E-08 2.03831E-02-3.93238E-01-2.21003E-03
 -1        30 5.93173E+00-3.63496E+00-5.88773E-08 2.07323E-02-3.76070E-01-2.20454E-03
 -1        31 6.29660E+00-3.85919E+00-8.78586E-08 2.12041E-02-3.58946E-01-2.19872E-03
 -1        32 6.66726E+00-4.08587E+00-1.14291E-07 2.15588E-02-3.41869E-01-2.19254E-03
 -1        33 7.04574E+00-4.31844E+00-1.42943E-07 2.19904E-02-3.24842E-01-2.18601E-03
 -1        34 7.42950E+00-4.55290E+00-1.60258E-07 2.23847E-02-3.07866E-01-2.17911E-03
 -1        35 7.82044E+00-4.79296E+00-1.54344E-07 2.26289E-02-2.90946E-01-2.17184E-03
 -1        36 8.21678E+00-5.03599E+00-1.38275E-07 2.30540E-02-2.74084E-01-2.16420E-03
 -1        37 8.61764E+00-5.28088E+00-1.26523E-07 2.32299E-02-2.57282E-01-2.15618E-03
 -1        38 9.02613E+00-5.53288E+00-1.15297E-07 2.36032E-02-2.40544E-01-2.14777E-03
 -1        39 9.43620E+00-5.78278E+00-1.03182E-07 2.38829E-02-2.23874E-01-2.13898E-03
 -1        40 9.85211E+00-6.03781E+00-9.05468E-08 2.40544E-02-2.07273E-01-2.12979E-03
 -1        41 1.02731E+01-6.29675E+00-7.92806E-08 2.42784E-02-1.90745E-01-2.12020E-03
 -1        42 1.06965E+01-6.55562E+00-7.28649E-08 2.45568E-02-1.74294E-01-2.11021E-03
 -1        43 1.11237E+01-6.81752E+00-6.92610E-08 2.46801E-02-1.57922E-01-2.09981E-03
 -1        44 1.15546E+01-7.08223E+00-7.09615E-08 2.48888E-02-1.41632E-01-2.08900E-03
 -1        45 1.19870E+01-7.34639E+00-7.08840E-08 2.51518E-02-1.25428E-01-2.07779E-03
 -1        46 1.24226E+01-7.61320E+00-6.41909E-08 2.50663E-02-1.09312E-01-2.06616E-03
 -1        47 1.28617E+01-7.88364E+00-5.44526E-08 2.52867E-02-9.32891E-02-2.05411E-03
 -1        48 1.32999E+01-8.15080E+00-4.36483E-08 2.53359E-02-7.73612E-02-2.04165E-03
 -1        49 1.37435E+01-8.42482E+00-3.17671E-08 2.55530E-02-6.15318E-02-2.02876E-03
 -1        50 1.41834E+01-8.69200E+00-2.07295E-08 2.56622E-02-4.58043E-02-2.01546E-03
 -1        51 1.46262E+01-8.96312E+00-7.07865E-09 2.54282E-02-3.01819E-02-2.00173E-03
 -1        52 1.50733E+01-9.24003E+00 1.01052E-08 2.55555E-02-1.46679E-02-1.98758E-03
 -1        53 1.55153E+01-9.50866E+00 2.58102E-08 2.55650E-02 7.34365E-04-1.97300E-03
 -1        54 1.59610E+01-9.78357E+00 4.27384E-08 2.56275E-02 1.60216E-02-1.95800E-03
 -1        55 1.64031E+01-1.00527E+01 5.95575E-08 2.56376E-02 3.11906E-02-1.94258E-03
 -1        56 1.68467E+01-1.03249E+01 7.67533E-08 2.54839E-02 4.62379E-02-1.92674E-03
 -1        57 1.72906E+01-1.05983E+01 9.54095E-08 2.53713E-02 6.11604E-02-1.91047E-03
 -1        58 1.77305E+01-1.08670E+01 1.11681E-07 2.53915E-02 7.59548E-02-1.89379E-03
 -1        59 1.81700E+01-1.11363E+01 1.27536E-07 2.52599E-02 9.06177E-02-1.87668E-03
 -1        60 1.86094E+01-1.14067E+01 1.45569E-07 2.52465E-02 1.05146E-01-1.85916E-03
 -1        61 1.90436E+01-1.16715E+01 1.65934E-07 2.50974E-02 1.19536E-01-1.84122E-03
 -1        62 1.94759E+01-1.19357E+01 1.83379E-07 2.48064E-02 1.33786E-01-1.82286E-03
 -1        63 1.99106E+01-1.22057E+01 1.92286E-07 2.47532E-02 1.47890E-01-1.80409E-03
 -1        64 2.03349E+01-1.24620E+01 1.95985E-07 2.46671E-02 1.61848E-01-1.78492E-03
 -1        65 2.07613E+01-1.27253E+01 1.98255E-07 2.42983E-02 1.75654E-01-1.76534E-03
 -1        66 2.11817E+01-1.29826E+01 1.98894E-07 2.41918E-02 1.89307E-01-1.74535E-03
 -1        67 2.15984E+01-1.32368E+01 1.97318E-07 2.39507E-02 2.02803E-01-1.72497E-03
 -1        68 2.20146E+01-1.34945E+01 1.91252E-07 2.35444E-02 2.16138E-01-1.70419E-03
 -1        69 2.24205E+01-1.37408E+01 1.72877E-07 2.34558E-02 2.29311E-01-1.68301E-03
 -1        70 2.28285E+01-1.39934E+01 1.43303E-07 2.32706E-02 2.42317E-01-1.66145E-03
 -1        71 2.32255E+01-1.42343E+01 1.12686E-07 2.29372E-02 2.55154E-01-1.63951E-03
 -1        72 2.36199E+01-1.44760E+01 8.52923E-08 2.25490E-02 2.67819E-01-1.61719E-03
 -1        73 2.40120E+01-1.47187E+01 5.69454E-08 2.21534E-02 2.80309E-01-1.59449E-03
 -1        74 2.43939E+01-1.49505E+01 2.34835E-08 2.20479E-02 2.92621E-01-1.57143E-03
 -1        75 2.47746E+01-1.51864E+01-4.67284E-09 2.15454E-02 3.04752E-01-1.54800E-03
 -1        76 2.51433E+01-1.54093E+01-2.16991E-08 2.14673E-02 3.16700E-01-1.52422E-03
 -1        77 2.55105E+01-1.56361E+01-3.31217E-08 2.07062E-02 3.28461E-01-1.50008E-03
 -1        78 2.58707E+01-1.58568E+01-4.19227E-08 2.07933E-02 3.40033E-01-1.47560E-03
 -1        79 2.62219E+01-1.60708E+01-4.68505E-08 1.98107E-02 3.51414E-01-1.45078E-03
 -1        80 2.65685E+01-1.62850E+01-4.98268E-08 1.96941E-02 3.62600E-01-1.42563E-03
 -1        81 2.69084E+01-1.64937E+01-5.84998E-08 1.93945E-02 3.73589E-01-1.40015E-03
 -1        82 2.72372E+01-1.66933E+01-7.22087E-08 1.89134E-02 3.84379E-01-1.37435E-03
 -1        83 2.75600E+01-1.68907E+01-8.60816E-08 1.83718E-02 3.94966E-01-1.34824E-03
 -1        84 2.78788E+01-1.70890E+01-9.15531E-08 1.77901E-02 4.05350E-01-1.32183E-03
 -1        85 2.81842E+01-1.72736E+01-8.98654E-08 1.76155E-02 4.15527E-01-1.29512E-03
 -1        86 2.84865E+01-1.74616E+01-9.40454E-08 1.69452E-02 4.25495E-01-1.26811E-03
 -1        87 2.87735E+01-1.76344E+01-8.68668E-08 1.66647E-02 4.35252E-01-1.24083E-03
 -1        88 2.90570E+01-1.78085E+01-6.10116E-08 1.60074E-02 4.44796E-01-1.21328E-03
 -1        89 2.93337E+01-1.79808E+01-4.54631E-08 1.52990E-02 4.54124E-01-1.18546E-03
 -1        90 2.95946E+01-1.81377E+01-4.28182E-08 1.50394E-02 4.63235E-01-1.15738E-03
 -1        91 2.98548E+01-1.83017E+01-3.28497E-08 1.44458E-02 4.72127E-01-1.12905E-03
 -1        92 3.00956E+01-1.84438E+01-6.25207E-09 1.44223E-02 4.80798E-01-1.10049E-03
 -1        93 3.03325E+01-1.85891E+01 3.56041E-08 1.29192E-02 4.89245E-01-1.07170E-03
 -1        94 3.05646E+01-1.87369E+01 8.28976E-08 1.26798E-02 4.97468E-01-1.04268E-03
 -1        95 3.07769E+01-1.88622E+01 1.26868E-07 1.22140E-02 5.05464E-01-1.01345E-03
 -1        96 3.09881E+01-1.89950E+01 1.62945E-07 1.17500E-02 5.13232E-01-9.84025E-04
 -1        97 3.11819E+01-1.91110E+01 1.89269E-07 1.11281E-02 5.20770E-01-9.54403E-04
 -1        98 3.13673E+01-1.92240E+01 2.11034E-07 1.03276E-02 5.28077E-01-9.24599E-04
 -1        99 3.15480E+01-1.93382E+01 2.21281E-07 9.84576E-03 5.35152E-01-8.94621E-04
 -1       100 3.17113E+01-1.94361E+01 2.06675E-07 9.12621E-03 5.41993E-01-8.64480E-04
 -1       101 3.18656E+01-1.95306E+01 1.71975E-07 8.67315E-03 5.48599E-01-8.34187E-04
 -1       102 3.20121E+01-1.96225E+01 1.29988E-07 7.93666E-03 5.54969E-01-8.03751E-04
 -1       103 3.21425E+01-1.96998E+01 9.78689E-08 7.63970E-03 5.61101E-01-7.73184E-04
 -1       104 3.22640E+01-1.97734E+01 8.47198E-08 6.47221E-03 5.66995E-01-7.42495E-04
 -1       105 3.23796E+01-1.98495E+01 7.00655E-08 5.97416E-03 5.72650E-01-7.11694E-04
 -1       106 3.24734E+01-1.99013E+01 3.91575E-08 5.65341E-03 5.78066E-01-6.80795E-04
 -1       107 3.25651E+01-1.99604E+01 1.12388E-09 4.63657E-03 5.83240E-01-6.49805E-04
 -1       108 3.26409E+01-2.00067E+01-3.61114E-08 4.08241E-03 5.88174E-01-6.18737E-04
 -1       109 3.27026E+01-2.00421E+01-7.53321E-08 3.28270E-03 5.92865E-01-5.87603E-04
 -1       110 3.27611E+01-2.00821E+01-1.18576E-07 2.71429E-03 5.97314E-01-5.56411E-04
 -1       111 3.27989E+01-2.01020E+01-1.40326E-07 1.90688E-03 6.01520E-01-5.25175E-04
 -1       112 3.28310E+01-2.01247E+01-1.40767E-07 1.48424E-03 6.05483E-01-4.93905E-04
 -1       113 3.28449E+01-2.01299E+01-1.33339E-07 7.09726E-04 6.09203E-01-4.62614E-04
 -1       114 3.28511E+01-2.01339E+01-1.12451E-07-4.43784E-06 6.12679E-01-4.31311E-04
 -1       115 3.28478E+01-2.01352E+01-1.01552E-07-1.02014E-03 6.15912E-01-4.00008E-04
 -1       116 3.28245E+01-2.01174E+01-1.03584E-07-1.37602E-03 6.18901E-01-3.68718E-04
 -1       117 3.27981E+01-2.01050E+01-1.07853E-07-2.06449E-03 6.21647E-01-3.37452E-04
 -1       118 3.27502E+01-2.00713E+01-1.27031E-07-2.76179E-03 6.24150E-01-3.06221E-04
 -1       119 3.26961E+01-2.00406E+01-1.55476E-07-3.71247E-03 6.26411E-01-2.75038E-04
 -1       120 3.26286E+01-1.99991E+01-1.71810E-07-4.10277E-03 6.28429E-01-2.43913E-04
 -1       121 3.25461E+01-1.99466E+01-1.76369E-07-5.18856E-03 6.30205E-01-2.12860E-04
 -1       122 3.24557E+01-1.98941E+01-1.88204E-07-5.84426E-03 6.31740E-01-1.81889E-04
 -1       123 3.23501E+01-1.98292E+01-2.10623E-07-6.39860E-03 6.33035E-01-1.51012E-04
 -1       124 3.22292E+01-1.97529E+01-2.33339E-07-7.01465E-03 6.34090E-01-1.20243E-04
 -1       125 3.20990E+01-1.96727E+01-2.45694E-07-7.94713E-03 6.34905E-01-8.95928E-05
 -1       126 3.19596E+01-1.95910E+01-2.54559E-07-8.81128E-03 6.35483E-01-5.90720E-05
 -1       127 3.17993E+01-1.94890E+01-2.71158E-07-9.34306E-03 6.35825E-01-2.86940E-05
 -1       128 3.16355E+01-1.93921E+01-2.72691E-07-9.91438E-03 6.35930E-01 1.52953E-06
 -1       129 3.14510E+01-1.92757E+01-2.37521E-07-1.07738E-02 6.35801E-01 3.15871E-05
 -1       130 3.12570E+01-1.91568E+01-1.67148E-07-1.15272E-02 6.35439E-01 6.14656E-05
 -1       131 3.10541E+01-1.90353E+01-8.10278E-08-1.24697E-02 6.34846E-01 9.11543E-05
 -1       132 3.08345E+01-1.88995E+01-2.15049E-08-1.27980E-02 6.34022E-01 1.20641E-04
 -1       133 3.06042E+01-1.87588E+01 1.83467E-09-1.35393E-02 6.32969E-01 1.49915E-04
 -1       134 3.03562E+01-1.86034E+01 1.51212E-08-1.44152E-02 6.31690E-01 1.78961E-04
 -1       135 3.01036E+01-1.84517E+01 2.85153E-08-1.52457E-02 6.30186E-01 2.07769E-04
 -1       136 2.98360E+01-1.82882E+01 3.93034E-08-1.59980E-02 6.28459E-01 2.36328E-04
 -1       137 2.95530E+01-1.81135E+01 4.92732E-08-1.65358E-02 6.26511E-01 2.64625E-04
 -1       138 2.92596E+01-1.79336E+01 5.57028E-08-1.72847E-02 6.24343E-01 2.92647E-04
 -1       139 2.89561E+01-1.77493E+01 5.05297E-08-1.78992E-02 6.21959E-01 3.20385E-04
 -1       140 2.86353E+01-1.75503E+01 2.67538E-08-1.86005E-02 6.19361E-01 3.47826E-04
 -1       141 2.83044E+01-1.73472E+01-1.66453E-08-1.94637E-02 6.16549E-01 3.74956E-04
 -1       142 2.79649E+01-1.71420E+01-5.94697E-08-2.02460E-02 6.13529E-01 4.01766E-04
 -1       143 2.76081E+01-1.69208E+01-7.94791E-08-2.06871E-02 6.10301E-01 4.28245E-04
 -1       144 2.72440E+01-1.67002E+01-7.50307E-08-2.15311E-02 6.06868E-01 4.54379E-04
 -1       145 2.68612E+01-1.64623E+01-5.31460E-08-2.20502E-02 6.03234E-01 4.80159E-04
 -1       146 2.64730E+01-1.62263E+01-2.69943E-08-2.28701E-02 5.99400E-01 5.05571E-04
 -1       147 2.60710E+01-1.59800E+01-5.13354E-09-2.35236E-02 5.95370E-01 5.30607E-04
 -1       148 2.56539E+01-1.57222E+01 1.71494E-08-2.43156E-02 5.91147E-01 5.55253E-04
 -1       149 2.52324E+01-1.54682E+01 3.34855E-08-2.49882E-02 5.86734E-01 5.79498E-04
 -1       150 2.47910E+01-1.51937E+01 3.72511E-08-2.53105E-02 5.82134E-01 6.03332E-04
 -1       151 2.43426E+01-1.49194E+01 3.51340E-08-2.63880E-02 5.77350E-01 6.26744E-04
 -1       152 2.38836E+01-1.46400E+01 4.43512E-08-2.69692E-02 5.72386E-01 6.49721E-04
 -1       153 2.34103E+01-1.43481E+01 6.41413E-08-2.74062E-02 5.67245E-01 6.72256E-04
 -1       154 2.29293E+01-1.40552E+01 7.19706E-08-2.82489E-02 5.61930E-01 6.94335E-04
 -1       155 2.24325E+01-1.37487E+01 7.54496E-08-2.86255E-02 5.56445E-01 7.15949E-04
 -1       156 2.19272E+01-1.34389E+01 8.59995E-08-2.95528E-02 5.50794E-01 7.37086E-04
 -1       157 2.14137E+01-1.31262E+01 8.42491E-08-3.00652E-02 5.44981E-01 7.57736E-04
 -1       158 2.08855E+01-1.28012E+01 7.64448E-08-3.07368E-02 5.39009E-01 7.77890E-04
 -1       159 2.03473E+01-1.24708E+01 9.22122E-08-3.12179E-02 5.32882E-01 7.97537E-04
 -1       160 1.98017E+01-1.21389E+01 1.30461E-07-3.19511E-02 5.26604E-01 8.16667E-04
 -1       161 1.92402E+01-1.17914E+01 1.62863E-07-3.21227E-02 5.20180E-01 8.35271E-04
 -1       162 1.86714E+01-1.14428E+01 1.75691E-07-3.33653E-02 5.13613E-01 8.53336E-04
 -1       163 1.80953E+01-1.10930E+01 1.71776E-07-3.37531E-02 5.06907E-01 8.70854E-04
 -1       164 1.75042E+01-1.07281E+01 1.51139E-07-3.41453E-02 5.00068E-01 8.87816E-04
 -1       165 1.69072E+01-1.03640E+01 1.17562E-07-3.48502E-02 4.93098E-01 9.04212E-04
 -1       166 1.62966E+01-9.98802E+00 8.09437E-08-3.52228E-02 4.86004E-01 9.20034E-04
 -1       167 1.56784E+01-9.60914E+00 5.58488E-08-3.59937E-02 4.78788E-01 9.35270E-04
 -1       168 1.50527E+01-9.22717E+00 4.99000E-08-3.64503E-02 4.71457E-01 9.49911E-04
 -1       169 1.44143E+01-8.83460E+00 5.93557E-08-3.70060E-02 4.64014E-01 9.63952E-04
 -1       170 1.37689E+01-8.44010E+00 6.45403E-08-3.74834E-02 4.56464E-01 9.77380E-04
 -1       171 1.31128E+01-8.03683E+00 5.98728E-08-3.79069E-02 4.48812E-01 9.90189E-04
 -1       172 1.24488E+01-7.62984E+00 6.55882E-08-3.86179E-02 4.41063E-01 1.00237E-03
 -1       173 1.17769E+01-7.21908E+00 7.59635E-08-3.90416E-02 4.33221E-01 1.01391E-03
 -1       174 1.10950E+01-6.80065E+00 7.54478E-08-3.95193E-02 4.25293E-01 1.02481E-03
 -1       175 1.04056E+01-6.37823E+00 8.05235E-08-3.98661E-02 4.17282E-01 1.03505E-03
 -1       176 9.70648E+00-5.94873E+00 1.00402E-07-4.05224E-02 4.09194E-01 1.04464E-03
 -1       177 9.00104E+00-5.51729E+00 1.26646E-07-4.09742E-02 4.01034E-01 1.05355E-03
 -1       178 8.28736E+00-5.08007E+00 1.58054E-07-4.14002E-02 3.92807E-01 1.06179E-03
 -1       179 7.56512E+00-4.63694E+00 1.88592E-07-4.17902E-02 3.84519E-01 1.06934E-03
 -1       180 6.83581E+00-4.19007E+00 2.05916E-07-4.22582E-02 3.76175E-01 1.07621E-03
 -1       181 6.09902E+00-3.73864E+00 2.09965E-07-4.26717E-02 3.67780E-01 1.08237E-03
 -1       182 5.35462E+00-3.28206E+00 2.06086E-07-4.30382E-02 3.59340E-01 1.08783E-03
 -1       183 4.60334E+00-2.82152E+00 1.87707E-07-4.35428E-02 3.50861E-01 1.09257E-03
 -1       184 3.84555E+00-2.35754E+00 1.57357E-07-4.38834E-02 3.42347E-01 1.09660E-03
 -1       185 3.08027E+00-1.88812E+00 1.26501E-07-4.42699E-02 3.33805E-01 1.09990E-03
 -1       186 2.30889E+00-1.41553E+00 9.95594E-08-4.46311E-02 3.25239E-01 1.10247E-03
 -1       187 1.53079E+00-9.38490E-01 7.90571E-08-4.50205E-02 3.16657E-01 1.10430E-03
 -1       188 7.46460E-01-4.57743E-01 5.88014E-08-4.53745E-02 3.08064E-01 1.10538E-03
 -1       189-4.37275E-02 2.64574E-02 3.20208E-08-4.57306E-02 2.99465E-01 1.10572E-03
 -1       190-8.40034E-01 5.14526E-01 7.96177E-10-4.60535E-02 2.90866E-01 1.10530E-03
 -1       191-1.64231E+00 1.00648E+00-3.66770E-08-4.63696E-02 2.82273E-01 1.10412E-03
 -1       192-2.44954E+00 1.50095E+00-7.96398E-08-4.67115E-02 2.73693E-01 1.10217E-03
 -1       193-3.26265E+00 1.99931E+00-1.22664E-07-4.70146E-02 2.65131E-01 1.09944E-03
 -1       194-4.08121E+00 2.50133E+00-1.56962E-07-4.72566E-02 2.56593E-01 1.09594E-03
 -1       195-4.90417E+00 3.00537E+00-1.71601E-07-4.75972E-02 2.48085E-01 1.09166E-03
 -1       196-5.73292E+00 3.51389E+00-1.67624E-07-4.78310E-02 2.39614E-01 1.08659E-03
 -1       197-6.56530E+00 4.02336E+00-1.56819E-07-4.82199E-02 2.31185E-01 1.08074E-03
 -1       198-7.40295E+00 4.53687E+00-1.46677E-07-4.83328E-02 2.22805E-01 1.07408E-03
 -1       199-8.24526E+00 5.05361E+00-1.36315E-07-4.86108E-02 2.14479E-01 1.06662E-03
 -1       200-9.09139E+00 5.57198E+00-1.27220E-07-4.88937E-02 2.06215E-01 1.05836E-03
 -1       201-9.94132E+00 6.09257E+00-1.18465E-07-4.90745E-02 1.98018E-01 1.04929E-03
 -1       202-1.07969E+01 6.61842E+00-1.06860E-07-4.93253E-02 1.89895E-01 1.03941E-03
 -1       203-1.16527E+01 7.14092E+00-8.93916E-08-4.97218E-02 1.81852E-01 1.02872E-03
 -1       204-1.25145E+01 7.66905E+00-6.73409E-08-4.97047E-02 1.73895E-01 1.01720E-03
 -1       205-1.33817E+01 8.20286E+00-4.48137E-08-4.97826E-02 1.66031E-01 1.00486E-03
 -1       206-1.42476E+01 8.73156E+00-2.15284E-08-5.01442E-02 1.58266E-01 9.91697E-04
 -1       207-1.51212E+01 9.26876E+00-4.09464E-09-5.03256E-02 1.50607E-01 9.77704E-04
 -1       208-1.59937E+01 9.80173E+00 4.26343E-09-5.05235E-02 1.43060E-01 9.62880E-04
 -1       209-1.68708E+01 1.03394E+01 9.63642E-09-5.06012E-02 1.35631E-01 9.47221E-04
 -1       210-1.77524E+01 1.08813E+01 1.53555E-08-5.06648E-02 1.28328E-01 9.30724E-04
 -1       211-1.86334E+01 1.14198E+01 2.12960E-08-5.09666E-02 1.21156E-01 9.13387E-04
 -1       212-1.95202E+01 1.19650E+01 2.65417E-08-5.10009E-02 1.14122E-01 8.95209E-04
 -1       213-2.04049E+01 1.25055E+01 2.96248E-08-5.13083E-02 1.07233E-01 8.76187E-04
 -1       214-2.12936E+01 1.30496E+01 2.93770E-08-5.12452E-02 1.00495E-01 8.56319E-04
 -1       215-2.21888E+01 1.36018E+01 2.81810E-08-5.12911E-02 9.39144E-02 8.35601E-04
 -1       216-2.30781E+01 1.41430E+01 2.91309E-08-5.17445E-02 8.74987E-02 8.14033E-04
 -1       217-2.39742E+01 1.46941E+01 3.04157E-08-5.13923E-02 8.12540E-02 7.91614E-04
 -1       218-2.48709E+01 1.52437E+01 3.12971E-08-5.19260E-02 7.51870E-02 7.68342E-04
 -1       219-2.57671E+01 1.57913E+01 3.16712E-08-5.15772E-02 6.93044E-02 7.44214E-04
 -1       220-2.66690E+01 1.63468E+01 2.97226E-08-5.18386E-02 6.36127E-02 7.19230E-04
 -1       221-2.75675E+01 1.68959E+01 2.76317E-08-5.17871E-02 5.81187E-02 6.93388E-04
 -1       222-2.84698E+01 1.74487E+01 2.65429E-08-5.21796E-02 5.28290E-02 6.66688E-04
 -1       223-2.93743E+01 1.80052E+01 2.43447E-08-5.17705E-02 4.77503E-02 6.39128E-04
 -1       224-3.02750E+01 1.85543E+01 2.12928E-08-5.25421E-02 4.28893E-02 6.10708E-04
 -1       225-3.11786E+01 1.91081E+01 1.84900E-08-5.17509E-02 3.82528E-02 5.81427E-04
 -1       226-3.20886E+01 1.96689E+01 1.59207E-08-5.24288E-02 3.38473E-02 5.51282E-04
 -1       227-3.29906E+01 2.02194E+01 1.38251E-08-5.17411E-02 2.96796E-02 5.20274E-04
 -1       228-3.39000E+01 2.07783E+01 1.21780E-08-5.27562E-02 2.57564E-02 4.88404E-04
 -1       229-3.48048E+01 2.13328E+01 1.05752E-08-5.18878E-02 2.20845E-02 4.55669E-04
 -1       230-3.57117E+01 2.18846E+01 9.16194E-09-5.32931E-02 1.86705E-02 4.22070E-04
 -1       231-3.66196E+01 2.24455E+01 7.18531E-09-5.08918E-02 1.55213E-02 3.87605E-04
 -1       232-3.75311E+01 2.30026E+01 3.99910E-09-5.35956E-02 1.26434E-02 3.52275E-04
 -1       233-3.84363E+01 2.35602E+01 3.38791E-10-5.06637E-02 1.00437E-02 3.16079E-04
 -1       234-3.93496E+01 2.41163E+01-3.95907E-09-5.47980E-02 7.72884E-03 2.79018E-04
 -1       235-4.02424E+01 2.46592E+01-8.42512E-09-4.94304E-02 5.70566E-03 2.41092E-04
 -1       236-4.11891E+01 2.52648E+01-1.26868E-08-5.52378E-02 3.98077E-03 2.02299E-04
 -1       237-4.20029E+01 2.56734E+01-1.70846E-08-5.10500E-02 2.56103E-03 1.62640E-04
 -1       238-4.32140E+01 2.67479E+01-2.15227E-08-4.44979E-02 1.45302E-03 1.22111E-04
 -1       239-4.30636E+01 2.54297E+01-2.52015E-08-9.71993E-02 6.63671E-04 8.07350E-05
 -1       240-4.77932E+01 3.28289E+01-3.38266E-08 1.31409E-01 1.99560E-04 3.84198E-05
 -1       241-3.12458E+01 6.06406E+00-4.10313E-08-7.08831E-01 4.93967E-05 1.69954E-05
 -1       242 1.92263E-03-3.13403E-04 1.45976E-08-2.08117E-04 8.74199E-01 2.26250E-03
 -1       243 1.07766E-02-5.79102E-03 3.13803E-08 1.00970E-03 8.65401E-01 2.26250E-03
 -1       244 3.65119E-02-2.15340E-02 4.90376E-08 1.96901E-03 8.47804E-01 2.26248E-03
 -1       245 7.90602E-02-4.76788E-02 3.98696E-08 2.93756E-03 8.30207E-01 2.26242E-03
 -1       246 1.37998E-01-8.37972E-02 8.07255E-09 3.86517E-03 8.12611E-01 2.26231E-03
 -1       247 2.12947E-01-1.29718E-01-3.89758E-08 4.78754E-03 7.95016E-01 2.26215E-03
 -1       248 3.03793E-01-1.85472E-01-8.35164E-08 5.68117E-03 7.77423E-01 2.26190E-03
 -1       249 4.09820E-01-2.50444E-01-1.14205E-07 6.54710E-03 7.59832E-01 2.26156E-03
 -1       250 5.30975E-01-3.24682E-01-1.35328E-07 7.42233E-03 7.42244E-01 2.26111E-03
 -1       251 6.66959E-01-4.08229E-01-1.47392E-07 8.23581E-03 7.24660E-01 2.26054E-03
 -1       252 8.16690E-01-4.99619E-01-1.36609E-07 9.08457E-03 7.07081E-01 2.25984E-03
 -1       253 9.81372E-01-6.01033E-01-1.03840E-07 9.83704E-03 6.89508E-01 2.25898E-03
 -1       254 1.15876E+00-7.09455E-01-7.02583E-08 1.06465E-02 6.71942E-01 2.25796E-03
 -1       255 1.34988E+00-8.26663E-01-4.41342E-08 1.13684E-02 6.54385E-01 2.25676E-03
 -1       256 1.55448E+00-9.52585E-01-1.70846E-08 1.21693E-02 6.36838E-01 2.25538E-03
 -1       257 1.76975E+00-1.08330E+00 4.28178E-09 1.28425E-02 6.19303E-01 2.25380E-03
 -1       258 1.99997E+00-1.22576E+00 5.54217E-09 1.35003E-02 6.01780E-01 2.25199E-03
 -1       259 2.24007E+00-1.37219E+00-1.82489E-08 1.42555E-02 5.84273E-01 2.24997E-03
 -1       260 2.49245E+00-1.52709E+00-5.28059E-08 1.47984E-02 5.66782E-01 2.24772E-03
 -1       261 2.75642E+00-1.68922E+00-7.79604E-08 1.56012E-02 5.49309E-01 2.24522E-03
 -1       262 3.02977E+00-1.85584E+00-9.54837E-08 1.60496E-02 5.31857E-01 2.24246E-03
 -1       263 3.31569E+00-2.03210E+00-1.04944E-07 1.67585E-02 5.14428E-01 2.23944E-03
 -1       264 3.61040E+00-2.21220E+00-1.15746E-07 1.72557E-02 4.97023E-01 2.23614E-03
 -1       265 3.91543E+00-2.39952E+00-1.34396E-07 1.78586E-02 4.79645E-01 2.23255E-03
 -1       266 4.22963E+00-2.59176E+00-1.39404E-07 1.84302E-02 4.62296E-01 2.22867E-03
 -1       267 4.55309E+00-2.79002E+00-1.18596E-07 1.88542E-02 4.44978E-01 2.22449E-03
 -1       268 4.88576E+00-2.99422E+00-7.71523E-08 1.94184E-02 4.27694E-01 2.21999E-03
 -1       269 5.22672E+00-3.20329E+00-2.40202E-08 1.98605E-02 4.10446E-01 2.21517E-03
 -1       270 5.57509E+00-3.41642E+00 2.36595E-08 2.03833E-02 3.93237E-01 2.21002E-03
 -1       271 5.93173E+00-3.63496E+00 5.88773E-08 2.07324E-02 3.76069E-01 2.20454E-03
 -1       272 6.29660E+00-3.85919E+00 8.78586E-08 2.12042E-02 3.58946E-01 2.19871E-03
 -1       273 6.66726E+00-4.08587E+00 1.14291E-07 2.15589E-02 3.41869E-01 2.19253E-03
 -1       274 7.04574E+00-4.31844E+00 1.42943E-07 2.19905E-02 3.24841E-01 2.18600E-03
 -1       275 7.42950E+00-4.55290E+00 1.60258E-07 2.23847E-02 3.07866E-01 2.17910E-03
 -1       276 7.82044E+00-4.79295E+00 1.54344E-07 2.26288E-02 2.90945E-01 2.17184E-03
 -1       277 8.21678E+00-5.03599E+00 1.38275E-07 2.30540E-02 2.74083E-01 2.16420E-03
 -1       278 8.61764E+00-5.28088E+00 1.26523E-07 2.32299E-02 2.57281E-01 2.15617E-03
 -1       279 9.02613E+00-5.53288E+00 1.15297E-07 2.36031E-02 2.40544E-01 2.14776E-03
 -1       280 9.43620E+00-5.78278E+00 1.03182E-07 2.38828E-02 2.23873E-01 2.13897E-03
 -1       281 9.85211E+00-6.03781E+00 9.05468E-08 2.40543E-02 2.07273E-01 2.12978E-03
 -1       282 1.02731E+01-6.29675E+00 7.92806E-08 2.42784E-02 1.90745E-01 2.12019E-03
 -1       283 1.06965E+01-6.55562E+00 7.28649E-08 2.45568E-02 1.74293E-01 2.11019E-03
 -1       284 1.11237E+01-6.81752E+00 6.92610E-08 2.46801E-02 1.57921E-01 2.09980E-03
 -1       285 1.15546E+01-7.08223E+00 7.09615E-08 2.48889E-02 1.41631E-01 2.08899E-03
 -1       286 1.19870E+01-7.34639E+00 7.08840E-08 2.51518E-02 1.25427E-01 2.07778E-03
 -1       287 1.24226E+01-7.61320E+00 6.41909E-08 2.50663E-02 1.09312E-01 2.06615E-03
 -1       288 1.28617E+01-7.88364E+00 5.44526E-08 2.52867E-02 9.32890E-02 2.05410E-03
 -1       289 1.32999E+01-8.15080E+00 4.36483E-08 2.53359E-02 7.73611E-02 2.04163E-03
 -1       290 1.37435E+01-8.42482E+00 3.17671E-08 2.55530E-02 6.15317E-02 2.02875E-03
 -1       291 1.41834E+01-8.69200E+00 2.07295E-08 2.56621E-02 4.58043E-02 2.01544E-03
 -1       292 1.46262E+01-8.96312E+00 7.07865E-09 2.54282E-02 3.01819E-02 2.00171E-03
 -1       293 1.50733E+01-9.24003E+00-1.01052E-08 2.55555E-02 1.46680E-02 1.98756E-03
 -1       294 1.55153E+01-9.50866E+00-2.58102E-08 2.55649E-02-7.34181E-04 1.97299E-03
 -1       295 1.59610E+01-9.78357E+00-4.27384E-08 2.56274E-02-1.60214E-02 1.95799E-03
 -1       296 1.64031E+01-1.00527E+01-5.95575E-08 2.56376E-02-3.11903E-02 1.94257E-03
 -1       297 1.68467E+01-1.03249E+01-7.67533E-08 2.54838E-02-4.62375E-02 1.92673E-03
 -1       298 1.72906E+01-1.05983E+01-9.54095E-08 2.53713E-02-6.11599E-02 1.91046E-03
 -1       299 1.77305E+01-1.08670E+01-1.11681E-07 2.53914E-02-7.59543E-02 1.89377E-03
 -1       300 1.81700E+01-1.11363E+01-1.27536E-07 2.52598E-02-9.06172E-02 1.87667E-03
 -1       301 1.86094E+01-1.14067E+01-1.45569E-07 2.52464E-02-1.05145E-01 1.85915E-03
 -1       302 1.90436E+01-1.16716E+01-1.65934E-07 2.50974E-02-1.19536E-01 1.84121E-03
 -1       303 1.94759E+01-1.19357E+01-1.83379E-07 2.48063E-02-1.33785E-01 1.82285E-03
 -1       304 1.99106E+01-1.22057E+01-1.92286E-07 2.47532E-02-1.47890E-01 1.80409E-03
 -1       305 2.03349E+01-1.24620E+01-1.95985E-07 2.46671E-02-1.61847E-01 1.78491E-03
 -1       306 2.07613E+01-1.27253E+01-1.98255E-07 2.42983E-02-1.75654E-01 1.76533E-03
 -1       307 2.11817E+01-1.29826E+01-1.98894E-07 2.41918E-02-1.89306E-01 1.74535E-03
 -1       308 2.15984E+01-1.32368E+01-1.97318E-07 2.39507E-02-2.02802E-01 1.72497E-03
 -1       309 2.20146E+01-1.34945E+01-1.91252E-07 2.35444E-02-2.16138E-01 1.70418E-03
 -1       310 2.24205E+01-1.37408E+01-1.72877E-07 2.34559E-02-2.29310E-01 1.68301E-03
 -1       311 2.28285E+01-1.39934E+01-1.43303E-07 2.32707E-02-2.42317E-01 1.66145E-03
 -1       312 2.32255E+01-1.42343E+01-1.12686E-07 2.29373E-02-2.55154E-01 1.63951E-03
 -1       313 2.36199E+01-1.44760E+01-8.52923E-08 2.25491E-02-2.67819E-01 1.61719E-03
 -1       314 2.40120E+01-1.47187E+01-5.69454E-08 2.21535E-02-2.80309E-01 1.59450E-03
 -1       315 2.43939E+01-1.49505E+01-2.34835E-08 2.20480E-02-2.92621E-01 1.57143E-03
 -1       316 2.47746E+01-1.51864E+01 4.67284E-09 2.15455E-02-3.04752E-01 1.54801E-03
 -1       317 2.51433E+01-1.54093E+01 2.16991E-08 2.14674E-02-3.16699E-01 1.52422E-03
 -1       318 2.55105E+01-1.56361E+01 3.31217E-08 2.07063E-02-3.28461E-01 1.50009E-03
 -1       319 2.58707E+01-1.58568E+01 4.19227E-08 2.07933E-02-3.40033E-01 1.47561E-03
 -1       320 2.62219E+01-1.60708E+01 4.68505E-08 1.98107E-02-3.51413E-01 1.45078E-03
 -1       321 2.65685E+01-1.62850E+01 4.98268E-08 1.96941E-02-3.62600E-01 1.42563E-03
 -1       322 2.69084E+01-1.64937E+01 5.84998E-08 1.93945E-02-3.73589E-01 1.40015E-03
 -1       323 2.72372E+01-1.66933E+01 7.22087E-08 1.89134E-02-3.84379E-01 1.37435E-03
 -1       324 2.75600E+01-1.68907E+01 8.60816E-08 1.83718E-02-3.94966E-01 1.34824E-03
 -1       325 2.78788E+01-1.70890E+01 9.15531E-08 1.77901E-02-4.05350E-01 1.32183E-03
 -1       326 2.81842E+01-1.72736E+01 8.98654E-08 1.76155E-02-4.15527E-01 1.29511E-03
 -1       327 2.84865E+01-1.74616E+01 9.40454E-08 1.69453E-02-4.25495E-01 1.26811E-03
 -1       328 2.87735E+01-1.76344E+01 8.68668E-08 1.66646E-02-4.35252E-01 1.24083E-03
 -1       329 2.90570E+01-1.78085E+01 6.10116E-08 1.60073E-02-4.44796E-01 1.21328E-03
 -1       330 2.93337E+01-1.79808E+01 4.54631E-08 1.52990E-02-4.54124E-01 1.18545E-03
 -1       331 2.95946E+01-1.81377E+01 4.28182E-08 1.50394E-02-4.63236E-01 1.15738E-03
 -1       332 2.98548E+01-1.83017E+01 3.28497E-08 1.44458E-02-4.72127E-01 1.12905E-03
 -1       333 3.00956E+01-1.84438E+01 6.25207E-09 1.44222E-02-4.80798E-01 1.10049E-03
 -1       334 3.03325E+01-1.85891E+01-3.56041E-08 1.29190E-02-4.89245E-01 1.07170E-03
 -1       335 3.05646E+01-1.87369E+01-8.28976E-08 1.26797E-02-4.97468E-01 1.04268E-03
 -1       336 3.07769E+01-1.88622E+01-1.26868E-07 1.22139E-02-5.05464E-01 1.01345E-03
 -1       337 3.09881E+01-1.89950E+01-1.62945E-07 1.17499E-02-5.13232E-01 9.84024E-04
 -1       338 3.11819E+01-1.91110E+01-1.89269E-07 1.11280E-02-5.20770E-01 9.54403E-04
 -1       339 3.13673E+01-1.92240E+01-2.11034E-07 1.03275E-02-5.28077E-01 9.24601E-04
 -1       340 3.15480E+01-1.93382E+01-2.21281E-07 9.84576E-03-5.35152E-01 8.94624E-04
 -1       341 3.17113E+01-1.94361E+01-2.06675E-07 9.12630E-03-5.41993E-01 8.64484E-04
 -1       342 3.18656E+01-1.95306E+01-1.71975E-07 8.67327E-03-5.48599E-01 8.34192E-04
 -1       343 3.20122E+01-1.96225E+01-1.29988E-07 7.93679E-03-5.54969E-01 8.03757E-04
 -1       344 3.21425E+01-1.96998E+01-9.78689E-08 7.63977E-03-5.61102E-01 7.73191E-04
 -1       345 3.22640E+01-1.97734E+01-8.47198E-08 6.47223E-03-5.66996E-01 7.42503E-04
 -1       346 3.23796E+01-1.98495E+01-7.00655E-08 5.97424E-03-5.72651E-01 7.11702E-04
 -1       347 3.24734E+01-1.99013E+01-3.91575E-08 5.65352E-03-5.78066E-01 6.80803E-04
 -1       348 3.25651E+01-1.99604E+01-1.12388E-09 4.63669E-03-5.83241E-01 6.49814E-04
 -1       349 3.26409E+01-2.00067E+01 3.61114E-08 4.08252E-03-5.88174E-01 6.18745E-04
 -1       350 3.27026E+01-2.00421E+01 7.53321E-08 3.28284E-03-5.92866E-01 5.87611E-04
 -1       351 3.27611E+01-2.00821E+01 1.18576E-07 2.71441E-03-5.97315E-01 5.56419E-04
 -1       352 3.27989E+01-2.01020E+01 1.40326E-07 1.90689E-03-6.01521E-01 5.25181E-04
 -1       353 3.28310E+01-2.01247E+01 1.40767E-07 1.48424E-03-6.05484E-01 4.93911E-04
 -1       354 3.28449E+01-2.01299E+01 1.33339E-07 7.09680E-04-6.09204E-01 4.62618E-04
 -1       355 3.28511E+01-2.01339E+01 1.12451E-07-4.50380E-06-6.12680E-01 4.31315E-04
 -1       356 3.28478E+01-2.01352E+01 1.01552E-07-1.02013E-03-6.15913E-01 4.00012E-04
 -1       357 3.28245E+01-2.01174E+01 1.03584E-07-1.37601E-03-6.18903E-01 3.68721E-04
 -1       358 3.27981E+01-2.01050E+01 1.07853E-07-2.06446E-03-6.21649E-01 3.37454E-04
 -1       359 3.27502E+01-2.00713E+01 1.27031E-07-2.76170E-03-6.24152E-01 3.06222E-04
 -1       360 3.26961E+01-2.00406E+01 1.55476E-07-3.71238E-03-6.26412E-01 2.75038E-04
 -1       361 3.26286E+01-1.99991E+01 1.71810E-07-4.10275E-03-6.28430E-01 2.43913E-04
 -1       362 3.25461E+01-1.99466E+01 1.76369E-07-5.18854E-03-6.30207E-01 2.12858E-04
 -1       363 3.24557E+01-1.98941E+01 1.88204E-07-5.84420E-03-6.31742E-01 1.81886E-04
 -1       364 3.23501E+01-1.98292E+01 2.10623E-07-6.39852E-03-6.33036E-01 1.51008E-04
 -1       365 3.22292E+01-1.97529E+01 2.33339E-07-7.01458E-03-6.34091E-01 1.20237E-04
 -1       366 3.20990E+01-1.96727E+01 2.45694E-07-7.94711E-03-6.34907E-01 8.95855E-05
 -1       367 3.19596E+01-1.95910E+01 2.54559E-07-8.81123E-03-6.35485E-01 5.90631E-05
 -1       368 3.17993E+01-1.94890E+01 2.71158E-07-9.34300E-03-6.35826E-01 2.86834E-05
 -1       369 3.16354E+01-1.93921E+01 2.72691E-07-9.91444E-03-6.35932E-01-1.54187E-06
 -1       370 3.14510E+01-1.92757E+01 2.37521E-07-1.07740E-02-6.35803E-01-3.16011E-05
 -1       371 3.12570E+01-1.91568E+01 1.67148E-07-1.15274E-02-6.35441E-01-6.14808E-05
 -1       372 3.10541E+01-1.90353E+01 8.10278E-08-1.24699E-02-6.34847E-01-9.11704E-05
 -1       373 3.08345E+01-1.88995E+01 2.15049E-08-1.27981E-02-6.34023E-01-1.20658E-04
 -1       374 3.06042E+01-1.87588E+01-1.83467E-09-1.35394E-02-6.32971E-01-1.49931E-04
 -1       375 3.03562E+01-1.86034E+01-1.51212E-08-1.44152E-02-6.31691E-01-1.78978E-04
 -1       376 3.01036E+01-1.84517E+01-2.85153E-08-1.52458E-02-6.30187E-01-2.07785E-04
 -1       377 2.98360E+01-1.82882E+01-3.93034E-08-1.59980E-02-6.28460E-01-2.36344E-04
 -1       378 2.95530E+01-1.81135E+01-4.92732E-08-1.65359E-02-6.26512E-01-2.64640E-04
 -1       379 2.92596E+01-1.79336E+01-5.57028E-08-1.72847E-02-6.24344E-01-2.92663E-04
 -1       380 2.89561E+01-1.77493E+01-5.05297E-08-1.78992E-02-6.21960E-01-3.20400E-04
 -1       381 2.86353E+01-1.75503E+01-2.67538E-08-1.86004E-02-6.19361E-01-3.47841E-04
 -1       382 2.83044E+01-1.73472E+01 1.66453E-08-1.94635E-02-6.16550E-01-3.74971E-04
 -1       383 2.79649E+01-1.71420E+01 5.94697E-08-2.02459E-02-6.13529E-01-4.01782E-04
 -1       384 2.76081E+01-1.69208E+01 7.94791E-08-2.06871E-02-6.10301E-01-4.28260E-04
 -1       385 2.72440E+01-1.67002E+01 7.50307E-08-2.15312E-02-6.06868E-01-4.54396E-04
 -1       386 2.68612E+01-1.64623E+01 5.31460E-08-2.20503E-02-6.03234E-01-4.80176E-04
 -1       387 2.64730E+01-1.62263E+01 2.69943E-08-2.28701E-02-5.99400E-01-5.05588E-04
 -1       388 2.60710E+01-1.59800E+01 5.13354E-09-2.35236E-02-5.95370E-01-5.30623E-04
 -1       389 2.56539E+01-1.57222E+01-1.71494E-08-2.43156E-02-5.91147E-01-5.55269E-04
 -1       390 2.52324E+01-1.54682E+01-3.34855E-08-2.49883E-02-5.86734E-01-5.79514E-04
 -1       391 2.47910E+01-1.51937E+01-3.72511E-08-2.53105E-02-5.82134E-01-6.03349E-04
 -1       392 2.43426E+01-1.49194E+01-3.51340E-08-2.63880E-02-5.77350E-01-6.26760E-04
 -1       393 2.38836E+01-1.46400E+01-4.43512E-08-2.69692E-02-5.72386E-01-6.49738E-04
 -1       394 2.34103E+01-1.43481E+01-6.41413E-08-2.74063E-02-5.67244E-01-6.72271E-04
 -1       395 2.29293E+01-1.40552E+01-7.19706E-08-2.82489E-02-5.61929E-01-6.94350E-04
 -1       396 2.24325E+01-1.37487E+01-7.54496E-08-2.86255E-02-5.56445E-01-7.15964E-04
 -1       397 2.19272E+01-1.34389E+01-8.59995E-08-2.95528E-02-5.50794E-01-7.37100E-04
 -1       398 2.14137E+01-1.31262E+01-8.42491E-08-3.00651E-02-5.44980E-01-7.57750E-04
 -1       399 2.08855E+01-1.28012E+01-7.64448E-08-3.07368E-02-5.39008E-01-7.77904E-04
 -1       400 2.03473E+01-1.24708E+01-9.22122E-08-3.12180E-02-5.32881E-01-7.97550E-04
 -1       401 1.98017E+01-1.21389E+01-1.30461E-07-3.19512E-02-5.26603E-01-8.16679E-04
 -1       402 1.92402E+01-1.17914E+01-1.62863E-07-3.21228E-02-5.20179E-01-8.35282E-04
 -1       403 1.86714E+01-1.14428E+01-1.75691E-07-3.33654E-02-5.13612E-01-8.53346E-04
 -1       404 1.80953E+01-1.10930E+01-1.71776E-07-3.37531E-02-5.06906E-01-8.70863E-04
 -1       405 1.75042E+01-1.07281E+01-1.51139E-07-3.41452E-02-5.00067E-01-8.87824E-04
 -1       406 1.69072E+01-1.03640E+01-1.17562E-07-3.48501E-02-4.93097E-01-9.04219E-04
 -1       407 1.62966E+01-9.98802E+00-8.09437E-08-3.52227E-02-4.86003E-01-9.20040E-04
 -1       408 1.56784E+01-9.60914E+00-5.58488E-08-3.59937E-02-4.78787E-01-9.35276E-04
 -1       409 1.50527E+01-9.22717E+00-4.99000E-08-3.64504E-02-4.71456E-01-9.49917E-04
 -1       410 1.44143E+01-8.83460E+00-5.93557E-08-3.70061E-02-4.64013E-01-9.63957E-04
 -1       411 1.37689E+01-8.44010E+00-6.45403E-08-3.74834E-02-4.56463E-01-9.77385E-04
 -1       412 1.31128E+01-8.03683E+00-5.98728E-08-3.79069E-02-4.48811E-01-9.90194E-04
 -1       413 1.24488E+01-7.62984E+00-6.55882E-08-3.86180E-02-4.41062E-01-1.00237E-03
 -1       414 1.17769E+01-7.21908E+00-7.59635E-08-3.90416E-02-4.33220E-01-1.01392E-03
 -1       415 1.10950E+01-6.80065E+00-7.54478E-08-3.95193E-02-4.25292E-01-1.02481E-03
 -1       416 1.04056E+01-6.37823E+00-8.05235E-08-3.98662E-02-4.17281E-01-1.03506E-03
 -1       417 9.70648E+00-5.94873E+00-1.00402E-07-4.05224E-02-4.09193E-01-1.04464E-03
 -1       418 9.00104E+00-5.51729E+00-1.26646E-07-4.09743E-02-4.01033E-01-1.05355E-03
 -1       419 8.28736E+00-5.08007E+00-1.58054E-07-4.14003E-02-3.92806E-01-1.06179E-03
 -1       420 7.56512E+00-4.63694E+00-1.88592E-07-4.17902E-02-3.84518E-01-1.06934E-03
 -1       421 6.83581E+00-4.19007E+00-2.05916E-07-4.22583E-02-3.76174E-01-1.07620E-03
 -1       422 6.09902E+00-3.73864E+00-2.09965E-07-4.26717E-02-3.67779E-01-1.08237E-03
 -1       423 5.35462E+00-3.28206E+00-2.06086E-07-4.30382E-02-3.59339E-01-1.08782E-03
 -1       424 4.60334E+00-2.82153E+00-1.87707E-07-4.35428E-02-3.50860E-01-1.09257E-03
 -1       425 3.84555E+00-2.35754E+00-1.57357E-07-4.38833E-02-3.42346E-01-1.09659E-03
 -1       426 3.08027E+00-1.88812E+00-1.26501E-07-4.42698E-02-3.33804E-01-1.09989E-03
 -1       427 2.30889E+00-1.41553E+00-9.95594E-08-4.46311E-02-3.25239E-01-1.10246E-03
 -1       428 1.53079E+00-9.38490E-01-7.90571E-08-4.50204E-02-3.16656E-01-1.10429E-03
 -1       429 7.46461E-01-4.57743E-01-5.88014E-08-4.53744E-02-3.08063E-01-1.10538E-03
 -1       430-4.37273E-02 2.64574E-02-3.20208E-08-4.57305E-02-2.99464E-01-1.10571E-03
 -1       431-8.40034E-01 5.14526E-01-7.96177E-10-4.60534E-02-2.90865E-01-1.10529E-03
 -1       432-1.64231E+00 1.00648E+00 3.66770E-08-4.63694E-02-2.82273E-01-1.10411E-03
 -1       433-2.44954E+00 1.50095E+00 7.96398E-08-4.67114E-02-2.73692E-01-1.10216E-03
 -1       434-3.26265E+00 1.99931E+00 1.22664E-07-4.70145E-02-2.65130E-01-1.09944E-03
 -1       435-4.08121E+00 2.50134E+00 1.56962E-07-4.72566E-02-2.56592E-01-1.09594E-03
 -1       436-4.90417E+00 3.00537E+00 1.71601E-07-4.75971E-02-2.48085E-01-1.09166E-03
 -1       437-5.73293E+00 3.51389E+00 1.67624E-07-4.78310E-02-2.39613E-01-1.08659E-03
 -1       438-6.56531E+00 4.02336E+00 1.56819E-07-4.82200E-02-2.31184E-01-1.08073E-03
 -1       439-7.40295E+00 4.53687E+00 1.46677E-07-4.83328E-02-2.22804E-01-1.07408E-03
 -1       440-8.24527E+00 5.05361E+00 1.36315E-07-4.86109E-02-2.14479E-01-1.06662E-03
 -1       441-9.09140E+00 5.57198E+00 1.27220E-07-4.88937E-02-2.06215E-01-1.05836E-03
 -1       442-9.94133E+00 6.09257E+00 1.18465E-07-4.90745E-02-1.98018E-01-1.04929E-03
 -1       443-1.07969E+01 6.61842E+00 1.06860E-07-4.93253E-02-1.89895E-01-1.03941E-03
 -1       444-1.16527E+01 7.14092E+00 8.93916E-08-4.97219E-02-1.81852E-01-1.02872E-03
 -1       445-1.25145E+01 7.66905E+00 6.73409E-08-4.97048E-02-1.73895E-01-1.01720E-03
 -1       446-1.33817E+01 8.20286E+00 4.48137E-08-4.97827E-02-1.66031E-01-1.00486E-03
 -1       447-1.42476E+01 8.73156E+00 2.15284E-08-5.01442E-02-1.58266E-01-9.91699E-04
 -1       448-1.51212E+01 9.26876E+00 4.09464E-09-5.03256E-02-1.50607E-01-9.77706E-04
 -1       449-1.59937E+01 9.80173E+00-4.26343E-09-5.05236E-02-1.43060E-01-9.62882E-04
 -1       450-1.68708E+01 1.03394E+01-9.63642E-09-5.06012E-02-1.35631E-01-9.47223E-04
 -1       451-1.77524E+01 1.08813E+01-1.53555E-08-5.06648E-02-1.28328E-01-9.30726E-04
 -1       452-1.86334E+01 1.14198E+01-2.12960E-08-5.09666E-02-1.21156E-01-9.13389E-04
 -1       453-1.95202E+01 1.19650E+01-2.65417E-08-5.10009E-02-1.14122E-01-8.95210E-04
 -1       454-2.04049E+01 1.25055E+01-2.96248E-08-5.13084E-02-1.07232E-01-8.76188E-04
 -1       455-2.12936E+01 1.30496E+01-2.93770E-08-5.12452E-02-1.00494E-01-8.56320E-04
 -1       456-2.21888E+01 1.36018E+01-2.81810E-08-5.12911E-02-9.39143E-02-8.35602E-04
 -1       457-2.30781E+01 1.41430E+01-2.91309E-08-5.17445E-02-8.74985E-02-8.14034E-04
 -1       458-2.39742E+01 1.46941E+01-3.04157E-08-5.13923E-02-8.12538E-02-7.91615E-04
 -1       459-2.48709E+01 1.52437E+01-3.12971E-08-5.19260E-02-7.51868E-02-7.68342E-04
 -1       460-2.57671E+01 1.57913E+01-3.16712E-08-5.15772E-02-6.93042E-02-7.44215E-04
 -1       461-2.66690E+01 1.63468E+01-2.97226E-08-5.18386E-02-6.36126E-02-7.19230E-04
 -1       462-2.75675E+01 1.68959E+01-2.76317E-08-5.17871E-02-5.81186E-02-6.93388E-04
 -1       463-2.84698E+01 1.74487E+01-2.65429E-08-5.21796E-02-5.28289E-02-6.66688E-04
 -1       464-2.93743E+01 1.80052E+01-2.43447E-08-5.17705E-02-4.77502E-02-6.39128E-04
 -1       465-3.02750E+01 1.85543E+01-2.12928E-08-5.25421E-02-4.28892E-02-6.10708E-04
 -1       466-3.11786E+01 1.91081E+01-1.84900E-08-5.17509E-02-3.82527E-02-5.81426E-04
 -1       467-3.20886E+01 1.96689E+01-1.59207E-08-5.24288E-02-3.38472E-02-5.51281E-04
 -1       468-3.29906E+01 2.02194E+01-1.38251E-08-5.17411E-02-2.96795E-02-5.20274E-04
 -1       469-3.39000E+01 2.07783E+01-1.21780E-08-5.27562E-02-2.57563E-02-4.88403E-04
 -1       470-3.48048E+01 2.13328E+01-1.05752E-08-5.18878E-02-2.20844E-02-4.55668E-04
 -1       471-3.57117E+01 2.18846E+01-9.16194E-09-5.32931E-02-1.86705E-02-4.22069E-04
 -1       472-3.66196E+01 2.24455E+01-7.18531E-09-5.08918E-02-1.55212E-02-3.87604E-04
 -1       473-3.75311E+01 2.30026E+01-3.99910E-09-5.35956E-02-1.26433E-02-3.52274E-04
 -1       474-3.84363E+01 2.35602E+01-3.38791E-10-5.06637E-02-1.00436E-02-3.16078E-04
 -1       475-3.93496E+01 2.41163E+01 3.95907E-09-5.47980E-02-7.72881E-03-2.79017E-04
 -1       476-4.02424E+01 2.46592E+01 8.42512E-09-4.94304E-02-5.70564E-03-2.41091E-04
 -1       477-4.11891E+01 2.52648E+01 1.26868E-08-5.52378E-02-3.98075E-03-2.02298E-04
 -1       478-4.20029E+01 2.56734E+01 1.70846E-08-5.10500E-02-2.56101E-03-1.62640E-04
 -1       479-4.32140E+01 2.67479E+01 2.15227E-08-4.44979E-02-1.45302E-03-1.22110E-04
 -1       480-4.30636E+01 2.54297E+01 2.52015E-08-9.71993E-02-6.63668E-04-8.07346E-05
 -1       481-4.77932E+01 3.28289E+01 3.38266E-08 1.31409E-01-1.99560E-04-3.84195E-05
 -1       482-3.12458E+01 6.06406E+00 4.10313E-08-7.08831E-01-4.93967E-05-1.69953E-05
 -1       483 1.10314E-03-1.33984E-04-9.64928E-09 2.49794E-06-8.74201E-01-1.50840E-03
 -1       484 5.28515E-03-2.70664E-03-2.15242E-08 1.59600E-03-8.65402E-01-1.50840E-03
 -1       485 1.81316E-02-1.05809E-02-3.35962E-08 3.15768E-03-8.47805E-01-1.50839E-03
 -1       486 3.94233E-02-2.36539E-02-2.57666E-08 4.68997E-03-8.30209E-01-1.50835E-03
 -1       487 6.88666E-02-4.16924E-02-4.47021E-09 6.17924E-03-8.12613E-01-1.50828E-03
 -1       488 1.06456E-01-6.47917E-02 2.66983E-08 7.65412E-03-7.95018E-01-1.50817E-03
 -1       489 1.51690E-01-9.24308E-02 5.67893E-08 9.08662E-03-7.77425E-01-1.50800E-03
 -1       490 2.04917E-01-1.25179E-01 7.68550E-08 1.04764E-02-7.59834E-01-1.50777E-03
 -1       491 2.65370E-01-1.62150E-01 8.99758E-08 1.18629E-02-7.42245E-01-1.50747E-03
 -1       492 3.33338E-01-2.03863E-01 9.66974E-08 1.31771E-02-7.24661E-01-1.50709E-03
 -1       493 4.08528E-01-2.50003E-01 9.07867E-08 1.44956E-02-7.07082E-01-1.50662E-03
 -1       494 4.90350E-01-3.00012E-01 6.99397E-08 1.57965E-02-6.89509E-01-1.50605E-03
 -1       495 5.79481E-01-3.54792E-01 4.62880E-08 1.69648E-02-6.71944E-01-1.50537E-03
 -1       496 6.75057E-01-4.13422E-01 2.84013E-08 1.82679E-02-6.54387E-01-1.50457E-03
 -1       497 7.76782E-01-4.75599E-01 1.18737E-08 1.93523E-02-6.36840E-01-1.50365E-03
 -1       498 8.85350E-01-5.42202E-01-1.88774E-09 2.05272E-02-6.19304E-01-1.50259E-03
 -1       499 9.99897E-01-6.12677E-01-3.50848E-09 2.17255E-02-6.01782E-01-1.50139E-03
 -1       500 1.11979E+00-6.85667E-01 1.28611E-08 2.26737E-02-5.84274E-01-1.50005E-03
 -1       501 1.24658E+00-7.63922E-01 3.53248E-08 2.38275E-02-5.66783E-01-1.49854E-03
 -1       502 1.37786E+00-8.44007E-01 5.17251E-08 2.47480E-02-5.49311E-01-1.49688E-03
 -1       503 1.51544E+00-9.28553E-01 6.44909E-08 2.57873E-02-5.31859E-01-1.49504E-03
 -1       504 1.65790E+00-1.01598E+00 7.11743E-08 2.67976E-02-5.14429E-01-1.49302E-03
 -1       505 1.80485E+00-1.10552E+00 7.78355E-08 2.76309E-02-4.97024E-01-1.49082E-03
 -1       506 1.95819E+00-1.20024E+00 8.94585E-08 2.85496E-02-4.79646E-01-1.48843E-03
 -1       507 2.11479E+00-1.29568E+00 9.24433E-08 2.93905E-02-4.62297E-01-1.48584E-03
 -1       508 2.27691E+00-1.39533E+00 7.91310E-08 3.02605E-02-4.44979E-01-1.48305E-03
 -1       509 2.44296E+00-1.49703E+00 5.16349E-08 3.10527E-02-4.27695E-01-1.48005E-03
 -1       510 2.61319E+00-1.60125E+00 1.56361E-08 3.17719E-02-4.10448E-01-1.47684E-03
 -1       511 2.78806E+00-1.70867E+00-1.63828E-08 3.24765E-02-3.93239E-01-1.47341E-03
 -1       512 2.96646E+00-1.81805E+00-3.96660E-08 3.32848E-02-3.76071E-01-1.46975E-03
 -1       513 3.14812E+00-1.92914E+00-5.81051E-08 3.39273E-02-3.58947E-01-1.46587E-03
 -1       514 3.33383E+00-2.04295E+00-7.59981E-08 3.45082E-02-3.41870E-01-1.46175E-03
 -1       515 3.52336E+00-2.15961E+00-9.57836E-08 3.51424E-02-3.24843E-01-1.45739E-03
 -1       516 3.71503E+00-2.27654E+00-1.06863E-07 3.56900E-02-3.07867E-01-1.45280E-03
 -1       517 3.91057E+00-2.39671E+00-1.02616E-07 3.63050E-02-2.90947E-01-1.44795E-03
 -1       518 4.10861E+00-2.51795E+00-9.25587E-08 3.67456E-02-2.74085E-01-1.44286E-03
 -1       519 4.30969E+00-2.64133E+00-8.45075E-08 3.73077E-02-2.57283E-01-1.43751E-03
 -1       520 4.51280E+00-2.76575E+00-7.75718E-08 3.77646E-02-2.40546E-01-1.43191E-03
 -1       521 4.71854E+00-2.89167E+00-6.87467E-08 3.80124E-02-2.23875E-01-1.42604E-03
 -1       522 4.92705E+00-3.01986E+00-6.01534E-08 3.86282E-02-2.07274E-01-1.41991E-03
 -1       523 5.13696E+00-3.14853E+00-5.31669E-08 3.88995E-02-1.90747E-01-1.41352E-03
 -1       524 5.34851E+00-3.27784E+00-4.88428E-08 3.92785E-02-1.74295E-01-1.40686E-03
 -1       525 5.56209E+00-3.40864E+00-4.65744E-08 3.94864E-02-1.57923E-01-1.39993E-03
 -1       526 5.77821E+00-3.54195E+00-4.67070E-08 3.98028E-02-1.41633E-01-1.39272E-03
 -1       527 5.99399E+00-3.67335E+00-4.74529E-08 3.99986E-02-1.25429E-01-1.38525E-03
 -1       528 6.21196E+00-3.80710E+00-4.30130E-08 4.03258E-02-1.09314E-01-1.37749E-03
 -1       529 6.43119E+00-3.94179E+00-3.68840E-08 4.04447E-02-9.32906E-02-1.36946E-03
 -1       530 6.65137E+00-4.07686E+00-2.91965E-08 4.06041E-02-7.73626E-02-1.36115E-03
 -1       531 6.87135E+00-4.21145E+00-2.12083E-08 4.07921E-02-6.15332E-02-1.35256E-03
 -1       532 7.09227E+00-4.34623E+00-1.40742E-08 4.05716E-02-4.58057E-02-1.34369E-03
 -1       533 7.31536E+00-4.48412E+00-4.01809E-09 4.11072E-02-3.01834E-02-1.33454E-03
 -1       534 7.53611E+00-4.61871E+00 6.33944E-09 4.10052E-02-1.46695E-02-1.32510E-03
 -1       535 7.75841E+00-4.75494E+00 1.69092E-08 4.08853E-02 7.32786E-04-1.31539E-03
 -1       536 7.98099E+00-4.89180E+00 2.85754E-08 4.09257E-02 1.60201E-02-1.30539E-03
 -1       537 8.20327E+00-5.02815E+00 3.94846E-08 4.07432E-02 3.11890E-02-1.29511E-03
 -1       538 8.42424E+00-5.16302E+00 5.09639E-08 4.10604E-02 4.62363E-02-1.28454E-03
 -1       539 8.64506E+00-5.29826E+00 6.31936E-08 4.06429E-02 6.11588E-02-1.27370E-03
 -1       540 8.86667E+00-5.43477E+00 7.43242E-08 4.06008E-02 7.59532E-02-1.26258E-03
 -1       541 9.08671E+00-5.56971E+00 8.50044E-08 4.04352E-02 9.06162E-02-1.25117E-03
 -1       542 9.30440E+00-5.70240E+00 9.68877E-08 4.03573E-02 1.05144E-01-1.23949E-03
 -1       543 9.52258E+00-5.83601E+00 1.10465E-07 3.98062E-02 1.19535E-01-1.22753E-03
 -1       544 9.74101E+00-5.97129E+00 1.21882E-07 4.00087E-02 1.33784E-01-1.21529E-03
 -1       545 9.95472E+00-6.10124E+00 1.27813E-07 3.96611E-02 1.47889E-01-1.20278E-03
 -1       546 1.01685E+01-6.23177E+00 1.31098E-07 3.91193E-02 1.61846E-01-1.18999E-03
 -1       547 1.03813E+01-6.36273E+00 1.32601E-07 3.90758E-02 1.75653E-01-1.17694E-03
 -1       548 1.05932E+01-6.49365E+00 1.32436E-07 3.84502E-02 1.89305E-01-1.16361E-03
 -1       549 1.08004E+01-6.61929E+00 1.31464E-07 3.86112E-02 2.02801E-01-1.15002E-03
 -1       550 1.10065E+01-6.74538E+00 1.27170E-07 3.77965E-02 2.16137E-01-1.13617E-03
 -1       551 1.12138E+01-6.87441E+00 1.15737E-07 3.75093E-02 2.29309E-01-1.12205E-03
 -1       552 1.14134E+01-6.99471E+00 9.55338E-08 3.71836E-02 2.42316E-01-1.10768E-03
 -1       553 1.16141E+01-7.11814E+00 7.39794E-08 3.62984E-02 2.55153E-01-1.09305E-03
 -1       554 1.18126E+01-7.24059E+00 5.68623E-08 3.63669E-02 2.67818E-01-1.07817E-03
 -1       555 1.20069E+01-7.35958E+00 3.83471E-08 3.56417E-02 2.80308E-01-1.06304E-03
 -1       556 1.21981E+01-7.47606E+00 1.56786E-08 3.52395E-02 2.92619E-01-1.04766E-03
 -1       557 1.23869E+01-7.59173E+00-3.41981E-09 3.44625E-02 3.04751E-01-1.03205E-03
 -1       558 1.25743E+01-7.70727E+00-1.48609E-08 3.37773E-02 3.16698E-01-1.01619E-03
 -1       559 1.27582E+01-7.82086E+00-2.21498E-08 3.36530E-02 3.28459E-01-1.00010E-03
 -1       560 1.29350E+01-7.92718E+00-2.81523E-08 3.28201E-02 3.40032E-01-9.83777E-04
 -1       561 1.31115E+01-8.03513E+00-3.12659E-08 3.22089E-02 3.51412E-01-9.67229E-04
 -1       562 1.32880E+01-8.14645E+00-3.31137E-08 3.15071E-02 3.62598E-01-9.50459E-04
 -1       563 1.34534E+01-8.24486E+00-3.92513E-08 3.09924E-02 3.73587E-01-9.33472E-04
 -1       564 1.36203E+01-8.34789E+00-4.87823E-08 2.97955E-02 3.84377E-01-9.16273E-04
 -1       565 1.37829E+01-8.44829E+00-5.82321E-08 2.97169E-02 3.94965E-01-8.98865E-04
 -1       566 1.39405E+01-8.54483E+00-6.17042E-08 2.87243E-02 4.05349E-01-8.81255E-04
 -1       567 1.40936E+01-8.63800E+00-6.01445E-08 2.81123E-02 4.15526E-01-8.63447E-04
 -1       568 1.42423E+01-8.72844E+00-6.24535E-08 2.70840E-02 4.25494E-01-8.45446E-04
 -1       569 1.43914E+01-8.82241E+00-5.73121E-08 2.61571E-02 4.35251E-01-8.27257E-04
 -1       570 1.45298E+01-8.90491E+00-4.06354E-08 2.60500E-02 4.44795E-01-8.08886E-04
 -1       571 1.46662E+01-8.98863E+00-3.07067E-08 2.46640E-02 4.54123E-01-7.90338E-04
 -1       572 1.48007E+01-9.07222E+00-2.81014E-08 2.39790E-02 4.63234E-01-7.71619E-04
 -1       573 1.49283E+01-9.15097E+00-2.17585E-08 2.30863E-02 4.72126E-01-7.52735E-04
 -1       574 1.50496E+01-9.22320E+00-4.32937E-09 2.19941E-02 4.80796E-01-7.33693E-04
 -1       575 1.51680E+01-9.29582E+00 2.38465E-08 2.16790E-02 4.89244E-01-7.14496E-04
 -1       576 1.52833E+01-9.36860E+00 5.54122E-08 2.04340E-02 4.97466E-01-6.95151E-04
 -1       577 1.53919E+01-9.43458E+00 8.47548E-08 1.95546E-02 5.05463E-01-6.75665E-04
 -1       578 1.54935E+01-9.49569E+00 1.08316E-07 1.87701E-02 5.13231E-01-6.56046E-04
 -1       579 1.55923E+01-9.55615E+00 1.26352E-07 1.72481E-02 5.20769E-01-6.36297E-04
 -1       580 1.56888E+01-9.61774E+00 1.41508E-07 1.70157E-02 5.28076E-01-6.16426E-04
 -1       581 1.57731E+01-9.66668E+00 1.48093E-07 1.59069E-02 5.35151E-01-5.96441E-04
 -1       582 1.58569E+01-9.71863E+00 1.37793E-07 1.46166E-02 5.41992E-01-5.76347E-04
 -1       583 1.59359E+01-9.76810E+00 1.15081E-07 1.37852E-02 5.48598E-01-5.56150E-04
 -1       584 1.60072E+01-9.81167E+00 8.73453E-08 1.27628E-02 5.54968E-01-5.35859E-04
 -1       585 1.60733E+01-9.85126E+00 6.57154E-08 1.16087E-02 5.61100E-01-5.15480E-04
 -1       586 1.61339E+01-9.88810E+00 5.74584E-08 1.08988E-02 5.66995E-01-4.95020E-04
 -1       587 1.61910E+01-9.92503E+00 4.71327E-08 9.65601E-03 5.72650E-01-4.74486E-04
 -1       588 1.62403E+01-9.95428E+00 2.60066E-08 8.50364E-03 5.78065E-01-4.53885E-04
 -1       589 1.62821E+01-9.97845E+00 1.54085E-09 7.89051E-03 5.83240E-01-4.33225E-04
 -1       590 1.63218E+01-1.00039E+01-2.29937E-08 6.05334E-03 5.88173E-01-4.12512E-04
 -1       591 1.63568E+01-1.00272E+01-4.94545E-08 5.73879E-03 5.92864E-01-3.91754E-04
 -1       592 1.63795E+01-1.00384E+01-7.78502E-08 4.50093E-03 5.97313E-01-3.70959E-04
 -1       593 1.64013E+01-1.00524E+01-9.21671E-08 3.11338E-03 6.01519E-01-3.50135E-04
 -1       594 1.64168E+01-1.00627E+01-9.24997E-08 2.13296E-03 6.05482E-01-3.29288E-04
 -1       595 1.64263E+01-1.00688E+01-8.74874E-08 7.58467E-04 6.09202E-01-3.08425E-04
 -1       596 1.64274E+01-1.00683E+01-7.40216E-08 4.14556E-04 6.12679E-01-2.87556E-04
 -1       597 1.64231E+01-1.00651E+01-6.70210E-08-1.35901E-03 6.15912E-01-2.66687E-04
 -1       598 1.64175E+01-1.00646E+01-6.78779E-08-2.29849E-03 6.18901E-01-2.45826E-04
 -1       599 1.63980E+01-1.00497E+01-7.03467E-08-3.30836E-03 6.21647E-01-2.24981E-04
 -1       600 1.63772E+01-1.00374E+01-8.36739E-08-5.00877E-03 6.24150E-01-2.04160E-04
 -1       601 1.63519E+01-1.00240E+01-1.02864E-07-5.41780E-03 6.26411E-01-1.83369E-04
 -1       602 1.63155E+01-9.99999E+00-1.13286E-07-7.02425E-03 6.28429E-01-1.62619E-04
 -1       603 1.62746E+01-9.97407E+00-1.16331E-07-7.68514E-03 6.30205E-01-1.41916E-04
 -1       604 1.62292E+01-9.94752E+00-1.23885E-07-9.31193E-03 6.31740E-01-1.21268E-04
 -1       605 1.61763E+01-9.91514E+00-1.37857E-07-1.03248E-02 6.33035E-01-1.00683E-04
 -1       606 1.61186E+01-9.88023E+00-1.53170E-07-1.17701E-02 6.34090E-01-8.01688E-05
 -1       607 1.60514E+01-9.83790E+00-1.62124E-07-1.21444E-02 6.34906E-01-5.97337E-05
 -1       608 1.59789E+01-9.79292E+00-1.68262E-07-1.39465E-02 6.35484E-01-3.93863E-05
 -1       609 1.59049E+01-9.75033E+00-1.79923E-07-1.49491E-02 6.35825E-01-1.91333E-05
 -1       610 1.58169E+01-9.69363E+00-1.80943E-07-1.59463E-02 6.35931E-01 1.01683E-06
 -1       611 1.57274E+01-9.63932E+00-1.56953E-07-1.76923E-02 6.35802E-01 2.10555E-05
 -1       612 1.56323E+01-9.58215E+00-1.09854E-07-1.81207E-02 6.35440E-01 4.09759E-05
 -1       613 1.55283E+01-9.51803E+00-5.23120E-08-1.95778E-02 6.34846E-01 6.07696E-05
 -1       614 1.54191E+01-9.45109E+00-1.26943E-08-2.06063E-02 6.34023E-01 8.04282E-05
 -1       615 1.53014E+01-9.37718E+00 3.15251E-09-2.21570E-02 6.32970E-01 9.99439E-05
 -1       616 1.51832E+01-9.30728E+00 1.24323E-08-2.31758E-02 6.31691E-01 1.19309E-04
 -1       617 1.50533E+01-9.22653E+00 2.04253E-08-2.37725E-02 6.30187E-01 1.38516E-04
 -1       618 1.49178E+01-9.14281E+00 2.68850E-08-2.54809E-02 6.28460E-01 1.57555E-04
 -1       619 1.47795E+01-9.05942E+00 3.43267E-08-2.64763E-02 6.26512E-01 1.76420E-04
 -1       620 1.46326E+01-8.96937E+00 3.94585E-08-2.76262E-02 6.24345E-01 1.95103E-04
 -1       621 1.44778E+01-8.87321E+00 3.61673E-08-2.86269E-02 6.21961E-01 2.13596E-04
 -1       622 1.43196E+01-8.77649E+00 2.00330E-08-3.02820E-02 6.19362E-01 2.31890E-04
 -1       623 1.41556E+01-8.67694E+00-9.38301E-09-3.07448E-02 6.16551E-01 2.49978E-04
 -1       624 1.39838E+01-8.57142E+00-3.76759E-08-3.21474E-02 6.13530E-01 2.67852E-04
 -1       625 1.38058E+01-8.46171E+00-5.08117E-08-3.31173E-02 6.10302E-01 2.85505E-04
 -1       626 1.36215E+01-8.34820E+00-4.81653E-08-3.44985E-02 6.06870E-01 3.02929E-04
 -1       627 1.34351E+01-8.23608E+00-3.35423E-08-3.57004E-02 6.03235E-01 3.20116E-04
 -1       628 1.32379E+01-8.11386E+00-1.54458E-08-3.62105E-02 5.99402E-01 3.37059E-04
 -1       629 1.30354E+01-7.98882E+00-3.95018E-10-3.78823E-02 5.95372E-01 3.53749E-04
 -1       630 1.28300E+01-7.86407E+00 1.35826E-08-3.85946E-02 5.91149E-01 3.70180E-04
 -1       631 1.26173E+01-7.73438E+00 2.40980E-08-3.98446E-02 5.86736E-01 3.86344E-04
 -1       632 1.23974E+01-7.59840E+00 2.69732E-08-4.09661E-02 5.82136E-01 4.02235E-04
 -1       633 1.21725E+01-7.46029E+00 2.56570E-08-4.17990E-02 5.77352E-01 4.17843E-04
 -1       634 1.19442E+01-7.32211E+00 3.09014E-08-4.30034E-02 5.72388E-01 4.33162E-04
 -1       635 1.17065E+01-7.17476E+00 4.30712E-08-4.38946E-02 5.67247E-01 4.48186E-04
 -1       636 1.14646E+01-7.02651E+00 4.88625E-08-4.51484E-02 5.61932E-01 4.62906E-04
 -1       637 1.12191E+01-6.87709E+00 5.21309E-08-4.62754E-02 5.56448E-01 4.77315E-04
 -1       638 1.09664E+01-6.72212E+00 5.92202E-08-4.68620E-02 5.50797E-01 4.91407E-04
 -1       639 1.07068E+01-6.56207E+00 5.79968E-08-4.79714E-02 5.44983E-01 5.05175E-04
 -1       640 1.04439E+01-6.40117E+00 5.29499E-08-4.91599E-02 5.39011E-01 5.18612E-04
 -1       641 1.01759E+01-6.23749E+00 6.32562E-08-5.00310E-02 5.32884E-01 5.31710E-04
 -1       642 9.90195E+00-6.06993E+00 8.91521E-08-5.10187E-02 5.26607E-01 5.44463E-04
 -1       643 9.62158E+00-5.89682E+00 1.11234E-07-5.21262E-02 5.20182E-01 5.56866E-04
 -1       644 9.33696E+00-5.72216E+00 1.19452E-07-5.27058E-02 5.13615E-01 5.68910E-04
 -1       645 9.04960E+00-5.54813E+00 1.16803E-07-5.38561E-02 5.06910E-01 5.80589E-04
 -1       646 8.75317E+00-5.36460E+00 1.03032E-07-5.46536E-02 5.00070E-01 5.91898E-04
 -1       647 8.45380E+00-5.18140E+00 8.07894E-08-5.57355E-02 4.93101E-01 6.02829E-04
 -1       648 8.15053E+00-4.99611E+00 5.63383E-08-5.66940E-02 4.86007E-01 6.13376E-04
 -1       649 7.84136E+00-4.80657E+00 3.98210E-08-5.72718E-02 4.78791E-01 6.23535E-04
 -1       650 7.52649E+00-4.61302E+00 3.59736E-08-5.82235E-02 4.71460E-01 6.33297E-04
 -1       651 7.20812E+00-4.41782E+00 4.19634E-08-5.92020E-02 4.64017E-01 6.42657E-04
 -1       652 6.88611E+00-4.22147E+00 4.59635E-08-5.99945E-02 4.56467E-01 6.51610E-04
 -1       653 6.55743E+00-4.01900E+00 4.27739E-08-6.08590E-02 4.48815E-01 6.60150E-04
 -1       654 6.22551E+00-3.81574E+00 4.60447E-08-6.15489E-02 4.41066E-01 6.68270E-04
 -1       655 5.88939E+00-3.61003E+00 5.34599E-08-6.24233E-02 4.33225E-01 6.75965E-04
 -1       656 5.54905E+00-3.40173E+00 5.32700E-08-6.31962E-02 4.25296E-01 6.83231E-04
 -1       657 5.20314E+00-3.18890E+00 5.62246E-08-6.39701E-02 4.17285E-01 6.90062E-04
 -1       658 4.85422E+00-2.97505E+00 7.00423E-08-6.47990E-02 4.09197E-01 6.96451E-04
 -1       659 4.50208E+00-2.76005E+00 8.76830E-08-6.53764E-02 4.01037E-01 7.02393E-04
 -1       660 4.14440E+00-2.54037E+00 1.08529E-07-6.61823E-02 3.92811E-01 7.07885E-04
 -1       661 3.78338E+00-2.31900E+00 1.29190E-07-6.68498E-02 3.84523E-01 7.12922E-04
 -1       662 3.41854E+00-2.09529E+00 1.40779E-07-6.76107E-02 3.76179E-01 7.17497E-04
 -1       663 3.05059E+00-1.87024E+00 1.42993E-07-6.82612E-02 3.67784E-01 7.21606E-04
 -1       664 2.67804E+00-1.64147E+00 1.40085E-07-6.89446E-02 3.59344E-01 7.25245E-04
 -1       665 2.30242E+00-1.41130E+00 1.27785E-07-6.95456E-02 3.50864E-01 7.28409E-04
 -1       666 1.92349E+00-1.17923E+00 1.07389E-07-7.02015E-02 3.42350E-01 7.31093E-04
 -1       667 1.54088E+00-9.44629E-01 8.73927E-08-7.08124E-02 3.33808E-01 7.33293E-04
 -1       668 1.15501E+00-7.08084E-01 6.99376E-08-7.14068E-02 3.25243E-01 7.35006E-04
 -1       669 7.65958E-01-4.69618E-01 5.58644E-08-7.20242E-02 3.16661E-01 7.36226E-04
 -1       670 3.73916E-01-2.29398E-01 4.18900E-08-7.25622E-02 3.08067E-01 7.36949E-04
 -1       671-2.13816E-02 1.29206E-02 2.41096E-08-7.31315E-02 2.99468E-01 7.37174E-04
 -1       672-4.19531E-01 2.56945E-01 3.56791E-09-7.36691E-02 2.90869E-01 7.36893E-04
 -1       673-8.20534E-01 5.02713E-01-2.16064E-08-7.41803E-02 2.82277E-01 7.36104E-04
 -1       674-1.22459E+00 7.50487E-01-5.04567E-08-7.46658E-02 2.73697E-01 7.34804E-04
 -1       675-1.63089E+00 9.99337E-01-7.93891E-08-7.52333E-02 2.65134E-01 7.32990E-04
 -1       676-2.04006E+00 1.25014E+00-1.02215E-07-7.56377E-02 2.56596E-01 7.30658E-04
 -1       677-2.45193E+00 1.50269E+00-1.11538E-07-7.61155E-02 2.48089E-01 7.27803E-04
 -1       678-2.86617E+00 1.75667E+00-1.09221E-07-7.65513E-02 2.39617E-01 7.24424E-04
 -1       679-3.28244E+00 2.01156E+00-1.02323E-07-7.69674E-02 2.31188E-01 7.20518E-04
 -1       680-3.70119E+00 2.26814E+00-9.54070E-08-7.74480E-02 2.22808E-01 7.16080E-04
 -1       681-4.12285E+00 2.52719E+00-8.84492E-08-7.77889E-02 2.14483E-01 7.11109E-04
 -1       682-4.54526E+00 2.78544E+00-8.19466E-08-7.82323E-02 2.06218E-01 7.05603E-04
 -1       683-4.97054E+00 3.04616E+00-7.58332E-08-7.85143E-02 1.98022E-01 6.99557E-04
 -1       684-5.39813E+00 3.30877E+00-6.83664E-08-7.88813E-02 1.89898E-01 6.92969E-04
 -1       685-5.82721E+00 3.57149E+00-5.68609E-08-7.91039E-02 1.81855E-01 6.85838E-04
 -1       686-6.25725E+00 3.83457E+00-4.21907E-08-7.98252E-02 1.73898E-01 6.78161E-04
 -1       687-6.68992E+00 4.10001E+00-2.76457E-08-7.98024E-02 1.66034E-01 6.69935E-04
 -1       688-7.12543E+00 4.36786E+00-1.23777E-08-8.01761E-02 1.58269E-01 6.61159E-04
 -1       689-7.55946E+00 4.63263E+00-3.84973E-10-8.05135E-02 1.50610E-01 6.51830E-04
 -1       690-7.99723E+00 4.90123E+00 5.25712E-09-8.05171E-02 1.43063E-01 6.41947E-04
 -1       691-8.43661E+00 5.17106E+00 8.89536E-09-8.11410E-02 1.35634E-01 6.31506E-04
 -1       692-8.87620E+00 5.44040E+00 1.27701E-08-8.11961E-02 1.28331E-01 6.20508E-04
 -1       693-9.31717E+00 5.71025E+00 1.66296E-08-8.15402E-02 1.21159E-01 6.08951E-04
 -1       694-9.75902E+00 5.98081E+00 2.03118E-08-8.15657E-02 1.14125E-01 5.96832E-04
 -1       695-1.02040E+01 6.25438E+00 2.24390E-08-8.16715E-02 1.07235E-01 5.84150E-04
 -1       696-1.06487E+01 6.52688E+00 2.21932E-08-8.22537E-02 1.00497E-01 5.70903E-04
 -1       697-1.10934E+01 6.79924E+00 2.15150E-08-8.23055E-02 9.39171E-02 5.57091E-04
 -1       698-1.15392E+01 7.07136E+00 2.20389E-08-8.22131E-02 8.75013E-02 5.42713E-04
 -1       699-1.19886E+01 7.34854E+00 2.29716E-08-8.26501E-02 8.12565E-02 5.27766E-04
 -1       700-1.24357E+01 7.62175E+00 2.35556E-08-8.25688E-02 7.51895E-02 5.12251E-04
 -1       701-1.28846E+01 7.89648E+00 2.36488E-08-8.29655E-02 6.93068E-02 4.96165E-04
 -1       702-1.33347E+01 8.17317E+00 2.25147E-08-8.29126E-02 6.36150E-02 4.79509E-04
 -1       703-1.37859E+01 8.45006E+00 2.10788E-08-8.30480E-02 5.81209E-02 4.62280E-04
 -1       704-1.42349E+01 8.72393E+00 2.01976E-08-8.32963E-02 5.28311E-02 4.44480E-04
 -1       705-1.46865E+01 9.00099E+00 1.88640E-08-8.30937E-02 4.77523E-02 4.26106E-04
 -1       706-1.51394E+01 9.27932E+00 1.67998E-08-8.30489E-02 4.28912E-02 4.07159E-04
 -1       707-1.55930E+01 9.55791E+00 1.49068E-08-8.36968E-02 3.82545E-02 3.87636E-04
 -1       708-1.60420E+01 9.83118E+00 1.33452E-08-8.36106E-02 3.38489E-02 3.67540E-04
 -1       709-1.64974E+01 1.01110E+01 1.19266E-08-8.33676E-02 2.96811E-02 3.46868E-04
 -1       710-1.69504E+01 1.03898E+01 1.07505E-08-8.35513E-02 2.57578E-02 3.25620E-04
 -1       711-1.74056E+01 1.06685E+01 9.73610E-09-8.34311E-02 2.20857E-02 3.03796E-04
 -1       712-1.78542E+01 1.09408E+01 8.83117E-09-8.37519E-02 1.86716E-02 2.81396E-04
 -1       713-1.83145E+01 1.12260E+01 7.41786E-09-8.38118E-02 1.55222E-02 2.58418E-04
 -1       714-1.87637E+01 1.15004E+01 5.38870E-09-8.37184E-02 1.26442E-02 2.34864E-04
 -1       715-1.92236E+01 1.17832E+01 2.98928E-09-8.38495E-02 1.00443E-02 2.10733E-04
 -1       716-1.96673E+01 1.20513E+01 4.94848E-11-8.32613E-02 7.72932E-03 1.86026E-04
 -1       717-2.01369E+01 1.23440E+01-2.89911E-09-8.41957E-02 5.70596E-03 1.60739E-04
 -1       718-2.05838E+01 1.26236E+01-5.73686E-09-8.35052E-02 3.98092E-03 1.34877E-04
 -1       719-2.10005E+01 1.28270E+01-8.68812E-09-8.54111E-02 2.56098E-03 1.08438E-04
 -1       720-2.16608E+01 1.34493E+01-1.16566E-08-7.68455E-02 1.45283E-03 8.14165E-05
 -1       721-2.12952E+01 1.24088E+01-1.41300E-08-1.09280E-01 6.63252E-04 5.38334E-05
 -1       722-2.48231E+01 1.75740E+01-1.96447E-08 1.06327E-02 1.98989E-04 2.56161E-05
 -1       723-1.42458E+01 8.17373E-03-2.41935E-08-4.33892E-01 4.89761E-05 1.13262E-05
 -1       724 1.10308E-03-1.33985E-04 9.64928E-09 2.59475E-06 8.74199E-01 1.50839E-03
 -1       725 5.28504E-03-2.70659E-03 2.15242E-08 1.59608E-03 8.65401E-01 1.50839E-03
 -1       726 1.81315E-02-1.05808E-02 3.35962E-08 3.15770E-03 8.47804E-01 1.50838E-03
 -1       727 3.94231E-02-2.36539E-02 2.57666E-08 4.68991E-03 8.30207E-01 1.50834E-03
 -1       728 6.88666E-02-4.16924E-02 4.47021E-09 6.17912E-03 8.12611E-01 1.50827E-03
 -1       729 1.06457E-01-6.47917E-02-2.66983E-08 7.65399E-03 7.95017E-01 1.50816E-03
 -1       730 1.51690E-01-9.24309E-02-5.67893E-08 9.08652E-03 7.77423E-01 1.50799E-03
 -1       731 2.04917E-01-1.25179E-01-7.68550E-08 1.04763E-02 7.59832E-01 1.50776E-03
 -1       732 2.65370E-01-1.62151E-01-8.99758E-08 1.18628E-02 7.42244E-01 1.50747E-03
 -1       733 3.33338E-01-2.03864E-01-9.66974E-08 1.31771E-02 7.24660E-01 1.50709E-03
 -1       734 4.08528E-01-2.50003E-01-9.07867E-08 1.44957E-02 7.07081E-01 1.50661E-03
 -1       735 4.90350E-01-3.00013E-01-6.99397E-08 1.57966E-02 6.89509E-01 1.50604E-03
 -1       736 5.79481E-01-3.54792E-01-4.62880E-08 1.69649E-02 6.71943E-01 1.50536E-03
 -1       737 6.75057E-01-4.13422E-01-2.84013E-08 1.82679E-02 6.54386E-01 1.50457E-03
 -1       738 7.76782E-01-4.75599E-01-1.18737E-08 1.93524E-02 6.36839E-01 1.50364E-03
 -1       739 8.85350E-01-5.42202E-01 1.88774E-09 2.05273E-02 6.19303E-01 1.50259E-03
 -1       740 9.99897E-01-6.12677E-01 3.50848E-09 2.17254E-02 6.01781E-01 1.50139E-03
 -1       741 1.11979E+00-6.85667E-01-1.28611E-08 2.26736E-02 5.84273E-01 1.50004E-03
 -1       742 1.24658E+00-7.63922E-01-3.53248E-08 2.38274E-02 5.66783E-01 1.49854E-03
 -1       743 1.37786E+00-8.44008E-01-5.17251E-08 2.47479E-02 5.49310E-01 1.49687E-03
 -1       744 1.51544E+00-9.28553E-01-6.44909E-08 2.57873E-02 5.31858E-01 1.49503E-03
 -1       745 1.65790E+00-1.01598E+00-7.11743E-08 2.67976E-02 5.14429E-01 1.49302E-03
 -1       746 1.80485E+00-1.10552E+00-7.78355E-08 2.76309E-02 4.97024E-01 1.49082E-03
 -1       747 1.95820E+00-1.20024E+00-8.94585E-08 2.85496E-02 4.79646E-01 1.48842E-03
 -1       748 2.11479E+00-1.29568E+00-9.24433E-08 2.93905E-02 4.62296E-01 1.48584E-03
 -1       749 2.27691E+00-1.39533E+00-7.91310E-08 3.02606E-02 4.44979E-01 1.48305E-03
 -1       750 2.44296E+00-1.49703E+00-5.16349E-08 3.10528E-02 4.27695E-01 1.48005E-03
 -1       751 2.61319E+00-1.60125E+00-1.56361E-08 3.17721E-02 4.10447E-01 1.47684E-03
 -1       752 2.78806E+00-1.70867E+00 1.63828E-08 3.24766E-02 3.93238E-01 1.47341E-03
 -1       753 2.96646E+00-1.81805E+00 3.96660E-08 3.32849E-02 3.76070E-01 1.46975E-03
 -1       754 3.14812E+00-1.92914E+00 5.81051E-08 3.39274E-02 3.58947E-01 1.46587E-03
 -1       755 3.33383E+00-2.04295E+00 7.59981E-08 3.45083E-02 3.41870E-01 1.46175E-03
 -1       756 3.52336E+00-2.15961E+00 9.57836E-08 3.51425E-02 3.24842E-01 1.45739E-03
 -1       757 3.71503E+00-2.27654E+00 1.06863E-07 3.56901E-02 3.07867E-01 1.45279E-03
 -1       758 3.91057E+00-2.39671E+00 1.02616E-07 3.63050E-02 2.90947E-01 1.44795E-03
 -1       759 4.10861E+00-2.51795E+00 9.25587E-08 3.67456E-02 2.74084E-01 1.44285E-03
 -1       760 4.30969E+00-2.64133E+00 8.45075E-08 3.73076E-02 2.57283E-01 1.43750E-03
 -1       761 4.51280E+00-2.76575E+00 7.75718E-08 3.77646E-02 2.40545E-01 1.43190E-03
 -1       762 4.71854E+00-2.89167E+00 6.87467E-08 3.80123E-02 2.23875E-01 1.42603E-03
 -1       763 4.92705E+00-3.01986E+00 6.01534E-08 3.86281E-02 2.07274E-01 1.41991E-03
 -1       764 5.13696E+00-3.14853E+00 5.31669E-08 3.88995E-02 1.90746E-01 1.41351E-03
 -1       765 5.34851E+00-3.27784E+00 4.88428E-08 3.92785E-02 1.74295E-01 1.40685E-03
 -1       766 5.56209E+00-3.40864E+00 4.65744E-08 3.94864E-02 1.57923E-01 1.39992E-03
 -1       767 5.77821E+00-3.54195E+00 4.67070E-08 3.98028E-02 1.41633E-01 1.39272E-03
 -1       768 5.99399E+00-3.67335E+00 4.74529E-08 3.99986E-02 1.25429E-01 1.38524E-03
 -1       769 6.21196E+00-3.80710E+00 4.30130E-08 4.03258E-02 1.09314E-01 1.37748E-03
 -1       770 6.43119E+00-3.94179E+00 3.68840E-08 4.04446E-02 9.32904E-02 1.36945E-03
 -1       771 6.65137E+00-4.07686E+00 2.91965E-08 4.06041E-02 7.73625E-02 1.36114E-03
 -1       772 6.87135E+00-4.21145E+00 2.12083E-08 4.07921E-02 6.15331E-02 1.35255E-03
 -1       773 7.09227E+00-4.34623E+00 1.40742E-08 4.05716E-02 4.58057E-02 1.34368E-03
 -1       774 7.31536E+00-4.48412E+00 4.01809E-09 4.11072E-02 3.01835E-02 1.33453E-03
 -1       775 7.53611E+00-4.61871E+00-6.33944E-09 4.10052E-02 1.46696E-02 1.32509E-03
 -1       776 7.75841E+00-4.75494E+00-1.69092E-08 4.08852E-02-7.32602E-04 1.31538E-03
 -1       777 7.98099E+00-4.89180E+00-2.85754E-08 4.09257E-02-1.60198E-02 1.30538E-03
 -1       778 8.20327E+00-5.02815E+00-3.94846E-08 4.07431E-02-3.11887E-02 1.29510E-03
 -1       779 8.42424E+00-5.16302E+00-5.09639E-08 4.10603E-02-4.62360E-02 1.28454E-03
 -1       780 8.64506E+00-5.29826E+00-6.31936E-08 4.06428E-02-6.11584E-02 1.27369E-03
 -1       781 8.86667E+00-5.43477E+00-7.43242E-08 4.06007E-02-7.59527E-02 1.26257E-03
 -1       782 9.08671E+00-5.56972E+00-8.50044E-08 4.04352E-02-9.06157E-02 1.25116E-03
 -1       783 9.30440E+00-5.70240E+00-9.68877E-08 4.03572E-02-1.05144E-01 1.23948E-03
 -1       784 9.52258E+00-5.83601E+00-1.10465E-07 3.98062E-02-1.19534E-01 1.22752E-03
 -1       785 9.74101E+00-5.97129E+00-1.21882E-07 4.00087E-02-1.33783E-01 1.21528E-03
 -1       786 9.95472E+00-6.10124E+00-1.27813E-07 3.96611E-02-1.47888E-01 1.20277E-03
 -1       787 1.01685E+01-6.23177E+00-1.31098E-07 3.91192E-02-1.61845E-01 1.18999E-03
 -1       788 1.03813E+01-6.36273E+00-1.32601E-07 3.90758E-02-1.75652E-01 1.17693E-03
 -1       789 1.05932E+01-6.49365E+00-1.32436E-07 3.84502E-02-1.89305E-01 1.16361E-03
 -1       790 1.08004E+01-6.61929E+00-1.31464E-07 3.86112E-02-2.02800E-01 1.15002E-03
 -1       791 1.10065E+01-6.74538E+00-1.27170E-07 3.77965E-02-2.16136E-01 1.13617E-03
 -1       792 1.12138E+01-6.87441E+00-1.15737E-07 3.75093E-02-2.29309E-01 1.12205E-03
 -1       793 1.14134E+01-6.99471E+00-9.55338E-08 3.71837E-02-2.42315E-01 1.10768E-03
 -1       794 1.16141E+01-7.11814E+00-7.39794E-08 3.62985E-02-2.55152E-01 1.09305E-03
 -1       795 1.18126E+01-7.24059E+00-5.68623E-08 3.63670E-02-2.67817E-01 1.07817E-03
 -1       796 1.20069E+01-7.35958E+00-3.83471E-08 3.56418E-02-2.80307E-01 1.06304E-03
 -1       797 1.21981E+01-7.47606E+00-1.56786E-08 3.52396E-02-2.92619E-01 1.04766E-03
 -1       798 1.23869E+01-7.59173E+00 3.41981E-09 3.44625E-02-3.04750E-01 1.03204E-03
 -1       799 1.25743E+01-7.70727E+00 1.48609E-08 3.37774E-02-3.16698E-01 1.01619E-03
 -1       800 1.27582E+01-7.82086E+00 2.21498E-08 3.36530E-02-3.28459E-01 1.00010E-03
 -1       801 1.29350E+01-7.92718E+00 2.81523E-08 3.28201E-02-3.40031E-01 9.83776E-04
 -1       802 1.31115E+01-8.03513E+00 3.12659E-08 3.22089E-02-3.51412E-01 9.67228E-04
 -1       803 1.32880E+01-8.14645E+00 3.31137E-08 3.15071E-02-3.62598E-01 9.50457E-04
 -1       804 1.34534E+01-8.24485E+00 3.92513E-08 3.09925E-02-3.73587E-01 9.33471E-04
 -1       805 1.36203E+01-8.34789E+00 4.87823E-08 2.97956E-02-3.84377E-01 9.16272E-04
 -1       806 1.37829E+01-8.44829E+00 5.82321E-08 2.97169E-02-3.94965E-01 8.98863E-04
 -1       807 1.39405E+01-8.54483E+00 6.17042E-08 2.87243E-02-4.05349E-01 8.81253E-04
 -1       808 1.40936E+01-8.63800E+00 6.01445E-08 2.81123E-02-4.15526E-01 8.63444E-04
 -1       809 1.42423E+01-8.72844E+00 6.24535E-08 2.70840E-02-4.25494E-01 8.45443E-04
 -1       810 1.43914E+01-8.82241E+00 5.73121E-08 2.61571E-02-4.35251E-01 8.27254E-04
 -1       811 1.45298E+01-8.90491E+00 4.06354E-08 2.60500E-02-4.44795E-01 8.08882E-04
 -1       812 1.46662E+01-8.98863E+00 3.07067E-08 2.46640E-02-4.54123E-01 7.90335E-04
 -1       813 1.48007E+01-9.07222E+00 2.81014E-08 2.39790E-02-4.63234E-01 7.71616E-04
 -1       814 1.49283E+01-9.15097E+00 2.17585E-08 2.30863E-02-4.72126E-01 7.52731E-04
 -1       815 1.50496E+01-9.22320E+00 4.32937E-09 2.19940E-02-4.80797E-01 7.33689E-04
 -1       816 1.51680E+01-9.29582E+00-2.38465E-08 2.16788E-02-4.89244E-01 7.14492E-04
 -1       817 1.52833E+01-9.36860E+00-5.54122E-08 2.04338E-02-4.97467E-01 6.95147E-04
 -1       818 1.53919E+01-9.43458E+00-8.47548E-08 1.95545E-02-5.05463E-01 6.75662E-04
 -1       819 1.54935E+01-9.49569E+00-1.08316E-07 1.87700E-02-5.13231E-01 6.56043E-04
 -1       820 1.55923E+01-9.55615E+00-1.26352E-07 1.72480E-02-5.20769E-01 6.36295E-04
 -1       821 1.56888E+01-9.61774E+00-1.41508E-07 1.70157E-02-5.28076E-01 6.16425E-04
 -1       822 1.57731E+01-9.66668E+00-1.48093E-07 1.59069E-02-5.35151E-01 5.96440E-04
 -1       823 1.58569E+01-9.71863E+00-1.37793E-07 1.46167E-02-5.41992E-01 5.76347E-04
 -1       824 1.59359E+01-9.76810E+00-1.15081E-07 1.37854E-02-5.48598E-01 5.56150E-04
 -1       825 1.60072E+01-9.81167E+00-8.73453E-08 1.27629E-02-5.54968E-01 5.35860E-04
 -1       826 1.60733E+01-9.85126E+00-6.57154E-08 1.16088E-02-5.61101E-01 5.15481E-04
 -1       827 1.61339E+01-9.88810E+00-5.74584E-08 1.08988E-02-5.66995E-01 4.95021E-04
 -1       828 1.61910E+01-9.92503E+00-4.71327E-08 9.65608E-03-5.72650E-01 4.74487E-04
 -1       829 1.62403E+01-9.95428E+00-2.60066E-08 8.50374E-03-5.78066E-01 4.53887E-04
 -1       830 1.62821E+01-9.97845E+00-1.54085E-09 7.89062E-03-5.83240E-01 4.33227E-04
 -1       831 1.63218E+01-1.00039E+01 2.29937E-08 6.05344E-03-5.88174E-01 4.12514E-04
 -1       832 1.63568E+01-1.00272E+01 4.94545E-08 5.73891E-03-5.92865E-01 3.91756E-04
 -1       833 1.63795E+01-1.00384E+01 7.78502E-08 4.50104E-03-5.97314E-01 3.70961E-04
 -1       834 1.64013E+01-1.00524E+01 9.21671E-08 3.11339E-03-6.01520E-01 3.50136E-04
 -1       835 1.64168E+01-1.00627E+01 9.24997E-08 2.13296E-03-6.05484E-01 3.29288E-04
 -1       836 1.64263E+01-1.00688E+01 8.74874E-08 7.58422E-04-6.09203E-01 3.08425E-04
 -1       837 1.64274E+01-1.00683E+01 7.40216E-08 4.14495E-04-6.12680E-01 2.87555E-04
 -1       838 1.64231E+01-1.00651E+01 6.70210E-08-1.35900E-03-6.15913E-01 2.66686E-04
 -1       839 1.64175E+01-1.00646E+01 6.78779E-08-2.29848E-03-6.18902E-01 2.45825E-04
 -1       840 1.63980E+01-1.00497E+01 7.03467E-08-3.30833E-03-6.21649E-01 2.24979E-04
 -1       841 1.63772E+01-1.00374E+01 8.36739E-08-5.00869E-03-6.24152E-01 2.04158E-04
 -1       842 1.63519E+01-1.00240E+01 1.02864E-07-5.41772E-03-6.26412E-01 1.83367E-04
 -1       843 1.63155E+01-9.99999E+00 1.13286E-07-7.02423E-03-6.28430E-01 1.62616E-04
 -1       844 1.62746E+01-9.97407E+00 1.16331E-07-7.68513E-03-6.30207E-01 1.41913E-04
 -1       845 1.62292E+01-9.94752E+00 1.23885E-07-9.31187E-03-6.31742E-01 1.21264E-04
 -1       846 1.61763E+01-9.91514E+00 1.37857E-07-1.03248E-02-6.33036E-01 1.00679E-04
 -1       847 1.61186E+01-9.88023E+00 1.53170E-07-1.17701E-02-6.34091E-01 8.01638E-05
 -1       848 1.60514E+01-9.83790E+00 1.62124E-07-1.21443E-02-6.34907E-01 5.97280E-05
 -1       849 1.59789E+01-9.79292E+00 1.68262E-07-1.39465E-02-6.35485E-01 3.93797E-05
 -1       850 1.59049E+01-9.75033E+00 1.79923E-07-1.49491E-02-6.35827E-01 1.91259E-05
 -1       851 1.58169E+01-9.69363E+00 1.80943E-07-1.59463E-02-6.35932E-01-1.02506E-06
 -1       852 1.57274E+01-9.63932E+00 1.56953E-07-1.76925E-02-6.35803E-01-2.10645E-05
 -1       853 1.56323E+01-9.58215E+00 1.09854E-07-1.81209E-02-6.35441E-01-4.09856E-05
 -1       854 1.55283E+01-9.51803E+00 5.23120E-08-1.95780E-02-6.34848E-01-6.07796E-05
 -1       855 1.54191E+01-9.45109E+00 1.26943E-08-2.06064E-02-6.34024E-01-8.04384E-05
 -1       856 1.53014E+01-9.37718E+00-3.15251E-09-2.21570E-02-6.32971E-01-9.99541E-05
 -1       857 1.51832E+01-9.30728E+00-1.24323E-08-2.31759E-02-6.31692E-01-1.19319E-04
 -1       858 1.50533E+01-9.22653E+00-2.04253E-08-2.37725E-02-6.30188E-01-1.38526E-04
 -1       859 1.49178E+01-9.14281E+00-2.68850E-08-2.54809E-02-6.28461E-01-1.57565E-04
 -1       860 1.47795E+01-9.05942E+00-3.43267E-08-2.64763E-02-6.26513E-01-1.76430E-04
 -1       861 1.46326E+01-8.96937E+00-3.94585E-08-2.76262E-02-6.24345E-01-1.95113E-04
 -1       862 1.44778E+01-8.87321E+00-3.61673E-08-2.86268E-02-6.21961E-01-2.13605E-04
 -1       863 1.43196E+01-8.77649E+00-2.00330E-08-3.02819E-02-6.19362E-01-2.31899E-04
 -1       864 1.41556E+01-8.67694E+00 9.38301E-09-3.07446E-02-6.16551E-01-2.49987E-04
 -1       865 1.39838E+01-8.57142E+00 3.76759E-08-3.21473E-02-6.13531E-01-2.67862E-04
 -1       866 1.38058E+01-8.46171E+00 5.08117E-08-3.31173E-02-6.10303E-01-2.85515E-04
 -1       867 1.36215E+01-8.34820E+00 4.81653E-08-3.44985E-02-6.06870E-01-3.02939E-04
 -1       868 1.34351E+01-8.23608E+00 3.35423E-08-3.57005E-02-6.03235E-01-3.20126E-04
 -1       869 1.32379E+01-8.11386E+00 1.54458E-08-3.62106E-02-5.99402E-01-3.37069E-04
 -1       870 1.30354E+01-7.98882E+00 3.95018E-10-3.78824E-02-5.95372E-01-3.53759E-04
 -1       871 1.28300E+01-7.86407E+00-1.35826E-08-3.85946E-02-5.91149E-01-3.70190E-04
 -1       872 1.26173E+01-7.73438E+00-2.40980E-08-3.98446E-02-5.86736E-01-3.86355E-04
 -1       873 1.23974E+01-7.59840E+00-2.69732E-08-4.09661E-02-5.82136E-01-4.02245E-04
 -1       874 1.21725E+01-7.46029E+00-2.56570E-08-4.17990E-02-5.77352E-01-4.17853E-04
 -1       875 1.19442E+01-7.32211E+00-3.09014E-08-4.30035E-02-5.72388E-01-4.33172E-04
 -1       876 1.17065E+01-7.17476E+00-4.30712E-08-4.38947E-02-5.67246E-01-4.48195E-04
 -1       877 1.14646E+01-7.02651E+00-4.88625E-08-4.51484E-02-5.61932E-01-4.62915E-04
 -1       878 1.12191E+01-6.87709E+00-5.21309E-08-4.62754E-02-5.56447E-01-4.77324E-04
 -1       879 1.09664E+01-6.72212E+00-5.92202E-08-4.68621E-02-5.50796E-01-4.91416E-04
 -1       880 1.07068E+01-6.56207E+00-5.79968E-08-4.79713E-02-5.44983E-01-5.05184E-04
 -1       881 1.04439E+01-6.40117E+00-5.29499E-08-4.91599E-02-5.39010E-01-5.18620E-04
 -1       882 1.01759E+01-6.23749E+00-6.32562E-08-5.00311E-02-5.32884E-01-5.31718E-04
 -1       883 9.90195E+00-6.06993E+00-8.91521E-08-5.10188E-02-5.26606E-01-5.44471E-04
 -1       884 9.62158E+00-5.89682E+00-1.11234E-07-5.21263E-02-5.20181E-01-5.56873E-04
 -1       885 9.33696E+00-5.72216E+00-1.19452E-07-5.27058E-02-5.13614E-01-5.68917E-04
 -1       886 9.04960E+00-5.54813E+00-1.16803E-07-5.38561E-02-5.06909E-01-5.80595E-04
 -1       887 8.75317E+00-5.36460E+00-1.03032E-07-5.46535E-02-5.00069E-01-5.91904E-04
 -1       888 8.45380E+00-5.18140E+00-8.07894E-08-5.57354E-02-4.93100E-01-6.02834E-04
 -1       889 8.15053E+00-4.99611E+00-5.63383E-08-5.66939E-02-4.86006E-01-6.13381E-04
 -1       890 7.84136E+00-4.80657E+00-3.98210E-08-5.72717E-02-4.78790E-01-6.23539E-04
 -1       891 7.52649E+00-4.61302E+00-3.59736E-08-5.82236E-02-4.71459E-01-6.33301E-04
 -1       892 7.20812E+00-4.41782E+00-4.19634E-08-5.92020E-02-4.64016E-01-6.42661E-04
 -1       893 6.88611E+00-4.22147E+00-4.59635E-08-5.99945E-02-4.56466E-01-6.51614E-04
 -1       894 6.55743E+00-4.01900E+00-4.27739E-08-6.08590E-02-4.48814E-01-6.60153E-04
 -1       895 6.22551E+00-3.81574E+00-4.60447E-08-6.15489E-02-4.41065E-01-6.68273E-04
 -1       896 5.88939E+00-3.61003E+00-5.34599E-08-6.24233E-02-4.33224E-01-6.75968E-04
 -1       897 5.54905E+00-3.40173E+00-5.32700E-08-6.31962E-02-4.25295E-01-6.83234E-04
 -1       898 5.20314E+00-3.18890E+00-5.62246E-08-6.39701E-02-4.17284E-01-6.90064E-04
 -1       899 4.85422E+00-2.97505E+00-7.00423E-08-6.47990E-02-4.09196E-01-6.96453E-04
 -1       900 4.50208E+00-2.76005E+00-8.76830E-08-6.53764E-02-4.01036E-01-7.02395E-04
 -1       901 4.14440E+00-2.54037E+00-1.08529E-07-6.61823E-02-3.92810E-01-7.07887E-04
 -1       902 3.78338E+00-2.31900E+00-1.29190E-07-6.68498E-02-3.84521E-01-7.12923E-04
 -1       903 3.41854E+00-2.09529E+00-1.40779E-07-6.76107E-02-3.76177E-01-7.17497E-04
 -1       904 3.05059E+00-1.87024E+00-1.42993E-07-6.82612E-02-3.67783E-01-7.21605E-04
 -1       905 2.67804E+00-1.64147E+00-1.40085E-07-6.89446E-02-3.59343E-01-7.25244E-04
 -1       906 2.30242E+00-1.41130E+00-1.27785E-07-6.95455E-02-3.50863E-01-7.28407E-04
 -1       907 1.92349E+00-1.17923E+00-1.07389E-07-7.02014E-02-3.42349E-01-7.31091E-04
 -1       908 1.54088E+00-9.44629E-01-8.73927E-08-7.08123E-02-3.33807E-01-7.33291E-04
 -1       909 1.15501E+00-7.08084E-01-6.99376E-08-7.14068E-02-3.25242E-01-7.35003E-04
 -1       910 7.65958E-01-4.69618E-01-5.58644E-08-7.20241E-02-3.16660E-01-7.36223E-04
 -1       911 3.73916E-01-2.29399E-01-4.18900E-08-7.25621E-02-3.08067E-01-7.36946E-04
 -1       912-2.13815E-02 1.29205E-02-2.41096E-08-7.31314E-02-2.99468E-01-7.37170E-04
 -1       913-4.19531E-01 2.56945E-01-3.56791E-09-7.36690E-02-2.90869E-01-7.36889E-04
 -1       914-8.20534E-01 5.02713E-01 2.16064E-08-7.41802E-02-2.82276E-01-7.36100E-04
 -1       915-1.22459E+00 7.50487E-01 5.04567E-08-7.46657E-02-2.73696E-01-7.34801E-04
 -1       916-1.63089E+00 9.99338E-01 7.93891E-08-7.52332E-02-2.65134E-01-7.32987E-04
 -1       917-2.04006E+00 1.25014E+00 1.02215E-07-7.56376E-02-2.56596E-01-7.30655E-04
 -1       918-2.45193E+00 1.50269E+00 1.11538E-07-7.61155E-02-2.48088E-01-7.27801E-04
 -1       919-2.86617E+00 1.75667E+00 1.09221E-07-7.65513E-02-2.39617E-01-7.24422E-04
 -1       920-3.28244E+00 2.01156E+00 1.02323E-07-7.69674E-02-2.31188E-01-7.20516E-04
 -1       921-3.70119E+00 2.26814E+00 9.54070E-08-7.74480E-02-2.22808E-01-7.16080E-04
 -1       922-4.12286E+00 2.52719E+00 8.84492E-08-7.77889E-02-2.14483E-01-7.11109E-04
 -1       923-4.54526E+00 2.78544E+00 8.19466E-08-7.82323E-02-2.06218E-01-7.05603E-04
 -1       924-4.97054E+00 3.04616E+00 7.58332E-08-7.85143E-02-1.98021E-01-6.99557E-04
 -1       925-5.39813E+00 3.30877E+00 6.83664E-08-7.88813E-02-1.89898E-01-6.92970E-04
 -1       926-5.82721E+00 3.57149E+00 5.68609E-08-7.91040E-02-1.81855E-01-6.85839E-04
 -1       927-6.25725E+00 3.83457E+00 4.21907E-08-7.98253E-02-1.73898E-01-6.78163E-04
 -1       928-6.68992E+00 4.10001E+00 2.76457E-08-7.98025E-02-1.66034E-01-6.69937E-04
 -1       929-7.12543E+00 4.36786E+00 1.23777E-08-8.01762E-02-1.58269E-01-6.61160E-04
 -1       930-7.55946E+00 4.63263E+00 3.84973E-10-8.05135E-02-1.50610E-01-6.51832E-04
 -1       931-7.99723E+00 4.90123E+00-5.25712E-09-8.05171E-02-1.43063E-01-6.41948E-04
 -1       932-8.43661E+00 5.17106E+00-8.89536E-09-8.11410E-02-1.35634E-01-6.31508E-04
 -1       933-8.87620E+00 5.44040E+00-1.27701E-08-8.11961E-02-1.28331E-01-6.20510E-04
 -1       934-9.31717E+00 5.71025E+00-1.66296E-08-8.15402E-02-1.21159E-01-6.08952E-04
 -1       935-9.75902E+00 5.98081E+00-2.03118E-08-8.15657E-02-1.14125E-01-5.96833E-04
 -1       936-1.02040E+01 6.25437E+00-2.24390E-08-8.16715E-02-1.07235E-01-5.84151E-04
 -1       937-1.06487E+01 6.52688E+00-2.21932E-08-8.22537E-02-1.00497E-01-5.70904E-04
 -1       938-1.10934E+01 6.79923E+00-2.15150E-08-8.23055E-02-9.39170E-02-5.57092E-04
 -1       939-1.15392E+01 7.07136E+00-2.20389E-08-8.22131E-02-8.75012E-02-5.42714E-04
 -1       940-1.19886E+01 7.34854E+00-2.29716E-08-8.26501E-02-8.12564E-02-5.27767E-04
 -1       941-1.24357E+01 7.62175E+00-2.35556E-08-8.25688E-02-7.51893E-02-5.12251E-04
 -1       942-1.28846E+01 7.89648E+00-2.36488E-08-8.29655E-02-6.93066E-02-4.96166E-04
 -1       943-1.33347E+01 8.17317E+00-2.25147E-08-8.29126E-02-6.36149E-02-4.79509E-04
 -1       944-1.37859E+01 8.45006E+00-2.10788E-08-8.30480E-02-5.81208E-02-4.62281E-04
 -1       945-1.42349E+01 8.72393E+00-2.01976E-08-8.32962E-02-5.28310E-02-4.44480E-04
 -1       946-1.46865E+01 9.00099E+00-1.88640E-08-8.30937E-02-4.77522E-02-4.26107E-04
 -1       947-1.51394E+01 9.27932E+00-1.67998E-08-8.30489E-02-4.28911E-02-4.07159E-04
 -1       948-1.55930E+01 9.55791E+00-1.49068E-08-8.36968E-02-3.82544E-02-3.87636E-04
 -1       949-1.60420E+01 9.83118E+00-1.33452E-08-8.36106E-02-3.38488E-02-3.67540E-04
 -1       950-1.64974E+01 1.01110E+01-1.19266E-08-8.33676E-02-2.96810E-02-3.46868E-04
 -1       951-1.69504E+01 1.03898E+01-1.07505E-08-8.35513E-02-2.57577E-02-3.25620E-04
 -1       952-1.74056E+01 1.06685E+01-9.73610E-09-8.34311E-02-2.20856E-02-3.03796E-04
 -1       953-1.78542E+01 1.09408E+01-8.83117E-09-8.37519E-02-1.86716E-02-2.81395E-04
 -1       954-1.83145E+01 1.12260E+01-7.41786E-09-8.38118E-02-1.55221E-02-2.58418E-04
 -1       955-1.87637E+01 1.15004E+01-5.38870E-09-8.37184E-02-1.26441E-02-2.34864E-04
 -1       956-1.92236E+01 1.17832E+01-2.98928E-09-8.38495E-02-1.00443E-02-2.10733E-04
 -1       957-1.96673E+01 1.20513E+01-4.94848E-11-8.32612E-02-7.72929E-03-1.86025E-04
 -1       958-2.01369E+01 1.23440E+01 2.89911E-09-8.41957E-02-5.70594E-03-1.60739E-04
 -1       959-2.05838E+01 1.26236E+01 5.73686E-09-8.35052E-02-3.98091E-03-1.34876E-04
 -1       960-2.10005E+01 1.28270E+01 8.68812E-09-8.54111E-02-2.56097E-03-1.08437E-04
 -1       961-2.16608E+01 1.34493E+01 1.16566E-08-7.68455E-02-1.45282E-03-8.14163E-05
 -1       962-2.12952E+01 1.24088E+01 1.41300E-08-1.09280E-01-6.63249E-04-5.38333E-05
 -1       963-2.48231E+01 1.75740E+01 1.96447E-08 1.06327E-02-1.98989E-04-2.56160E-05
 -1       964-1.42458E+01 8.17374E-03 2.41935E-08-4.33892E-01-4.89761E-05-1.13262E-05
 -1       965 8.72690E-08-3.68446E-09 9.05690E-11 2.13471E-04-8.74201E-01-1.22975E-07
 -1       966 4.18393E-07-2.21335E-07-1.43615E-09 2.18266E-03-8.65402E-01-1.22973E-07
 -1       967 1.44950E-06-8.40398E-07-1.12377E-09 4.34865E-03-8.47805E-01-1.22969E-07
 -1       968 3.16107E-06-1.90331E-06 1.50414E-09 6.43306E-03-8.30209E-01-1.22966E-07
 -1       969 5.50674E-06-3.33670E-06 4.01042E-10 8.51420E-03-8.12613E-01-1.22962E-07
 -1       970 8.51417E-06-5.17221E-06 3.55181E-10 1.05078E-02-7.95018E-01-1.22954E-07
 -1       971 1.21419E-05-7.40731E-06 2.36269E-09 1.24797E-02-7.77425E-01-1.22940E-07
 -1       972 1.63852E-05-1.00103E-05 1.19810E-09 1.44364E-02-7.59834E-01-1.22923E-07
 -1       973 2.12339E-05-1.29726E-05 3.62107E-10 1.62640E-02-7.42246E-01-1.22897E-07
 -1       974 2.66609E-05-1.62994E-05-5.02127E-10 1.81698E-02-7.24662E-01-1.22865E-07
 -1       975 3.26753E-05-1.99915E-05-1.15796E-09 1.99117E-02-7.07083E-01-1.22827E-07
 -1       976 3.92314E-05-2.40123E-05 2.75087E-10 2.16442E-02-6.89510E-01-1.22779E-07
 -1       977 4.63511E-05-2.83714E-05 1.92080E-10 2.34578E-02-6.71944E-01-1.22723E-07
 -1       978 5.39866E-05-3.30620E-05-5.28242E-10 2.49656E-02-6.54387E-01-1.22658E-07
 -1       979 6.21485E-05-3.80580E-05 5.43647E-10 2.67079E-02-6.36840E-01-1.22582E-07
 -1       980 7.08242E-05-4.33817E-05 1.22236E-09 2.82895E-02-6.19305E-01-1.22495E-07
 -1       981 7.99609E-05-4.89868E-05-2.91641E-10 2.96535E-02-6.01782E-01-1.22397E-07
 -1       982 8.96058E-05-5.48824E-05 1.54950E-10 3.13388E-02-5.84275E-01-1.22287E-07
 -1       983 9.96891E-05-6.10794E-05 1.21282E-09 3.26744E-02-5.66784E-01-1.22166E-07
 -1       984 1.10231E-04-6.75306E-05 3.01209E-10 3.40998E-02-5.49311E-01-1.22031E-07
 -1       985 1.21215E-04-7.42683E-05 1.60362E-09 3.55319E-02-5.31860E-01-1.21882E-07
 -1       986 1.32602E-04-8.12412E-05 2.59333E-09 3.65958E-02-5.14430E-01-1.21719E-07
 -1       987 1.44410E-04-8.84894E-05 3.35916E-10 3.81345E-02-4.97025E-01-1.21540E-07
 -1       988 1.56607E-04-9.59659E-05-5.61641E-10 3.92397E-02-4.79647E-01-1.21348E-07
 -1       989 1.69179E-04-1.03672E-04 2.20080E-10 4.04371E-02-4.62298E-01-1.21140E-07
 -1       990 1.82135E-04-1.11612E-04 6.99017E-10 4.15796E-02-4.44980E-01-1.20916E-07
 -1       991 1.95411E-04-1.19747E-04 4.35949E-10 4.26026E-02-4.27696E-01-1.20674E-07
 -1       992 2.09048E-04-1.28106E-04-2.88606E-10 4.37788E-02-4.10449E-01-1.20414E-07
 -1       993 2.23012E-04-1.36670E-04-9.68452E-11 4.47804E-02-3.93240E-01-1.20138E-07
 -1       994 2.37276E-04-1.45411E-04 2.69864E-10 4.56218E-02-3.76072E-01-1.19844E-07
 -1       995 2.51841E-04-1.54336E-04 4.66112E-10 4.65356E-02-3.58948E-01-1.19532E-07
 -1       996 2.66692E-04-1.63434E-04 1.69285E-11 4.75794E-02-3.41871E-01-1.19201E-07
 -1       997 2.81804E-04-1.72705E-04-7.49045E-10 4.82957E-02-3.24844E-01-1.18851E-07
 -1       998 2.97199E-04-1.82141E-04 2.62437E-10 4.91375E-02-3.07868E-01-1.18480E-07
 -1       999 3.12809E-04-1.91708E-04 8.48197E-10 4.98411E-02-2.90948E-01-1.18092E-07
 -1      1000 3.28660E-04-2.01416E-04-2.54005E-10 5.05940E-02-2.74086E-01-1.17685E-07
 -1      1001 3.44742E-04-2.11285E-04-7.91640E-10 5.12396E-02-2.57285E-01-1.17258E-07
 -1      1002 3.60986E-04-2.21232E-04-1.10050E-09 5.17393E-02-2.40547E-01-1.16810E-07
 -1      1003 3.77473E-04-2.31346E-04-7.80439E-11 5.26847E-02-2.23876E-01-1.16340E-07
 -1      1004 3.94116E-04-2.41547E-04 4.86267E-10 5.28457E-02-2.07276E-01-1.15851E-07
 -1      1005 4.10884E-04-2.51813E-04-6.62344E-10 5.35066E-02-1.90748E-01-1.15342E-07
 -1      1006 4.27873E-04-2.62238E-04-1.15579E-09 5.38165E-02-1.74297E-01-1.14810E-07
 -1      1007 4.44958E-04-2.72713E-04-8.93979E-11 5.44912E-02-1.57924E-01-1.14256E-07
 -1      1008 4.62146E-04-2.83233E-04 3.25523E-11 5.47181E-02-1.41635E-01-1.13680E-07
 -1      1009 4.79513E-04-2.93894E-04-9.97758E-10 5.50722E-02-1.25430E-01-1.13083E-07
 -1      1010 4.96932E-04-3.04570E-04-4.45353E-10 5.53606E-02-1.09315E-01-1.12465E-07
 -1      1011 5.14425E-04-3.15285E-04-5.32992E-10 5.56041E-02-9.32920E-02-1.11824E-07
 -1      1012 5.32032E-04-3.26081E-04 4.41910E-10 5.58737E-02-7.73640E-02-1.11159E-07
 -1      1013 5.49651E-04-3.36871E-04 2.14927E-10 5.57681E-02-6.15346E-02-1.10474E-07
 -1      1014 5.67398E-04-3.47757E-04-1.51195E-09 5.65541E-02-4.58072E-02-1.09766E-07
 -1      1015 5.85126E-04-3.58633E-04-5.58525E-10 5.59867E-02-3.01849E-02-1.09033E-07
 -1      1016 6.02836E-04-3.69468E-04-4.95733E-10 5.61667E-02-1.46710E-02-1.08279E-07
 -1      1017 6.20654E-04-3.80409E-04-1.20049E-10 5.64828E-02 7.31207E-04-1.07503E-07
 -1      1018 6.38386E-04-3.91267E-04 4.59804E-10 5.62414E-02 1.60185E-02-1.06704E-07
 -1      1019 6.56162E-04-4.02164E-04-4.92169E-10 5.64563E-02 3.11875E-02-1.05882E-07
 -1      1020 6.73915E-04-4.13051E-04-5.26261E-10 5.57069E-02 4.62348E-02-1.05038E-07
 -1      1021 6.91573E-04-4.23865E-04-3.31086E-10 5.62324E-02 6.11572E-02-1.04171E-07
 -1      1022 7.09234E-04-4.34693E-04-4.16704E-10 5.57936E-02 7.59516E-02-1.03282E-07
 -1      1023 7.26823E-04-4.45477E-04-4.44166E-10 5.56483E-02 9.06146E-02-1.02372E-07
 -1      1024 7.44319E-04-4.56193E-04-5.40157E-10 5.51034E-02 1.05143E-01-1.01438E-07
 -1      1025 7.61793E-04-4.66916E-04-2.45186E-10 5.55676E-02 1.19533E-01-1.00480E-07
 -1      1026 7.79110E-04-4.77530E-04-4.18167E-10 5.45182E-02 1.33782E-01-9.95020E-08
 -1      1027 7.96297E-04-4.88051E-04-1.10262E-09 5.41890E-02 1.47887E-01-9.85016E-08
 -1      1028 8.13492E-04-4.98609E-04-6.16646E-10 5.43155E-02 1.61844E-01-9.74799E-08
 -1      1029 8.30431E-04-5.08980E-04 4.00127E-10 5.34948E-02 1.75651E-01-9.64356E-08
 -1      1030 8.47266E-04-5.19294E-04 4.34554E-10 5.35006E-02 1.89304E-01-9.53702E-08
 -1      1031 8.64017E-04-5.29578E-04-5.76934E-10 5.20451E-02 2.02799E-01-9.42865E-08
 -1      1032 8.80500E-04-5.39668E-04-6.77723E-10 5.24980E-02 2.16135E-01-9.31798E-08
 -1      1033 8.96892E-04-5.49722E-04 7.79039E-10 5.15418E-02 2.29308E-01-9.20506E-08
 -1      1034 9.13043E-04-5.59613E-04-4.29120E-10 5.06495E-02 2.42314E-01-9.09026E-08
 -1      1035 9.29102E-04-5.69471E-04-1.40679E-09 5.09882E-02 2.55151E-01-8.97318E-08
 -1      1036 9.44851E-04-5.79112E-04 4.50571E-10 4.93185E-02 2.67816E-01-8.85418E-08
 -1      1037 9.60420E-04-5.88653E-04 3.15022E-10 4.91072E-02 2.80306E-01-8.73332E-08
 -1      1038 9.75798E-04-5.98086E-04-7.16390E-10 4.79901E-02 2.92618E-01-8.61029E-08
 -1      1039 9.90916E-04-6.07347E-04-1.17107E-09 4.78237E-02 3.04749E-01-8.48564E-08
 -1      1040 1.00581E-03-6.16484E-04-1.74302E-09 4.70501E-02 3.16697E-01-8.35906E-08
 -1      1041 1.02043E-03-6.25430E-04-5.31076E-10 4.56629E-02 3.28458E-01-8.23049E-08
 -1      1042 1.03482E-03-6.34270E-04-2.39632E-13 4.48486E-02 3.40030E-01-8.10017E-08
 -1      1043 1.04896E-03-6.42918E-04-1.05641E-09 4.45689E-02 3.51411E-01-7.96793E-08
 -1      1044 1.06270E-03-6.51363E-04-8.42905E-10 4.33610E-02 3.62597E-01-7.83386E-08
 -1      1045 1.07627E-03-6.59640E-04-7.64983E-10 4.20642E-02 3.73586E-01-7.69811E-08
 -1      1046 1.08956E-03-6.67849E-04-1.60195E-09 4.22069E-02 3.84376E-01-7.56068E-08
 -1      1047 1.10249E-03-6.75710E-04-1.58454E-09 4.00622E-02 3.94964E-01-7.42147E-08
 -1      1048 1.11505E-03-6.83457E-04-6.66838E-10 3.96317E-02 4.05347E-01-7.28069E-08
 -1      1049 1.12746E-03-6.91026E-04 2.17496E-10 3.81146E-02 4.15524E-01-7.13827E-08
 -1      1050 1.13933E-03-6.98345E-04 1.92838E-10 3.77343E-02 4.25492E-01-6.99422E-08
 -1      1051 1.15108E-03-7.05484E-04 5.38928E-10 3.67344E-02 4.35250E-01-6.84879E-08
 -1      1052 1.16230E-03-7.12448E-04 2.42876E-10 3.44539E-02 4.44793E-01-6.70191E-08
 -1      1053 1.17332E-03-7.19087E-04-7.52416E-10 3.45852E-02 4.54122E-01-6.55339E-08
 -1      1054 1.18381E-03-7.25673E-04 1.92601E-10 3.29046E-02 4.63233E-01-6.40340E-08
 -1      1055 1.19408E-03-7.31765E-04 1.32844E-10 3.17576E-02 4.72125E-01-6.25248E-08
 -1      1056 1.20391E-03-7.38020E-04-6.95830E-11 3.06845E-02 4.80795E-01-6.10038E-08
 -1      1057 1.21356E-03-7.43702E-04 4.31767E-10 2.92906E-02 4.89243E-01-5.94674E-08
 -1      1058 1.22228E-03-7.49301E-04 1.66043E-10 2.82039E-02 4.97465E-01-5.79195E-08
 -1      1059 1.23132E-03-7.54518E-04 1.02072E-10 2.69115E-02 5.05461E-01-5.63599E-08
 -1      1060 1.23927E-03-7.59808E-04 1.40643E-10 2.51693E-02 5.13230E-01-5.47882E-08
 -1      1061 1.24755E-03-7.64374E-04 9.35142E-10 2.51481E-02 5.20768E-01-5.32068E-08
 -1      1062 1.25456E-03-7.69282E-04 8.72102E-10 2.25464E-02 5.28075E-01-5.16162E-08
 -1      1063 1.26212E-03-7.73190E-04 2.60479E-11 2.13367E-02 5.35150E-01-5.00179E-08
 -1      1064 1.26813E-03-7.77728E-04-1.62404E-10 2.07561E-02 5.41991E-01-4.84097E-08
 -1      1065 1.27512E-03-7.81020E-04 7.11954E-10 1.88666E-02 5.48597E-01-4.67913E-08
 -1      1066 1.27984E-03-7.85075E-04 1.37906E-09 1.75727E-02 5.54967E-01-4.51657E-08
 -1      1067 1.28647E-03-7.87762E-04 1.35841E-09 1.62069E-02 5.61099E-01-4.35330E-08
 -1      1068 1.28987E-03-7.91502E-04 1.98980E-09 1.47129E-02 5.66994E-01-4.18949E-08
 -1      1069 1.29599E-03-7.93267E-04 1.92594E-09 1.33393E-02 5.72649E-01-4.02503E-08
 -1      1070 1.29786E-03-7.96742E-04 1.76318E-09 1.19547E-02 5.78064E-01-3.85964E-08
 -1      1071 1.30411E-03-7.97859E-04 2.44430E-09 9.92502E-03 5.83239E-01-3.69377E-08
 -1      1072 1.30373E-03-8.00801E-04 2.46937E-09 9.85129E-03 5.88172E-01-3.52756E-08
 -1      1073 1.31064E-03-8.01356E-04 2.48183E-09 7.00440E-03 5.92864E-01-3.36077E-08
 -1      1074 1.30731E-03-8.03568E-04 2.86998E-09 5.64587E-03 5.97313E-01-3.19366E-08
 -1      1075 1.31571E-03-8.03714E-04 3.23805E-09 4.94631E-03 6.01519E-01-3.02636E-08
 -1      1076 1.30888E-03-8.05659E-04 4.01614E-09 2.81064E-03 6.05482E-01-2.85874E-08
 -1      1077 1.31813E-03-8.03193E-04 4.01403E-09 1.99487E-03 6.09202E-01-2.69092E-08
 -1      1078 1.31221E-03-8.12060E-04 3.36234E-09-1.02823E-03 6.12678E-01-2.52290E-08
 -1      1079 1.30691E-03-7.85780E-04 3.02544E-09-1.01864E-03 6.15911E-01-2.35510E-08
 -1      1080 1.34551E-03-8.58126E-04 3.49511E-09-3.29105E-03 6.18901E-01-2.18618E-08
 -1      1081 1.26381E-03-7.04945E-04 4.20422E-09-5.12875E-03 6.21647E-01-1.82584E-08
 -1      1082 1.35377E-03-8.97013E-04 3.75848E-09-5.45846E-03 6.24150E-01-1.29047E-08
 -1      1083 1.28071E-03-7.54705E-04 4.19473E-09-8.38820E-03 6.26411E-01-9.86920E-09
 -1      1084 1.31100E-03-8.18001E-04 4.61332E-09-9.28777E-03 6.28429E-01-8.99205E-09
 -1      1085 1.30342E-03-7.90973E-04 3.78494E-09-1.13919E-02 6.30205E-01-8.10955E-09
 -1      1086 1.29443E-03-7.98302E-04 4.74276E-09-1.22062E-02 6.31741E-01-7.22897E-09
 -1      1087 1.29767E-03-7.91682E-04 6.57362E-09-1.42389E-02 6.33035E-01-6.35167E-09
 -1      1088 1.28622E-03-7.91467E-04 6.45338E-09-1.52995E-02 6.34090E-01-5.47881E-09
 -1      1089 1.28685E-03-7.86330E-04 5.03180E-09-1.81916E-02 6.34906E-01-4.60696E-09
 -1      1090 1.27555E-03-7.83537E-04 3.92119E-09-1.84553E-02 6.35484E-01-3.73887E-09
 -1      1091 1.27446E-03-7.79787E-04 3.82075E-09-2.05254E-02 6.35826E-01-2.87626E-09
 -1      1092 1.26338E-03-7.75511E-04 3.33538E-09-2.26239E-02 6.35931E-01-2.01701E-09
 -1      1093 1.25939E-03-7.70690E-04 3.72444E-09-2.28210E-02 6.35802E-01-1.16098E-09
 -1      1094 1.24966E-03-7.67197E-04 5.20190E-09-2.58733E-02 6.35441E-01-3.10650E-10
 -1      1095 1.24281E-03-7.60774E-04 5.79663E-09-2.67335E-02 6.34847E-01 5.33605E-10
 -1      1096 1.23271E-03-7.56328E-04 6.07807E-09-2.89365E-02 6.34023E-01 1.37227E-09
 -1      1097 1.22430E-03-7.49485E-04 6.06938E-09-2.96741E-02 6.32971E-01 2.20442E-09
 -1      1098 1.21446E-03-7.45260E-04 6.38738E-09-3.13503E-02 6.31692E-01 3.03024E-09
 -1      1099 1.20446E-03-7.37734E-04 5.16522E-09-3.39882E-02 6.30188E-01 3.85232E-09
 -1      1100 1.19278E-03-7.31253E-04 3.70103E-09-3.43947E-02 6.28461E-01 4.66585E-09
 -1      1101 1.18260E-03-7.24639E-04 4.82490E-09-3.64469E-02 6.26513E-01 5.47166E-09
 -1      1102 1.17035E-03-7.17710E-04 6.21666E-09-3.79530E-02 6.24346E-01 6.27063E-09
 -1      1103 1.15806E-03-7.09381E-04 6.91792E-09-3.99029E-02 6.21962E-01 7.05994E-09
 -1      1104 1.14534E-03-7.02195E-04 6.62737E-09-4.03484E-02 6.19363E-01 7.84285E-09
 -1      1105 1.13266E-03-6.94261E-04 5.91704E-09-4.30795E-02 6.16552E-01 8.61787E-09
 -1      1106 1.11832E-03-6.85498E-04 6.88863E-09-4.40770E-02 6.13532E-01 9.38351E-09
 -1      1107 1.10450E-03-6.76896E-04 7.20528E-09-4.60423E-02 6.10304E-01 1.01403E-08
 -1      1108 1.08924E-03-6.67446E-04 6.27137E-09-4.69458E-02 6.06871E-01 1.08858E-08
 -1      1109 1.07508E-03-6.59186E-04 5.75632E-09-4.84036E-02 6.03237E-01 1.16217E-08
 -1      1110 1.05881E-03-6.48988E-04 6.59311E-09-5.09711E-02 5.99403E-01 1.23487E-08
 -1      1111 1.04261E-03-6.38808E-04 7.76132E-09-5.13035E-02 5.95374E-01 1.30643E-08
 -1      1112 1.02646E-03-6.29337E-04 7.27490E-09-5.33651E-02 5.91151E-01 1.37699E-08
 -1      1113 1.00910E-03-6.18392E-04 6.25804E-09-5.46763E-02 5.86738E-01 1.44655E-08
 -1      1114 9.91768E-04-6.07954E-04 6.30597E-09-5.61796E-02 5.82138E-01 1.51492E-08
 -1      1115 9.73726E-04-5.96753E-04 6.20235E-09-5.76769E-02 5.77354E-01 1.58205E-08
 -1      1116 9.55397E-04-5.85687E-04 5.00449E-09-5.90143E-02 5.72390E-01 1.64786E-08
 -1      1117 9.36443E-04-5.73922E-04 4.26998E-09-6.08133E-02 5.67249E-01 1.71234E-08
 -1      1118 9.16853E-04-5.61796E-04 4.20685E-09-6.16548E-02 5.61934E-01 1.77558E-08
 -1      1119 8.97583E-04-5.50281E-04 5.26592E-09-6.30700E-02 5.56450E-01 1.83785E-08
 -1      1120 8.77356E-04-5.37900E-04 6.33927E-09-6.49918E-02 5.50799E-01 1.89873E-08
 -1      1121 8.56273E-04-5.24664E-04 6.17180E-09-6.63024E-02 5.44986E-01 1.95798E-08
 -1      1122 8.35384E-04-5.11995E-04 6.09267E-09-6.71617E-02 5.39014E-01 2.01602E-08
 -1      1123 8.14081E-04-4.99059E-04 6.34280E-09-6.88450E-02 5.32887E-01 2.07278E-08
 -1      1124 7.91916E-04-4.85348E-04 7.10888E-09-7.01164E-02 5.26609E-01 2.12799E-08
 -1      1125 7.69736E-04-4.71811E-04 7.55794E-09-7.13989E-02 5.20185E-01 2.18164E-08
 -1      1126 7.46932E-04-4.57801E-04 7.24819E-09-7.27480E-02 5.13618E-01 2.23374E-08
 -1      1127 7.23817E-04-4.43704E-04 7.20078E-09-7.39779E-02 5.06913E-01 2.28431E-08
 -1      1128 7.00187E-04-4.29141E-04 7.26908E-09-7.54730E-02 5.00073E-01 2.33340E-08
 -1      1129 6.76082E-04-4.14271E-04 7.49729E-09-7.63124E-02 4.93104E-01 2.38103E-08
 -1      1130 6.52068E-04-3.99777E-04 7.37265E-09-7.75564E-02 4.86010E-01 2.42712E-08
 -1      1131 6.27334E-04-3.84604E-04 7.21867E-09-7.91411E-02 4.78794E-01 2.47152E-08
 -1      1132 6.01911E-04-3.68819E-04 7.33161E-09-8.02862E-02 4.71463E-01 2.51458E-08
 -1      1133 5.76579E-04-3.53379E-04 7.63304E-09-8.11198E-02 4.64020E-01 2.55583E-08
 -1      1134 5.50817E-04-3.37671E-04 8.94371E-09-8.24995E-02 4.56470E-01 2.59524E-08
 -1      1135 5.24537E-04-3.21493E-04 8.92776E-09-8.35752E-02 4.48818E-01 2.63308E-08
 -1      1136 4.98008E-04-3.05259E-04 7.93221E-09-8.47351E-02 4.41069E-01 2.66906E-08
 -1      1137 4.71033E-04-2.88688E-04 8.77659E-09-8.57880E-02 4.33228E-01 2.70343E-08
 -1      1138 4.43895E-04-2.72142E-04 9.22668E-09-8.68850E-02 4.25299E-01 2.73610E-08
 -1      1139 4.16122E-04-2.54983E-04 8.74405E-09-8.80651E-02 4.17288E-01 2.76698E-08
 -1      1140 3.88324E-04-2.38026E-04 9.64601E-09-8.87341E-02 4.09201E-01 2.79614E-08
 -1      1141 3.60143E-04-2.20813E-04 9.98610E-09-9.01282E-02 4.01041E-01 2.82339E-08
 -1      1142 3.31458E-04-2.03143E-04 9.50205E-09-9.09568E-02 3.92814E-01 2.84858E-08
 -1      1143 3.02622E-04-1.85490E-04 9.90855E-09-9.20486E-02 3.84526E-01 2.87197E-08
 -1      1144 2.73410E-04-1.67561E-04 9.65308E-09-9.28318E-02 3.76182E-01 2.89360E-08
 -1      1145 2.44012E-04-1.49603E-04 9.40574E-09-9.38515E-02 3.67787E-01 2.91309E-08
 -1      1146 2.14198E-04-1.31288E-04 9.22756E-09-9.47592E-02 3.59347E-01 2.93058E-08
 -1      1147 1.84167E-04-1.12892E-04 8.04782E-09-9.56409E-02 3.50868E-01 2.94613E-08
 -1      1148 1.53819E-04-9.42851E-05 8.28003E-09-9.65205E-02 3.42354E-01 2.95973E-08
 -1      1149 1.23248E-04-7.55645E-05 9.74469E-09-9.73544E-02 3.33812E-01 2.97134E-08
 -1      1150 9.23543E-05-5.66115E-05 9.99910E-09-9.82225E-02 3.25247E-01 2.98068E-08
 -1      1151 6.12469E-05-3.75452E-05 8.85699E-09-9.89495E-02 3.16664E-01 2.98806E-08
 -1      1152 2.98980E-05-1.83505E-05 7.99189E-09-9.97910E-02 3.08071E-01 2.99334E-08
 -1      1153-1.73978E-06 1.05675E-06 8.48556E-09-1.00534E-01 2.99472E-01 2.99645E-08
 -1      1154-3.35863E-05 2.05756E-05 8.85341E-09-1.01288E-01 2.90873E-01 2.99727E-08
 -1      1155-6.56367E-05 4.01996E-05 8.32715E-09-1.01989E-01 2.82281E-01 2.99592E-08
 -1      1156-9.80035E-05 6.00795E-05 8.33496E-09-1.02730E-01 2.73700E-01 2.99259E-08
 -1      1157-1.30486E-04 7.99598E-05 8.01493E-09-1.03276E-01 2.65138E-01 2.98693E-08
 -1      1158-1.63182E-04 9.99788E-05 7.51219E-09-1.04089E-01 2.56600E-01 2.97902E-08
 -1      1159-1.96180E-04 1.20248E-04 8.07457E-09-1.04635E-01 2.48092E-01 2.96898E-08
 -1      1160-2.29263E-04 1.40498E-04 8.27893E-09-1.05273E-01 2.39621E-01 2.95665E-08
 -1      1161-2.62613E-04 1.60953E-04 7.78210E-09-1.05848E-01 2.31192E-01 2.94212E-08
 -1      1162-2.96089E-04 1.81447E-04 7.38022E-09-1.06427E-01 2.22812E-01 2.92535E-08
 -1      1163-3.29832E-04 2.02190E-04 7.48315E-09-1.06972E-01 2.14486E-01 2.90629E-08
 -1      1164-3.63578E-04 2.22786E-04 8.04763E-09-1.07392E-01 2.06222E-01 2.88503E-08
 -1      1165-3.97639E-04 2.43701E-04 8.77704E-09-1.08137E-01 1.98025E-01 2.86155E-08
 -1      1166-4.31742E-04 2.64572E-04 8.58457E-09-1.08449E-01 1.89902E-01 2.83578E-08
 -1      1167-4.66259E-04 2.85844E-04 7.75798E-09-1.09132E-01 1.81859E-01 2.80767E-08
 -1      1168-5.00620E-04 3.06831E-04 7.67339E-09-1.09054E-01 1.73902E-01 2.77735E-08
 -1      1169-5.34995E-04 3.27765E-04 7.16919E-09-1.10065E-01 1.66038E-01 2.74467E-08
 -1      1170-5.70165E-04 3.49619E-04 6.97922E-09-1.10187E-01 1.58273E-01 2.70980E-08
 -1      1171-6.04549E-04 3.70370E-04 7.65512E-09-1.10438E-01 1.50613E-01 2.67243E-08
 -1      1172-6.39799E-04 3.92151E-04 7.60827E-09-1.11407E-01 1.43066E-01 2.63286E-08
 -1      1173-6.74987E-04 4.13790E-04 7.49699E-09-1.11055E-01 1.35637E-01 2.59096E-08
 -1      1174-7.09976E-04 4.35101E-04 7.85433E-09-1.11737E-01 1.28334E-01 2.54654E-08
 -1      1175-7.45365E-04 4.56843E-04 7.95006E-09-1.11773E-01 1.21162E-01 2.49992E-08
 -1      1176-7.80496E-04 4.78202E-04 7.85205E-09-1.12466E-01 1.14128E-01 2.45087E-08
 -1      1177-8.16381E-04 5.00470E-04 7.84974E-09-1.12815E-01 1.07238E-01 2.39951E-08
 -1      1178-8.52011E-04 5.22335E-04 7.88665E-09-1.12511E-01 1.00500E-01 2.34576E-08
 -1      1179-8.87161E-04 5.43579E-04 7.95583E-09-1.12859E-01 9.39199E-02 2.28955E-08
 -1      1180-9.23131E-04 5.65740E-04 7.91017E-09-1.13572E-01 8.75040E-02 2.23101E-08
 -1      1181-9.59061E-04 5.87899E-04 7.83928E-09-1.13449E-01 8.12591E-02 2.17027E-08
 -1      1182-9.94746E-04 6.09627E-04 7.68710E-09-1.13693E-01 7.51920E-02 2.10704E-08
 -1      1183-1.03078E-03 6.31805E-04 7.89588E-09-1.13899E-01 6.93092E-02 2.04131E-08
 -1      1184-1.06660E-03 6.53656E-04 8.12220E-09-1.13988E-01 6.36173E-02 1.97324E-08
 -1      1185-1.10288E-03 6.76083E-04 7.91898E-09-1.14282E-01 5.81231E-02 1.90282E-08
 -1      1186-1.13871E-03 6.97832E-04 7.87388E-09-1.13894E-01 5.28332E-02 1.83005E-08
 -1      1187-1.17458E-03 7.19722E-04 7.92567E-09-1.14939E-01 4.77543E-02 1.75482E-08
 -1      1188-1.21127E-03 7.42519E-04 7.88567E-09-1.14722E-01 4.28931E-02 1.67712E-08
 -1      1189-1.24755E-03 7.64871E-04 7.89982E-09-1.14489E-01 3.82562E-02 1.59709E-08
 -1      1190-1.28303E-03 7.86072E-04 7.94133E-09-1.14160E-01 3.38505E-02 1.51468E-08
 -1      1191-1.31965E-03 8.08833E-04 8.07057E-09-1.15664E-01 2.96826E-02 1.42970E-08
 -1      1192-1.35601E-03 8.31140E-04 8.14024E-09-1.14314E-01 2.57591E-02 1.34236E-08
 -1      1193-1.39220E-03 8.53314E-04 8.00634E-09-1.15644E-01 2.20869E-02 1.25260E-08
 -1      1194-1.42852E-03 8.75478E-04 8.05156E-09-1.14193E-01 1.86727E-02 1.16044E-08
 -1      1195-1.46481E-03 8.97818E-04 8.10611E-09-1.16098E-01 1.55231E-02 1.06605E-08
 -1      1196-1.50130E-03 9.20234E-04 8.14808E-09-1.13805E-01 1.26450E-02 9.68981E-09
 -1      1197-1.53720E-03 9.42010E-04 8.17270E-09-1.16336E-01 1.00449E-02 8.69453E-09
 -1      1198-1.57366E-03 9.64335E-04 8.03592E-09-1.13940E-01 7.72981E-03 7.67854E-09
 -1      1199-1.61087E-03 9.87743E-04 8.11244E-09-1.17445E-01 5.70626E-03 6.63622E-09
 -1      1200-1.64629E-03 1.00913E-03 8.16999E-09-1.11049E-01 3.98108E-03 5.56763E-09
 -1      1201-1.68150E-03 1.02850E-03 8.10013E-09-1.20520E-01 2.56093E-03 4.47709E-09
 -1      1202-1.72420E-03 1.06446E-03 8.09619E-09-1.09151E-01 1.45264E-03 3.36240E-09
 -1      1203-1.73872E-03 1.03828E-03 8.03628E-09-1.21839E-01 6.62832E-04 2.22248E-09
 -1      1204-1.85206E-03 1.23437E-03 8.71518E-09-1.09729E-01 1.98418E-04 1.05780E-09
 -1      1205-1.34848E-03 4.59390E-04 9.45982E-09-1.58890E-01 4.85555E-05 4.69365E-10
 -1      1206 8.83554E-08-2.29565E-08-9.05690E-11 2.13559E-04 8.74199E-01 1.18355E-07
 -1      1207 4.24111E-07-2.10184E-07 1.43615E-09 2.18273E-03 8.65401E-01 1.18357E-07
 -1      1208 1.45305E-06-8.48835E-07 1.12377E-09 4.34866E-03 8.47804E-01 1.18357E-07
 -1      1209 3.15692E-06-1.89257E-06-1.50414E-09 6.43301E-03 8.30208E-01 1.18353E-07
 -1      1210 5.50652E-06-3.33218E-06-4.01042E-10 8.51409E-03 8.12612E-01 1.18348E-07
 -1      1211 8.51686E-06-5.18954E-06-3.55181E-10 1.05077E-02 7.95017E-01 1.18340E-07
 -1      1212 1.21409E-05-7.39261E-06-2.36269E-09 1.24796E-02 7.77424E-01 1.18328E-07
 -1      1213 1.63849E-05-9.99486E-06-1.19810E-09 1.44364E-02 7.59833E-01 1.18310E-07
 -1      1214 2.12342E-05-1.29834E-05-3.62107E-10 1.62640E-02 7.42245E-01 1.18284E-07
 -1      1215 2.66630E-05-1.63096E-05 5.02127E-10 1.81698E-02 7.24661E-01 1.18253E-07
 -1      1216 3.26799E-05-2.00022E-05 1.15796E-09 1.99118E-02 7.07082E-01 1.18218E-07
 -1      1217 3.92354E-05-2.40128E-05-2.75087E-10 2.16443E-02 6.89509E-01 1.18174E-07
 -1      1218 4.63556E-05-2.83858E-05-1.92080E-10 2.34579E-02 6.71943E-01 1.18122E-07
 -1      1219 5.39906E-05-3.30524E-05 5.28242E-10 2.49657E-02 6.54386E-01 1.18060E-07
 -1      1220 6.21545E-05-3.80623E-05-5.43647E-10 2.67079E-02 6.36839E-01 1.17989E-07
 -1      1221 7.08303E-05-4.33824E-05-1.22236E-09 2.82896E-02 6.19304E-01 1.17908E-07
 -1      1222 7.99649E-05-4.89728E-05 2.91641E-10 2.96534E-02 6.01782E-01 1.17814E-07
 -1      1223 8.96072E-05-5.48994E-05-1.54950E-10 3.13387E-02 5.84274E-01 1.17707E-07
 -1      1224 9.96901E-05-6.10634E-05-1.21282E-09 3.26743E-02 5.66783E-01 1.17587E-07
 -1      1225 1.10236E-04-6.75444E-05-3.01209E-10 3.40997E-02 5.49311E-01 1.17455E-07
 -1      1226 1.21219E-04-7.42682E-05-1.60362E-09 3.55319E-02 5.31859E-01 1.17310E-07
 -1      1227 1.32605E-04-8.12528E-05-2.59333E-09 3.65957E-02 5.14429E-01 1.17150E-07
 -1      1228 1.44413E-04-8.84769E-05-3.35916E-10 3.81344E-02 4.97025E-01 1.16974E-07
 -1      1229 1.56611E-04-9.59634E-05 5.61641E-10 3.92397E-02 4.79646E-01 1.16785E-07
 -1      1230 1.69183E-04-1.03658E-04-2.20080E-10 4.04371E-02 4.62297E-01 1.16580E-07
 -1      1231 1.82138E-04-1.11619E-04-6.99017E-10 4.15797E-02 4.44980E-01 1.16359E-07
 -1      1232 1.95416E-04-1.19744E-04-4.35949E-10 4.26027E-02 4.27696E-01 1.16121E-07
 -1      1233 2.09054E-04-1.28109E-04 2.88606E-10 4.37790E-02 4.10448E-01 1.15867E-07
 -1      1234 2.23016E-04-1.36665E-04 9.68452E-11 4.47806E-02 3.93239E-01 1.15595E-07
 -1      1235 2.37279E-04-1.45409E-04-2.69864E-10 4.56219E-02 3.76071E-01 1.15305E-07
 -1      1236 2.51847E-04-1.54344E-04-4.66112E-10 4.65356E-02 3.58948E-01 1.14996E-07
 -1      1237 2.66696E-04-1.63446E-04-1.69285E-11 4.75795E-02 3.41871E-01 1.14670E-07
 -1      1238 2.81807E-04-1.72700E-04 7.49045E-10 4.82958E-02 3.24843E-01 1.14322E-07
 -1      1239 2.97201E-04-1.82141E-04-2.62437E-10 4.91375E-02 3.07868E-01 1.13954E-07
 -1      1240 3.12809E-04-1.91699E-04-8.48197E-10 4.98411E-02 2.90948E-01 1.13565E-07
 -1      1241 3.28660E-04-2.01427E-04 2.54005E-10 5.05940E-02 2.74085E-01 1.13158E-07
 -1      1242 3.44742E-04-2.11284E-04 7.91640E-10 5.12395E-02 2.57284E-01 1.12731E-07
 -1      1243 3.60986E-04-2.21237E-04 1.10050E-09 5.17393E-02 2.40546E-01 1.12283E-07
 -1      1244 3.77472E-04-2.31343E-04 7.80439E-11 5.26846E-02 2.23876E-01 1.11813E-07
 -1      1245 3.94112E-04-2.41550E-04-4.86267E-10 5.28456E-02 2.07275E-01 1.11321E-07
 -1      1246 4.10881E-04-2.51813E-04 6.62344E-10 5.35065E-02 1.90748E-01 1.10810E-07
 -1      1247 4.27870E-04-2.62246E-04 1.15579E-09 5.38165E-02 1.74296E-01 1.10276E-07
 -1      1248 4.44954E-04-2.72703E-04 8.93979E-11 5.44912E-02 1.57924E-01 1.09719E-07
 -1      1249 4.62143E-04-2.83241E-04-3.25523E-11 5.47181E-02 1.41634E-01 1.09140E-07
 -1      1250 4.79511E-04-2.93889E-04 9.97758E-10 5.50722E-02 1.25430E-01 1.08542E-07
 -1      1251 4.96930E-04-3.04562E-04 4.45353E-10 5.53606E-02 1.09315E-01 1.07922E-07
 -1      1252 5.14424E-04-3.15280E-04 5.32992E-10 5.56040E-02 9.32918E-02 1.07279E-07
 -1      1253 5.32029E-04-3.26084E-04-4.41910E-10 5.58737E-02 7.73639E-02 1.06612E-07
 -1      1254 5.49649E-04-3.36873E-04-2.14927E-10 5.57681E-02 6.15346E-02 1.05924E-07
 -1      1255 5.67398E-04-3.47761E-04 1.51195E-09 5.65541E-02 4.58072E-02 1.05215E-07
 -1      1256 5.85125E-04-3.58630E-04 5.58525E-10 5.59867E-02 3.01850E-02 1.04482E-07
 -1      1257 6.02834E-04-3.69464E-04 4.95733E-10 5.61667E-02 1.46711E-02 1.03726E-07
 -1      1258 6.20652E-04-3.80407E-04 1.20049E-10 5.64828E-02-7.31023E-04 1.02949E-07
 -1      1259 6.38384E-04-3.91266E-04-4.59804E-10 5.62414E-02-1.60182E-02 1.02148E-07
 -1      1260 6.56160E-04-4.02162E-04 4.92169E-10 5.64563E-02-3.11871E-02 1.01324E-07
 -1      1261 6.73914E-04-4.13052E-04 5.26261E-10 5.57068E-02-4.62344E-02 1.00479E-07
 -1      1262 6.91572E-04-4.23864E-04 3.31086E-10 5.62323E-02-6.11568E-02 9.96103E-08
 -1      1263 7.09232E-04-4.34698E-04 4.16704E-10 5.57935E-02-7.59511E-02 9.87194E-08
 -1      1264 7.26821E-04-4.45477E-04 4.44166E-10 5.56482E-02-9.06141E-02 9.78075E-08
 -1      1265 7.44318E-04-4.56195E-04 5.40157E-10 5.51033E-02-1.05142E-01 9.68718E-08
 -1      1266 7.61792E-04-4.66916E-04 2.45186E-10 5.55675E-02-1.19533E-01 9.59128E-08
 -1      1267 7.79108E-04-4.77529E-04 4.18167E-10 5.45181E-02-1.33782E-01 9.49333E-08
 -1      1268 7.96296E-04-4.88046E-04 1.10262E-09 5.41889E-02-1.47887E-01 9.39319E-08
 -1      1269 8.13490E-04-4.98608E-04 6.16646E-10 5.43155E-02-1.61844E-01 9.29091E-08
 -1      1270 8.30428E-04-5.08979E-04-4.00127E-10 5.34948E-02-1.75650E-01 9.18629E-08
 -1      1271 8.47262E-04-5.19298E-04-4.34554E-10 5.35006E-02-1.89303E-01 9.07949E-08
 -1      1272 8.64015E-04-5.29577E-04 5.76934E-10 5.20451E-02-2.02799E-01 8.97087E-08
 -1      1273 8.80498E-04-5.39663E-04 6.77723E-10 5.24980E-02-2.16134E-01 8.86003E-08
 -1      1274 8.96888E-04-5.49730E-04-7.79039E-10 5.15418E-02-2.29307E-01 8.74686E-08
 -1      1275 9.13040E-04-5.59601E-04 4.29120E-10 5.06496E-02-2.42313E-01 8.63178E-08
 -1      1276 9.29101E-04-5.69472E-04 1.40679E-09 5.09883E-02-2.55150E-01 8.51456E-08
 -1      1277 9.44849E-04-5.79109E-04-4.50571E-10 4.93185E-02-2.67815E-01 8.39548E-08
 -1      1278 9.60417E-04-5.88653E-04-3.15022E-10 4.91073E-02-2.80305E-01 8.27437E-08
 -1      1279 9.75795E-04-5.98086E-04 7.16390E-10 4.79902E-02-2.92618E-01 8.15104E-08
 -1      1280 9.90912E-04-6.07346E-04 1.17107E-09 4.78238E-02-3.04749E-01 8.02603E-08
 -1      1281 1.00581E-03-6.16489E-04 1.74302E-09 4.70501E-02-3.16696E-01 7.89911E-08
 -1      1282 1.02042E-03-6.25426E-04 5.31076E-10 4.56629E-02-3.28458E-01 7.77027E-08
 -1      1283 1.03481E-03-6.34267E-04 2.39632E-13 4.48486E-02-3.40030E-01 7.63958E-08
 -1      1284 1.04896E-03-6.42919E-04 1.05641E-09 4.45690E-02-3.51410E-01 7.50701E-08
 -1      1285 1.06270E-03-6.51367E-04 8.42905E-10 4.33610E-02-3.62596E-01 7.37268E-08
 -1      1286 1.07627E-03-6.59642E-04 7.64983E-10 4.20643E-02-3.73586E-01 7.23677E-08
 -1      1287 1.08956E-03-6.67845E-04 1.60195E-09 4.22069E-02-3.84376E-01 7.09919E-08
 -1      1288 1.10249E-03-6.75709E-04 1.58454E-09 4.00622E-02-3.94963E-01 6.95977E-08
 -1      1289 1.11505E-03-6.83460E-04 6.66838E-10 3.96317E-02-4.05347E-01 6.81879E-08
 -1      1290 1.12746E-03-6.91022E-04-2.17496E-10 3.81146E-02-4.15524E-01 6.67621E-08
 -1      1291 1.13933E-03-6.98350E-04-1.92838E-10 3.77343E-02-4.25492E-01 6.53211E-08
 -1      1292 1.15108E-03-7.05478E-04-5.38928E-10 3.67344E-02-4.35250E-01 6.38670E-08
 -1      1293 1.16230E-03-7.12453E-04-2.42876E-10 3.44539E-02-4.44793E-01 6.23982E-08
 -1      1294 1.17332E-03-7.19093E-04 7.52416E-10 3.45852E-02-4.54122E-01 6.09132E-08
 -1      1295 1.18381E-03-7.25668E-04-1.92601E-10 3.29046E-02-4.63233E-01 5.94136E-08
 -1      1296 1.19408E-03-7.31763E-04-1.32844E-10 3.17575E-02-4.72125E-01 5.79048E-08
 -1      1297 1.20391E-03-7.38027E-04 6.95830E-11 3.06844E-02-4.80795E-01 5.63835E-08
 -1      1298 1.21356E-03-7.43689E-04-4.31767E-10 2.92905E-02-4.89243E-01 5.48469E-08
 -1      1299 1.22228E-03-7.49311E-04-1.66043E-10 2.82038E-02-4.97465E-01 5.33005E-08
 -1      1300 1.23132E-03-7.54520E-04-1.02072E-10 2.69114E-02-5.05462E-01 5.17442E-08
 -1      1301 1.23927E-03-7.59807E-04-1.40643E-10 2.51692E-02-5.13230E-01 5.01758E-08
 -1      1302 1.24755E-03-7.64374E-04-9.35142E-10 2.51480E-02-5.20768E-01 4.85966E-08
 -1      1303 1.25457E-03-7.69287E-04-8.72102E-10 2.25463E-02-5.28075E-01 4.70080E-08
 -1      1304 1.26212E-03-7.73190E-04-2.60479E-11 2.13367E-02-5.35150E-01 4.54117E-08
 -1      1305 1.26813E-03-7.77733E-04 1.62404E-10 2.07561E-02-5.41991E-01 4.38058E-08
 -1      1306 1.27513E-03-7.81016E-04-7.11954E-10 1.88667E-02-5.48597E-01 4.21903E-08
 -1      1307 1.27984E-03-7.85069E-04-1.37906E-09 1.75728E-02-5.54967E-01 4.05675E-08
 -1      1308 1.28648E-03-7.87761E-04-1.35841E-09 1.62070E-02-5.61100E-01 3.89387E-08
 -1      1309 1.28987E-03-7.91492E-04-1.98980E-09 1.47129E-02-5.66994E-01 3.73057E-08
 -1      1310 1.29600E-03-7.93270E-04-1.92594E-09 1.33393E-02-5.72650E-01 3.56682E-08
 -1      1311 1.29787E-03-7.96751E-04-1.76318E-09 1.19548E-02-5.78065E-01 3.40242E-08
 -1      1312 1.30412E-03-7.97863E-04-2.44430E-09 9.92512E-03-5.83240E-01 3.23769E-08
 -1      1313 1.30374E-03-8.00804E-04-2.46937E-09 9.85138E-03-5.88173E-01 3.07276E-08
 -1      1314 1.31066E-03-8.01372E-04-2.48183E-09 7.00452E-03-5.92865E-01 2.90734E-08
 -1      1315 1.30733E-03-8.03567E-04-2.86998E-09 5.64597E-03-5.97314E-01 2.74163E-08
 -1      1316 1.31573E-03-8.03726E-04-3.23805E-09 4.94632E-03-6.01520E-01 2.57581E-08
 -1      1317 1.30890E-03-8.05660E-04-4.01614E-09 2.81063E-03-6.05483E-01 2.40981E-08
 -1      1318 1.31815E-03-8.03199E-04-4.01403E-09 1.99483E-03-6.09203E-01 2.24371E-08
 -1      1319 1.31223E-03-8.12067E-04-3.36234E-09-1.02829E-03-6.12680E-01 2.07766E-08
 -1      1320 1.30694E-03-7.85803E-04-3.02544E-09-1.01863E-03-6.15913E-01 1.91216E-08
 -1      1321 1.34553E-03-8.58144E-04-3.49511E-09-3.29104E-03-6.18902E-01 1.74569E-08
 -1      1322 1.26383E-03-7.04952E-04-4.20422E-09-5.12873E-03-6.21648E-01 1.38756E-08
 -1      1323 1.35380E-03-8.97024E-04-3.75848E-09-5.45839E-03-6.24152E-01 8.54307E-09
 -1      1324 1.28073E-03-7.54716E-04-4.19473E-09-8.38813E-03-6.26412E-01 5.52783E-09
 -1      1325 1.31102E-03-8.18002E-04-4.61332E-09-9.28776E-03-6.28430E-01 4.67167E-09
 -1      1326 1.30344E-03-7.90991E-04-3.78494E-09-1.13919E-02-6.30207E-01 3.81226E-09
 -1      1327 1.29446E-03-7.98316E-04-4.74276E-09-1.22062E-02-6.31742E-01 2.95713E-09
 -1      1328 1.29769E-03-7.91684E-04-6.57362E-09-1.42389E-02-6.33037E-01 2.10498E-09
 -1      1329 1.28625E-03-7.91470E-04-6.45338E-09-1.52995E-02-6.34092E-01 1.25675E-09
 -1      1330 1.28688E-03-7.86341E-04-5.03180E-09-1.81916E-02-6.34908E-01 4.10827E-10
 -1      1331 1.27558E-03-7.83554E-04-3.92119E-09-1.84553E-02-6.35486E-01-4.30003E-10
 -1      1332 1.27449E-03-7.79808E-04-3.82075E-09-2.05254E-02-6.35827E-01-1.26535E-09
 -1      1333 1.26340E-03-7.75525E-04-3.33538E-09-2.26240E-02-6.35933E-01-2.09871E-09
 -1      1334 1.25942E-03-7.70703E-04-3.72444E-09-2.28211E-02-6.35804E-01-2.92953E-09
 -1      1335 1.24969E-03-7.67209E-04-5.20190E-09-2.58735E-02-6.35442E-01-3.75432E-09
 -1      1336 1.24284E-03-7.60784E-04-5.79663E-09-2.67338E-02-6.34848E-01-4.57245E-09
 -1      1337 1.23274E-03-7.56337E-04-6.07807E-09-2.89366E-02-6.34025E-01-5.38464E-09
 -1      1338 1.22433E-03-7.49497E-04-6.06938E-09-2.96741E-02-6.32972E-01-6.19004E-09
 -1      1339 1.21449E-03-7.45264E-04-6.38738E-09-3.13503E-02-6.31693E-01-6.98831E-09
 -1      1340 1.20449E-03-7.37753E-04-5.16522E-09-3.39882E-02-6.30189E-01-7.78133E-09
 -1      1341 1.19281E-03-7.31266E-04-3.70103E-09-3.43948E-02-6.28462E-01-8.56635E-09
 -1      1342 1.18263E-03-7.24656E-04-4.82490E-09-3.64469E-02-6.26514E-01-9.34511E-09
 -1      1343 1.17038E-03-7.17720E-04-6.21666E-09-3.79530E-02-6.24346E-01-1.01172E-08
 -1      1344 1.15809E-03-7.09385E-04-6.91792E-09-3.99028E-02-6.21962E-01-1.08795E-08
 -1      1345 1.14537E-03-7.02209E-04-6.62737E-09-4.03483E-02-6.19364E-01-1.16346E-08
 -1      1346 1.13269E-03-6.94282E-04-5.91704E-09-4.30793E-02-6.16553E-01-1.23798E-08
 -1      1347 1.11835E-03-6.85507E-04-6.88863E-09-4.40769E-02-6.13532E-01-1.31155E-08
 -1      1348 1.10454E-03-6.76907E-04-7.20528E-09-4.60422E-02-6.10304E-01-1.38430E-08
 -1      1349 1.08927E-03-6.67458E-04-6.27137E-09-4.69458E-02-6.06872E-01-1.45590E-08
 -1      1350 1.07511E-03-6.59197E-04-5.75632E-09-4.84037E-02-6.03237E-01-1.52662E-08
 -1      1351 1.05884E-03-6.49002E-04-6.59311E-09-5.09712E-02-5.99404E-01-1.59644E-08
 -1      1352 1.04264E-03-6.38817E-04-7.76132E-09-5.13036E-02-5.95374E-01-1.66495E-08
 -1      1353 1.02649E-03-6.29351E-04-7.27490E-09-5.33651E-02-5.91151E-01-1.73224E-08
 -1      1354 1.00913E-03-6.18406E-04-6.25804E-09-5.46763E-02-5.86738E-01-1.79845E-08
 -1      1355 9.91802E-04-6.07967E-04-6.30597E-09-5.61796E-02-5.82138E-01-1.86355E-08
 -1      1356 9.73757E-04-5.96756E-04-6.20235E-09-5.76770E-02-5.77354E-01-1.92769E-08
 -1      1357 9.55429E-04-5.85706E-04-5.00449E-09-5.90144E-02-5.72390E-01-1.99066E-08
 -1      1358 9.36477E-04-5.73937E-04-4.26998E-09-6.08133E-02-5.67249E-01-2.05215E-08
 -1      1359 9.16889E-04-5.61824E-04-4.20685E-09-6.16548E-02-5.61934E-01-2.11221E-08
 -1      1360 8.97617E-04-5.50289E-04-5.26592E-09-6.30700E-02-5.56449E-01-2.17130E-08
 -1      1361 8.77391E-04-5.37916E-04-6.33927E-09-6.49918E-02-5.50798E-01-2.22905E-08
 -1      1362 8.56311E-04-5.24674E-04-6.17180E-09-6.63024E-02-5.44985E-01-2.28501E-08
 -1      1363 8.35421E-04-5.12017E-04-6.09267E-09-6.71617E-02-5.39013E-01-2.33967E-08
 -1      1364 8.14116E-04-4.99067E-04-6.34280E-09-6.88451E-02-5.32886E-01-2.39317E-08
 -1      1365 7.91951E-04-4.85363E-04-7.10888E-09-7.01165E-02-5.26608E-01-2.44518E-08
 -1      1366 7.69770E-04-4.71815E-04-7.55794E-09-7.13990E-02-5.20184E-01-2.49570E-08
 -1      1367 7.46966E-04-4.57818E-04-7.24819E-09-7.27480E-02-5.13617E-01-2.54475E-08
 -1      1368 7.23852E-04-4.43709E-04-7.20078E-09-7.39778E-02-5.06912E-01-2.59218E-08
 -1      1369 7.00223E-04-4.29151E-04-7.26908E-09-7.54730E-02-5.00072E-01-2.63803E-08
 -1      1370 6.76120E-04-4.14282E-04-7.49729E-09-7.63123E-02-4.93103E-01-2.68231E-08
 -1      1371 6.52108E-04-3.99791E-04-7.37265E-09-7.75563E-02-4.86009E-01-2.72488E-08
 -1      1372 6.27374E-04-3.84623E-04-7.21867E-09-7.91410E-02-4.78793E-01-2.76563E-08
 -1      1373 6.01952E-04-3.68838E-04-7.33161E-09-8.02862E-02-4.71462E-01-2.80496E-08
 -1      1374 5.76620E-04-3.53397E-04-7.63304E-09-8.11198E-02-4.64019E-01-2.84241E-08
 -1      1375 5.50859E-04-3.37684E-04-8.94371E-09-8.24995E-02-4.56469E-01-2.87803E-08
 -1      1376 5.24581E-04-3.21503E-04-8.92776E-09-8.35752E-02-4.48817E-01-2.91200E-08
 -1      1377 4.98053E-04-3.05278E-04-7.93221E-09-8.47352E-02-4.41068E-01-2.94394E-08
 -1      1378 4.71079E-04-2.88711E-04-8.77659E-09-8.57880E-02-4.33227E-01-2.97418E-08
 -1      1379 4.43942E-04-2.72159E-04-9.22668E-09-8.68850E-02-4.25298E-01-3.00264E-08
 -1      1380 4.16172E-04-2.55007E-04-8.74405E-09-8.80651E-02-4.17287E-01-3.02913E-08
 -1      1381 3.88374E-04-2.38044E-04-9.64601E-09-8.87342E-02-4.09199E-01-3.05375E-08
 -1      1382 3.60193E-04-2.20825E-04-9.98610E-09-9.01283E-02-4.01040E-01-3.07647E-08
 -1      1383 3.31507E-04-2.03164E-04-9.50205E-09-9.09569E-02-3.92813E-01-3.09716E-08
 -1      1384 3.02672E-04-1.85508E-04-9.90855E-09-9.20487E-02-3.84525E-01-3.11602E-08
 -1      1385 2.73460E-04-1.67584E-04-9.65308E-09-9.28319E-02-3.76181E-01-3.13311E-08
 -1      1386 2.44061E-04-1.49620E-04-9.40574E-09-9.38515E-02-3.67786E-01-3.14812E-08
 -1      1387 2.14247E-04-1.31306E-04-9.22756E-09-9.47592E-02-3.59346E-01-3.16115E-08
 -1      1388 1.84218E-04-1.12918E-04-8.04782E-09-9.56408E-02-3.50867E-01-3.17213E-08
 -1      1389 1.53870E-04-9.43053E-05-8.28003E-09-9.65204E-02-3.42353E-01-3.18107E-08
 -1      1390 1.23298E-04-7.55851E-05-9.74469E-09-9.73543E-02-3.33811E-01-3.18808E-08
 -1      1391 9.24034E-05-5.66235E-05-9.99910E-09-9.82225E-02-3.25246E-01-3.19293E-08
 -1      1392 6.12966E-05-3.75702E-05-8.85699E-09-9.89494E-02-3.16664E-01-3.19581E-08
 -1      1393 2.99462E-05-1.83695E-05-7.99189E-09-9.97909E-02-3.08070E-01-3.19663E-08
 -1      1394-1.69438E-06 1.04141E-06-8.48556E-09-1.00534E-01-2.99471E-01-3.19547E-08
 -1      1395-3.35414E-05 2.05552E-05-8.85341E-09-1.01288E-01-2.90872E-01-3.19218E-08
 -1      1396-6.55915E-05 4.01834E-05-8.32715E-09-1.01989E-01-2.82280E-01-3.18673E-08
 -1      1397-9.79594E-05 6.00610E-05-8.33496E-09-1.02730E-01-2.73700E-01-3.17933E-08
 -1      1398-1.30443E-04 7.99452E-05-8.01493E-09-1.03276E-01-2.65138E-01-3.16971E-08
 -1      1399-1.63140E-04 9.99635E-05-7.51219E-09-1.04089E-01-2.56600E-01-3.15792E-08
 -1      1400-1.96139E-04 1.20234E-04-8.07457E-09-1.04635E-01-2.48092E-01-3.14411E-08
 -1      1401-2.29223E-04 1.40480E-04-8.27893E-09-1.05273E-01-2.39620E-01-3.12807E-08
 -1      1402-2.62573E-04 1.60937E-04-7.78210E-09-1.05848E-01-2.31192E-01-3.10988E-08
 -1      1403-2.96047E-04 1.81434E-04-7.38022E-09-1.06427E-01-2.22811E-01-3.08937E-08
 -1      1404-3.29792E-04 2.02171E-04-7.48315E-09-1.06972E-01-2.14486E-01-3.06657E-08
 -1      1405-3.63538E-04 2.22776E-04-8.04763E-09-1.07393E-01-2.06222E-01-3.04162E-08
 -1      1406-3.97598E-04 2.43683E-04-8.77704E-09-1.08137E-01-1.98025E-01-3.01446E-08
 -1      1407-4.31700E-04 2.64558E-04-8.58457E-09-1.08449E-01-1.89902E-01-2.98496E-08
 -1      1408-4.66217E-04 2.85826E-04-7.75798E-09-1.09132E-01-1.81858E-01-2.95304E-08
 -1      1409-5.00578E-04 3.06815E-04-7.67339E-09-1.09054E-01-1.73902E-01-2.91887E-08
 -1      1410-5.34953E-04 3.27752E-04-7.16919E-09-1.10065E-01-1.66038E-01-2.88237E-08
 -1      1411-5.70123E-04 3.49597E-04-6.97922E-09-1.10188E-01-1.58273E-01-2.84364E-08
 -1      1412-6.04507E-04 3.70349E-04-7.65512E-09-1.10439E-01-1.50613E-01-2.80245E-08
 -1      1413-6.39759E-04 3.92136E-04-7.60827E-09-1.11407E-01-1.43066E-01-2.75913E-08
 -1      1414-6.74946E-04 4.13773E-04-7.49699E-09-1.11055E-01-1.35637E-01-2.71351E-08
 -1      1415-7.09935E-04 4.35087E-04-7.85433E-09-1.11737E-01-1.28334E-01-2.66539E-08
 -1      1416-7.45324E-04 4.56829E-04-7.95006E-09-1.11773E-01-1.21162E-01-2.61507E-08
 -1      1417-7.80455E-04 4.78188E-04-7.85205E-09-1.12466E-01-1.14128E-01-2.56230E-08
 -1      1418-8.16340E-04 5.00455E-04-7.84974E-09-1.12815E-01-1.07238E-01-2.50721E-08
 -1      1419-8.51970E-04 5.22320E-04-7.88665E-09-1.12511E-01-1.00500E-01-2.44970E-08
 -1      1420-8.87120E-04 5.43563E-04-7.95583E-09-1.12859E-01-9.39197E-02-2.38971E-08
 -1      1421-9.23090E-04 5.65723E-04-7.91017E-09-1.13572E-01-8.75038E-02-2.32740E-08
 -1      1422-9.59018E-04 5.87885E-04-7.83928E-09-1.13449E-01-8.12590E-02-2.26284E-08
 -1      1423-9.94704E-04 6.09612E-04-7.68710E-09-1.13693E-01-7.51918E-02-2.19575E-08
 -1      1424-1.03074E-03 6.31788E-04-7.89588E-09-1.13899E-01-6.93091E-02-2.12618E-08
 -1      1425-1.06656E-03 6.53640E-04-8.12220E-09-1.13988E-01-6.36172E-02-2.05430E-08
 -1      1426-1.10283E-03 6.76066E-04-7.91898E-09-1.14282E-01-5.81230E-02-1.98005E-08
 -1      1427-1.13866E-03 6.97816E-04-7.87388E-09-1.13894E-01-5.28331E-02-1.90344E-08
 -1      1428-1.17454E-03 7.19706E-04-7.92567E-09-1.14939E-01-4.77542E-02-1.82437E-08
 -1      1429-1.21123E-03 7.42503E-04-7.88567E-09-1.14722E-01-4.28930E-02-1.74284E-08
 -1      1430-1.24751E-03 7.64854E-04-7.89982E-09-1.14489E-01-3.82561E-02-1.65897E-08
 -1      1431-1.28298E-03 7.86056E-04-7.94133E-09-1.14160E-01-3.38504E-02-1.57272E-08
 -1      1432-1.31961E-03 8.08817E-04-8.07057E-09-1.15664E-01-2.96825E-02-1.48389E-08
 -1      1433-1.35596E-03 8.31124E-04-8.14024E-09-1.14314E-01-2.57591E-02-1.39269E-08
 -1      1434-1.39216E-03 8.53298E-04-8.00634E-09-1.15644E-01-2.20869E-02-1.29905E-08
 -1      1435-1.42848E-03 8.75462E-04-8.05156E-09-1.14193E-01-1.86726E-02-1.20300E-08
 -1      1436-1.46476E-03 8.97802E-04-8.10611E-09-1.16098E-01-1.55231E-02-1.10471E-08
 -1      1437-1.50126E-03 9.20218E-04-8.14808E-09-1.13805E-01-1.26449E-02-1.00376E-08
 -1      1438-1.53716E-03 9.41994E-04-8.17270E-09-1.16336E-01-1.00449E-02-9.00351E-09
 -1      1439-1.57361E-03 9.64320E-04-8.03592E-09-1.13940E-01-7.72978E-03-7.94858E-09
 -1      1440-1.61083E-03 9.87727E-04-8.11244E-09-1.17445E-01-5.70624E-03-6.86729E-09
 -1      1441-1.64625E-03 1.00912E-03-8.16999E-09-1.11049E-01-3.98106E-03-5.75983E-09
 -1      1442-1.68146E-03 1.02849E-03-8.10013E-09-1.20520E-01-2.56092E-03-4.63047E-09
 -1      1443-1.72415E-03 1.06444E-03-8.09619E-09-1.09151E-01-1.45263E-03-3.47690E-09
 -1      1444-1.73868E-03 1.03826E-03-8.03628E-09-1.21839E-01-6.62829E-04-2.29803E-09
 -1      1445-1.85202E-03 1.23435E-03-8.71518E-09-1.09729E-01-1.98418E-04-1.09489E-09
 -1      1446-1.34844E-03 4.59390E-04-9.45982E-09-1.58890E-01-4.85555E-05-4.87567E-10
 -1      1447-1.10297E-03 1.33956E-04 9.95952E-09 2.53802E-06-8.74201E-01 1.50822E-03
 -1      1448-5.28429E-03 2.70617E-03 1.96798E-08 1.59611E-03-8.65402E-01 1.50821E-03
 -1      1449-1.81287E-02 1.05792E-02 3.31819E-08 3.15790E-03-8.47805E-01 1.50820E-03
 -1      1450-3.94169E-02 2.36501E-02 2.83370E-08 4.69030E-03-8.30209E-01 1.50816E-03
 -1      1451-6.88556E-02 4.16857E-02 4.30440E-09 6.17967E-03-8.12613E-01 1.50809E-03
 -1      1452-1.06439E-01 6.47813E-02-2.61326E-08 7.65466E-03-7.95018E-01 1.50798E-03
 -1      1453-1.51666E-01 9.24159E-02-5.33905E-08 9.08726E-03-7.77425E-01 1.50782E-03
 -1      1454-2.04884E-01 1.25158E-01-7.54925E-08 1.04771E-02-7.59834E-01 1.50759E-03
 -1      1455-2.65327E-01 1.62124E-01-8.95451E-08 1.18637E-02-7.42245E-01 1.50729E-03
 -1      1456-3.33284E-01 2.03831E-01-9.67463E-08 1.31781E-02-7.24661E-01 1.50691E-03
 -1      1457-4.08462E-01 2.49963E-01-9.08664E-08 1.44966E-02-7.07082E-01 1.50644E-03
 -1      1458-4.90271E-01 2.99964E-01-6.89729E-08 1.57976E-02-6.89509E-01 1.50587E-03
 -1      1459-5.79388E-01 3.54735E-01-4.63510E-08 1.69660E-02-6.71944E-01 1.50518E-03
 -1      1460-6.74949E-01 4.13356E-01-2.83645E-08 1.82691E-02-6.54387E-01 1.50439E-03
 -1      1461-7.76657E-01 4.75523E-01-1.01097E-08 1.93537E-02-6.36840E-01 1.50347E-03
 -1      1462-8.85209E-01 5.42115E-01 2.76908E-09 2.05287E-02-6.19304E-01 1.50241E-03
 -1      1463-9.99737E-01 6.12579E-01 2.12982E-09 2.17270E-02-6.01782E-01 1.50121E-03
 -1      1464-1.11961E+00 6.85557E-01-1.16962E-08 2.26753E-02-5.84274E-01 1.49986E-03
 -1      1465-1.24638E+00 7.63800E-01-3.20212E-08 2.38292E-02-5.66783E-01 1.49836E-03
 -1      1466-1.37764E+00 8.43872E-01-5.02213E-08 2.47497E-02-5.49311E-01 1.49669E-03
 -1      1467-1.51520E+00 9.28405E-01-6.20456E-08 2.57891E-02-5.31859E-01 1.49485E-03
 -1      1468-1.65763E+00 1.01581E+00-6.77120E-08 2.67995E-02-5.14429E-01 1.49284E-03
 -1      1469-1.80456E+00 1.10534E+00-7.62949E-08 2.76329E-02-4.97024E-01 1.49064E-03
 -1      1470-1.95788E+00 1.20005E+00-8.92447E-08 2.85516E-02-4.79646E-01 1.48825E-03
 -1      1471-2.11445E+00 1.29547E+00-9.16748E-08 2.93925E-02-4.62297E-01 1.48566E-03
 -1      1472-2.27654E+00 1.39510E+00-7.69081E-08 3.02626E-02-4.44979E-01 1.48287E-03
 -1      1473-2.44257E+00 1.49679E+00-5.03192E-08 3.10549E-02-4.27695E-01 1.47987E-03
 -1      1474-2.61278E+00 1.60099E+00-1.55792E-08 3.17741E-02-4.10448E-01 1.47666E-03
 -1      1475-2.78762E+00 1.70840E+00 1.76430E-08 3.24788E-02-3.93239E-01 1.47323E-03
 -1      1476-2.96599E+00 1.81776E+00 4.10462E-08 3.32871E-02-3.76071E-01 1.46957E-03
 -1      1477-3.14761E+00 1.92883E+00 5.93406E-08 3.39297E-02-3.58947E-01 1.46569E-03
 -1      1478-3.33330E+00 2.04263E+00 7.69851E-08 3.45106E-02-3.41870E-01 1.46157E-03
 -1      1479-3.52279E+00 2.15926E+00 9.53343E-08 3.51449E-02-3.24843E-01 1.45722E-03
 -1      1480-3.71444E+00 2.27617E+00 1.07652E-07 3.56925E-02-3.07867E-01 1.45262E-03
 -1      1481-3.90995E+00 2.39632E+00 1.04137E-07 3.63075E-02-2.90947E-01 1.44777E-03
 -1      1482-4.10795E+00 2.51755E+00 9.25134E-08 3.67482E-02-2.74085E-01 1.44268E-03
 -1      1483-4.30900E+00 2.64091E+00 8.34688E-08 3.73103E-02-2.57283E-01 1.43733E-03
 -1      1484-4.51208E+00 2.76531E+00 7.60069E-08 3.77673E-02-2.40546E-01 1.43173E-03
 -1      1485-4.71779E+00 2.89120E+00 6.78925E-08 3.80150E-02-2.23875E-01 1.42587E-03
 -1      1486-4.92626E+00 3.01938E+00 6.01298E-08 3.86309E-02-2.07274E-01 1.41974E-03
 -1      1487-5.13614E+00 3.14802E+00 5.14477E-08 3.89023E-02-1.90747E-01 1.41335E-03
 -1      1488-5.34766E+00 3.27732E+00 4.71786E-08 3.92813E-02-1.74295E-01 1.40669E-03
 -1      1489-5.56120E+00 3.40809E+00 4.69403E-08 3.94892E-02-1.57923E-01 1.39976E-03
 -1      1490-5.77729E+00 3.54138E+00 4.61760E-08 3.98056E-02-1.41633E-01 1.39255E-03
 -1      1491-5.99303E+00 3.67276E+00 4.56943E-08 4.00014E-02-1.25429E-01 1.38508E-03
 -1      1492-6.21097E+00 3.80649E+00 4.20390E-08 4.03286E-02-1.09314E-01 1.37732E-03
 -1      1493-6.43016E+00 3.94116E+00 3.60246E-08 4.04475E-02-9.32906E-02 1.36929E-03
 -1      1494-6.65031E+00 4.07621E+00 2.99396E-08 4.06070E-02-7.73626E-02 1.36098E-03
 -1      1495-6.87025E+00 4.21077E+00 2.17125E-08 4.07950E-02-6.15332E-02 1.35239E-03
 -1      1496-7.09113E+00 4.34554E+00 1.19543E-08 4.05745E-02-4.58057E-02 1.34352E-03
 -1      1497-7.31419E+00 4.48341E+00 2.70761E-09 4.11100E-02-3.01834E-02 1.33437E-03
 -1      1498-7.53491E+00 4.61797E+00-6.98015E-09 4.10081E-02-1.46695E-02 1.32494E-03
 -1      1499-7.75717E+00 4.75417E+00-1.76447E-08 4.08881E-02 7.32786E-04 1.31522E-03
 -1      1500-7.97972E+00 4.89101E+00-2.86191E-08 4.09286E-02 1.60201E-02 1.30523E-03
 -1      1501-8.20196E+00 5.02734E+00-3.98918E-08 4.07461E-02 3.11890E-02 1.29495E-03
 -1      1502-8.42289E+00 5.16219E+00-5.24223E-08 4.10632E-02 4.62363E-02 1.28439E-03
 -1      1503-8.64368E+00 5.29741E+00-6.39636E-08 4.06457E-02 6.11588E-02 1.27354E-03
 -1      1504-8.86526E+00 5.43390E+00-7.43003E-08 4.06036E-02 7.59532E-02 1.26242E-03
 -1      1505-9.08525E+00 5.56882E+00-8.54774E-08 4.04380E-02 9.06162E-02 1.25102E-03
 -1      1506-9.30291E+00 5.70149E+00-9.84366E-08 4.03601E-02 1.05144E-01 1.23933E-03
 -1      1507-9.52105E+00 5.83508E+00-1.11670E-07 3.98090E-02 1.19535E-01 1.22738E-03
 -1      1508-9.73945E+00 5.97034E+00-1.22477E-07 4.00115E-02 1.33784E-01 1.21514E-03
 -1      1509-9.95313E+00 6.10026E+00-1.29268E-07 3.96639E-02 1.47889E-01 1.20263E-03
 -1      1510-1.01668E+01 6.23077E+00-1.32416E-07 3.91220E-02 1.61846E-01 1.18985E-03
 -1      1511-1.03796E+01 6.36172E+00-1.32680E-07 3.90785E-02 1.75653E-01 1.17679E-03
 -1      1512-1.05915E+01 6.49261E+00-1.31956E-07 3.84529E-02 1.89305E-01 1.16347E-03
 -1      1513-1.07987E+01 6.61823E+00-1.32769E-07 3.86138E-02 2.02801E-01 1.14988E-03
 -1      1514-1.10048E+01 6.74430E+00-1.28207E-07 3.77991E-02 2.16137E-01 1.13603E-03
 -1      1515-1.12120E+01 6.87331E+00-1.14531E-07 3.75119E-02 2.29309E-01 1.12192E-03
 -1      1516-1.14115E+01 6.99359E+00-9.59482E-08 3.71862E-02 2.42316E-01 1.10754E-03
 -1      1517-1.16122E+01 7.11700E+00-7.55771E-08 3.63010E-02 2.55153E-01 1.09292E-03
 -1      1518-1.18107E+01 7.23943E+00-5.66357E-08 3.63694E-02 2.67818E-01 1.07804E-03
 -1      1519-1.20049E+01 7.35841E+00-3.80598E-08 3.56442E-02 2.80308E-01 1.06291E-03
 -1      1520-1.21962E+01 7.47486E+00-1.69341E-08 3.52419E-02 2.92619E-01 1.04753E-03
 -1      1521-1.23849E+01 7.59052E+00 1.23110E-09 3.44649E-02 3.04751E-01 1.03192E-03
 -1      1522-1.25722E+01 7.70604E+00 1.19673E-08 3.37797E-02 3.16698E-01 1.01606E-03
 -1      1523-1.27561E+01 7.81961E+00 2.10380E-08 3.36553E-02 3.28459E-01 9.99972E-04
 -1      1524-1.29330E+01 7.92591E+00 2.73609E-08 3.28225E-02 3.40032E-01 9.83654E-04
 -1      1525-1.31094E+01 8.03385E+00 2.86228E-08 3.22111E-02 3.51412E-01 9.67109E-04
 -1      1526-1.32858E+01 8.14515E+00 3.11851E-08 3.15093E-02 3.62598E-01 9.50340E-04
 -1      1527-1.34513E+01 8.24354E+00 3.80887E-08 3.09946E-02 3.73587E-01 9.33356E-04
 -1      1528-1.36181E+01 8.34656E+00 4.70302E-08 2.97976E-02 3.84377E-01 9.16159E-04
 -1      1529-1.37807E+01 8.44694E+00 5.62511E-08 2.97189E-02 3.94965E-01 8.98753E-04
 -1      1530-1.39382E+01 8.54346E+00 6.13641E-08 2.87264E-02 4.05349E-01 8.81145E-04
 -1      1531-1.40914E+01 8.63661E+00 6.08799E-08 2.81143E-02 4.15526E-01 8.63339E-04
 -1      1532-1.42400E+01 8.72704E+00 6.24592E-08 2.70859E-02 4.25494E-01 8.45340E-04
 -1      1533-1.43891E+01 8.82100E+00 5.80129E-08 2.61590E-02 4.35251E-01 8.27153E-04
 -1      1534-1.45275E+01 8.90348E+00 4.12446E-08 2.60518E-02 4.44795E-01 8.08784E-04
 -1      1535-1.46639E+01 8.98720E+00 3.00177E-08 2.46658E-02 4.54123E-01 7.90239E-04
 -1      1536-1.47983E+01 9.07077E+00 2.83483E-08 2.39807E-02 4.63234E-01 7.71522E-04
 -1      1537-1.49259E+01 9.14951E+00 2.21611E-08 2.30879E-02 4.72126E-01 7.52640E-04
 -1      1538-1.50472E+01 9.22173E+00 4.06282E-09 2.19957E-02 4.80796E-01 7.33600E-04
 -1      1539-1.51656E+01 9.29434E+00-2.36088E-08 2.16804E-02 4.89244E-01 7.14405E-04
 -1      1540-1.52809E+01 9.36710E+00-5.47315E-08 2.04354E-02 4.97466E-01 6.95063E-04
 -1      1541-1.53894E+01 9.43307E+00-8.36667E-08 1.95559E-02 5.05463E-01 6.75580E-04
 -1      1542-1.54910E+01 9.49417E+00-1.07283E-07 1.87714E-02 5.13231E-01 6.55962E-04
 -1      1543-1.55899E+01 9.55462E+00-1.25340E-07 1.72493E-02 5.20769E-01 6.36216E-04
 -1      1544-1.56863E+01 9.61620E+00-1.41093E-07 1.70169E-02 5.28076E-01 6.16348E-04
 -1      1545-1.57706E+01 9.66513E+00-1.48759E-07 1.59081E-02 5.35151E-01 5.96365E-04
 -1      1546-1.58543E+01 9.71708E+00-1.37841E-07 1.46177E-02 5.41992E-01 5.76273E-04
 -1      1547-1.59333E+01 9.76654E+00-1.13865E-07 1.37862E-02 5.48598E-01 5.56079E-04
 -1      1548-1.60047E+01 9.81010E+00-8.53170E-08 1.27637E-02 5.54968E-01 5.35790E-04
 -1      1549-1.60707E+01 9.84969E+00-6.27006E-08 1.16096E-02 5.61100E-01 5.15414E-04
 -1      1550-1.61313E+01 9.88651E+00-5.40219E-08 1.08995E-02 5.66995E-01 4.94956E-04
 -1      1551-1.61884E+01 9.92345E+00-4.32635E-08 9.65672E-03 5.72650E-01 4.74424E-04
 -1      1552-1.62377E+01 9.95268E+00-2.15112E-08 8.50423E-03 5.78065E-01 4.53826E-04
 -1      1553-1.62795E+01 9.97686E+00 3.54974E-09 7.89109E-03 5.83240E-01 4.33168E-04
 -1      1554-1.63192E+01 1.00023E+01 2.79064E-08 6.05369E-03 5.88173E-01 4.12458E-04
 -1      1555-1.63542E+01 1.00256E+01 5.42865E-08 5.73936E-03 5.92864E-01 3.91703E-04
 -1      1556-1.63769E+01 1.00367E+01 8.34602E-08 4.50091E-03 5.97313E-01 3.70910E-04
 -1      1557-1.63987E+01 1.00509E+01 9.85978E-08 3.11414E-03 6.01519E-01 3.50088E-04
 -1      1558-1.64141E+01 1.00611E+01 1.00230E-07 2.13235E-03 6.05482E-01 3.29244E-04
 -1      1559-1.64237E+01 1.00672E+01 9.54822E-08 7.59509E-04 6.09202E-01 3.08384E-04
 -1      1560-1.64247E+01 1.00667E+01 8.15217E-08 4.13715E-04 6.12679E-01 2.87517E-04
 -1      1561-1.64205E+01 1.00635E+01 7.40528E-08-1.35955E-03 6.15912E-01 2.66650E-04
 -1      1562-1.64149E+01 1.00629E+01 7.56689E-08-2.29350E-03 6.18901E-01 2.45792E-04
 -1      1563-1.63959E+01 1.00482E+01 7.93109E-08-3.31726E-03 6.21647E-01 2.24953E-04
 -1      1564-1.63766E+01 1.00372E+01 9.14772E-08-5.00871E-03 6.24150E-01 2.04142E-04
 -1      1565-1.63518E+01 1.00240E+01 1.11612E-07-5.41274E-03 6.26411E-01 1.83357E-04
 -1      1566-1.63153E+01 9.99987E+00 1.23121E-07-7.02515E-03 6.28429E-01 1.62607E-04
 -1      1567-1.62745E+01 9.97402E+00 1.24702E-07-7.68576E-03 6.30205E-01 1.41905E-04
 -1      1568-1.62290E+01 9.94742E+00 1.33617E-07-9.31127E-03 6.31740E-01 1.21258E-04
 -1      1569-1.61762E+01 9.91508E+00 1.50192E-07-1.03257E-02 6.33035E-01 1.00674E-04
 -1      1570-1.61184E+01 9.88014E+00 1.65281E-07-1.17697E-02 6.34090E-01 8.01610E-05
 -1      1571-1.60513E+01 9.83784E+00 1.72747E-07-1.21450E-02 6.34906E-01 5.97269E-05
 -1      1572-1.59788E+01 9.79283E+00 1.77552E-07-1.39464E-02 6.35484E-01 3.93804E-05
 -1      1573-1.59048E+01 9.75026E+00 1.88986E-07-1.49495E-02 6.35825E-01 1.91283E-05
 -1      1574-1.58168E+01 9.69355E+00 1.88832E-07-1.59463E-02 6.35931E-01-1.02091E-06
 -1      1575-1.57273E+01 9.63925E+00 1.64904E-07-1.76927E-02 6.35802E-01-2.10587E-05
 -1      1576-1.56322E+01 9.58207E+00 1.19970E-07-1.81208E-02 6.35440E-01-4.09782E-05
 -1      1577-1.55282E+01 9.51796E+00 6.33192E-08-1.95781E-02 6.34846E-01-6.07709E-05
 -1      1578-1.54189E+01 9.45101E+00 2.40701E-08-2.06065E-02 6.34023E-01-8.04287E-05
 -1      1579-1.53013E+01 9.37711E+00 8.75973E-09-2.21574E-02 6.32970E-01-9.99435E-05
 -1      1580-1.51830E+01 9.30720E+00-5.59303E-11-2.31761E-02 6.31691E-01-1.19308E-04
 -1      1581-1.50532E+01 9.22646E+00-9.51053E-09-2.37728E-02 6.30187E-01-1.38514E-04
 -1      1582-1.49177E+01 9.14273E+00-1.77912E-08-2.54812E-02 6.28460E-01-1.57552E-04
 -1      1583-1.47794E+01 9.05935E+00-2.46486E-08-2.64767E-02 6.26512E-01-1.76416E-04
 -1      1584-1.46325E+01 8.96930E+00-2.81211E-08-2.76265E-02 6.24345E-01-1.95099E-04
 -1      1585-1.44777E+01 8.87314E+00-2.31196E-08-2.86273E-02 6.21961E-01-2.13590E-04
 -1      1586-1.43195E+01 8.77642E+00-5.88898E-09-3.02824E-02 6.19362E-01-2.31883E-04
 -1      1587-1.41555E+01 8.67687E+00 2.26373E-08-3.07452E-02 6.16551E-01-2.49971E-04
 -1      1588-1.39837E+01 8.57135E+00 5.13515E-08-3.21478E-02 6.13530E-01-2.67844E-04
 -1      1589-1.38056E+01 8.46164E+00 6.49209E-08-3.31178E-02 6.10302E-01-2.85496E-04
 -1      1590-1.36214E+01 8.34813E+00 6.18385E-08-3.44989E-02 6.06870E-01-3.02919E-04
 -1      1591-1.34350E+01 8.23602E+00 4.60220E-08-3.57009E-02 6.03235E-01-3.20105E-04
 -1      1592-1.32378E+01 8.11380E+00 2.85363E-08-3.62110E-02 5.99402E-01-3.37047E-04
 -1      1593-1.30353E+01 7.98876E+00 1.56665E-08-3.78828E-02 5.95372E-01-3.53737E-04
 -1      1594-1.28299E+01 7.86401E+00 1.32188E-09-3.85951E-02 5.91149E-01-3.70167E-04
 -1      1595-1.26172E+01 7.73432E+00-1.07963E-08-3.98451E-02 5.86736E-01-3.86331E-04
 -1      1596-1.23974E+01 7.59834E+00-1.42900E-08-4.09666E-02 5.82136E-01-4.02220E-04
 -1      1597-1.21724E+01 7.46023E+00-1.43023E-08-4.17996E-02 5.77352E-01-4.17828E-04
 -1      1598-1.19441E+01 7.32205E+00-2.04432E-08-4.30040E-02 5.72388E-01-4.33147E-04
 -1      1599-1.17064E+01 7.17470E+00-3.17208E-08-4.38952E-02 5.67247E-01-4.48170E-04
 -1      1600-1.14645E+01 7.02645E+00-3.79052E-08-4.51489E-02 5.61932E-01-4.62889E-04
 -1      1601-1.12190E+01 6.87703E+00-4.02995E-08-4.62759E-02 5.56448E-01-4.77297E-04
 -1      1602-1.09663E+01 6.72207E+00-4.57139E-08-4.68627E-02 5.50797E-01-4.91389E-04
 -1      1603-1.07067E+01 6.56202E+00-4.54117E-08-4.79720E-02 5.44983E-01-5.05156E-04
 -1      1604-1.04438E+01 6.40111E+00-4.01072E-08-4.91606E-02 5.39011E-01-5.18592E-04
 -1      1605-1.01758E+01 6.23744E+00-4.94536E-08-5.00317E-02 5.32884E-01-5.31690E-04
 -1      1606-9.90188E+00 6.06988E+00-7.55259E-08-5.10193E-02 5.26607E-01-5.44443E-04
 -1      1607-9.62151E+00 5.89678E+00-9.70813E-08-5.21269E-02 5.20182E-01-5.56845E-04
 -1      1608-9.33688E+00 5.72212E+00-1.04996E-07-5.27065E-02 5.13615E-01-5.68888E-04
 -1      1609-9.04953E+00 5.54809E+00-1.02177E-07-5.38568E-02 5.06910E-01-5.80567E-04
 -1      1610-8.75310E+00 5.36456E+00-8.84780E-08-5.46543E-02 5.00070E-01-5.91875E-04
 -1      1611-8.45373E+00 5.18135E+00-6.57263E-08-5.57363E-02 4.93101E-01-6.02806E-04
 -1      1612-8.15046E+00 4.99607E+00-4.11756E-08-5.66947E-02 4.86007E-01-6.13352E-04
 -1      1613-7.84130E+00 4.80653E+00-2.48721E-08-5.72725E-02 4.78791E-01-6.23510E-04
 -1      1614-7.52643E+00 4.61298E+00-2.09384E-08-5.82243E-02 4.71460E-01-6.33272E-04
 -1      1615-7.20807E+00 4.41778E+00-2.70551E-08-5.92028E-02 4.64017E-01-6.42632E-04
 -1      1616-6.88606E+00 4.22144E+00-2.94963E-08-5.99952E-02 4.56467E-01-6.51584E-04
 -1      1617-6.55738E+00 4.01897E+00-2.52687E-08-6.08598E-02 4.48815E-01-6.60123E-04
 -1      1618-6.22546E+00 3.81571E+00-2.90701E-08-6.15497E-02 4.41066E-01-6.68243E-04
 -1      1619-5.88934E+00 3.61000E+00-3.51360E-08-6.24241E-02 4.33225E-01-6.75938E-04
 -1      1620-5.54901E+00 3.40170E+00-3.45672E-08-6.31970E-02 4.25296E-01-6.83203E-04
 -1      1621-5.20309E+00 3.18887E+00-3.88877E-08-6.39709E-02 4.17285E-01-6.90034E-04
 -1      1622-4.85418E+00 2.97503E+00-5.17062E-08-6.47998E-02 4.09197E-01-6.96423E-04
 -1      1623-4.50204E+00 2.76003E+00-6.82344E-08-6.53772E-02 4.01037E-01-7.02365E-04
 -1      1624-4.14437E+00 2.54035E+00-8.89240E-08-6.61831E-02 3.92811E-01-7.07857E-04
 -1      1625-3.78335E+00 2.31898E+00-1.09905E-07-6.68506E-02 3.84523E-01-7.12893E-04
 -1      1626-3.41851E+00 2.09527E+00-1.22342E-07-6.76115E-02 3.76179E-01-7.17468E-04
 -1      1627-3.05056E+00 1.87022E+00-1.23851E-07-6.82621E-02 3.67784E-01-7.21576E-04
 -1      1628-2.67802E+00 1.64145E+00-1.20539E-07-6.89455E-02 3.59344E-01-7.25215E-04
 -1      1629-2.30240E+00 1.41129E+00-1.10157E-07-6.95465E-02 3.50864E-01-7.28379E-04
 -1      1630-1.92348E+00 1.17922E+00-8.95015E-08-7.02024E-02 3.42350E-01-7.31063E-04
 -1      1631-1.54087E+00 9.44621E-01-6.73963E-08-7.08133E-02 3.33808E-01-7.33263E-04
 -1      1632-1.15500E+00 7.08079E-01-5.04865E-08-7.14078E-02 3.25243E-01-7.34976E-04
 -1      1633-7.65951E-01 4.69614E-01-3.80642E-08-7.20251E-02 3.16661E-01-7.36196E-04
 -1      1634-3.73913E-01 2.29397E-01-2.50264E-08-7.25631E-02 3.08067E-01-7.36919E-04
 -1      1635 2.13814E-02-1.29205E-02-6.71964E-09-7.31324E-02 2.99468E-01-7.37143E-04
 -1      1636 4.19527E-01-2.56943E-01 1.44390E-08-7.36700E-02 2.90869E-01-7.36863E-04
 -1      1637 8.20528E-01-5.02709E-01 3.86923E-08-7.41812E-02 2.82277E-01-7.36074E-04
 -1      1638 1.22458E+00-7.50481E-01 6.70976E-08-7.46668E-02 2.73697E-01-7.34774E-04
 -1      1639 1.63087E+00-9.99330E-01 9.54132E-08-7.52343E-02 2.65134E-01-7.32960E-04
 -1      1640 2.04004E+00-1.25013E+00 1.17470E-07-7.56387E-02 2.56596E-01-7.30627E-04
 -1      1641 2.45191E+00-1.50268E+00 1.27414E-07-7.61165E-02 2.48089E-01-7.27773E-04
 -1      1642 2.86614E+00-1.75665E+00 1.25733E-07-7.65523E-02 2.39617E-01-7.24394E-04
 -1      1643 3.28241E+00-2.01155E+00 1.18487E-07-7.69684E-02 2.31188E-01-7.20488E-04
 -1      1644 3.70116E+00-2.26812E+00 1.10596E-07-7.74490E-02 2.22808E-01-7.16051E-04
 -1      1645 4.12282E+00-2.52717E+00 1.03910E-07-7.77899E-02 2.14483E-01-7.11080E-04
 -1      1646 4.54522E+00-2.78542E+00 9.78139E-08-7.82333E-02 2.06218E-01-7.05573E-04
 -1      1647 4.97050E+00-3.04613E+00 9.23117E-08-7.85153E-02 1.98022E-01-6.99528E-04
 -1      1648 5.39808E+00-3.30874E+00 8.51523E-08-7.88823E-02 1.89898E-01-6.92940E-04
 -1      1649 5.82717E+00-3.57146E+00 7.25639E-08-7.91049E-02 1.81855E-01-6.85810E-04
 -1      1650 6.25720E+00-3.83454E+00 5.77638E-08-7.98262E-02 1.73898E-01-6.78133E-04
 -1      1651 6.68987E+00-4.09998E+00 4.23412E-08-7.98035E-02 1.66034E-01-6.69907E-04
 -1      1652 7.12537E+00-4.36782E+00 2.69818E-08-8.01772E-02 1.58269E-01-6.61131E-04
 -1      1653 7.55940E+00-4.63260E+00 1.59893E-08-8.05145E-02 1.50610E-01-6.51803E-04
 -1      1654 7.99717E+00-4.90119E+00 1.01981E-08-8.05182E-02 1.43063E-01-6.41920E-04
 -1      1655 8.43654E+00-5.17102E+00 6.42218E-09-8.11420E-02 1.35634E-01-6.31480E-04
 -1      1656 8.87613E+00-5.44036E+00 3.03780E-09-8.11972E-02 1.28331E-01-6.20482E-04
 -1      1657 9.31709E+00-5.71021E+00-6.27804E-10-8.15412E-02 1.21159E-01-6.08925E-04
 -1      1658 9.75895E+00-5.98076E+00-4.46128E-09-8.15668E-02 1.14125E-01-5.96807E-04
 -1      1659 1.02039E+01-6.25432E+00-6.58252E-09-8.16726E-02 1.07235E-01-5.84125E-04
 -1      1660 1.06486E+01-6.52683E+00-6.53582E-09-8.22547E-02 1.00497E-01-5.70879E-04
 -1      1661 1.10933E+01-6.79918E+00-5.82358E-09-8.23065E-02 9.39171E-02-5.57068E-04
 -1      1662 1.15391E+01-7.07130E+00-6.09983E-09-8.22141E-02 8.75013E-02-5.42690E-04
 -1      1663 1.19885E+01-7.34848E+00-7.15665E-09-8.26512E-02 8.12565E-02-5.27744E-04
 -1      1664 1.24356E+01-7.62169E+00-7.94056E-09-8.25699E-02 7.51895E-02-5.12229E-04
 -1      1665 1.28845E+01-7.89642E+00-7.66929E-09-8.29666E-02 6.93068E-02-4.96144E-04
 -1      1666 1.33346E+01-8.17311E+00-6.41696E-09-8.29136E-02 6.36150E-02-4.79488E-04
 -1      1667 1.37858E+01-8.45000E+00-5.25287E-09-8.30491E-02 5.81209E-02-4.62261E-04
 -1      1668 1.42348E+01-8.72386E+00-4.38405E-09-8.32973E-02 5.28311E-02-4.44461E-04
 -1      1669 1.46864E+01-9.00092E+00-3.05094E-09-8.30948E-02 4.77523E-02-4.26088E-04
 -1      1670 1.51393E+01-9.27924E+00-9.34527E-10-8.30500E-02 4.28912E-02-4.07141E-04
 -1      1671 1.55929E+01-9.55784E+00 1.10190E-09-8.36979E-02 3.82545E-02-3.87620E-04
 -1      1672 1.60419E+01-9.83110E+00 2.60905E-09-8.36117E-02 3.38489E-02-3.67524E-04
 -1      1673 1.64972E+01-1.01109E+01 4.13260E-09-8.33687E-02 2.96811E-02-3.46853E-04
 -1      1674 1.69503E+01-1.03897E+01 5.51081E-09-8.35524E-02 2.57578E-02-3.25606E-04
 -1      1675 1.74055E+01-1.06685E+01 6.32481E-09-8.34322E-02 2.20857E-02-3.03783E-04
 -1      1676 1.78540E+01-1.09408E+01 7.23115E-09-8.37530E-02 1.86716E-02-2.81384E-04
 -1      1677 1.83143E+01-1.12259E+01 8.86277E-09-8.38129E-02 1.55222E-02-2.58407E-04
 -1      1678 1.87635E+01-1.15003E+01 1.08741E-08-8.37196E-02 1.26442E-02-2.34854E-04
 -1      1679 1.92234E+01-1.17831E+01 1.33183E-08-8.38505E-02 1.00443E-02-2.10724E-04
 -1      1680 1.96672E+01-1.20512E+01 1.60754E-08-8.32625E-02 7.72932E-03-1.86018E-04
 -1      1681 2.01367E+01-1.23439E+01 1.90531E-08-8.41966E-02 5.70596E-03-1.60733E-04
 -1      1682 2.05836E+01-1.26235E+01 2.20557E-08-8.35066E-02 3.98092E-03-1.34871E-04
 -1      1683 2.10003E+01-1.28269E+01 2.49159E-08-8.54117E-02 2.56098E-03-1.08433E-04
 -1      1684 2.16606E+01-1.34492E+01 2.78477E-08-7.68471E-02 1.45283E-03-8.14130E-05
 -1      1685 2.12950E+01-1.24087E+01 3.01760E-08-1.09281E-01 6.63252E-04-5.38311E-05
 -1      1686 2.48227E+01-1.75737E+01 3.70547E-08 1.06336E-02 1.98989E-04-2.56150E-05
 -1      1687 1.42458E+01-8.60800E-03 4.31171E-08-4.33868E-01 4.89761E-05-1.13258E-05
 -1      1688-1.10291E-03 1.33934E-04-9.95952E-09 2.63333E-06 8.74199E-01-1.50822E-03
 -1      1689-5.28417E-03 2.70613E-03-1.96798E-08 1.59619E-03 8.65401E-01-1.50821E-03
 -1      1690-1.81285E-02 1.05791E-02-3.31819E-08 3.15792E-03 8.47804E-01-1.50820E-03
 -1      1691-3.94168E-02 2.36501E-02-2.83370E-08 4.69023E-03 8.30207E-01-1.50816E-03
 -1      1692-6.88555E-02 4.16857E-02-4.30440E-09 6.17955E-03 8.12611E-01-1.50809E-03
 -1      1693-1.06439E-01 6.47813E-02 2.61326E-08 7.65453E-03 7.95017E-01-1.50798E-03
 -1      1694-1.51666E-01 9.24161E-02 5.33905E-08 9.08715E-03 7.77423E-01-1.50782E-03
 -1      1695-2.04885E-01 1.25159E-01 7.54925E-08 1.04770E-02 7.59832E-01-1.50759E-03
 -1      1696-2.65328E-01 1.62125E-01 8.95451E-08 1.18636E-02 7.42244E-01-1.50729E-03
 -1      1697-3.33285E-01 2.03831E-01 9.67463E-08 1.31780E-02 7.24660E-01-1.50691E-03
 -1      1698-4.08463E-01 2.49963E-01 9.08664E-08 1.44967E-02 7.07081E-01-1.50644E-03
 -1      1699-4.90271E-01 2.99965E-01 6.89729E-08 1.57977E-02 6.89509E-01-1.50587E-03
 -1      1700-5.79389E-01 3.54735E-01 4.63510E-08 1.69661E-02 6.71943E-01-1.50519E-03
 -1      1701-6.74949E-01 4.13356E-01 2.83645E-08 1.82692E-02 6.54386E-01-1.50439E-03
 -1      1702-7.76657E-01 4.75523E-01 1.01097E-08 1.93538E-02 6.36839E-01-1.50347E-03
 -1      1703-8.85209E-01 5.42115E-01-2.76908E-09 2.05287E-02 6.19303E-01-1.50241E-03
 -1      1704-9.99737E-01 6.12579E-01-2.12982E-09 2.17269E-02 6.01781E-01-1.50121E-03
 -1      1705-1.11961E+00 6.85557E-01 1.16962E-08 2.26752E-02 5.84273E-01-1.49987E-03
 -1      1706-1.24638E+00 7.63800E-01 3.20212E-08 2.38291E-02 5.66783E-01-1.49836E-03
 -1      1707-1.37764E+00 8.43872E-01 5.02213E-08 2.47497E-02 5.49310E-01-1.49669E-03
 -1      1708-1.51520E+00 9.28405E-01 6.20456E-08 2.57891E-02 5.31858E-01-1.49486E-03
 -1      1709-1.65763E+00 1.01581E+00 6.77120E-08 2.67995E-02 5.14429E-01-1.49284E-03
 -1      1710-1.80456E+00 1.10534E+00 7.62949E-08 2.76328E-02 4.97024E-01-1.49064E-03
 -1      1711-1.95788E+00 1.20005E+00 8.92447E-08 2.85516E-02 4.79646E-01-1.48825E-03
 -1      1712-2.11445E+00 1.29547E+00 9.16748E-08 2.93926E-02 4.62296E-01-1.48566E-03
 -1      1713-2.27654E+00 1.39511E+00 7.69081E-08 3.02627E-02 4.44979E-01-1.48287E-03
 -1      1714-2.44257E+00 1.49679E+00 5.03192E-08 3.10550E-02 4.27695E-01-1.47988E-03
 -1      1715-2.61278E+00 1.60099E+00 1.55792E-08 3.17743E-02 4.10447E-01-1.47666E-03
 -1      1716-2.78762E+00 1.70840E+00-1.76430E-08 3.24789E-02 3.93238E-01-1.47323E-03
 -1      1717-2.96598E+00 1.81776E+00-4.10462E-08 3.32872E-02 3.76070E-01-1.46958E-03
 -1      1718-3.14761E+00 1.92883E+00-5.93406E-08 3.39298E-02 3.58947E-01-1.46569E-03
 -1      1719-3.33330E+00 2.04263E+00-7.69851E-08 3.45107E-02 3.41870E-01-1.46158E-03
 -1      1720-3.52279E+00 2.15926E+00-9.53343E-08 3.51449E-02 3.24842E-01-1.45722E-03
 -1      1721-3.71444E+00 2.27617E+00-1.07652E-07 3.56926E-02 3.07867E-01-1.45262E-03
 -1      1722-3.90995E+00 2.39632E+00-1.04137E-07 3.63075E-02 2.90947E-01-1.44778E-03
 -1      1723-4.10795E+00 2.51755E+00-9.25134E-08 3.67482E-02 2.74084E-01-1.44268E-03
 -1      1724-4.30900E+00 2.64091E+00-8.34688E-08 3.73102E-02 2.57283E-01-1.43734E-03
 -1      1725-4.51208E+00 2.76531E+00-7.60069E-08 3.77673E-02 2.40545E-01-1.43173E-03
 -1      1726-4.71779E+00 2.89120E+00-6.78925E-08 3.80150E-02 2.23875E-01-1.42587E-03
 -1      1727-4.92626E+00 3.01938E+00-6.01298E-08 3.86308E-02 2.07274E-01-1.41974E-03
 -1      1728-5.13614E+00 3.14802E+00-5.14477E-08 3.89022E-02 1.90746E-01-1.41335E-03
 -1      1729-5.34766E+00 3.27732E+00-4.71786E-08 3.92813E-02 1.74295E-01-1.40669E-03
 -1      1730-5.56120E+00 3.40809E+00-4.69403E-08 3.94892E-02 1.57923E-01-1.39976E-03
 -1      1731-5.77729E+00 3.54138E+00-4.61760E-08 3.98056E-02 1.41633E-01-1.39255E-03
 -1      1732-5.99303E+00 3.67276E+00-4.56943E-08 4.00014E-02 1.25429E-01-1.38508E-03
 -1      1733-6.21097E+00 3.80649E+00-4.20390E-08 4.03286E-02 1.09314E-01-1.37732E-03
 -1      1734-6.43016E+00 3.94116E+00-3.60246E-08 4.04475E-02 9.32904E-02-1.36929E-03
 -1      1735-6.65031E+00 4.07621E+00-2.99396E-08 4.06069E-02 7.73625E-02-1.36098E-03
 -1      1736-6.87025E+00 4.21077E+00-2.17125E-08 4.07949E-02 6.15331E-02-1.35239E-03
 -1      1737-7.09113E+00 4.34554E+00-1.19543E-08 4.05745E-02 4.58057E-02-1.34352E-03
 -1      1738-7.31419E+00 4.48341E+00-2.70761E-09 4.11100E-02 3.01835E-02-1.33437E-03
 -1      1739-7.53491E+00 4.61797E+00 6.98015E-09 4.10081E-02 1.46696E-02-1.32494E-03
 -1      1740-7.75717E+00 4.75417E+00 1.76447E-08 4.08881E-02-7.32602E-04-1.31522E-03
 -1      1741-7.97972E+00 4.89101E+00 2.86191E-08 4.09286E-02-1.60198E-02-1.30523E-03
 -1      1742-8.20196E+00 5.02734E+00 3.98918E-08 4.07460E-02-3.11887E-02-1.29495E-03
 -1      1743-8.42290E+00 5.16219E+00 5.24223E-08 4.10632E-02-4.62360E-02-1.28439E-03
 -1      1744-8.64368E+00 5.29741E+00 6.39636E-08 4.06457E-02-6.11584E-02-1.27354E-03
 -1      1745-8.86526E+00 5.43390E+00 7.43003E-08 4.06036E-02-7.59527E-02-1.26242E-03
 -1      1746-9.08525E+00 5.56882E+00 8.54774E-08 4.04380E-02-9.06157E-02-1.25102E-03
 -1      1747-9.30291E+00 5.70149E+00 9.84366E-08 4.03600E-02-1.05144E-01-1.23934E-03
 -1      1748-9.52105E+00 5.83508E+00 1.11670E-07 3.98090E-02-1.19534E-01-1.22738E-03
 -1      1749-9.73945E+00 5.97034E+00 1.22477E-07 4.00115E-02-1.33783E-01-1.21514E-03
 -1      1750-9.95313E+00 6.10026E+00 1.29268E-07 3.96639E-02-1.47888E-01-1.20263E-03
 -1      1751-1.01668E+01 6.23077E+00 1.32416E-07 3.91220E-02-1.61845E-01-1.18985E-03
 -1      1752-1.03796E+01 6.36172E+00 1.32680E-07 3.90784E-02-1.75652E-01-1.17680E-03
 -1      1753-1.05915E+01 6.49261E+00 1.31956E-07 3.84529E-02-1.89305E-01-1.16348E-03
 -1      1754-1.07987E+01 6.61823E+00 1.32769E-07 3.86138E-02-2.02800E-01-1.14989E-03
 -1      1755-1.10048E+01 6.74430E+00 1.28207E-07 3.77992E-02-2.16136E-01-1.13604E-03
 -1      1756-1.12120E+01 6.87331E+00 1.14531E-07 3.75120E-02-2.29309E-01-1.12192E-03
 -1      1757-1.14115E+01 6.99359E+00 9.59482E-08 3.71863E-02-2.42315E-01-1.10755E-03
 -1      1758-1.16122E+01 7.11700E+00 7.55771E-08 3.63011E-02-2.55152E-01-1.09292E-03
 -1      1759-1.18107E+01 7.23943E+00 5.66357E-08 3.63695E-02-2.67817E-01-1.07804E-03
 -1      1760-1.20049E+01 7.35841E+00 3.80598E-08 3.56443E-02-2.80307E-01-1.06292E-03
 -1      1761-1.21962E+01 7.47486E+00 1.69341E-08 3.52420E-02-2.92619E-01-1.04754E-03
 -1      1762-1.23849E+01 7.59052E+00-1.23110E-09 3.44650E-02-3.04750E-01-1.03193E-03
 -1      1763-1.25722E+01 7.70604E+00-1.19673E-08 3.37797E-02-3.16698E-01-1.01607E-03
 -1      1764-1.27561E+01 7.81961E+00-2.10380E-08 3.36553E-02-3.28459E-01-9.99981E-04
 -1      1765-1.29330E+01 7.92591E+00-2.73609E-08 3.28225E-02-3.40031E-01-9.83662E-04
 -1      1766-1.31094E+01 8.03384E+00-2.86228E-08 3.22111E-02-3.51412E-01-9.67117E-04
 -1      1767-1.32858E+01 8.14515E+00-3.11851E-08 3.15093E-02-3.62598E-01-9.50348E-04
 -1      1768-1.34513E+01 8.24354E+00-3.80887E-08 3.09946E-02-3.73587E-01-9.33364E-04
 -1      1769-1.36181E+01 8.34656E+00-4.70302E-08 2.97977E-02-3.84377E-01-9.16166E-04
 -1      1770-1.37807E+01 8.44694E+00-5.62511E-08 2.97190E-02-3.94965E-01-8.98760E-04
 -1      1771-1.39382E+01 8.54346E+00-6.13641E-08 2.87264E-02-4.05349E-01-8.81151E-04
 -1      1772-1.40914E+01 8.63661E+00-6.08799E-08 2.81143E-02-4.15526E-01-8.63345E-04
 -1      1773-1.42400E+01 8.72704E+00-6.24592E-08 2.70859E-02-4.25494E-01-8.45346E-04
 -1      1774-1.43891E+01 8.82100E+00-5.80129E-08 2.61590E-02-4.35251E-01-8.27159E-04
 -1      1775-1.45275E+01 8.90348E+00-4.12446E-08 2.60517E-02-4.44795E-01-8.08790E-04
 -1      1776-1.46639E+01 8.98720E+00-3.00177E-08 2.46658E-02-4.54123E-01-7.90245E-04
 -1      1777-1.47983E+01 9.07077E+00-2.83483E-08 2.39807E-02-4.63234E-01-7.71528E-04
 -1      1778-1.49259E+01 9.14951E+00-2.21611E-08 2.30879E-02-4.72126E-01-7.52646E-04
 -1      1779-1.50472E+01 9.22173E+00-4.06282E-09 2.19956E-02-4.80797E-01-7.33605E-04
 -1      1780-1.51656E+01 9.29434E+00 2.36088E-08 2.16803E-02-4.89244E-01-7.14411E-04
 -1      1781-1.52809E+01 9.36710E+00 5.47315E-08 2.04353E-02-4.97467E-01-6.95068E-04
 -1      1782-1.53894E+01 9.43307E+00 8.36667E-08 1.95558E-02-5.05463E-01-6.75586E-04
 -1      1783-1.54910E+01 9.49417E+00 1.07283E-07 1.87713E-02-5.13231E-01-6.55969E-04
 -1      1784-1.55899E+01 9.55462E+00 1.25340E-07 1.72493E-02-5.20769E-01-6.36223E-04
 -1      1785-1.56863E+01 9.61620E+00 1.41093E-07 1.70168E-02-5.28076E-01-6.16355E-04
 -1      1786-1.57706E+01 9.66513E+00 1.48759E-07 1.59081E-02-5.35151E-01-5.96373E-04
 -1      1787-1.58543E+01 9.71708E+00 1.37841E-07 1.46177E-02-5.41992E-01-5.76282E-04
 -1      1788-1.59333E+01 9.76654E+00 1.13865E-07 1.37863E-02-5.48598E-01-5.56088E-04
 -1      1789-1.60047E+01 9.81010E+00 8.53170E-08 1.27638E-02-5.54968E-01-5.35800E-04
 -1      1790-1.60707E+01 9.84969E+00 6.27006E-08 1.16097E-02-5.61101E-01-5.15424E-04
 -1      1791-1.61313E+01 9.88651E+00 5.40219E-08 1.08995E-02-5.66995E-01-4.94967E-04
 -1      1792-1.61884E+01 9.92345E+00 4.32635E-08 9.65680E-03-5.72650E-01-4.74435E-04
 -1      1793-1.62377E+01 9.95268E+00 2.15112E-08 8.50433E-03-5.78066E-01-4.53837E-04
 -1      1794-1.62795E+01 9.97686E+00-3.54974E-09 7.89120E-03-5.83240E-01-4.33179E-04
 -1      1795-1.63192E+01 1.00023E+01-2.79064E-08 6.05379E-03-5.88174E-01-4.12469E-04
 -1      1796-1.63542E+01 1.00256E+01-5.42865E-08 5.73949E-03-5.92865E-01-3.91713E-04
 -1      1797-1.63769E+01 1.00367E+01-8.34602E-08 4.50102E-03-5.97314E-01-3.70921E-04
 -1      1798-1.63987E+01 1.00509E+01-9.85978E-08 3.11415E-03-6.01520E-01-3.50099E-04
 -1      1799-1.64141E+01 1.00611E+01-1.00230E-07 2.13235E-03-6.05484E-01-3.29253E-04
 -1      1800-1.64237E+01 1.00672E+01-9.54822E-08 7.59464E-04-6.09203E-01-3.08393E-04
 -1      1801-1.64247E+01 1.00667E+01-8.15217E-08 4.13655E-04-6.12680E-01-2.87525E-04
 -1      1802-1.64205E+01 1.00635E+01-7.40528E-08-1.35955E-03-6.15913E-01-2.66659E-04
 -1      1803-1.64149E+01 1.00629E+01-7.56689E-08-2.29349E-03-6.18902E-01-2.45800E-04
 -1      1804-1.63959E+01 1.00482E+01-7.93109E-08-3.31723E-03-6.21649E-01-2.24961E-04
 -1      1805-1.63766E+01 1.00372E+01-9.14772E-08-5.00864E-03-6.24152E-01-2.04149E-04
 -1      1806-1.63518E+01 1.00240E+01-1.11612E-07-5.41267E-03-6.26412E-01-1.83364E-04
 -1      1807-1.63153E+01 9.99987E+00-1.23121E-07-7.02514E-03-6.28430E-01-1.62613E-04
 -1      1808-1.62745E+01 9.97402E+00-1.24702E-07-7.68575E-03-6.30207E-01-1.41911E-04
 -1      1809-1.62290E+01 9.94742E+00-1.33617E-07-9.31122E-03-6.31742E-01-1.21263E-04
 -1      1810-1.61762E+01 9.91508E+00-1.50192E-07-1.03256E-02-6.33036E-01-1.00678E-04
 -1      1811-1.61184E+01 9.88014E+00-1.65281E-07-1.17696E-02-6.34091E-01-8.01645E-05
 -1      1812-1.60513E+01 9.83784E+00-1.72747E-07-1.21449E-02-6.34907E-01-5.97295E-05
 -1      1813-1.59788E+01 9.79283E+00-1.77552E-07-1.39464E-02-6.35485E-01-3.93822E-05
 -1      1814-1.59048E+01 9.75026E+00-1.88986E-07-1.49495E-02-6.35827E-01-1.91292E-05
 -1      1815-1.58168E+01 9.69355E+00-1.88832E-07-1.59463E-02-6.35932E-01 1.02091E-06
 -1      1816-1.57273E+01 9.63925E+00-1.64904E-07-1.76928E-02-6.35803E-01 2.10595E-05
 -1      1817-1.56322E+01 9.58207E+00-1.19970E-07-1.81210E-02-6.35441E-01 4.09797E-05
 -1      1818-1.55282E+01 9.51796E+00-6.33192E-08-1.95784E-02-6.34848E-01 6.07729E-05
 -1      1819-1.54189E+01 9.45101E+00-2.40701E-08-2.06066E-02-6.34024E-01 8.04309E-05
 -1      1820-1.53013E+01 9.37711E+00-8.75973E-09-2.21574E-02-6.32971E-01 9.99457E-05
 -1      1821-1.51830E+01 9.30720E+00 5.59303E-11-2.31761E-02-6.31692E-01 1.19310E-04
 -1      1822-1.50532E+01 9.22646E+00 9.51053E-09-2.37729E-02-6.30188E-01 1.38516E-04
 -1      1823-1.49177E+01 9.14273E+00 1.77912E-08-2.54812E-02-6.28461E-01 1.57554E-04
 -1      1824-1.47794E+01 9.05935E+00 2.46486E-08-2.64767E-02-6.26513E-01 1.76418E-04
 -1      1825-1.46325E+01 8.96930E+00 2.81211E-08-2.76265E-02-6.24345E-01 1.95101E-04
 -1      1826-1.44777E+01 8.87315E+00 2.31196E-08-2.86272E-02-6.21961E-01 2.13592E-04
 -1      1827-1.43195E+01 8.77642E+00 5.88898E-09-3.02823E-02-6.19362E-01 2.31885E-04
 -1      1828-1.41555E+01 8.67687E+00-2.26373E-08-3.07451E-02-6.16551E-01 2.49972E-04
 -1      1829-1.39837E+01 8.57135E+00-5.13515E-08-3.21477E-02-6.13531E-01 2.67846E-04
 -1      1830-1.38056E+01 8.46164E+00-6.49209E-08-3.31178E-02-6.10303E-01 2.85499E-04
 -1      1831-1.36214E+01 8.34813E+00-6.18385E-08-3.44990E-02-6.06870E-01 3.02922E-04
 -1      1832-1.34350E+01 8.23602E+00-4.60220E-08-3.57010E-02-6.03235E-01 3.20108E-04
 -1      1833-1.32378E+01 8.11380E+00-2.85363E-08-3.62111E-02-5.99402E-01 3.37050E-04
 -1      1834-1.30353E+01 7.98876E+00-1.56665E-08-3.78828E-02-5.95372E-01 3.53740E-04
 -1      1835-1.28299E+01 7.86401E+00-1.32188E-09-3.85951E-02-5.91149E-01 3.70171E-04
 -1      1836-1.26172E+01 7.73432E+00 1.07963E-08-3.98452E-02-5.86736E-01 3.86334E-04
 -1      1837-1.23974E+01 7.59834E+00 1.42900E-08-4.09666E-02-5.82136E-01 4.02223E-04
 -1      1838-1.21724E+01 7.46023E+00 1.43023E-08-4.17996E-02-5.77352E-01 4.17831E-04
 -1      1839-1.19441E+01 7.32205E+00 2.04432E-08-4.30040E-02-5.72388E-01 4.33150E-04
 -1      1840-1.17064E+01 7.17470E+00 3.17208E-08-4.38952E-02-5.67246E-01 4.48172E-04
 -1      1841-1.14645E+01 7.02645E+00 3.79052E-08-4.51490E-02-5.61932E-01 4.62891E-04
 -1      1842-1.12190E+01 6.87703E+00 4.02995E-08-4.62760E-02-5.56447E-01 4.77300E-04
 -1      1843-1.09663E+01 6.72207E+00 4.57139E-08-4.68627E-02-5.50796E-01 4.91391E-04
 -1      1844-1.07067E+01 6.56202E+00 4.54117E-08-4.79720E-02-5.44983E-01 5.05158E-04
 -1      1845-1.04438E+01 6.40111E+00 4.01072E-08-4.91606E-02-5.39010E-01 5.18594E-04
 -1      1846-1.01758E+01 6.23744E+00 4.94536E-08-5.00318E-02-5.32884E-01 5.31691E-04
 -1      1847-9.90188E+00 6.06988E+00 7.55259E-08-5.10194E-02-5.26606E-01 5.44444E-04
 -1      1848-9.62151E+00 5.89678E+00 9.70813E-08-5.21269E-02-5.20181E-01 5.56846E-04
 -1      1849-9.33688E+00 5.72212E+00 1.04996E-07-5.27065E-02-5.13614E-01 5.68889E-04
 -1      1850-9.04953E+00 5.54809E+00 1.02177E-07-5.38568E-02-5.06909E-01 5.80567E-04
 -1      1851-8.75310E+00 5.36456E+00 8.84780E-08-5.46542E-02-5.00069E-01 5.91875E-04
 -1      1852-8.45374E+00 5.18135E+00 6.57263E-08-5.57361E-02-4.93100E-01 6.02805E-04
 -1      1853-8.15046E+00 4.99607E+00 4.11756E-08-5.66946E-02-4.86006E-01 6.13351E-04
 -1      1854-7.84130E+00 4.80653E+00 2.48721E-08-5.72725E-02-4.78790E-01 6.23509E-04
 -1      1855-7.52643E+00 4.61298E+00 2.09384E-08-5.82243E-02-4.71459E-01 6.33271E-04
 -1      1856-7.20807E+00 4.41778E+00 2.70551E-08-5.92028E-02-4.64016E-01 6.42630E-04
 -1      1857-6.88606E+00 4.22144E+00 2.94963E-08-5.99952E-02-4.56466E-01 6.51582E-04
 -1      1858-6.55738E+00 4.01897E+00 2.52687E-08-6.08598E-02-4.48814E-01 6.60121E-04
 -1      1859-6.22546E+00 3.81571E+00 2.90701E-08-6.15497E-02-4.41065E-01 6.68241E-04
 -1      1860-5.88934E+00 3.61000E+00 3.51360E-08-6.24241E-02-4.33224E-01 6.75936E-04
 -1      1861-5.54901E+00 3.40170E+00 3.45672E-08-6.31970E-02-4.25295E-01 6.83201E-04
 -1      1862-5.20309E+00 3.18887E+00 3.88877E-08-6.39709E-02-4.17284E-01 6.90031E-04
 -1      1863-4.85418E+00 2.97503E+00 5.17062E-08-6.47999E-02-4.09196E-01 6.96420E-04
 -1      1864-4.50204E+00 2.76003E+00 6.82344E-08-6.53773E-02-4.01036E-01 7.02362E-04
 -1      1865-4.14437E+00 2.54035E+00 8.89240E-08-6.61832E-02-3.92810E-01 7.07853E-04
 -1      1866-3.78335E+00 2.31899E+00 1.09905E-07-6.68507E-02-3.84521E-01 7.12889E-04
 -1      1867-3.41851E+00 2.09527E+00 1.22342E-07-6.76116E-02-3.76177E-01 7.17463E-04
 -1      1868-3.05057E+00 1.87022E+00 1.23851E-07-6.82621E-02-3.67783E-01 7.21571E-04
 -1      1869-2.67802E+00 1.64145E+00 1.20539E-07-6.89455E-02-3.59343E-01 7.25210E-04
 -1      1870-2.30240E+00 1.41129E+00 1.10157E-07-6.95464E-02-3.50863E-01 7.28373E-04
 -1      1871-1.92348E+00 1.17922E+00 8.95015E-08-7.02023E-02-3.42349E-01 7.31056E-04
 -1      1872-1.54087E+00 9.44622E-01 6.73963E-08-7.08132E-02-3.33807E-01 7.33256E-04
 -1      1873-1.15500E+00 7.08079E-01 5.04865E-08-7.14077E-02-3.25242E-01 7.34968E-04
 -1      1874-7.65952E-01 4.69614E-01 3.80642E-08-7.20251E-02-3.16660E-01 7.36188E-04
 -1      1875-3.73913E-01 2.29397E-01 2.50264E-08-7.25631E-02-3.08067E-01 7.36911E-04
 -1      1876 2.13814E-02-1.29205E-02 6.71964E-09-7.31324E-02-2.99468E-01 7.37136E-04
 -1      1877 4.19528E-01-2.56943E-01-1.44390E-08-7.36700E-02-2.90869E-01 7.36855E-04
 -1      1878 8.20528E-01-5.02709E-01-3.86923E-08-7.41811E-02-2.82276E-01 7.36066E-04
 -1      1879 1.22458E+00-7.50481E-01-6.70976E-08-7.46667E-02-2.73696E-01 7.34767E-04
 -1      1880 1.63087E+00-9.99330E-01-9.54132E-08-7.52342E-02-2.65134E-01 7.32953E-04
 -1      1881 2.04004E+00-1.25013E+00-1.17470E-07-7.56386E-02-2.56596E-01 7.30621E-04
 -1      1882 2.45191E+00-1.50268E+00-1.27414E-07-7.61165E-02-2.48088E-01 7.27767E-04
 -1      1883 2.86614E+00-1.75666E+00-1.25733E-07-7.65523E-02-2.39617E-01 7.24389E-04
 -1      1884 3.28241E+00-2.01155E+00-1.18487E-07-7.69684E-02-2.31188E-01 7.20483E-04
 -1      1885 3.70116E+00-2.26813E+00-1.10596E-07-7.74490E-02-2.22808E-01 7.16047E-04
 -1      1886 4.12282E+00-2.52717E+00-1.03910E-07-7.77899E-02-2.14483E-01 7.11076E-04
 -1      1887 4.54522E+00-2.78542E+00-9.78139E-08-7.82333E-02-2.06218E-01 7.05570E-04
 -1      1888 4.97050E+00-3.04613E+00-9.23117E-08-7.85153E-02-1.98021E-01 6.99525E-04
 -1      1889 5.39809E+00-3.30874E+00-8.51523E-08-7.88823E-02-1.89898E-01 6.92938E-04
 -1      1890 5.82717E+00-3.57146E+00-7.25639E-08-7.91050E-02-1.81855E-01 6.85808E-04
 -1      1891 6.25720E+00-3.83454E+00-5.77638E-08-7.98263E-02-1.73898E-01 6.78131E-04
 -1      1892 6.68987E+00-4.09998E+00-4.23412E-08-7.98035E-02-1.66034E-01 6.69906E-04
 -1      1893 7.12537E+00-4.36782E+00-2.69818E-08-8.01772E-02-1.58269E-01 6.61130E-04
 -1      1894 7.55940E+00-4.63260E+00-1.59893E-08-8.05146E-02-1.50610E-01 6.51802E-04
 -1      1895 7.99717E+00-4.90119E+00-1.01981E-08-8.05182E-02-1.43063E-01 6.41919E-04
 -1      1896 8.43654E+00-5.17102E+00-6.42218E-09-8.11420E-02-1.35634E-01 6.31479E-04
 -1      1897 8.87613E+00-5.44036E+00-3.03780E-09-8.11972E-02-1.28331E-01 6.20481E-04
 -1      1898 9.31709E+00-5.71021E+00 6.27804E-10-8.15412E-02-1.21159E-01 6.08924E-04
 -1      1899 9.75895E+00-5.98076E+00 4.46128E-09-8.15668E-02-1.14125E-01 5.96806E-04
 -1      1900 1.02039E+01-6.25432E+00 6.58252E-09-8.16726E-02-1.07235E-01 5.84124E-04
 -1      1901 1.06486E+01-6.52683E+00 6.53582E-09-8.22547E-02-1.00497E-01 5.70878E-04
 -1      1902 1.10933E+01-6.79918E+00 5.82358E-09-8.23065E-02-9.39170E-02 5.57067E-04
 -1      1903 1.15391E+01-7.07130E+00 6.09983E-09-8.22141E-02-8.75012E-02 5.42689E-04
 -1      1904 1.19885E+01-7.34848E+00 7.15665E-09-8.26512E-02-8.12564E-02 5.27743E-04
 -1      1905 1.24356E+01-7.62169E+00 7.94056E-09-8.25699E-02-7.51893E-02 5.12228E-04
 -1      1906 1.28845E+01-7.89642E+00 7.66929E-09-8.29666E-02-6.93066E-02 4.96143E-04
 -1      1907 1.33346E+01-8.17311E+00 6.41696E-09-8.29136E-02-6.36149E-02 4.79487E-04
 -1      1908 1.37858E+01-8.45000E+00 5.25287E-09-8.30491E-02-5.81208E-02 4.62260E-04
 -1      1909 1.42348E+01-8.72386E+00 4.38405E-09-8.32973E-02-5.28310E-02 4.44460E-04
 -1      1910 1.46864E+01-9.00092E+00 3.05094E-09-8.30948E-02-4.77522E-02 4.26087E-04
 -1      1911 1.51393E+01-9.27924E+00 9.34527E-10-8.30499E-02-4.28911E-02 4.07140E-04
 -1      1912 1.55929E+01-9.55784E+00-1.10190E-09-8.36979E-02-3.82544E-02 3.87619E-04
 -1      1913 1.60419E+01-9.83110E+00-2.60905E-09-8.36116E-02-3.38488E-02 3.67523E-04
 -1      1914 1.64972E+01-1.01109E+01-4.13260E-09-8.33687E-02-2.96810E-02 3.46852E-04
 -1      1915 1.69503E+01-1.03897E+01-5.51081E-09-8.35524E-02-2.57577E-02 3.25605E-04
 -1      1916 1.74055E+01-1.06685E+01-6.32481E-09-8.34322E-02-2.20856E-02 3.03782E-04
 -1      1917 1.78540E+01-1.09408E+01-7.23115E-09-8.37530E-02-1.86716E-02 2.81383E-04
 -1      1918 1.83143E+01-1.12259E+01-8.86277E-09-8.38128E-02-1.55221E-02 2.58406E-04
 -1      1919 1.87635E+01-1.15003E+01-1.08741E-08-8.37196E-02-1.26441E-02 2.34853E-04
 -1      1920 1.92234E+01-1.17831E+01-1.33183E-08-8.38505E-02-1.00443E-02 2.10723E-04
 -1      1921 1.96672E+01-1.20512E+01-1.60754E-08-8.32625E-02-7.72929E-03 1.86017E-04
 -1      1922 2.01367E+01-1.23439E+01-1.90531E-08-8.41966E-02-5.70594E-03 1.60732E-04
 -1      1923 2.05836E+01-1.26235E+01-2.20557E-08-8.35066E-02-3.98091E-03 1.34870E-04
 -1      1924 2.10003E+01-1.28269E+01-2.49159E-08-8.54117E-02-2.56097E-03 1.08432E-04
 -1      1925 2.16606E+01-1.34492E+01-2.78477E-08-7.68471E-02-1.45282E-03 8.14126E-05
 -1      1926 2.12950E+01-1.24087E+01-3.01760E-08-1.09281E-01-6.63249E-04 5.38308E-05
 -1      1927 2.48227E+01-1.75737E+01-3.70547E-08 1.06336E-02-1.98989E-04 2.56149E-05
 -1      1928 1.42458E+01-8.60801E-03-4.31171E-08-4.33868E-01-4.89761E-05 1.13257E-05
 -1      1929-1.92284E-03 3.13522E-04 1.50369E-08-2.08178E-04-8.74201E-01 2.26239E-03
 -1      1930-1.07768E-02 5.79117E-03 3.05639E-08 1.00974E-03-8.65402E-01 2.26239E-03
 -1      1931-3.65123E-02 2.15342E-02 5.04566E-08 1.96924E-03-8.47805E-01 2.26237E-03
 -1      1932-7.90605E-02 4.76789E-02 4.20020E-08 2.93801E-03-8.30208E-01 2.26231E-03
 -1      1933-1.37998E-01 8.37973E-02 6.93884E-09 3.86580E-03-8.12612E-01 2.26220E-03
 -1      1934-2.12947E-01 1.29718E-01-3.85548E-08 4.78829E-03-7.95018E-01 2.26204E-03
 -1      1935-3.03792E-01 1.85472E-01-8.14442E-08 5.68202E-03-7.77424E-01 2.26179E-03
 -1      1936-4.09819E-01 2.50444E-01-1.13877E-07 6.54802E-03-7.59833E-01 2.26145E-03
 -1      1937-5.30974E-01 3.24682E-01-1.35191E-07 7.42332E-03-7.42245E-01 2.26100E-03
 -1      1938-6.66958E-01 4.08228E-01-1.46486E-07 8.23689E-03-7.24661E-01 2.26043E-03
 -1      1939-8.16689E-01 4.99619E-01-1.34452E-07 9.08565E-03-7.07082E-01 2.25972E-03
 -1      1940-9.81372E-01 6.01033E-01-1.02457E-07 9.83818E-03-6.89509E-01 2.25886E-03
 -1      1941-1.15876E+00 7.09455E-01-7.07685E-08 1.06478E-02-6.71943E-01 2.25784E-03
 -1      1942-1.34988E+00 8.26663E-01-4.30040E-08 1.13698E-02-6.54386E-01 2.25664E-03
 -1      1943-1.55448E+00 9.52584E-01-1.46438E-08 1.21708E-02-6.36839E-01 2.25526E-03
 -1      1944-1.76975E+00 1.08330E+00 3.59973E-09 1.28441E-02-6.19303E-01 2.25368E-03
 -1      1945-1.99997E+00 1.22576E+00 3.36815E-09 1.35021E-02-6.01781E-01 2.25188E-03
 -1      1946-2.24007E+00 1.37219E+00-1.62290E-08 1.42574E-02-5.84273E-01 2.24986E-03
 -1      1947-2.49245E+00 1.52709E+00-4.86244E-08 1.48003E-02-5.66782E-01 2.24760E-03
 -1      1948-2.75641E+00 1.68922E+00-7.55552E-08 1.56032E-02-5.49310E-01 2.24510E-03
 -1      1949-3.02977E+00 1.85584E+00-9.38004E-08 1.60517E-02-5.31858E-01 2.24235E-03
 -1      1950-3.31569E+00 2.03210E+00-1.03206E-07 1.67607E-02-5.14429E-01 2.23932E-03
 -1      1951-3.61040E+00 2.21220E+00-1.13337E-07 1.72580E-02-4.97024E-01 2.23602E-03
 -1      1952-3.91543E+00 2.39951E+00-1.32845E-07 1.78609E-02-4.79645E-01 2.23243E-03
 -1      1953-4.22963E+00 2.59176E+00-1.38307E-07 1.84325E-02-4.62296E-01 2.22855E-03
 -1      1954-4.55309E+00 2.79002E+00-1.15549E-07 1.88565E-02-4.44978E-01 2.22437E-03
 -1      1955-4.88576E+00 2.99422E+00-7.53927E-08 1.94207E-02-4.27694E-01 2.21987E-03
 -1      1956-5.22672E+00 3.20329E+00-2.33292E-08 1.98629E-02-4.10447E-01 2.21505E-03
 -1      1957-5.57509E+00 3.41642E+00 2.63736E-08 2.03857E-02-3.93238E-01 2.20990E-03
 -1      1958-5.93173E+00 3.63496E+00 6.10980E-08 2.07350E-02-3.76070E-01 2.20442E-03
 -1      1959-6.29660E+00 3.85919E+00 8.93974E-08 2.12069E-02-3.58946E-01 2.19859E-03
 -1      1960-6.66726E+00 4.08587E+00 1.16231E-07 2.15615E-02-3.41869E-01 2.19242E-03
 -1      1961-7.04574E+00 4.31844E+00 1.43542E-07 2.19932E-02-3.24842E-01 2.18588E-03
 -1      1962-7.42950E+00 4.55290E+00 1.61313E-07 2.23875E-02-3.07866E-01 2.17899E-03
 -1      1963-7.82044E+00 4.79296E+00 1.55689E-07 2.26317E-02-2.90946E-01 2.17172E-03
 -1      1964-8.21678E+00 5.03599E+00 1.38692E-07 2.30570E-02-2.74084E-01 2.16408E-03
 -1      1965-8.61764E+00 5.28088E+00 1.26029E-07 2.32329E-02-2.57282E-01 2.15606E-03
 -1      1966-9.02613E+00 5.53288E+00 1.14368E-07 2.36062E-02-2.40544E-01 2.14765E-03
 -1      1967-9.43620E+00 5.78278E+00 1.01629E-07 2.38859E-02-2.23874E-01 2.13886E-03
 -1      1968-9.85211E+00 6.03781E+00 8.95271E-08 2.40574E-02-2.07273E-01 2.12967E-03
 -1      1969-1.02731E+01 6.29675E+00 7.71669E-08 2.42815E-02-1.90745E-01 2.12008E-03
 -1      1970-1.06965E+01 6.55562E+00 7.18480E-08 2.45600E-02-1.74294E-01 2.11009E-03
 -1      1971-1.11237E+01 6.81752E+00 7.01715E-08 2.46832E-02-1.57922E-01 2.09969E-03
 -1      1972-1.15546E+01 7.08223E+00 6.98345E-08 2.48920E-02-1.41632E-01 2.08889E-03
 -1      1973-1.19870E+01 7.34639E+00 6.93623E-08 2.51551E-02-1.25428E-01 2.07767E-03
 -1      1974-1.24226E+01 7.61320E+00 6.31336E-08 2.50695E-02-1.09312E-01 2.06604E-03
 -1      1975-1.28617E+01 7.88364E+00 5.37998E-08 2.52899E-02-9.32891E-02 2.05400E-03
 -1      1976-1.32999E+01 8.15080E+00 4.42507E-08 2.53392E-02-7.73612E-02 2.04153E-03
 -1      1977-1.37435E+01 8.42481E+00 3.23457E-08 2.55563E-02-6.15318E-02 2.02865E-03
 -1      1978-1.41834E+01 8.69200E+00 1.95136E-08 2.56655E-02-4.58043E-02 2.01534E-03
 -1      1979-1.46262E+01 8.96312E+00 5.57473E-09 2.54315E-02-3.01819E-02 2.00162E-03
 -1      1980-1.50733E+01 9.24003E+00-1.03952E-08 2.55588E-02-1.46679E-02 1.98746E-03
 -1      1981-1.55153E+01 9.50866E+00-2.70411E-08 2.55682E-02 7.34365E-04 1.97289E-03
 -1      1982-1.59610E+01 9.78357E+00-4.37453E-08 2.56307E-02 1.60216E-02 1.95789E-03
 -1      1983-1.64031E+01 1.00527E+01-5.93874E-08 2.56409E-02 3.11906E-02 1.94248E-03
 -1      1984-1.68467E+01 1.03249E+01-7.86176E-08 2.54871E-02 4.62379E-02 1.92663E-03
 -1      1985-1.72906E+01 1.05983E+01-9.62874E-08 2.53746E-02 6.11604E-02 1.91037E-03
 -1      1986-1.77305E+01 1.08670E+01-1.10800E-07 2.53947E-02 7.59548E-02 1.89368E-03
 -1      1987-1.81700E+01 1.11363E+01-1.27594E-07 2.52631E-02 9.06177E-02 1.87658E-03
 -1      1988-1.86094E+01 1.14067E+01-1.47586E-07 2.52497E-02 1.05146E-01 1.85905E-03
 -1      1989-1.90436E+01 1.16716E+01-1.67854E-07 2.51006E-02 1.19536E-01 1.84111E-03
 -1      1990-1.94759E+01 1.19357E+01-1.83733E-07 2.48095E-02 1.33786E-01 1.82276E-03
 -1      1991-1.99106E+01 1.22057E+01-1.92990E-07 2.47564E-02 1.47890E-01 1.80399E-03
 -1      1992-2.03349E+01 1.24620E+01-1.97389E-07 2.46702E-02 1.61848E-01 1.78482E-03
 -1      1993-2.07613E+01 1.27253E+01-1.99212E-07 2.43014E-02 1.75654E-01 1.76524E-03
 -1      1994-2.11817E+01 1.29826E+01-1.98804E-07 2.41950E-02 1.89307E-01 1.74525E-03
 -1      1995-2.15984E+01 1.32368E+01-1.98772E-07 2.39538E-02 2.02803E-01 1.72487E-03
 -1      1996-2.20146E+01 1.34945E+01-1.91970E-07 2.35474E-02 2.16138E-01 1.70409E-03
 -1      1997-2.24205E+01 1.37408E+01-1.72024E-07 2.34588E-02 2.29311E-01 1.68292E-03
 -1      1998-2.28285E+01 1.39934E+01-1.43274E-07 2.32736E-02 2.42317E-01 1.66136E-03
 -1      1999-2.32255E+01 1.42343E+01-1.13068E-07 2.29402E-02 2.55154E-01 1.63942E-03
 -1      2000-2.36199E+01 1.44760E+01-8.57402E-08 2.25519E-02 2.67819E-01 1.61710E-03
 -1      2001-2.40120E+01 1.47187E+01-5.70009E-08 2.21563E-02 2.80309E-01 1.59440E-03
 -1      2002-2.43939E+01 1.49505E+01-2.45616E-08 2.20507E-02 2.92621E-01 1.57134E-03
 -1      2003-2.47746E+01 1.51864E+01 2.63757E-09 2.15482E-02 3.04752E-01 1.54792E-03
 -1      2004-2.51433E+01 1.54093E+01 1.93980E-08 2.14701E-02 3.16700E-01 1.52413E-03
 -1      2005-2.55105E+01 1.56361E+01 3.19601E-08 2.07089E-02 3.28461E-01 1.50000E-03
 -1      2006-2.58707E+01 1.58568E+01 4.03404E-08 2.07960E-02 3.40033E-01 1.47552E-03
 -1      2007-2.62219E+01 1.60708E+01 4.36771E-08 1.98132E-02 3.51414E-01 1.45070E-03
 -1      2008-2.65685E+01 1.62850E+01 4.76554E-08 1.96967E-02 3.62600E-01 1.42555E-03
 -1      2009-2.69084E+01 1.64937E+01 5.77045E-08 1.93969E-02 3.73589E-01 1.40007E-03
 -1      2010-2.72372E+01 1.66933E+01 7.19084E-08 1.89158E-02 3.84379E-01 1.37427E-03
 -1      2011-2.75600E+01 1.68907E+01 8.52888E-08 1.83741E-02 3.94966E-01 1.34817E-03
 -1      2012-2.78788E+01 1.70890E+01 9.22066E-08 1.77925E-02 4.05350E-01 1.32175E-03
 -1      2013-2.81842E+01 1.72736E+01 9.09012E-08 1.76177E-02 4.15527E-01 1.29504E-03
 -1      2014-2.84865E+01 1.74616E+01 9.36711E-08 1.69475E-02 4.25495E-01 1.26804E-03
 -1      2015-2.87735E+01 1.76344E+01 8.71904E-08 1.66668E-02 4.35252E-01 1.24076E-03
 -1      2016-2.90570E+01 1.78085E+01 6.17442E-08 1.60095E-02 4.44796E-01 1.21321E-03
 -1      2017-2.93337E+01 1.79808E+01 4.55898E-08 1.53009E-02 4.54124E-01 1.18539E-03
 -1      2018-2.95946E+01 1.81377E+01 4.29266E-08 1.50414E-02 4.63235E-01 1.15731E-03
 -1      2019-2.98548E+01 1.83017E+01 3.33892E-08 1.44475E-02 4.72127E-01 1.12899E-03
 -1      2020-3.00956E+01 1.84438E+01 5.85814E-09 1.44244E-02 4.80798E-01 1.10043E-03
 -1      2021-3.03325E+01 1.85891E+01-3.59922E-08 1.29206E-02 4.89245E-01 1.07164E-03
 -1      2022-3.05646E+01 1.87369E+01-8.18683E-08 1.26818E-02 4.97468E-01 1.04262E-03
 -1      2023-3.07769E+01 1.88622E+01-1.24896E-07 1.22152E-02 5.05464E-01 1.01340E-03
 -1      2024-3.09881E+01 1.89950E+01-1.61159E-07 1.17519E-02 5.13232E-01 9.83968E-04
 -1      2025-3.11819E+01 1.91110E+01-1.89116E-07 1.11291E-02 5.20770E-01 9.54348E-04
 -1      2026-3.13673E+01 1.92240E+01-2.11948E-07 1.03294E-02 5.28077E-01 9.24545E-04
 -1      2027-3.15480E+01 1.93382E+01-2.22666E-07 9.84635E-03 5.35152E-01 8.94569E-04
 -1      2028-3.17113E+01 1.94361E+01-2.06445E-07 9.12823E-03 5.41993E-01 8.64429E-04
 -1      2029-3.18656E+01 1.95306E+01-1.70967E-07 8.67324E-03 5.48599E-01 8.34138E-04
 -1      2030-3.20121E+01 1.96225E+01-1.28690E-07 7.93890E-03 5.54969E-01 8.03703E-04
 -1      2031-3.21425E+01 1.96998E+01-9.45561E-08 7.63923E-03 5.61101E-01 7.73138E-04
 -1      2032-3.22640E+01 1.97734E+01-8.18265E-08 6.47475E-03 5.66995E-01 7.42451E-04
 -1      2033-3.23796E+01 1.98495E+01-6.61791E-08 5.97290E-03 5.72650E-01 7.11652E-04
 -1      2034-3.24734E+01 1.99013E+01-3.36932E-08 5.65657E-03 5.78066E-01 6.80754E-04
 -1      2035-3.25651E+01 1.99604E+01 4.16869E-09 4.63425E-03 5.83240E-01 6.49766E-04
 -1      2036-3.26409E+01 2.00067E+01 4.09981E-08 4.08639E-03 5.88174E-01 6.18699E-04
 -1      2037-3.27026E+01 2.00421E+01 8.00325E-08 3.27907E-03 5.92865E-01 5.87567E-04
 -1      2038-3.27611E+01 2.00821E+01 1.24056E-07 2.71940E-03 5.97314E-01 5.56377E-04
 -1      2039-3.27988E+01 2.01020E+01 1.46711E-07 1.90160E-03 6.01520E-01 5.25142E-04
 -1      2040-3.28311E+01 2.01247E+01 1.48196E-07 1.49089E-03 6.05483E-01 4.93874E-04
 -1      2041-3.28449E+01 2.01299E+01 1.41300E-07 7.02135E-04 6.09203E-01 4.62584E-04
 -1      2042-3.28511E+01 2.01339E+01 1.20726E-07 4.98763E-06 6.12679E-01 4.31284E-04
 -1      2043-3.28478E+01 2.01351E+01 1.09565E-07-1.03278E-03 6.15912E-01 3.99982E-04
 -1      2044-3.28246E+01 2.01175E+01 1.12176E-07-1.35708E-03 6.18901E-01 3.68694E-04
 -1      2045-3.27971E+01 2.01047E+01 1.17373E-07-2.03252E-03 6.21647E-01 3.37434E-04
 -1      2046-3.27511E+01 2.00716E+01 1.35121E-07-2.73239E-03 6.24150E-01 3.06212E-04
 -1      2047-3.26960E+01 2.00406E+01 1.64584E-07-3.69210E-03 6.26411E-01 2.75033E-04
 -1      2048-3.26286E+01 1.99991E+01 1.82254E-07-4.11607E-03 6.28429E-01 2.43908E-04
 -1      2049-3.25461E+01 1.99466E+01 1.85539E-07-5.17880E-03 6.30205E-01 2.12855E-04
 -1      2050-3.24557E+01 1.98941E+01 1.98183E-07-5.85208E-03 6.31740E-01 1.81884E-04
 -1      2051-3.23501E+01 1.98292E+01 2.22145E-07-6.39220E-03 6.33035E-01 1.51008E-04
 -1      2052-3.22292E+01 1.97529E+01 2.44654E-07-7.02010E-03 6.34090E-01 1.20239E-04
 -1      2053-3.20990E+01 1.96727E+01 2.56878E-07-7.94262E-03 6.34905E-01 8.95883E-05
 -1      2054-3.19596E+01 1.95910E+01 2.65296E-07-8.81518E-03 6.35483E-01 5.90676E-05
 -1      2055-3.17993E+01 1.94890E+01 2.81642E-07-9.33987E-03 6.35825E-01 2.86898E-05
 -1      2056-3.16355E+01 1.93921E+01 2.81799E-07-9.91719E-03 6.35930E-01-1.53364E-06
 -1      2057-3.14510E+01 1.92757E+01 2.45975E-07-1.07716E-02 6.35801E-01-3.15911E-05
 -1      2058-3.12570E+01 1.91568E+01 1.76977E-07-1.15292E-02 6.35439E-01-6.14695E-05
 -1      2059-3.10541E+01 1.90353E+01 9.14490E-08-1.24682E-02 6.34846E-01-9.11581E-05
 -1      2060-3.08345E+01 1.88995E+01 3.21004E-08-1.27995E-02 6.34022E-01-1.20645E-04
 -1      2061-3.06042E+01 1.87588E+01 9.85104E-09-1.35383E-02 6.32969E-01-1.49918E-04
 -1      2062-3.03562E+01 1.86034E+01-3.14316E-09-1.44162E-02 6.31690E-01-1.78965E-04
 -1      2063-3.01036E+01 1.84517E+01-1.70162E-08-1.52450E-02 6.30186E-01-2.07773E-04
 -1      2064-2.98360E+01 1.82882E+01-2.85179E-08-1.59988E-02 6.28459E-01-2.36331E-04
 -1      2065-2.95530E+01 1.81135E+01-3.95666E-08-1.65354E-02 6.26511E-01-2.64628E-04
 -1      2066-2.92596E+01 1.79336E+01-4.54614E-08-1.72853E-02 6.24343E-01-2.92650E-04
 -1      2067-2.89561E+01 1.77493E+01-3.82701E-08-1.78990E-02 6.21959E-01-3.20388E-04
 -1      2068-2.86353E+01 1.75503E+01-1.17205E-08-1.86009E-02 6.19361E-01-3.47829E-04
 -1      2069-2.83044E+01 1.73472E+01 3.13198E-08-1.94635E-02 6.16549E-01-3.74959E-04
 -1      2070-2.79649E+01 1.71420E+01 7.30436E-08-2.02464E-02 6.13529E-01-4.01769E-04
 -1      2071-2.76081E+01 1.69208E+01 9.32870E-08-2.06871E-02 6.10301E-01-4.28247E-04
 -1      2072-2.72440E+01 1.67002E+01 8.98345E-08-2.15314E-02 6.06868E-01-4.54382E-04
 -1      2073-2.68612E+01 1.64623E+01 6.65928E-08-2.20502E-02 6.03234E-01-4.80161E-04
 -1      2074-2.64730E+01 1.62263E+01 3.99892E-08-2.28703E-02 5.99400E-01-5.05574E-04
 -1      2075-2.60710E+01 1.59800E+01 2.01538E-08-2.35236E-02 5.95370E-01-5.30609E-04
 -1      2076-2.56539E+01 1.57222E+01-1.89026E-09-2.43158E-02 5.91147E-01-5.55255E-04
 -1      2077-2.52324E+01 1.54682E+01-1.93981E-08-2.49883E-02 5.86734E-01-5.79500E-04
 -1      2078-2.47910E+01 1.51937E+01-2.44965E-08-2.53107E-02 5.82134E-01-6.03334E-04
 -1      2079-2.43426E+01 1.49194E+01-2.48292E-08-2.63881E-02 5.77350E-01-6.26746E-04
 -1      2080-2.38836E+01 1.46400E+01-3.34439E-08-2.69694E-02 5.72386E-01-6.49723E-04
 -1      2081-2.34103E+01 1.43481E+01-4.99805E-08-2.74064E-02 5.67245E-01-6.72257E-04
 -1      2082-2.29293E+01 1.40552E+01-5.84696E-08-2.82491E-02 5.61930E-01-6.94336E-04
 -1      2083-2.24325E+01 1.37487E+01-6.23186E-08-2.86257E-02 5.56445E-01-7.15950E-04
 -1      2084-2.19272E+01 1.34389E+01-7.16654E-08-2.95530E-02 5.50794E-01-7.37087E-04
 -1      2085-2.14137E+01 1.31262E+01-7.14225E-08-3.00653E-02 5.44981E-01-7.57737E-04
 -1      2086-2.08855E+01 1.28012E+01-6.29448E-08-3.07370E-02 5.39009E-01-7.77892E-04
 -1      2087-2.03473E+01 1.24708E+01-7.72927E-08-3.12181E-02 5.32882E-01-7.97538E-04
 -1      2088-1.98017E+01 1.21389E+01-1.17426E-07-3.19513E-02 5.26604E-01-8.16668E-04
 -1      2089-1.92402E+01 1.17914E+01-1.49673E-07-3.21229E-02 5.20180E-01-8.35272E-04
 -1      2090-1.86714E+01 1.14428E+01-1.61275E-07-3.33656E-02 5.13613E-01-8.53337E-04
 -1      2091-1.80953E+01 1.10930E+01-1.56924E-07-3.37533E-02 5.06907E-01-8.70854E-04
 -1      2092-1.75042E+01 1.07281E+01-1.36569E-07-3.41456E-02 5.00068E-01-8.87816E-04
 -1      2093-1.69072E+01 1.03640E+01-1.02430E-07-3.48505E-02 4.93098E-01-9.04213E-04
 -1      2094-1.62966E+01 9.98802E+00-6.53635E-08-3.52230E-02 4.86004E-01-9.20034E-04
 -1      2095-1.56784E+01 9.60914E+00-4.03885E-08-3.59940E-02 4.78788E-01-9.35270E-04
 -1      2096-1.50527E+01 9.22717E+00-3.44928E-08-3.64506E-02 4.71457E-01-9.49912E-04
 -1      2097-1.44143E+01 8.83460E+00-4.48052E-08-3.70062E-02 4.64014E-01-9.63952E-04
 -1      2098-1.37689E+01 8.44010E+00-4.94934E-08-3.74837E-02 4.56464E-01-9.77380E-04
 -1      2099-1.31128E+01 8.03683E+00-4.27179E-08-3.79071E-02 4.48812E-01-9.90190E-04
 -1      2100-1.24488E+01 7.62984E+00-4.75033E-08-3.86182E-02 4.41063E-01-1.00237E-03
 -1      2101-1.17769E+01 7.21908E+00-5.68688E-08-3.90418E-02 4.33221E-01-1.01391E-03
 -1      2102-1.10950E+01 6.80065E+00-5.64956E-08-3.95196E-02 4.25293E-01-1.02481E-03
 -1      2103-1.04056E+01 6.37823E+00-6.33377E-08-3.98664E-02 4.17282E-01-1.03505E-03
 -1      2104-9.70648E+00 5.94873E+00-8.30214E-08-4.05226E-02 4.09194E-01-1.04464E-03
 -1      2105-9.00104E+00 5.51729E+00-1.07721E-07-4.09745E-02 4.01034E-01-1.05355E-03
 -1      2106-8.28736E+00 5.08007E+00-1.37848E-07-4.14005E-02 3.92807E-01-1.06179E-03
 -1      2107-7.56512E+00 4.63694E+00-1.69838E-07-4.17904E-02 3.84519E-01-1.06934E-03
 -1      2108-6.83581E+00 4.19007E+00-1.88347E-07-4.22585E-02 3.76175E-01-1.07621E-03
 -1      2109-6.09902E+00 3.73864E+00-1.90492E-07-4.26720E-02 3.67780E-01-1.08237E-03
 -1      2110-5.35462E+00 3.28206E+00-1.85448E-07-4.30385E-02 3.59340E-01-1.08783E-03
 -1      2111-4.60334E+00 2.82152E+00-1.68547E-07-4.35431E-02 3.50861E-01-1.09257E-03
 -1      2112-3.84555E+00 2.35754E+00-1.38143E-07-4.38836E-02 3.42347E-01-1.09660E-03
 -1      2113-3.08027E+00 1.88812E+00-1.05998E-07-4.42702E-02 3.33805E-01-1.09990E-03
 -1      2114-2.30889E+00 1.41553E+00-8.06555E-08-4.46314E-02 3.25239E-01-1.10247E-03
 -1      2115-1.53079E+00 9.38490E-01-6.11707E-08-4.50208E-02 3.16657E-01-1.10430E-03
 -1      2116-7.46460E-01 4.57743E-01-4.10580E-08-4.53748E-02 3.08064E-01-1.10538E-03
 -1      2117 4.37274E-02-2.64574E-02-1.42121E-08-4.57309E-02 2.99465E-01-1.10572E-03
 -1      2118 8.40034E-01-5.14526E-01 1.75108E-08-4.60538E-02 2.90866E-01-1.10530E-03
 -1      2119 1.64231E+00-1.00648E+00 5.41944E-08-4.63699E-02 2.82273E-01-1.10411E-03
 -1      2120 2.44954E+00-1.50095E+00 9.62517E-08-4.67118E-02 2.73693E-01-1.10217E-03
 -1      2121 3.26265E+00-1.99931E+00 1.38682E-07-4.70149E-02 2.65131E-01-1.09944E-03
 -1      2122 4.08121E+00-2.50133E+00 1.72449E-07-4.72570E-02 2.56593E-01-1.09594E-03
 -1      2123 4.90417E+00-3.00537E+00 1.87203E-07-4.75975E-02 2.48085E-01-1.09166E-03
 -1      2124 5.73292E+00-3.51389E+00 1.84091E-07-4.78313E-02 2.39614E-01-1.08659E-03
 -1      2125 6.56530E+00-4.02336E+00 1.73584E-07-4.82202E-02 2.31185E-01-1.08073E-03
 -1      2126 7.40295E+00-4.53687E+00 1.62295E-07-4.83331E-02 2.22805E-01-1.07408E-03
 -1      2127 8.24526E+00-5.05361E+00 1.52270E-07-4.86111E-02 2.14479E-01-1.06662E-03
 -1      2128 9.09139E+00-5.57198E+00 1.42860E-07-4.88940E-02 2.06215E-01-1.05836E-03
 -1      2129 9.94132E+00-6.09257E+00 1.33868E-07-4.90748E-02 1.98018E-01-1.04929E-03
 -1      2130 1.07969E+01-6.61842E+00 1.23263E-07-4.93256E-02 1.89895E-01-1.03941E-03
 -1      2131 1.16527E+01-7.14092E+00 1.05282E-07-4.97221E-02 1.81852E-01-1.02872E-03
 -1      2132 1.25145E+01-7.66905E+00 8.31401E-08-4.97050E-02 1.73895E-01-1.01720E-03
 -1      2133 1.33817E+01-8.20286E+00 5.98662E-08-4.97829E-02 1.66031E-01-1.00486E-03
 -1      2134 1.42476E+01-8.73156E+00 3.67781E-08-5.01445E-02 1.58266E-01-9.91696E-04
 -1      2135 1.51212E+01-9.26876E+00 1.99932E-08-5.03259E-02 1.50607E-01-9.77703E-04
 -1      2136 1.59937E+01-9.80173E+00 1.14304E-08-5.05239E-02 1.43060E-01-9.62879E-04
 -1      2137 1.68708E+01-1.03394E+01 6.00467E-09-5.06015E-02 1.35631E-01-9.47220E-04
 -1      2138 1.77524E+01-1.08813E+01 5.51675E-10-5.06651E-02 1.28328E-01-9.30722E-04
 -1      2139 1.86334E+01-1.14198E+01-5.19253E-09-5.09669E-02 1.21156E-01-9.13386E-04
 -1      2140 1.95202E+01-1.19650E+01-1.05448E-08-5.10012E-02 1.14122E-01-8.95208E-04
 -1      2141 2.04049E+01-1.25055E+01-1.36114E-08-5.13087E-02 1.07233E-01-8.76186E-04
 -1      2142 2.12936E+01-1.30496E+01-1.38356E-08-5.12455E-02 1.00495E-01-8.56317E-04
 -1      2143 2.21888E+01-1.36018E+01-1.27097E-08-5.12914E-02 9.39144E-02-8.35599E-04
 -1      2144 2.30781E+01-1.41430E+01-1.30731E-08-5.17448E-02 8.74987E-02-8.14032E-04
 -1      2145 2.39742E+01-1.46941E+01-1.44645E-08-5.13927E-02 8.12540E-02-7.91613E-04
 -1      2146 2.48709E+01-1.52437E+01-1.54411E-08-5.19263E-02 7.51870E-02-7.68340E-04
 -1      2147 2.57671E+01-1.57913E+01-1.55038E-08-5.15775E-02 6.93044E-02-7.44213E-04
 -1      2148 2.66690E+01-1.63468E+01-1.37714E-08-5.18389E-02 6.36127E-02-7.19229E-04
 -1      2149 2.75675E+01-1.68959E+01-1.18177E-08-5.17875E-02 5.81187E-02-6.93387E-04
 -1      2150 2.84698E+01-1.74487E+01-1.06635E-08-5.21799E-02 5.28290E-02-6.66687E-04
 -1      2151 2.93743E+01-1.80052E+01-8.56982E-09-5.17709E-02 4.77503E-02-6.39127E-04
 -1      2152 3.02750E+01-1.85543E+01-5.33362E-09-5.25424E-02 4.28893E-02-6.10707E-04
 -1      2153 3.11786E+01-1.91081E+01-2.27217E-09-5.17513E-02 3.82528E-02-5.81426E-04
 -1      2154 3.20886E+01-1.96689E+01 1.05088E-10-5.24291E-02 3.38473E-02-5.51281E-04
 -1      2155 3.29906E+01-2.02194E+01 2.15222E-09-5.17415E-02 2.96796E-02-5.20274E-04
 -1      2156 3.39000E+01-2.07783E+01 4.06418E-09-5.27565E-02 2.57564E-02-4.88403E-04
 -1      2157 3.48048E+01-2.13328E+01 5.53390E-09-5.18882E-02 2.20845E-02-4.55668E-04
 -1      2158 3.57117E+01-2.18846E+01 6.85957E-09-5.32934E-02 1.86705E-02-4.22069E-04
 -1      2159 3.66196E+01-2.24455E+01 9.16374E-09-5.08922E-02 1.55213E-02-3.87604E-04
 -1      2160 3.75311E+01-2.30026E+01 1.22303E-08-5.35959E-02 1.26434E-02-3.52274E-04
 -1      2161 3.84363E+01-2.35602E+01 1.59311E-08-5.06640E-02 1.00437E-02-3.16079E-04
 -1      2162 3.93496E+01-2.41163E+01 2.01371E-08-5.47984E-02 7.72884E-03-2.79018E-04
 -1      2163 4.02424E+01-2.46591E+01 2.45082E-08-4.94306E-02 5.70566E-03-2.41092E-04
 -1      2164 4.11891E+01-2.52648E+01 2.89844E-08-5.52384E-02 3.98077E-03-2.02298E-04
 -1      2165 4.20029E+01-2.56734E+01 3.33398E-08-5.10499E-02 2.56103E-03-1.62640E-04
 -1      2166 4.32140E+01-2.67479E+01 3.77125E-08-4.44990E-02 1.45302E-03-1.22111E-04
 -1      2167 4.30636E+01-2.54297E+01 4.12210E-08-9.71984E-02 6.63671E-04-8.07349E-05
 -1      2168 4.77932E+01-3.28289E+01 5.12164E-08 1.31407E-01 1.99560E-04-3.84197E-05
 -1      2169 3.12458E+01-6.06411E+00 5.99589E-08-7.08829E-01 4.93967E-05-1.69954E-05
 -1      2170-1.92272E-03 3.13500E-04-1.50369E-08-2.08072E-04 8.74199E-01-2.26239E-03
 -1      2171-1.07766E-02 5.79109E-03-3.05639E-08 1.00983E-03 8.65401E-01-2.26238E-03
 -1      2172-3.65120E-02 2.15341E-02-5.04566E-08 1.96926E-03 8.47804E-01-2.26236E-03
 -1      2173-7.90602E-02 4.76788E-02-4.20020E-08 2.93794E-03 8.30207E-01-2.26230E-03
 -1      2174-1.37998E-01 8.37973E-02-6.93884E-09 3.86566E-03 8.12611E-01-2.26220E-03
 -1      2175-2.12947E-01 1.29718E-01 3.85548E-08 4.78815E-03 7.95016E-01-2.26203E-03
 -1      2176-3.03793E-01 1.85472E-01 8.14442E-08 5.68190E-03 7.77423E-01-2.26178E-03
 -1      2177-4.09820E-01 2.50444E-01 1.13877E-07 6.54794E-03 7.59832E-01-2.26144E-03
 -1      2178-5.30975E-01 3.24682E-01 1.35191E-07 7.42328E-03 7.42244E-01-2.26099E-03
 -1      2179-6.66959E-01 4.08229E-01 1.46486E-07 8.23687E-03 7.24660E-01-2.26042E-03
 -1      2180-8.16690E-01 4.99619E-01 1.34452E-07 9.08573E-03 7.07081E-01-2.25972E-03
 -1      2181-9.81372E-01 6.01033E-01 1.02457E-07 9.83830E-03 6.89508E-01-2.25886E-03
 -1      2182-1.15876E+00 7.09456E-01 7.07685E-08 1.06479E-02 6.71942E-01-2.25784E-03
 -1      2183-1.34988E+00 8.26663E-01 4.30040E-08 1.13699E-02 6.54385E-01-2.25664E-03
 -1      2184-1.55448E+00 9.52584E-01 1.46438E-08 1.21708E-02 6.36838E-01-2.25526E-03
 -1      2185-1.76975E+00 1.08330E+00-3.59973E-09 1.28441E-02 6.19303E-01-2.25368E-03
 -1      2186-1.99997E+00 1.22576E+00-3.36815E-09 1.35020E-02 6.01780E-01-2.25188E-03
 -1      2187-2.24007E+00 1.37219E+00 1.62290E-08 1.42573E-02 5.84273E-01-2.24986E-03
 -1      2188-2.49245E+00 1.52709E+00 4.86244E-08 1.48002E-02 5.66782E-01-2.24760E-03
 -1      2189-2.75642E+00 1.68922E+00 7.55552E-08 1.56032E-02 5.49309E-01-2.24510E-03
 -1      2190-3.02977E+00 1.85584E+00 9.38004E-08 1.60517E-02 5.31857E-01-2.24235E-03
 -1      2191-3.31569E+00 2.03210E+00 1.03206E-07 1.67607E-02 5.14428E-01-2.23932E-03
 -1      2192-3.61040E+00 2.21220E+00 1.13337E-07 1.72579E-02 4.97023E-01-2.23602E-03
 -1      2193-3.91543E+00 2.39952E+00 1.32845E-07 1.78608E-02 4.79645E-01-2.23244E-03
 -1      2194-4.22963E+00 2.59176E+00 1.38307E-07 1.84326E-02 4.62296E-01-2.22856E-03
 -1      2195-4.55309E+00 2.79002E+00 1.15549E-07 1.88566E-02 4.44978E-01-2.22437E-03
 -1      2196-4.88576E+00 2.99422E+00 7.53927E-08 1.94209E-02 4.27694E-01-2.21987E-03
 -1      2197-5.22672E+00 3.20329E+00 2.33292E-08 1.98631E-02 4.10446E-01-2.21506E-03
 -1      2198-5.57509E+00 3.41642E+00-2.63736E-08 2.03859E-02 3.93237E-01-2.20991E-03
 -1      2199-5.93173E+00 3.63496E+00-6.10980E-08 2.07351E-02 3.76069E-01-2.20443E-03
 -1      2200-6.29660E+00 3.85919E+00-8.93974E-08 2.12069E-02 3.58946E-01-2.19860E-03
 -1      2201-6.66726E+00 4.08587E+00-1.16231E-07 2.15616E-02 3.41869E-01-2.19242E-03
 -1      2202-7.04574E+00 4.31844E+00-1.43542E-07 2.19933E-02 3.24841E-01-2.18589E-03
 -1      2203-7.42950E+00 4.55290E+00-1.61313E-07 2.23876E-02 3.07866E-01-2.17899E-03
 -1      2204-7.82044E+00 4.79295E+00-1.55689E-07 2.26317E-02 2.90945E-01-2.17173E-03
 -1      2205-8.21678E+00 5.03599E+00-1.38692E-07 2.30569E-02 2.74083E-01-2.16408E-03
 -1      2206-8.61764E+00 5.28088E+00-1.26029E-07 2.32328E-02 2.57281E-01-2.15606E-03
 -1      2207-9.02613E+00 5.53288E+00-1.14368E-07 2.36061E-02 2.40544E-01-2.14765E-03
 -1      2208-9.43620E+00 5.78278E+00-1.01629E-07 2.38859E-02 2.23873E-01-2.13886E-03
 -1      2209-9.85211E+00 6.03781E+00-8.95271E-08 2.40574E-02 2.07273E-01-2.12967E-03
 -1      2210-1.02731E+01 6.29675E+00-7.71669E-08 2.42815E-02 1.90745E-01-2.12008E-03
 -1      2211-1.06965E+01 6.55562E+00-7.18480E-08 2.45599E-02 1.74293E-01-2.11009E-03
 -1      2212-1.11237E+01 6.81752E+00-7.01715E-08 2.46832E-02 1.57921E-01-2.09969E-03
 -1      2213-1.15546E+01 7.08223E+00-6.98345E-08 2.48920E-02 1.41631E-01-2.08889E-03
 -1      2214-1.19870E+01 7.34639E+00-6.93623E-08 2.51551E-02 1.25427E-01-2.07767E-03
 -1      2215-1.24226E+01 7.61320E+00-6.31336E-08 2.50695E-02 1.09312E-01-2.06604E-03
 -1      2216-1.28617E+01 7.88364E+00-5.37998E-08 2.52899E-02 9.32890E-02-2.05399E-03
 -1      2217-1.32999E+01 8.15080E+00-4.42507E-08 2.53391E-02 7.73611E-02-2.04153E-03
 -1      2218-1.37435E+01 8.42481E+00-3.23457E-08 2.55563E-02 6.15317E-02-2.02864E-03
 -1      2219-1.41834E+01 8.69200E+00-1.95136E-08 2.56654E-02 4.58043E-02-2.01534E-03
 -1      2220-1.46262E+01 8.96312E+00-5.57473E-09 2.54314E-02 3.01819E-02-2.00161E-03
 -1      2221-1.50733E+01 9.24003E+00 1.03952E-08 2.55588E-02 1.46680E-02-1.98746E-03
 -1      2222-1.55153E+01 9.50866E+00 2.70411E-08 2.55682E-02-7.34181E-04-1.97289E-03
 -1      2223-1.59610E+01 9.78357E+00 4.37453E-08 2.56307E-02-1.60214E-02-1.95789E-03
 -1      2224-1.64031E+01 1.00527E+01 5.93874E-08 2.56408E-02-3.11903E-02-1.94247E-03
 -1      2225-1.68467E+01 1.03249E+01 7.86176E-08 2.54871E-02-4.62375E-02-1.92663E-03
 -1      2226-1.72906E+01 1.05983E+01 9.62874E-08 2.53745E-02-6.11599E-02-1.91036E-03
 -1      2227-1.77305E+01 1.08670E+01 1.10800E-07 2.53947E-02-7.59543E-02-1.89368E-03
 -1      2228-1.81700E+01 1.11363E+01 1.27594E-07 2.52631E-02-9.06172E-02-1.87657E-03
 -1      2229-1.86094E+01 1.14067E+01 1.47586E-07 2.52496E-02-1.05145E-01-1.85905E-03
 -1      2230-1.90436E+01 1.16716E+01 1.67854E-07 2.51006E-02-1.19536E-01-1.84111E-03
 -1      2231-1.94759E+01 1.19357E+01 1.83733E-07 2.48095E-02-1.33785E-01-1.82276E-03
 -1      2232-1.99106E+01 1.22057E+01 1.92990E-07 2.47563E-02-1.47890E-01-1.80400E-03
 -1      2233-2.03349E+01 1.24620E+01 1.97389E-07 2.46702E-02-1.61847E-01-1.78482E-03
 -1      2234-2.07613E+01 1.27253E+01 1.99212E-07 2.43014E-02-1.75654E-01-1.76524E-03
 -1      2235-2.11817E+01 1.29826E+01 1.98804E-07 2.41950E-02-1.89306E-01-1.74526E-03
 -1      2236-2.15984E+01 1.32368E+01 1.98772E-07 2.39538E-02-2.02802E-01-1.72488E-03
 -1      2237-2.20146E+01 1.34945E+01 1.91970E-07 2.35475E-02-2.16138E-01-1.70410E-03
 -1      2238-2.24205E+01 1.37408E+01 1.72024E-07 2.34589E-02-2.29310E-01-1.68293E-03
 -1      2239-2.28285E+01 1.39934E+01 1.43274E-07 2.32737E-02-2.42317E-01-1.66137E-03
 -1      2240-2.32255E+01 1.42343E+01 1.13068E-07 2.29403E-02-2.55154E-01-1.63943E-03
 -1      2241-2.36199E+01 1.44760E+01 8.57402E-08 2.25519E-02-2.67819E-01-1.61711E-03
 -1      2242-2.40120E+01 1.47187E+01 5.70009E-08 2.21564E-02-2.80309E-01-1.59442E-03
 -1      2243-2.43939E+01 1.49505E+01 2.45616E-08 2.20508E-02-2.92621E-01-1.57135E-03
 -1      2244-2.47746E+01 1.51864E+01-2.63757E-09 2.15482E-02-3.04752E-01-1.54793E-03
 -1      2245-2.51433E+01 1.54093E+01-1.93980E-08 2.14701E-02-3.16699E-01-1.52415E-03
 -1      2246-2.55105E+01 1.56361E+01-3.19601E-08 2.07089E-02-3.28461E-01-1.50001E-03
 -1      2247-2.58707E+01 1.58568E+01-4.03404E-08 2.07960E-02-3.40033E-01-1.47553E-03
 -1      2248-2.62219E+01 1.60708E+01-4.36771E-08 1.98132E-02-3.51413E-01-1.45071E-03
 -1      2249-2.65685E+01 1.62850E+01-4.76554E-08 1.96967E-02-3.62600E-01-1.42556E-03
 -1      2250-2.69084E+01 1.64937E+01-5.77045E-08 1.93969E-02-3.73589E-01-1.40008E-03
 -1      2251-2.72372E+01 1.66933E+01-7.19084E-08 1.89159E-02-3.84379E-01-1.37428E-03
 -1      2252-2.75600E+01 1.68907E+01-8.52888E-08 1.83741E-02-3.94966E-01-1.34818E-03
 -1      2253-2.78788E+01 1.70890E+01-9.22066E-08 1.77925E-02-4.05350E-01-1.32176E-03
 -1      2254-2.81842E+01 1.72736E+01-9.09012E-08 1.76176E-02-4.15527E-01-1.29505E-03
 -1      2255-2.84865E+01 1.74616E+01-9.36711E-08 1.69475E-02-4.25495E-01-1.26805E-03
 -1      2256-2.87735E+01 1.76344E+01-8.71904E-08 1.66667E-02-4.35252E-01-1.24077E-03
 -1      2257-2.90570E+01 1.78085E+01-6.17442E-08 1.60095E-02-4.44796E-01-1.21322E-03
 -1      2258-2.93337E+01 1.79808E+01-4.55898E-08 1.53009E-02-4.54124E-01-1.18540E-03
 -1      2259-2.95946E+01 1.81377E+01-4.29266E-08 1.50414E-02-4.63236E-01-1.15732E-03
 -1      2260-2.98548E+01 1.83017E+01-3.33892E-08 1.44475E-02-4.72127E-01-1.12900E-03
 -1      2261-3.00956E+01 1.84438E+01-5.85814E-09 1.44243E-02-4.80798E-01-1.10043E-03
 -1      2262-3.03325E+01 1.85891E+01 3.59922E-08 1.29204E-02-4.89245E-01-1.07164E-03
 -1      2263-3.05646E+01 1.87369E+01 8.18683E-08 1.26817E-02-4.97468E-01-1.04263E-03
 -1      2264-3.07769E+01 1.88622E+01 1.24896E-07 1.22151E-02-5.05464E-01-1.01340E-03
 -1      2265-3.09881E+01 1.89950E+01 1.61159E-07 1.17518E-02-5.13232E-01-9.83976E-04
 -1      2266-3.11819E+01 1.91110E+01 1.89116E-07 1.11290E-02-5.20770E-01-9.54357E-04
 -1      2267-3.13673E+01 1.92240E+01 2.11948E-07 1.03294E-02-5.28077E-01-9.24556E-04
 -1      2268-3.15480E+01 1.93382E+01 2.22666E-07 9.84635E-03-5.35152E-01-8.94581E-04
 -1      2269-3.17113E+01 1.94361E+01 2.06445E-07 9.12832E-03-5.41993E-01-8.64442E-04
 -1      2270-3.18656E+01 1.95306E+01 1.70967E-07 8.67336E-03-5.48599E-01-8.34152E-04
 -1      2271-3.20122E+01 1.96225E+01 1.28690E-07 7.93903E-03-5.54969E-01-8.03719E-04
 -1      2272-3.21425E+01 1.96998E+01 9.45561E-08 7.63929E-03-5.61102E-01-7.73154E-04
 -1      2273-3.22640E+01 1.97734E+01 8.18265E-08 6.47477E-03-5.66996E-01-7.42468E-04
 -1      2274-3.23796E+01 1.98495E+01 6.61791E-08 5.97299E-03-5.72651E-01-7.11669E-04
 -1      2275-3.24734E+01 1.99013E+01 3.36932E-08 5.65668E-03-5.78066E-01-6.80771E-04
 -1      2276-3.25651E+01 1.99604E+01-4.16869E-09 4.63436E-03-5.83241E-01-6.49783E-04
 -1      2277-3.26409E+01 2.00067E+01-4.09981E-08 4.08650E-03-5.88174E-01-6.18717E-04
 -1      2278-3.27026E+01 2.00421E+01-8.00325E-08 3.27920E-03-5.92866E-01-5.87584E-04
 -1      2279-3.27611E+01 2.00821E+01-1.24056E-07 2.71952E-03-5.97315E-01-5.56394E-04
 -1      2280-3.27988E+01 2.01020E+01-1.46711E-07 1.90161E-03-6.01521E-01-5.25158E-04
 -1      2281-3.28311E+01 2.01247E+01-1.48196E-07 1.49089E-03-6.05484E-01-4.93889E-04
 -1      2282-3.28449E+01 2.01299E+01-1.41300E-07 7.02088E-04-6.09204E-01-4.62598E-04
 -1      2283-3.28511E+01 2.01339E+01-1.20726E-07 4.92229E-06-6.12680E-01-4.31297E-04
 -1      2284-3.28478E+01 2.01351E+01-1.09565E-07-1.03277E-03-6.15913E-01-3.99995E-04
 -1      2285-3.28246E+01 2.01175E+01-1.12176E-07-1.35707E-03-6.18903E-01-3.68705E-04
 -1      2286-3.27971E+01 2.01047E+01-1.17373E-07-2.03249E-03-6.21649E-01-3.37444E-04
 -1      2287-3.27511E+01 2.00716E+01-1.35121E-07-2.73230E-03-6.24152E-01-3.06222E-04
 -1      2288-3.26960E+01 2.00406E+01-1.64584E-07-3.69202E-03-6.26412E-01-2.75042E-04
 -1      2289-3.26286E+01 1.99991E+01-1.82254E-07-4.11605E-03-6.28430E-01-2.43916E-04
 -1      2290-3.25461E+01 1.99466E+01-1.85539E-07-5.17879E-03-6.30207E-01-2.12862E-04
 -1      2291-3.24557E+01 1.98941E+01-1.98183E-07-5.85202E-03-6.31742E-01-1.81889E-04
 -1      2292-3.23501E+01 1.98292E+01-2.22145E-07-6.39213E-03-6.33036E-01-1.51012E-04
 -1      2293-3.22292E+01 1.97529E+01-2.44654E-07-7.02004E-03-6.34091E-01-1.20241E-04
 -1      2294-3.20990E+01 1.96727E+01-2.56878E-07-7.94260E-03-6.34907E-01-8.95894E-05
 -1      2295-3.19596E+01 1.95910E+01-2.65296E-07-8.81513E-03-6.35485E-01-5.90671E-05
 -1      2296-3.17993E+01 1.94890E+01-2.81642E-07-9.33981E-03-6.35826E-01-2.86875E-05
 -1      2297-3.16355E+01 1.93921E+01-2.81799E-07-9.91724E-03-6.35932E-01 1.53775E-06
 -1      2298-3.14510E+01 1.92757E+01-2.45975E-07-1.07717E-02-6.35803E-01 3.15969E-05
 -1      2299-3.12570E+01 1.91568E+01-1.76977E-07-1.15295E-02-6.35441E-01 6.14766E-05
 -1      2300-3.10541E+01 1.90353E+01-9.14490E-08-1.24684E-02-6.34847E-01 9.11661E-05
 -1      2301-3.08345E+01 1.88995E+01-3.21004E-08-1.27996E-02-6.34023E-01 1.20653E-04
 -1      2302-3.06042E+01 1.87588E+01-9.85104E-09-1.35383E-02-6.32971E-01 1.49927E-04
 -1      2303-3.03562E+01 1.86034E+01 3.14316E-09-1.44163E-02-6.31691E-01 1.78973E-04
 -1      2304-3.01036E+01 1.84517E+01 1.70162E-08-1.52451E-02-6.30187E-01 2.07781E-04
 -1      2305-2.98360E+01 1.82882E+01 2.85179E-08-1.59988E-02-6.28460E-01 2.36339E-04
 -1      2306-2.95530E+01 1.81135E+01 3.95666E-08-1.65354E-02-6.26512E-01 2.64636E-04
 -1      2307-2.92596E+01 1.79336E+01 4.54614E-08-1.72853E-02-6.24344E-01 2.92658E-04
 -1      2308-2.89561E+01 1.77493E+01 3.82701E-08-1.78989E-02-6.21960E-01 3.20396E-04
 -1      2309-2.86353E+01 1.75503E+01 1.17205E-08-1.86008E-02-6.19361E-01 3.47836E-04
 -1      2310-2.83044E+01 1.73472E+01-3.13198E-08-1.94634E-02-6.16550E-01 3.74967E-04
 -1      2311-2.79649E+01 1.71420E+01-7.30436E-08-2.02463E-02-6.13529E-01 4.01777E-04
 -1      2312-2.76081E+01 1.69208E+01-9.32870E-08-2.06871E-02-6.10301E-01 4.28255E-04
 -1      2313-2.72440E+01 1.67002E+01-8.98345E-08-2.15315E-02-6.06868E-01 4.54391E-04
 -1      2314-2.68612E+01 1.64623E+01-6.65928E-08-2.20503E-02-6.03234E-01 4.80171E-04
 -1      2315-2.64730E+01 1.62263E+01-3.99892E-08-2.28704E-02-5.99400E-01 5.05583E-04
 -1      2316-2.60710E+01 1.59800E+01-2.01538E-08-2.35237E-02-5.95370E-01 5.30618E-04
 -1      2317-2.56539E+01 1.57222E+01 1.89026E-09-2.43159E-02-5.91147E-01 5.55264E-04
 -1      2318-2.52324E+01 1.54682E+01 1.93981E-08-2.49884E-02-5.86734E-01 5.79509E-04
 -1      2319-2.47910E+01 1.51937E+01 2.44965E-08-2.53107E-02-5.82134E-01 6.03344E-04
 -1      2320-2.43426E+01 1.49194E+01 2.48292E-08-2.63881E-02-5.77350E-01 6.26755E-04
 -1      2321-2.38836E+01 1.46400E+01 3.34439E-08-2.69694E-02-5.72386E-01 6.49732E-04
 -1      2322-2.34103E+01 1.43481E+01 4.99805E-08-2.74064E-02-5.67244E-01 6.72266E-04
 -1      2323-2.29293E+01 1.40552E+01 5.84696E-08-2.82491E-02-5.61929E-01 6.94345E-04
 -1      2324-2.24325E+01 1.37487E+01 6.23186E-08-2.86257E-02-5.56445E-01 7.15959E-04
 -1      2325-2.19272E+01 1.34389E+01 7.16654E-08-2.95530E-02-5.50794E-01 7.37095E-04
 -1      2326-2.14137E+01 1.31262E+01 7.14225E-08-3.00653E-02-5.44980E-01 7.57745E-04
 -1      2327-2.08855E+01 1.28012E+01 6.29448E-08-3.07370E-02-5.39008E-01 7.77898E-04
 -1      2328-2.03473E+01 1.24708E+01 7.72927E-08-3.12182E-02-5.32881E-01 7.97545E-04
 -1      2329-1.98017E+01 1.21389E+01 1.17426E-07-3.19514E-02-5.26603E-01 8.16674E-04
 -1      2330-1.92402E+01 1.17914E+01 1.49673E-07-3.21230E-02-5.20179E-01 8.35276E-04
 -1      2331-1.86714E+01 1.14428E+01 1.61275E-07-3.33656E-02-5.13612E-01 8.53341E-04
 -1      2332-1.80953E+01 1.10930E+01 1.56924E-07-3.37533E-02-5.06906E-01 8.70857E-04
 -1      2333-1.75042E+01 1.07281E+01 1.36569E-07-3.41455E-02-5.00067E-01 8.87818E-04
 -1      2334-1.69072E+01 1.03640E+01 1.02430E-07-3.48503E-02-4.93097E-01 9.04214E-04
 -1      2335-1.62966E+01 9.98802E+00 6.53635E-08-3.52229E-02-4.86003E-01 9.20035E-04
 -1      2336-1.56784E+01 9.60914E+00 4.03885E-08-3.59939E-02-4.78787E-01 9.35270E-04
 -1      2337-1.50527E+01 9.22717E+00 3.44928E-08-3.64506E-02-4.71456E-01 9.49912E-04
 -1      2338-1.44143E+01 8.83460E+00 4.48052E-08-3.70063E-02-4.64013E-01 9.63952E-04
 -1      2339-1.37689E+01 8.44010E+00 4.94934E-08-3.74837E-02-4.56463E-01 9.77380E-04
 -1      2340-1.31128E+01 8.03683E+00 4.27179E-08-3.79071E-02-4.48811E-01 9.90189E-04
 -1      2341-1.24488E+01 7.62984E+00 4.75033E-08-3.86182E-02-4.41062E-01 1.00237E-03
 -1      2342-1.17769E+01 7.21908E+00 5.68688E-08-3.90419E-02-4.33220E-01 1.01391E-03
 -1      2343-1.10950E+01 6.80065E+00 5.64956E-08-3.95196E-02-4.25292E-01 1.02481E-03
 -1      2344-1.04056E+01 6.37823E+00 6.33377E-08-3.98664E-02-4.17281E-01 1.03505E-03
 -1      2345-9.70648E+00 5.94873E+00 8.30214E-08-4.05227E-02-4.09193E-01 1.04464E-03
 -1      2346-9.00104E+00 5.51729E+00 1.07721E-07-4.09746E-02-4.01033E-01 1.05355E-03
 -1      2347-8.28736E+00 5.08007E+00 1.37848E-07-4.14006E-02-3.92806E-01 1.06179E-03
 -1      2348-7.56512E+00 4.63694E+00 1.69838E-07-4.17905E-02-3.84518E-01 1.06934E-03
 -1      2349-6.83581E+00 4.19007E+00 1.88347E-07-4.22585E-02-3.76174E-01 1.07620E-03
 -1      2350-6.09902E+00 3.73864E+00 1.90492E-07-4.26720E-02-3.67779E-01 1.08236E-03
 -1      2351-5.35462E+00 3.28206E+00 1.85448E-07-4.30385E-02-3.59339E-01 1.08782E-03
 -1      2352-4.60334E+00 2.82153E+00 1.68547E-07-4.35430E-02-3.50860E-01 1.09256E-03
 -1      2353-3.84555E+00 2.35754E+00 1.38143E-07-4.38835E-02-3.42346E-01 1.09659E-03
 -1      2354-3.08027E+00 1.88812E+00 1.05998E-07-4.42701E-02-3.33804E-01 1.09989E-03
 -1      2355-2.30889E+00 1.41553E+00 8.06555E-08-4.46313E-02-3.25239E-01 1.10246E-03
 -1      2356-1.53079E+00 9.38490E-01 6.11707E-08-4.50207E-02-3.16656E-01 1.10429E-03
 -1      2357-7.46461E-01 4.57743E-01 4.10580E-08-4.53747E-02-3.08063E-01 1.10537E-03
 -1      2358 4.37273E-02-2.64574E-02 1.42121E-08-4.57308E-02-2.99464E-01 1.10571E-03
 -1      2359 8.40034E-01-5.14526E-01-1.75108E-08-4.60537E-02-2.90865E-01 1.10528E-03
 -1      2360 1.64231E+00-1.00648E+00-5.41944E-08-4.63697E-02-2.82273E-01 1.10410E-03
 -1      2361 2.44954E+00-1.50095E+00-9.62517E-08-4.67117E-02-2.73692E-01 1.10215E-03
 -1      2362 3.26265E+00-1.99931E+00-1.38682E-07-4.70148E-02-2.65130E-01 1.09943E-03
 -1      2363 4.08121E+00-2.50134E+00-1.72449E-07-4.72569E-02-2.56592E-01 1.09593E-03
 -1      2364 4.90417E+00-3.00537E+00-1.87203E-07-4.75974E-02-2.48085E-01 1.09165E-03
 -1      2365 5.73293E+00-3.51389E+00-1.84091E-07-4.78313E-02-2.39613E-01 1.08658E-03
 -1      2366 6.56531E+00-4.02336E+00-1.73584E-07-4.82203E-02-2.31184E-01 1.08073E-03
 -1      2367 7.40295E+00-4.53687E+00-1.62295E-07-4.83331E-02-2.22804E-01 1.07407E-03
 -1      2368 8.24527E+00-5.05361E+00-1.52270E-07-4.86112E-02-2.14479E-01 1.06662E-03
 -1      2369 9.09140E+00-5.57198E+00-1.42860E-07-4.88940E-02-2.06215E-01 1.05836E-03
 -1      2370 9.94133E+00-6.09257E+00-1.33868E-07-4.90749E-02-1.98018E-01 1.04929E-03
 -1      2371 1.07969E+01-6.61842E+00-1.23263E-07-4.93256E-02-1.89895E-01 1.03941E-03
 -1      2372 1.16527E+01-7.14092E+00-1.05282E-07-4.97222E-02-1.81852E-01 1.02871E-03
 -1      2373 1.25145E+01-7.66905E+00-8.31401E-08-4.97051E-02-1.73895E-01 1.01720E-03
 -1      2374 1.33817E+01-8.20286E+00-5.98662E-08-4.97830E-02-1.66031E-01 1.00486E-03
 -1      2375 1.42476E+01-8.73156E+00-3.67781E-08-5.01446E-02-1.58266E-01 9.91695E-04
 -1      2376 1.51212E+01-9.26876E+00-1.99932E-08-5.03259E-02-1.50607E-01 9.77702E-04
 -1      2377 1.59937E+01-9.80173E+00-1.14304E-08-5.05239E-02-1.43060E-01 9.62878E-04
 -1      2378 1.68708E+01-1.03394E+01-6.00467E-09-5.06015E-02-1.35631E-01 9.47219E-04
 -1      2379 1.77524E+01-1.08813E+01-5.51675E-10-5.06652E-02-1.28328E-01 9.30722E-04
 -1      2380 1.86334E+01-1.14198E+01 5.19253E-09-5.09669E-02-1.21156E-01 9.13386E-04
 -1      2381 1.95202E+01-1.19650E+01 1.05448E-08-5.10012E-02-1.14122E-01 8.95207E-04
 -1      2382 2.04049E+01-1.25055E+01 1.36114E-08-5.13087E-02-1.07232E-01 8.76185E-04
 -1      2383 2.12936E+01-1.30496E+01 1.38356E-08-5.12455E-02-1.00494E-01 8.56316E-04
 -1      2384 2.21888E+01-1.36018E+01 1.27097E-08-5.12914E-02-9.39143E-02 8.35599E-04
 -1      2385 2.30781E+01-1.41430E+01 1.30731E-08-5.17448E-02-8.74985E-02 8.14031E-04
 -1      2386 2.39742E+01-1.46941E+01 1.44645E-08-5.13927E-02-8.12538E-02 7.91612E-04
 -1      2387 2.48709E+01-1.52437E+01 1.54411E-08-5.19263E-02-7.51868E-02 7.68339E-04
 -1      2388 2.57671E+01-1.57913E+01 1.55038E-08-5.15775E-02-6.93042E-02 7.44212E-04
 -1      2389 2.66690E+01-1.63468E+01 1.37714E-08-5.18389E-02-6.36126E-02 7.19227E-04
 -1      2390 2.75675E+01-1.68959E+01 1.18177E-08-5.17875E-02-5.81186E-02 6.93386E-04
 -1      2391 2.84698E+01-1.74487E+01 1.06635E-08-5.21799E-02-5.28289E-02 6.66686E-04
 -1      2392 2.93743E+01-1.80052E+01 8.56982E-09-5.17709E-02-4.77502E-02 6.39126E-04
 -1      2393 3.02750E+01-1.85543E+01 5.33362E-09-5.25424E-02-4.28892E-02 6.10705E-04
 -1      2394 3.11786E+01-1.91081E+01 2.27217E-09-5.17512E-02-3.82527E-02 5.81424E-04
 -1      2395 3.20886E+01-1.96689E+01-1.05088E-10-5.24291E-02-3.38472E-02 5.51279E-04
 -1      2396 3.29906E+01-2.02194E+01-2.15222E-09-5.17415E-02-2.96795E-02 5.20272E-04
 -1      2397 3.39000E+01-2.07783E+01-4.06418E-09-5.27565E-02-2.57563E-02 4.88401E-04
 -1      2398 3.48048E+01-2.13328E+01-5.53390E-09-5.18882E-02-2.20844E-02 4.55666E-04
 -1      2399 3.57117E+01-2.18846E+01-6.85957E-09-5.32934E-02-1.86705E-02 4.22067E-04
 -1      2400 3.66196E+01-2.24455E+01-9.16374E-09-5.08922E-02-1.55212E-02 3.87603E-04
 -1      2401 3.75311E+01-2.30026E+01-1.22303E-08-5.35959E-02-1.26433E-02 3.52273E-04
 -1      2402 3.84363E+01-2.35602E+01-1.59311E-08-5.06640E-02-1.00436E-02 3.16077E-04
 -1      2403 3.93496E+01-2.41163E+01-2.01371E-08-5.47984E-02-7.72881E-03 2.79016E-04
 -1      2404 4.02424E+01-2.46591E+01-2.45082E-08-4.94305E-02-5.70564E-03 2.41090E-04
 -1      2405 4.11891E+01-2.52648E+01-2.89844E-08-5.52384E-02-3.98075E-03 2.02297E-04
 -1      2406 4.20029E+01-2.56734E+01-3.33398E-08-5.10498E-02-2.56101E-03 1.62639E-04
 -1      2407 4.32140E+01-2.67479E+01-3.77125E-08-4.44990E-02-1.45302E-03 1.22110E-04
 -1      2408 4.30636E+01-2.54297E+01-4.12210E-08-9.71983E-02-6.63668E-04 8.07344E-05
 -1      2409 4.77932E+01-3.28289E+01-5.12164E-08 1.31407E-01-1.99560E-04 3.84194E-05
 -1      2410 3.12458E+01-6.06411E+00-5.99589E-08-7.08829E-01-4.93967E-05 1.69953E-05
 -3
    1PSTEP                         8           1           1          
    1PGM                1.000000E+00                                  
    1PGK                2.726657E+05                                  
    1PHID                         -1                                  
    1PSUBC                         0                                  
    1PMODE                         2                                  
  100CL  102 83.10657170        2410                     2    2MODAL      1
 -4  ERROR       1    1
 -5  STR(%)      1    1    0    0
 -1         1 1.73459E-01
 -1         2 5.68958E-01
 -1         3 1.04918E+00
 -1         4 1.58943E+00
 -1         5 2.19012E+00
 -1         6 2.85294E+00
 -1         7 3.53788E+00
 -1         8 1.54604E+01
 -1         9 2.69330E+01
 -1        10 2.69896E+01
 -1        11 2.70427E+01
 -1        12 2.70427E+01
 -1        13 2.70511E+01
 -1        14 2.70511E+01
 -1        15 2.70212E+01
 -1        16 2.70315E+01
 -1        17 2.70315E+01
 -1        18 2.70425E+01
 -1        19 2.70425E+01
 -1        20 2.70251E+01
 -1        21 2.70251E+01
 -1        22 2.70133E+01
 -1        23 2.70213E+01
 -1        24 2.70213E+01
 -1        25 2.70220E+01
 -1        26 2.70220E+01
 -1        27 2.70162E+01
 -1        28 2.70162E+01
 -1        29 2.70183E+01
 -1        30 2.70183E+01
 -1        31 2.70128E+01
 -1        32 2.70128E+01
 -1        33 2.70113E+01
 -1        34 2.70146E+01
 -1        35 2.70146E+01
 -1        36 2.70105E+01
 -1        37 2.70171E+01
 -1        38 2.70171E+01
 -1        39 2.70260E+01
 -1        40 2.70260E+01
 -1        41 2.70200E+01
 -1        42 2.70200E+01
 -1        43 2.70173E+01
 -1        44 2.70173E+01
 -1        45 2.70182E+01
 -1        46 2.70182E+01
 -1        47 2.70101E+01
 -1        48 2.70147E+01
 -1        49 2.70147E+01
 -1        50 2.70219E+01
 -1        51 2.70219E+01
 -1        52 2.70081E+01
 -1        53 2.70180E+01
 -1        54 2.70180E+01
 -1        55 2.70259E+01
 -1        56 2.70259E+01
 -1        57 2.70218E+01
 -1        58 2.70218E+01
 -1        59 2.70203E+01
 -1        60 2.70203E+01
 -1        61 2.70203E+01
 -1        62 2.70203E+01
 -1        63 2.70070E+01
 -1        64 2.70196E+01
 -1        65 2.70196E+01
 -1        66 2.70210E+01
 -1        67 2.70210E+01
 -1        68 2.70119E+01
 -1        69 2.70135E+01
 -1        70 2.70135E+01
 -1        71 2.70212E+01
 -1        72 2.70212E+01
 -1        73 2.70153E+01
 -1        74 2.70153E+01
 -1        75 2.70089E+01
 -1        76 2.70175E+01
 -1        77 2.70175E+01
 -1        78 2.70200E+01
 -1        79 2.70200E+01
 -1        80 2.70183E+01
 -1        81 2.70183E+01
 -1        82 2.70222E+01
 -1        83 2.70222E+01
 -1        84 2.70144E+01
 -1        85 2.70144E+01
 -1        86 2.70102E+01
 -1        87 2.70188E+01
 -1        88 2.70188E+01
 -1        89 2.70153E+01
 -1        90 2.70153E+01
 -1        91 2.70079E+01
 -1        92 2.70176E+01
 -1        93 2.70176E+01
 -1        94 2.70073E+01
 -1        95 2.70164E+01
 -1        96 2.70164E+01
 -1        97 2.70202E+01
 -1        98 2.70202E+01
 -1        99 2.70126E+01
 -1       100 2.70126E+01
 -1       101 2.70107E+01
 -1       102 2.70107E+01
 -1       103 2.70135E+01
 -1       104 2.70135E+01
 -1       105 2.70106E+01
 -1       106 2.70209E+01
 -1       107 2.70209E+01
 -1       108 2.70198E+01
 -1       109 2.70198E+01
 -1       110 2.70104E+01
 -1       111 2.70130E+01
 -1       112 2.70130E+01
 -1       113 2.70183E+01
 -1       114 2.70183E+01
 -1       115 2.70098E+01
 -1       116 2.70150E+01
 -1       117 2.70150E+01
 -1       118 2.70254E+01
 -1       119 2.70254E+01
 -1       120 2.70276E+01
 -1       121 2.70276E+01
 -1       122 2.70229E+01
 -1       123 2.70229E+01
 -1       124 2.70246E+01
 -1       125 2.70246E+01
 -1       126 2.70146E+01
 -1       127 2.70146E+01
 -1       128 2.70096E+01
 -1       129 2.70178E+01
 -1       130 2.70178E+01
 -1       131 2.70124E+01
 -1       132 2.70124E+01
 -1       133 2.70082E+01
 -1       134 2.70174E+01
 -1       135 2.70174E+01
 -1       136 2.70194E+01
 -1       137 2.70194E+01
 -1       138 2.70209E+01
 -1       139 2.70209E+01
 -1       140 2.70244E+01
 -1       141 2.70244E+01
 -1       142 2.70162E+01
 -1       143 2.70162E+01
 -1       144 2.70068E+01
 -1       145 2.70164E+01
 -1       146 2.70164E+01
 -1       147 2.70179E+01
 -1       148 2.70179E+01
 -1       149 2.70079E+01
 -1       150 2.70138E+01
 -1       151 2.70138E+01
 -1       152 2.70104E+01
 -1       153 2.70104E+01
 -1       154 2.70089E+01
 -1       155 2.70135E+01
 -1       156 2.70135E+01
 -1       157 2.70090E+01
 -1       158 2.70090E+01
 -1       159 2.70107E+01
 -1       160 2.70107E+01
 -1       161 2.70207E+01
 -1       162 2.70207E+01
 -1       163 2.70120E+01
 -1       164 2.70120E+01
 -1       165 2.70062E+01
 -1       166 2.70114E+01
 -1       167 2.70114E+01
 -1       168 2.70064E+01
 -1       169 2.70091E+01
 -1       170 2.70091E+01
 -1       171 2.70119E+01
 -1       172 2.70119E+01
 -1       173 2.70046E+01
 -1       174 2.70076E+01
 -1       175 2.70076E+01
 -1       176 2.70141E+01
 -1       177 2.70141E+01
 -1       178 2.70130E+01
 -1       179 2.70130E+01
 -1       180 2.70094E+01
 -1       181 2.70094E+01
 -1       182 2.70074E+01
 -1       183 2.70074E+01
 -1       184 2.69907E+01
 -1       185 2.69907E+01
 -1       186 2.69751E+01
 -1       187 2.69498E+01
 -1       188 2.69000E+01
 -1       189 2.72098E+01
 -1       190 2.72098E+01
 -1       191 2.70440E+01
 -1       192 2.70353E+01
 -1       193 2.70353E+01
 -1       194 2.70215E+01
 -1       195 2.70230E+01
 -1       196 2.70230E+01
 -1       197 2.70289E+01
 -1       198 2.70289E+01
 -1       199 2.70252E+01
 -1       200 2.70252E+01
 -1       201 2.70258E+01
 -1       202 2.70258E+01
 -1       203 2.70308E+01
 -1       204 2.70308E+01
 -1       205 2.70156E+01
 -1       206 2.70192E+01
 -1       207 2.70192E+01
 -1       208 2.70268E+01
 -1       209 2.70268E+01
 -1       210 2.70214E+01
 -1       211 2.70214E+01
 -1       212 2.70155E+01
 -1       213 2.70155E+01
 -1       214 2.70171E+01
 -1       215 2.70171E+01
 -1       216 2.70256E+01
 -1       217 2.70256E+01
 -1       218 2.70247E+01
 -1       219 2.70247E+01
 -1       220 2.70192E+01
 -1       221 2.70192E+01
 -1       222 2.70217E+01
 -1       223 2.70217E+01
 -1       224 2.70303E+01
 -1       225 2.70303E+01
 -1       226 2.70324E+01
 -1       227 2.70324E+01
 -1       228 2.70421E+01
 -1       229 2.70421E+01
 -1       230 2.70683E+01
 -1       231 2.70683E+01
 -1       232 2.71012E+01
 -1       233 2.71012E+01
 -1       234 2.71528E+01
 -1       235 2.71528E+01
 -1       236 2.71954E+01
 -1       237 2.71954E+01
 -1       238 2.69079E+01
 -1       239 2.81961E+01
 -1       240 2.81961E+01
 -1       241 2.17069E+01
 -1       242 1.73459E-01
 -1       243 5.68958E-01
 -1       244 1.04918E+00
 -1       245 1.58943E+00
 -1       246 2.19012E+00
 -1       247 2.85294E+00
 -1       248 3.53788E+00
 -1       249 1.54604E+01
 -1       250 2.69330E+01
 -1       251 2.69896E+01
 -1       252 2.70427E+01
 -1       253 2.70427E+01
 -1       254 2.70511E+01
 -1       255 2.70511E+01
 -1       256 2.70212E+01
 -1       257 2.70315E+01
 -1       258 2.70315E+01
 -1       259 2.70425E+01
 -1       260 2.70425E+01
 -1       261 2.70251E+01
 -1       262 2.70251E+01
 -1       263 2.70133E+01
 -1       264 2.70213E+01
 -1       265 2.70213E+01
 -1       266 2.70220E+01
 -1       267 2.70220E+01
 -1       268 2.70162E+01
 -1       269 2.70162E+01
 -1       270 2.70183E+01
 -1       271 2.70183E+01
 -1       272 2.70128E+01
 -1       273 2.70128E+01
 -1       274 2.70113E+01
 -1       275 2.70146E+01
 -1       276 2.70146E+01
 -1       277 2.70105E+01
 -1       278 2.70171E+01
 -1       279 2.70171E+01
 -1       280 2.70260E+01
 -1       281 2.70260E+01
 -1       282 2.70200E+01
 -1       283 2.70200E+01
 -1       284 2.70173E+01
 -1       285 2.70173E+01
 -1       286 2.70182E+01
 -1       287 2.70182E+01
 -1       288 2.70101E+01
 -1       289 2.70147E+01
 -1       290 2.70147E+01
 -1       291 2.70219E+01
 -1       292 2.70219E+01
 -1       293 2.70081E+01
 -1       294 2.70180E+01
 -1       295 2.70180E+01
 -1       296 2.70259E+01
 -1       297 2.70259E+01
 -1       298 2.70218E+01
 -1       299 2.70218E+01
 -1       300 2.70203E+01
 -1       301 2.70203E+01
 -1       302 2.70203E+01
 -1       303 2.70203E+01
 -1       304 2.70070E+01
 -1       305 2.70196E+01
 -1       306 2.70196E+01
 -1       307 2.70210E+01
 -1       308 2.70210E+01
 -1       309 2.70119E+01
 -1       310 2.70135E+01
 -1       311 2.70135E+01
 -1       312 2.70212E+01
 -1       313 2.70212E+01
 -1       314 2.70153E+01
 -1       315 2.70153E+01
 -1       316 2.70089E+01
 -1       317 2.70175E+01
 -1       318 2.70175E+01
 -1       319 2.70200E+01
 -1       320 2.70200E+01
 -1       321 2.70183E+01
 -1       322 2.70183E+01
 -1       323 2.70222E+01
 -1       324 2.70222E+01
 -1       325 2.70144E+01
 -1       326 2.70144E+01
 -1       327 2.70102E+01
 -1       328 2.70188E+01
 -1       329 2.70188E+01
 -1       330 2.70153E+01
 -1       331 2.70153E+01
 -1       332 2.70079E+01
 -1       333 2.70176E+01
 -1       334 2.70176E+01
 -1       335 2.70073E+01
 -1       336 2.70164E+01
 -1       337 2.70164E+01
 -1       338 2.70202E+01
 -1       339 2.70202E+01
 -1       340 2.70126E+01
 -1       341 2.70126E+01
 -1       342 2.70107E+01
 -1       343 2.70107E+01
 -1       344 2.70135E+01
 -1       345 2.70135E+01
 -1       346 2.70106E+01
 -1       347 2.70209E+01
 -1       348 2.70209E+01
 -1       349 2.70198E+01
 -1       350 2.70198E+01
 -1       351 2.70104E+01
 -1       352 2.70130E+01
 -1       353 2.70130E+01
 -1       354 2.70183E+01
 -1       355 2.70183E+01
 -1       356 2.70098E+01
 -1       357 2.70150E+01
 -1       358 2.70150E+01
 -1       359 2.70254E+01
 -1       360 2.70254E+01
 -1       361 2.70276E+01
 -1       362 2.70276E+01
 -1       363 2.70229E+01
 -1       364 2.70229E+01
 -1       365 2.70246E+01
 -1       366 2.70246E+01
 -1       367 2.70146E+01
 -1       368 2.70146E+01
 -1       369 2.70096E+01
 -1       370 2.70178E+01
 -1       371 2.70178E+01
 -1       372 2.70124E+01
 -1       373 2.70124E+01
 -1       374 2.70082E+01
 -1       375 2.70174E+01
 -1       376 2.70174E+01
 -1       377 2.70194E+01
 -1       378 2.70194E+01
 -1       379 2.70209E+01
 -1       380 2.70209E+01
 -1       381 2.70244E+01
 -1       382 2.70244E+01
 -1       383 2.70162E+01
 -1       384 2.70162E+01
 -1       385 2.70068E+01
 -1       386 2.70164E+01
 -1       387 2.70164E+01
 -1       388 2.70179E+01
 -1       389 2.70179E+01
 -1       390 2.70079E+01
 -1       391 2.70138E+01
 -1       392 2.70138E+01
 -1       393 2.70104E+01
 -1       394 2.70104E+01
 -1       395 2.70089E+01
 -1       396 2.70135E+01
 -1       397 2.70135E+01
 -1       398 2.70090E+01
 -1       399 2.70090E+01
 -1       400 2.70107E+01
 -1       401 2.70107E+01
 -1       402 2.70207E+01
 -1       403 2.70207E+01
 -1       404 2.70120E+01
 -1       405 2.70120E+01
 -1       406 2.70062E+01
 -1       407 2.70114E+01
 -1       408 2.70114E+01
 -1       409 2.70064E+01
 -1       410 2.70091E+01
 -1       411 2.70091E+01
 -1       412 2.70119E+01
 -1       413 2.70119E+01
 -1       414 2.70046E+01
 -1       415 2.70076E+01
 -1       416 2.70076E+01
 -1       417 2.70141E+01
 -1       418 2.70141E+01
 -1       419 2.70130E+01
 -1       420 2.70130E+01
 -1       421 2.70094E+01
 -1       422 2.70094E+01
 -1       423 2.70074E+01
 -1       424 2.70074E+01
 -1       425 2.69907E+01
 -1       426 2.69907E+01
 -1       427 2.69751E+01
 -1       428 2.69498E+01
 -1       429 2.69000E+01
 -1       430 2.72098E+01
 -1       431 2.72098E+01
 -1       432 2.70440E+01
 -1       433 2.70353E+01
 -1       434 2.70353E+01
 -1       435 2.70215E+01
 -1       436 2.70230E+01
 -1       437 2.70230E+01
 -1       438 2.70289E+01
 -1       439 2.70289E+01
 -1       440 2.70252E+01
 -1       441 2.70252E+01
 -1       442 2.70258E+01
 -1       443 2.70258E+01
 -1       444 2.70308E+01
 -1       445 2.70308E+01
 -1       446 2.70156E+01
 -1       447 2.70192E+01
 -1       448 2.70192E+01
 -1       449 2.70268E+01
 -1       450 2.70268E+01
 -1       451 2.70214E+01
 -1       452 2.70214E+01
 -1       453 2.70155E+01
 -1       454 2.70155E+01
 -1       455 2.70171E+01
 -1       456 2.70171E+01
 -1       457 2.70256E+01
 -1       458 2.70256E+01
 -1       459 2.70247E+01
 -1       460 2.70247E+01
 -1       461 2.70192E+01
 -1       462 2.70192E+01
 -1       463 2.70217E+01
 -1       464 2.70217E+01
 -1       465 2.70303E+01
 -1       466 2.70303E+01
 -1       467 2.70324E+01
 -1       468 2.70324E+01
 -1       469 2.70421E+01
 -1       470 2.70421E+01
 -1       471 2.70683E+01
 -1       472 2.70683E+01
 -1       473 2.71012E+01
 -1       474 2.71012E+01
 -1       475 2.71528E+01
 -1       476 2.71528E+01
 -1       477 2.71954E+01
 -1       478 2.71954E+01
 -1       479 2.69079E+01
 -1       480 2.81961E+01
 -1       481 2.81961E+01
 -1       482 2.17069E+01
 -1       483 1.73459E-01
 -1       484 5.68958E-01
 -1       485 1.04918E+00
 -1       486 1.58943E+00
 -1       487 2.19012E+00
 -1       488 2.85294E+00
 -1       489 3.53788E+00
 -1       490 1.54604E+01
 -1       491 2.69330E+01
 -1       492 2.69896E+01
 -1       493 2.70427E+01
 -1       494 3.53224E+01
 -1       495 4.82809E+01
 -1       496 5.88055E+01
 -1       497 6.71908E+01
 -1       498 7.33156E+01
 -1       499 7.87305E+01
 -1       500 8.20410E+01
 -1       501 8.33441E+01
 -1       502 8.37429E+01
 -1       503 8.37429E+01
 -1       504 8.39972E+01
 -1       505 8.39972E+01
 -1       506 8.39865E+01
 -1       507 8.39893E+01
 -1       508 8.39899E+01
 -1       509 8.40411E+01
 -1       510 8.40411E+01
 -1       511 8.40302E+01
 -1       512 8.40408E+01
 -1       513 8.40765E+01
 -1       514 8.40765E+01
 -1       515 8.40702E+01
 -1       516 8.40702E+01
 -1       517 8.40699E+01
 -1       518 8.40784E+01
 -1       519 8.40784E+01
 -1       520 8.41329E+01
 -1       521 8.41329E+01
 -1       522 8.41168E+01
 -1       523 8.41168E+01
 -1       524 8.41190E+01
 -1       525 8.41190E+01
 -1       526 8.40964E+01
 -1       527 8.40964E+01
 -1       528 8.40887E+01
 -1       529 8.41041E+01
 -1       530 8.41041E+01
 -1       531 8.41531E+01
 -1       532 8.41531E+01
 -1       533 8.41073E+01
 -1       534 8.41199E+01
 -1       535 8.41199E+01
 -1       536 8.41361E+01
 -1       537 8.41361E+01
 -1       538 8.41564E+01
 -1       539 8.41564E+01
 -1       540 8.41232E+01
 -1       541 8.41232E+01
 -1       542 8.41567E+01
 -1       543 8.41567E+01
 -1       544 8.41082E+01
 -1       545 8.41322E+01
 -1       546 8.41322E+01
 -1       547 8.41453E+01
 -1       548 8.41453E+01
 -1       549 8.41610E+01
 -1       550 8.41610E+01
 -1       551 8.40861E+01
 -1       552 8.41612E+01
 -1       553 8.41612E+01
 -1       554 8.41442E+01
 -1       555 8.41442E+01
 -1       556 8.41349E+01
 -1       557 8.41349E+01
 -1       558 8.41079E+01
 -1       559 8.41100E+01
 -1       560 8.41277E+01
 -1       561 8.41277E+01
 -1       562 8.41037E+01
 -1       563 8.41650E+01
 -1       564 8.41650E+01
 -1       565 8.41476E+01
 -1       566 8.41476E+01
 -1       567 8.41342E+01
 -1       568 8.41342E+01
 -1       569 8.41206E+01
 -1       570 8.41651E+01
 -1       571 8.41651E+01
 -1       572 8.41189E+01
 -1       573 8.41189E+01
 -1       574 8.41123E+01
 -1       575 8.41125E+01
 -1       576 8.41194E+01
 -1       577 8.41194E+01
 -1       578 8.41658E+01
 -1       579 8.41658E+01
 -1       580 8.41207E+01
 -1       581 8.41342E+01
 -1       582 8.41342E+01
 -1       583 8.41183E+01
 -1       584 8.41183E+01
 -1       585 8.41117E+01
 -1       586 8.41117E+01
 -1       587 8.41233E+01
 -1       588 8.41233E+01
 -1       589 8.41676E+01
 -1       590 8.41676E+01
 -1       591 8.41192E+01
 -1       592 8.41391E+01
 -1       593 8.41391E+01
 -1       594 8.41518E+01
 -1       595 8.41518E+01
 -1       596 8.41697E+01
 -1       597 8.41697E+01
 -1       598 8.40965E+01
 -1       599 8.41645E+01
 -1       600 8.41645E+01
 -1       601 8.41547E+01
 -1       602 8.41547E+01
 -1       603 8.41521E+01
 -1       604 8.41521E+01
 -1       605 8.41510E+01
 -1       606 8.41510E+01
 -1       607 8.41657E+01
 -1       608 8.41657E+01
 -1       609 8.40923E+01
 -1       610 8.41671E+01
 -1       611 8.41671E+01
 -1       612 8.41499E+01
 -1       613 8.41499E+01
 -1       614 8.41380E+01
 -1       615 8.41380E+01
 -1       616 8.41162E+01
 -1       617 8.41632E+01
 -1       618 8.41632E+01
 -1       619 8.41304E+01
 -1       620 8.41304E+01
 -1       621 8.41674E+01
 -1       622 8.41674E+01
 -1       623 8.41473E+01
 -1       624 8.41473E+01
 -1       625 8.41327E+01
 -1       626 8.41327E+01
 -1       627 8.41168E+01
 -1       628 8.41626E+01
 -1       629 8.41626E+01
 -1       630 8.41198E+01
 -1       631 8.41198E+01
 -1       632 8.41029E+01
 -1       633 8.41144E+01
 -1       634 8.41144E+01
 -1       635 8.41287E+01
 -1       636 8.41287E+01
 -1       637 8.41025E+01
 -1       638 8.41015E+01
 -1       639 8.41248E+01
 -1       640 8.41248E+01
 -1       641 8.41029E+01
 -1       642 8.41029E+01
 -1       643 8.40987E+01
 -1       644 8.41018E+01
 -1       645 8.41018E+01
 -1       646 8.41132E+01
 -1       647 8.41132E+01
 -1       648 8.40842E+01
 -1       649 8.40797E+01
 -1       650 8.41009E+01
 -1       651 8.41009E+01
 -1       652 8.40750E+01
 -1       653 8.40750E+01
 -1       654 8.40554E+01
 -1       655 8.40541E+01
 -1       656 8.40493E+01
 -1       657 8.40705E+01
 -1       658 8.40705E+01
 -1       659 8.40193E+01
 -1       660 8.40193E+01
 -1       661 8.39490E+01
 -1       662 8.39490E+01
 -1       663 8.38363E+01
 -1       664 8.37937E+01
 -1       665 8.36661E+01
 -1       666 8.34776E+01
 -1       667 8.31445E+01
 -1       668 8.23979E+01
 -1       669 8.05473E+01
 -1       670 7.28649E+01
 -1       671 4.48432E+01
 -1       672 7.53488E+01
 -1       673 8.11545E+01
 -1       674 8.25363E+01
 -1       675 8.32573E+01
 -1       676 8.34770E+01
 -1       677 8.36803E+01
 -1       678 8.37789E+01
 -1       679 8.38481E+01
 -1       680 8.39124E+01
 -1       681 8.39130E+01
 -1       682 8.40049E+01
 -1       683 8.40049E+01
 -1       684 8.40481E+01
 -1       685 8.40481E+01
 -1       686 8.40849E+01
 -1       687 8.40849E+01
 -1       688 8.40271E+01
 -1       689 8.41092E+01
 -1       690 8.41092E+01
 -1       691 8.41023E+01
 -1       692 8.41023E+01
 -1       693 8.40977E+01
 -1       694 8.40977E+01
 -1       695 8.40793E+01
 -1       696 8.40789E+01
 -1       697 8.41113E+01
 -1       698 8.41113E+01
 -1       699 8.40968E+01
 -1       700 8.40968E+01
 -1       701 8.40902E+01
 -1       702 8.41002E+01
 -1       703 8.41002E+01
 -1       704 8.41224E+01
 -1       705 8.41224E+01
 -1       706 8.40913E+01
 -1       707 8.40863E+01
 -1       708 8.41367E+01
 -1       709 8.41367E+01
 -1       710 8.41266E+01
 -1       711 8.41266E+01
 -1       712 8.41273E+01
 -1       713 8.41273E+01
 -1       714 8.41169E+01
 -1       715 8.41169E+01
 -1       716 8.41233E+01
 -1       717 8.41233E+01
 -1       718 8.41775E+01
 -1       719 8.41775E+01
 -1       720 8.41607E+01
 -1       721 8.65118E+01
 -1       722 8.65118E+01
 -1       723 7.46214E+01
 -1       724 1.73459E-01
 -1       725 5.68958E-01
 -1       726 1.04918E+00
 -1       727 1.58943E+00
 -1       728 2.19012E+00
 -1       729 2.85294E+00
 -1       730 3.53788E+00
 -1       731 1.54604E+01
 -1       732 2.69330E+01
 -1       733 2.69896E+01
 -1       734 2.70427E+01
 -1       735 3.53224E+01
 -1       736 4.82809E+01
 -1       737 5.88055E+01
 -1       738 6.71908E+01
 -1       739 7.33156E+01
 -1       740 7.87305E+01
 -1       741 8.20410E+01
 -1       742 8.33441E+01
 -1       743 8.37429E+01
 -1       744 8.37429E+01
 -1       745 8.39972E+01
 -1       746 8.39972E+01
 -1       747 8.39865E+01
 -1       748 8.39893E+01
 -1       749 8.39899E+01
 -1       750 8.40411E+01
 -1       751 8.40411E+01
 -1       752 8.40302E+01
 -1       753 8.40408E+01
 -1       754 8.40765E+01
 -1       755 8.40765E+01
 -1       756 8.40702E+01
 -1       757 8.40702E+01
 -1       758 8.40699E+01
 -1       759 8.40784E+01
 -1       760 8.40784E+01
 -1       761 8.41329E+01
 -1       762 8.41329E+01
 -1       763 8.41168E+01
 -1       764 8.41168E+01
 -1       765 8.41190E+01
 -1       766 8.41190E+01
 -1       767 8.40964E+01
 -1       768 8.40964E+01
 -1       769 8.40887E+01
 -1       770 8.41041E+01
 -1       771 8.41041E+01
 -1       772 8.41531E+01
 -1       773 8.41531E+01
 -1       774 8.41073E+01
 -1       775 8.41199E+01
 -1       776 8.41199E+01
 -1       777 8.41361E+01
 -1       778 8.41361E+01
 -1       779 8.41564E+01
 -1       780 8.41564E+01
 -1       781 8.41232E+01
 -1       782 8.41232E+01
 -1       783 8.41567E+01
 -1       784 8.41567E+01
 -1       785 8.41082E+01
 -1       786 8.41322E+01
 -1       787 8.41322E+01
 -1       788 8.41453E+01
 -1       789 8.41453E+01
 -1       790 8.41610E+01
 -1       791 8.41610E+01
 -1       792 8.40861E+01
 -1       793 8.41612E+01
 -1       794 8.41612E+01
 -1       795 8.41442E+01
 -1       796 8.41442E+01
 -1       797 8.41349E+01
 -1       798 8.41349E+01
 -1       799 8.41079E+01
 -1       800 8.41100E+01
 -1       801 8.41277E+01
 -1       802 8.41277E+01
 -1       803 8.41037E+01
 -1       804 8.41650E+01
 -1       805 8.41650E+01
 -1       806 8.41476E+01
 -1       807 8.41476E+01
 -1       808 8.41342E+01
 -1       809 8.41342E+01
 -1       810 8.41206E+01
 -1       811 8.41651E+01
 -1       812 8.41651E+01
 -1       813 8.41189E+01
 -1       814 8.41189E+01
 -1       815 8.41123E+01
 -1       816 8.41125E+01
 -1       817 8.41194E+01
 -1       818 8.41194E+01
 -1       819 8.41658E+01
 -1       820 8.41658E+01
 -1       821 8.41207E+01
 -1       822 8.41342E+01
 -1       823 8.41342E+01
 -1       824 8.41183E+01
 -1       825 8.41183E+01
 -1       826 8.41117E+01
 -1       827 8.41117E+01
 -1       828 8.41233E+01
 -1       829 8.41233E+01
 -1       830 8.41676E+01
 -1       831 8.41676E+01
 -1       832 8.41192E+01
 -1       833 8.41391E+01
 -1       834 8.41391E+01
 -1       835 8.41518E+01
 -1       836 8.41518E+01
 -1       837 8.41697E+01
 -1       838 8.41697E+01
 -1       839 8.40965E+01
 -1       840 8.41645E+01
 -1       841 8.41645E+01
 -1       842 8.41547E+01
 -1       843 8.41547E+01
 -1       844 8.41521E+01
 -1       845 8.41521E+01
 -1       846 8.41510E+01
 -1       847 8.41510E+01
 -1       848 8.41657E+01
 -1       849 8.41657E+01
 -1       850 8.40923E+01
 -1       851 8.41671E+01
 -1       852 8.41671E+01
 -1       853 8.41499E+01
 -1       854 8.41499E+01
 -1       855 8.41380E+01
 -1       856 8.41380E+01
 -1       857 8.41162E+01
 -1       858 8.41632E+01
 -1       859 8.41632E+01
 -1       860 8.41304E+01
 -1       861 8.41304E+01
 -1       862 8.41674E+01
 -1       863 8.41674E+01
 -1       864 8.41473E+01
 -1       865 8.41473E+01
 -1       866 8.41327E+01
 -1       867 8.41327E+01
 -1       868 8.41168E+01
 -1       869 8.41626E+01
 -1       870 8.41626E+01
 -1       871 8.41198E+01
 -1       872 8.41198E+01
 -1       873 8.41029E+01
 -1       874 8.41144E+01
 -1       875 8.41144E+01
 -1       876 8.41287E+01
 -1       877 8.41287E+01
 -1       878 8.41025E+01
 -1       879 8.41015E+01
 -1       880 8.41248E+01
 -1       881 8.41248E+01
 -1       882 8.41029E+01
 -1       883 8.41029E+01
 -1       884 8.40987E+01
 -1       885 8.41018E+01
 -1       886 8.41018E+01
 -1       887 8.41132E+01
 -1       888 8.41132E+01
 -1       889 8.40842E+01
 -1       890 8.40797E+01
 -1       891 8.41009E+01
 -1       892 8.41009E+01
 -1       893 8.40750E+01
 -1       894 8.40750E+01
 -1       895 8.40554E+01
 -1       896 8.40541E+01
 -1       897 8.40493E+01
 -1       898 8.40705E+01
 -1       899 8.40705E+01
 -1       900 8.40193E+01
 -1       901 8.40193E+01
 -1       902 8.39490E+01
 -1       903 8.39490E+01
 -1       904 8.38363E+01
 -1       905 8.37937E+01
 -1       906 8.36661E+01
 -1       907 8.34776E+01
 -1       908 8.31445E+01
 -1       909 8.23979E+01
 -1       910 8.05473E+01
 -1       911 7.28649E+01
 -1       912 4.48432E+01
 -1       913 7.53488E+01
 -1       914 8.11545E+01
 -1       915 8.25363E+01
 -1       916 8.32573E+01
 -1       917 8.34770E+01
 -1       918 8.36803E+01
 -1       919 8.37789E+01
 -1       920 8.38481E+01
 -1       921 8.39124E+01
 -1       922 8.39130E+01
 -1       923 8.40049E+01
 -1       924 8.40049E+01
 -1       925 8.40481E+01
 -1       926 8.40481E+01
 -1       927 8.40849E+01
 -1       928 8.40849E+01
 -1       929 8.40271E+01
 -1       930 8.41092E+01
 -1       931 8.41092E+01
 -1       932 8.41023E+01
 -1       933 8.41023E+01
 -1       934 8.40977E+01
 -1       935 8.40977E+01
 -1       936 8.40793E+01
 -1       937 8.40789E+01
 -1       938 8.41113E+01
 -1       939 8.41113E+01
 -1       940 8.40968E+01
 -1       941 8.40968E+01
 -1       942 8.40902E+01
 -1       943 8.41002E+01
 -1       944 8.41002E+01
 -1       945 8.41224E+01
 -1       946 8.41224E+01
 -1       947 8.40913E+01
 -1       948 8.40863E+01
 -1       949 8.41367E+01
 -1       950 8.41367E+01
 -1       951 8.41266E+01
 -1       952 8.41266E+01
 -1       953 8.41273E+01
 -1       954 8.41273E+01
 -1       955 8.41169E+01
 -1       956 8.41169E+01
 -1       957 8.41233E+01
 -1       958 8.41233E+01
 -1       959 8.41775E+01
 -1       960 8.41775E+01
 -1       961 8.41607E+01
 -1       962 8.65118E+01
 -1       963 8.65118E+01
 -1       964 7.46214E+01
 -1       965 7.07961E-02
 -1       966 2.70465E-01
 -1       967 5.58728E-01
 -1       968 9.49438E-01
 -1       969 1.44190E+00
 -1       970 1.97749E+00
 -1       971 2.70040E+00
 -1       972 3.40801E+00
 -1       973 4.27918E+00
 -1       974 6.33436E+00
 -1       975 1.78618E+01
 -1       976 3.53224E+01
 -1       977 4.82809E+01
 -1       978 5.88055E+01
 -1       979 6.71908E+01
 -1       980 7.33156E+01
 -1       981 7.87305E+01
 -1       982 8.20495E+01
 -1       983 8.33612E+01
 -1       984 8.37623E+01
 -1       985 8.37623E+01
 -1       986 8.40175E+01
 -1       987 8.40175E+01
 -1       988 8.40070E+01
 -1       989 8.40099E+01
 -1       990 8.40105E+01
 -1       991 8.40617E+01
 -1       992 8.40617E+01
 -1       993 8.40508E+01
 -1       994 8.40614E+01
 -1       995 8.40972E+01
 -1       996 8.40972E+01
 -1       997 8.40909E+01
 -1       998 8.40909E+01
 -1       999 8.40905E+01
 -1      1000 8.40990E+01
 -1      1001 8.40990E+01
 -1      1002 8.41536E+01
 -1      1003 8.41536E+01
 -1      1004 8.41375E+01
 -1      1005 8.41375E+01
 -1      1006 8.41398E+01
 -1      1007 8.41398E+01
 -1      1008 8.41171E+01
 -1      1009 8.41171E+01
 -1      1010 8.41094E+01
 -1      1011 8.41248E+01
 -1      1012 8.41248E+01
 -1      1013 8.41738E+01
 -1      1014 8.41738E+01
 -1      1015 8.41280E+01
 -1      1016 8.41406E+01
 -1      1017 8.41406E+01
 -1      1018 8.41568E+01
 -1      1019 8.41568E+01
 -1      1020 8.41771E+01
 -1      1021 8.41771E+01
 -1      1022 8.41439E+01
 -1      1023 8.41439E+01
 -1      1024 8.41774E+01
 -1      1025 8.41774E+01
 -1      1026 8.41289E+01
 -1      1027 8.41529E+01
 -1      1028 8.41529E+01
 -1      1029 8.41661E+01
 -1      1030 8.41661E+01
 -1      1031 8.41818E+01
 -1      1032 8.41818E+01
 -1      1033 8.41068E+01
 -1      1034 8.41819E+01
 -1      1035 8.41819E+01
 -1      1036 8.41650E+01
 -1      1037 8.41650E+01
 -1      1038 8.41556E+01
 -1      1039 8.41556E+01
 -1      1040 8.41286E+01
 -1      1041 8.41307E+01
 -1      1042 8.41485E+01
 -1      1043 8.41485E+01
 -1      1044 8.41244E+01
 -1      1045 8.41858E+01
 -1      1046 8.41858E+01
 -1      1047 8.41683E+01
 -1      1048 8.41683E+01
 -1      1049 8.41549E+01
 -1      1050 8.41549E+01
 -1      1051 8.41413E+01
 -1      1052 8.41858E+01
 -1      1053 8.41858E+01
 -1      1054 8.41396E+01
 -1      1055 8.41396E+01
 -1      1056 8.41330E+01
 -1      1057 8.41333E+01
 -1      1058 8.41401E+01
 -1      1059 8.41401E+01
 -1      1060 8.41864E+01
 -1      1061 8.41864E+01
 -1      1062 8.41413E+01
 -1      1063 8.41551E+01
 -1      1064 8.41551E+01
 -1      1065 8.41392E+01
 -1      1066 8.41392E+01
 -1      1067 8.41327E+01
 -1      1068 8.41327E+01
 -1      1069 8.41445E+01
 -1      1070 8.41445E+01
 -1      1071 8.41889E+01
 -1      1072 8.41889E+01
 -1      1073 8.41407E+01
 -1      1074 8.41589E+01
 -1      1075 8.41589E+01
 -1      1076 8.41711E+01
 -1      1077 8.41711E+01
 -1      1078 8.41885E+01
 -1      1079 8.41885E+01
 -1      1080 8.41150E+01
 -1      1081 8.41875E+01
 -1      1082 8.41875E+01
 -1      1083 8.41732E+01
 -1      1084 8.41732E+01
 -1      1085 8.41712E+01
 -1      1086 8.41712E+01
 -1      1087 8.41705E+01
 -1      1088 8.41705E+01
 -1      1089 8.41856E+01
 -1      1090 8.41856E+01
 -1      1091 8.41137E+01
 -1      1092 8.41883E+01
 -1      1093 8.41883E+01
 -1      1094 8.41710E+01
 -1      1095 8.41710E+01
 -1      1096 8.41590E+01
 -1      1097 8.41590E+01
 -1      1098 8.41367E+01
 -1      1099 8.41838E+01
 -1      1100 8.41838E+01
 -1      1101 8.41510E+01
 -1      1102 8.41510E+01
 -1      1103 8.41880E+01
 -1      1104 8.41880E+01
 -1      1105 8.41679E+01
 -1      1106 8.41679E+01
 -1      1107 8.41534E+01
 -1      1108 8.41534E+01
 -1      1109 8.41375E+01
 -1      1110 8.41833E+01
 -1      1111 8.41833E+01
 -1      1112 8.41405E+01
 -1      1113 8.41405E+01
 -1      1114 8.41236E+01
 -1      1115 8.41351E+01
 -1      1116 8.41351E+01
 -1      1117 8.41494E+01
 -1      1118 8.41494E+01
 -1      1119 8.41232E+01
 -1      1120 8.41222E+01
 -1      1121 8.41455E+01
 -1      1122 8.41455E+01
 -1      1123 8.41236E+01
 -1      1124 8.41236E+01
 -1      1125 8.41194E+01
 -1      1126 8.41225E+01
 -1      1127 8.41225E+01
 -1      1128 8.41339E+01
 -1      1129 8.41339E+01
 -1      1130 8.41049E+01
 -1      1131 8.41003E+01
 -1      1132 8.41216E+01
 -1      1133 8.41216E+01
 -1      1134 8.40957E+01
 -1      1135 8.40957E+01
 -1      1136 8.40761E+01
 -1      1137 8.40748E+01
 -1      1138 8.40700E+01
 -1      1139 8.40912E+01
 -1      1140 8.40912E+01
 -1      1141 8.40399E+01
 -1      1142 8.40399E+01
 -1      1143 8.39695E+01
 -1      1144 8.39695E+01
 -1      1145 8.38568E+01
 -1      1146 8.38141E+01
 -1      1147 8.36864E+01
 -1      1148 8.34978E+01
 -1      1149 8.31644E+01
 -1      1150 8.24170E+01
 -1      1151 8.05645E+01
 -1      1152 7.28762E+01
 -1      1153 4.48460E+01
 -1      1154 7.53621E+01
 -1      1155 8.11726E+01
 -1      1156 8.25558E+01
 -1      1157 8.32773E+01
 -1      1158 8.34972E+01
 -1      1159 8.37006E+01
 -1      1160 8.37993E+01
 -1      1161 8.38687E+01
 -1      1162 8.39329E+01
 -1      1163 8.39336E+01
 -1      1164 8.40255E+01
 -1      1165 8.40255E+01
 -1      1166 8.40688E+01
 -1      1167 8.40688E+01
 -1      1168 8.41056E+01
 -1      1169 8.41056E+01
 -1      1170 8.40478E+01
 -1      1171 8.41299E+01
 -1      1172 8.41299E+01
 -1      1173 8.41230E+01
 -1      1174 8.41230E+01
 -1      1175 8.41184E+01
 -1      1176 8.41184E+01
 -1      1177 8.41000E+01
 -1      1178 8.40996E+01
 -1      1179 8.41320E+01
 -1      1180 8.41320E+01
 -1      1181 8.41175E+01
 -1      1182 8.41175E+01
 -1      1183 8.41109E+01
 -1      1184 8.41209E+01
 -1      1185 8.41209E+01
 -1      1186 8.41431E+01
 -1      1187 8.41431E+01
 -1      1188 8.41120E+01
 -1      1189 8.41070E+01
 -1      1190 8.41574E+01
 -1      1191 8.41574E+01
 -1      1192 8.41473E+01
 -1      1193 8.41473E+01
 -1      1194 8.41481E+01
 -1      1195 8.41481E+01
 -1      1196 8.41376E+01
 -1      1197 8.41376E+01
 -1      1198 8.41441E+01
 -1      1199 8.41441E+01
 -1      1200 8.41983E+01
 -1      1201 8.41983E+01
 -1      1202 8.41813E+01
 -1      1203 8.65326E+01
 -1      1204 8.65326E+01
 -1      1205 7.46413E+01
 -1      1206 7.07961E-02
 -1      1207 2.70465E-01
 -1      1208 5.58728E-01
 -1      1209 9.49438E-01
 -1      1210 1.44190E+00
 -1      1211 1.97749E+00
 -1      1212 2.70040E+00
 -1      1213 3.40801E+00
 -1      1214 4.27918E+00
 -1      1215 6.33436E+00
 -1      1216 1.78618E+01
 -1      1217 3.53224E+01
 -1      1218 4.82809E+01
 -1      1219 5.88055E+01
 -1      1220 6.71908E+01
 -1      1221 7.33156E+01
 -1      1222 7.87305E+01
 -1      1223 8.20495E+01
 -1      1224 8.33612E+01
 -1      1225 8.37623E+01
 -1      1226 8.37623E+01
 -1      1227 8.40175E+01
 -1      1228 8.40175E+01
 -1      1229 8.40070E+01
 -1      1230 8.40099E+01
 -1      1231 8.40105E+01
 -1      1232 8.40617E+01
 -1      1233 8.40617E+01
 -1      1234 8.40508E+01
 -1      1235 8.40614E+01
 -1      1236 8.40972E+01
 -1      1237 8.40972E+01
 -1      1238 8.40909E+01
 -1      1239 8.40909E+01
 -1      1240 8.40905E+01
 -1      1241 8.40990E+01
 -1      1242 8.40990E+01
 -1      1243 8.41536E+01
 -1      1244 8.41536E+01
 -1      1245 8.41375E+01
 -1      1246 8.41375E+01
 -1      1247 8.41398E+01
 -1      1248 8.41398E+01
 -1      1249 8.41171E+01
 -1      1250 8.41171E+01
 -1      1251 8.41094E+01
 -1      1252 8.41248E+01
 -1      1253 8.41248E+01
 -1      1254 8.41738E+01
 -1      1255 8.41738E+01
 -1      1256 8.41280E+01
 -1      1257 8.41406E+01
 -1      1258 8.41406E+01
 -1      1259 8.41568E+01
 -1      1260 8.41568E+01
 -1      1261 8.41771E+01
 -1      1262 8.41771E+01
 -1      1263 8.41439E+01
 -1      1264 8.41439E+01
 -1      1265 8.41774E+01
 -1      1266 8.41774E+01
 -1      1267 8.41289E+01
 -1      1268 8.41529E+01
 -1      1269 8.41529E+01
 -1      1270 8.41661E+01
 -1      1271 8.41661E+01
 -1      1272 8.41818E+01
 -1      1273 8.41818E+01
 -1      1274 8.41068E+01
 -1      1275 8.41819E+01
 -1      1276 8.41819E+01
 -1      1277 8.41650E+01
 -1      1278 8.41650E+01
 -1      1279 8.41556E+01
 -1      1280 8.41556E+01
 -1      1281 8.41286E+01
 -1      1282 8.41307E+01
 -1      1283 8.41485E+01
 -1      1284 8.41485E+01
 -1      1285 8.41244E+01
 -1      1286 8.41858E+01
 -1      1287 8.41858E+01
 -1      1288 8.41683E+01
 -1      1289 8.41683E+01
 -1      1290 8.41549E+01
 -1      1291 8.41549E+01
 -1      1292 8.41413E+01
 -1      1293 8.41858E+01
 -1      1294 8.41858E+01
 -1      1295 8.41396E+01
 -1      1296 8.41396E+01
 -1      1297 8.41330E+01
 -1      1298 8.41333E+01
 -1      1299 8.41401E+01
 -1      1300 8.41401E+01
 -1      1301 8.41864E+01
 -1      1302 8.41864E+01
 -1      1303 8.41413E+01
 -1      1304 8.41551E+01
 -1      1305 8.41551E+01
 -1      1306 8.41392E+01
 -1      1307 8.41392E+01
 -1      1308 8.41327E+01
 -1      1309 8.41327E+01
 -1      1310 8.41445E+01
 -1      1311 8.41445E+01
 -1      1312 8.41889E+01
 -1      1313 8.41889E+01
 -1      1314 8.41407E+01
 -1      1315 8.41589E+01
 -1      1316 8.41589E+01
 -1      1317 8.41711E+01
 -1      1318 8.41711E+01
 -1      1319 8.41885E+01
 -1      1320 8.41885E+01
 -1      1321 8.41150E+01
 -1      1322 8.41875E+01
 -1      1323 8.41875E+01
 -1      1324 8.41732E+01
 -1      1325 8.41732E+01
 -1      1326 8.41712E+01
 -1      1327 8.41712E+01
 -1      1328 8.41705E+01
 -1      1329 8.41705E+01
 -1      1330 8.41856E+01
 -1      1331 8.41856E+01
 -1      1332 8.41137E+01
 -1      1333 8.41883E+01
 -1      1334 8.41883E+01
 -1      1335 8.41710E+01
 -1      1336 8.41710E+01
 -1      1337 8.41590E+01
 -1      1338 8.41590E+01
 -1      1339 8.41367E+01
 -1      1340 8.41838E+01
 -1      1341 8.41838E+01
 -1      1342 8.41510E+01
 -1      1343 8.41510E+01
 -1      1344 8.41880E+01
 -1      1345 8.41880E+01
 -1      1346 8.41679E+01
 -1      1347 8.41679E+01
 -1      1348 8.41534E+01
 -1      1349 8.41534E+01
 -1      1350 8.41375E+01
 -1      1351 8.41833E+01
 -1      1352 8.41833E+01
 -1      1353 8.41405E+01
 -1      1354 8.41405E+01
 -1      1355 8.41236E+01
 -1      1356 8.41351E+01
 -1      1357 8.41351E+01
 -1      1358 8.41494E+01
 -1      1359 8.41494E+01
 -1      1360 8.41232E+01
 -1      1361 8.41222E+01
 -1      1362 8.41455E+01
 -1      1363 8.41455E+01
 -1      1364 8.41236E+01
 -1      1365 8.41236E+01
 -1      1366 8.41194E+01
 -1      1367 8.41225E+01
 -1      1368 8.41225E+01
 -1      1369 8.41339E+01
 -1      1370 8.41339E+01
 -1      1371 8.41049E+01
 -1      1372 8.41003E+01
 -1      1373 8.41216E+01
 -1      1374 8.41216E+01
 -1      1375 8.40957E+01
 -1      1376 8.40957E+01
 -1      1377 8.40761E+01
 -1      1378 8.40748E+01
 -1      1379 8.40700E+01
 -1      1380 8.40912E+01
 -1      1381 8.40912E+01
 -1      1382 8.40399E+01
 -1      1383 8.40399E+01
 -1      1384 8.39695E+01
 -1      1385 8.39695E+01
 -1      1386 8.38568E+01
 -1      1387 8.38141E+01
 -1      1388 8.36864E+01
 -1      1389 8.34978E+01
 -1      1390 8.31644E+01
 -1      1391 8.24170E+01
 -1      1392 8.05645E+01
 -1      1393 7.28762E+01
 -1      1394 4.48460E+01
 -1      1395 7.53621E+01
 -1      1396 8.11726E+01
 -1      1397 8.25558E+01
 -1      1398 8.32773E+01
 -1      1399 8.34972E+01
 -1      1400 8.37006E+01
 -1      1401 8.37993E+01
 -1      1402 8.38687E+01
 -1      1403 8.39329E+01
 -1      1404 8.39336E+01
 -1      1405 8.40255E+01
 -1      1406 8.40255E+01
 -1      1407 8.40688E+01
 -1      1408 8.40688E+01
 -1      1409 8.41056E+01
 -1      1410 8.41056E+01
 -1      1411 8.40478E+01
 -1      1412 8.41299E+01
 -1      1413 8.41299E+01
 -1      1414 8.41230E+01
 -1      1415 8.41230E+01
 -1      1416 8.41184E+01
 -1      1417 8.41184E+01
 -1      1418 8.41000E+01
 -1      1419 8.40996E+01
 -1      1420 8.41320E+01
 -1      1421 8.41320E+01
 -1      1422 8.41175E+01
 -1      1423 8.41175E+01
 -1      1424 8.41109E+01
 -1      1425 8.41209E+01
 -1      1426 8.41209E+01
 -1      1427 8.41431E+01
 -1      1428 8.41431E+01
 -1      1429 8.41120E+01
 -1      1430 8.41070E+01
 -1      1431 8.41574E+01
 -1      1432 8.41574E+01
 -1      1433 8.41473E+01
 -1      1434 8.41473E+01
 -1      1435 8.41481E+01
 -1      1436 8.41481E+01
 -1      1437 8.41376E+01
 -1      1438 8.41376E+01
 -1      1439 8.41441E+01
 -1      1440 8.41441E+01
 -1      1441 8.41983E+01
 -1      1442 8.41983E+01
 -1      1443 8.41813E+01
 -1      1444 8.65326E+01
 -1      1445 8.65326E+01
 -1      1446 7.46413E+01
 -1      1447 1.73453E-01
 -1      1448 5.68951E-01
 -1      1449 1.04918E+00
 -1      1450 1.58947E+00
 -1      1451 2.19021E+00
 -1      1452 2.85310E+00
 -1      1453 3.53813E+00
 -1      1454 1.54606E+01
 -1      1455 2.69409E+01
 -1      1456 2.69977E+01
 -1      1457 2.70508E+01
 -1      1458 3.53105E+01
 -1      1459 4.82717E+01
 -1      1460 5.87987E+01
 -1      1461 6.71860E+01
 -1      1462 7.33127E+01
 -1      1463 7.87305E+01
 -1      1464 8.20495E+01
 -1      1465 8.33612E+01
 -1      1466 8.37623E+01
 -1      1467 8.37623E+01
 -1      1468 8.40175E+01
 -1      1469 8.40175E+01
 -1      1470 8.40070E+01
 -1      1471 8.40099E+01
 -1      1472 8.40105E+01
 -1      1473 8.40617E+01
 -1      1474 8.40617E+01
 -1      1475 8.40508E+01
 -1      1476 8.40614E+01
 -1      1477 8.40972E+01
 -1      1478 8.40972E+01
 -1      1479 8.40909E+01
 -1      1480 8.40909E+01
 -1      1481 8.40905E+01
 -1      1482 8.40990E+01
 -1      1483 8.40990E+01
 -1      1484 8.41536E+01
 -1      1485 8.41536E+01
 -1      1486 8.41375E+01
 -1      1487 8.41375E+01
 -1      1488 8.41398E+01
 -1      1489 8.41398E+01
 -1      1490 8.41171E+01
 -1      1491 8.41171E+01
 -1      1492 8.41094E+01
 -1      1493 8.41248E+01
 -1      1494 8.41248E+01
 -1      1495 8.41738E+01
 -1      1496 8.41738E+01
 -1      1497 8.41280E+01
 -1      1498 8.41406E+01
 -1      1499 8.41406E+01
 -1      1500 8.41568E+01
 -1      1501 8.41568E+01
 -1      1502 8.41771E+01
 -1      1503 8.41771E+01
 -1      1504 8.41439E+01
 -1      1505 8.41439E+01
 -1      1506 8.41774E+01
 -1      1507 8.41774E+01
 -1      1508 8.41289E+01
 -1      1509 8.41529E+01
 -1      1510 8.41529E+01
 -1      1511 8.41661E+01
 -1      1512 8.41661E+01
 -1      1513 8.41818E+01
 -1      1514 8.41818E+01
 -1      1515 8.41068E+01
 -1      1516 8.41819E+01
 -1      1517 8.41819E+01
 -1      1518 8.41650E+01
 -1      1519 8.41650E+01
 -1      1520 8.41556E+01
 -1      1521 8.41556E+01
 -1      1522 8.41286E+01
 -1      1523 8.41307E+01
 -1      1524 8.41485E+01
 -1      1525 8.41485E+01
 -1      1526 8.41244E+01
 -1      1527 8.41858E+01
 -1      1528 8.41858E+01
 -1      1529 8.41683E+01
 -1      1530 8.41683E+01
 -1      1531 8.41549E+01
 -1      1532 8.41549E+01
 -1      1533 8.41413E+01
 -1      1534 8.41858E+01
 -1      1535 8.41858E+01
 -1      1536 8.41396E+01
 -1      1537 8.41396E+01
 -1      1538 8.41330E+01
 -1      1539 8.41333E+01
 -1      1540 8.41401E+01
 -1      1541 8.41401E+01
 -1      1542 8.41864E+01
 -1      1543 8.41864E+01
 -1      1544 8.41413E+01
 -1      1545 8.41551E+01
 -1      1546 8.41551E+01
 -1      1547 8.41392E+01
 -1      1548 8.41392E+01
 -1      1549 8.41327E+01
 -1      1550 8.41327E+01
 -1      1551 8.41445E+01
 -1      1552 8.41445E+01
 -1      1553 8.41889E+01
 -1      1554 8.41889E+01
 -1      1555 8.41407E+01
 -1      1556 8.41589E+01
 -1      1557 8.41589E+01
 -1      1558 8.41711E+01
 -1      1559 8.41711E+01
 -1      1560 8.41885E+01
 -1      1561 8.41885E+01
 -1      1562 8.41150E+01
 -1      1563 8.41875E+01
 -1      1564 8.41875E+01
 -1      1565 8.41732E+01
 -1      1566 8.41732E+01
 -1      1567 8.41712E+01
 -1      1568 8.41712E+01
 -1      1569 8.41705E+01
 -1      1570 8.41705E+01
 -1      1571 8.41856E+01
 -1      1572 8.41856E+01
 -1      1573 8.41137E+01
 -1      1574 8.41883E+01
 -1      1575 8.41883E+01
 -1      1576 8.41710E+01
 -1      1577 8.41710E+01
 -1      1578 8.41590E+01
 -1      1579 8.41590E+01
 -1      1580 8.41367E+01
 -1      1581 8.41838E+01
 -1      1582 8.41838E+01
 -1      1583 8.41510E+01
 -1      1584 8.41510E+01
 -1      1585 8.41880E+01
 -1      1586 8.41880E+01
 -1      1587 8.41679E+01
 -1      1588 8.41679E+01
 -1      1589 8.41534E+01
 -1      1590 8.41534E+01
 -1      1591 8.41375E+01
 -1      1592 8.41833E+01
 -1      1593 8.41833E+01
 -1      1594 8.41405E+01
 -1      1595 8.41405E+01
 -1      1596 8.41236E+01
 -1      1597 8.41351E+01
 -1      1598 8.41351E+01
 -1      1599 8.41494E+01
 -1      1600 8.41494E+01
 -1      1601 8.41232E+01
 -1      1602 8.41222E+01
 -1      1603 8.41455E+01
 -1      1604 8.41455E+01
 -1      1605 8.41236E+01
 -1      1606 8.41236E+01
 -1      1607 8.41194E+01
 -1      1608 8.41225E+01
 -1      1609 8.41225E+01
 -1      1610 8.41339E+01
 -1      1611 8.41339E+01
 -1      1612 8.41049E+01
 -1      1613 8.41003E+01
 -1      1614 8.41216E+01
 -1      1615 8.41216E+01
 -1      1616 8.40957E+01
 -1      1617 8.40957E+01
 -1      1618 8.40761E+01
 -1      1619 8.40748E+01
 -1      1620 8.40700E+01
 -1      1621 8.40912E+01
 -1      1622 8.40912E+01
 -1      1623 8.40399E+01
 -1      1624 8.40399E+01
 -1      1625 8.39695E+01
 -1      1626 8.39695E+01
 -1      1627 8.38568E+01
 -1      1628 8.38141E+01
 -1      1629 8.36864E+01
 -1      1630 8.34978E+01
 -1      1631 8.31644E+01
 -1      1632 8.24170E+01
 -1      1633 8.05645E+01
 -1      1634 7.28762E+01
 -1      1635 4.48460E+01
 -1      1636 7.53621E+01
 -1      1637 8.11726E+01
 -1      1638 8.25558E+01
 -1      1639 8.32773E+01
 -1      1640 8.34972E+01
 -1      1641 8.37006E+01
 -1      1642 8.37993E+01
 -1      1643 8.38687E+01
 -1      1644 8.39329E+01
 -1      1645 8.39336E+01
 -1      1646 8.40255E+01
 -1      1647 8.40255E+01
 -1      1648 8.40688E+01
 -1      1649 8.40688E+01
 -1      1650 8.41056E+01
 -1      1651 8.41056E+01
 -1      1652 8.40478E+01
 -1      1653 8.41299E+01
 -1      1654 8.41299E+01
 -1      1655 8.41230E+01
 -1      1656 8.41230E+01
 -1      1657 8.41184E+01
 -1      1658 8.41184E+01
 -1      1659 8.41000E+01
 -1      1660 8.40996E+01
 -1      1661 8.41320E+01
 -1      1662 8.41320E+01
 -1      1663 8.41175E+01
 -1      1664 8.41175E+01
 -1      1665 8.41109E+01
 -1      1666 8.41209E+01
 -1      1667 8.41209E+01
 -1      1668 8.41431E+01
 -1      1669 8.41431E+01
 -1      1670 8.41120E+01
 -1      1671 8.41070E+01
 -1      1672 8.41574E+01
 -1      1673 8.41574E+01
 -1      1674 8.41473E+01
 -1      1675 8.41473E+01
 -1      1676 8.41481E+01
 -1      1677 8.41481E+01
 -1      1678 8.41376E+01
 -1      1679 8.41376E+01
 -1      1680 8.41441E+01
 -1      1681 8.41441E+01
 -1      1682 8.41983E+01
 -1      1683 8.41983E+01
 -1      1684 8.41813E+01
 -1      1685 8.65326E+01
 -1      1686 8.65326E+01
 -1      1687 7.46413E+01
 -1      1688 1.73453E-01
 -1      1689 5.68951E-01
 -1      1690 1.04918E+00
 -1      1691 1.58947E+00
 -1      1692 2.19021E+00
 -1      1693 2.85310E+00
 -1      1694 3.53813E+00
 -1      1695 1.54606E+01
 -1      1696 2.69409E+01
 -1      1697 2.69977E+01
 -1      1698 2.70508E+01
 -1      1699 3.53105E+01
 -1      1700 4.82717E+01
 -1      1701 5.87987E+01
 -1      1702 6.71860E+01
 -1      1703 7.33127E+01
 -1      1704 7.87305E+01
 -1      1705 8.20495E+01
 -1      1706 8.33612E+01
 -1      1707 8.37623E+01
 -1      1708 8.37623E+01
 -1      1709 8.40175E+01
 -1      1710 8.40175E+01
 -1      1711 8.40070E+01
 -1      1712 8.40099E+01
 -1      1713 8.40105E+01
 -1      1714 8.40617E+01
 -1      1715 8.40617E+01
 -1      1716 8.40508E+01
 -1      1717 8.40614E+01
 -1      1718 8.40972E+01
 -1      1719 8.40972E+01
 -1      1720 8.40909E+01
 -1      1721 8.40909E+01
 -1      1722 8.40905E+01
 -1      1723 8.40990E+01
 -1      1724 8.40990E+01
 -1      1725 8.41536E+01
 -1      1726 8.41536E+01
 -1      1727 8.41375E+01
 -1      1728 8.41375E+01
 -1      1729 8.41398E+01
 -1      1730 8.41398E+01
 -1      1731 8.41171E+01
 -1      1732 8.41171E+01
 -1      1733 8.41094E+01
 -1      1734 8.41248E+01
 -1      1735 8.41248E+01
 -1      1736 8.41738E+01
 -1      1737 8.41738E+01
 -1      1738 8.41280E+01
 -1      1739 8.41406E+01
 -1      1740 8.41406E+01
 -1      1741 8.41568E+01
 -1      1742 8.41568E+01
 -1      1743 8.41771E+01
 -1      1744 8.41771E+01
 -1      1745 8.41439E+01
 -1      1746 8.41439E+01
 -1      1747 8.41774E+01
 -1      1748 8.41774E+01
 -1      1749 8.41289E+01
 -1      1750 8.41529E+01
 -1      1751 8.41529E+01
 -1      1752 8.41661E+01
 -1      1753 8.41661E+01
 -1      1754 8.41818E+01
 -1      1755 8.41818E+01
 -1      1756 8.41068E+01
 -1      1757 8.41819E+01
 -1      1758 8.41819E+01
 -1      1759 8.41650E+01
 -1      1760 8.41650E+01
 -1      1761 8.41556E+01
 -1      1762 8.41556E+01
 -1      1763 8.41286E+01
 -1      1764 8.41307E+01
 -1      1765 8.41485E+01
 -1      1766 8.41485E+01
 -1      1767 8.41244E+01
 -1      1768 8.41858E+01
 -1      1769 8.41858E+01
 -1      1770 8.41683E+01
 -1      1771 8.41683E+01
 -1      1772 8.41549E+01
 -1      1773 8.41549E+01
 -1      1774 8.41413E+01
 -1      1775 8.41858E+01
 -1      1776 8.41858E+01
 -1      1777 8.41396E+01
 -1      1778 8.41396E+01
 -1      1779 8.41330E+01
 -1      1780 8.41333E+01
 -1      1781 8.41401E+01
 -1      1782 8.41401E+01
 -1      1783 8.41864E+01
 -1      1784 8.41864E+01
 -1      1785 8.41413E+01
 -1      1786 8.41551E+01
 -1      1787 8.41551E+01
 -1      1788 8.41392E+01
 -1      1789 8.41392E+01
 -1      1790 8.41327E+01
 -1      1791 8.41327E+01
 -1      1792 8.41445E+01
 -1      1793 8.41445E+01
 -1      1794 8.41889E+01
 -1      1795 8.41889E+01
 -1      1796 8.41407E+01
 -1      1797 8.41589E+01
 -1      1798 8.41589E+01
 -1      1799 8.41711E+01
 -1      1800 8.41711E+01
 -1      1801 8.41885E+01
 -1      1802 8.41885E+01
 -1      1803 8.41150E+01
 -1      1804 8.41875E+01
 -1      1805 8.41875E+01
 -1      1806 8.41732E+01
 -1      1807 8.41732E+01
 -1      1808 8.41712E+01
 -1      1809 8.41712E+01
 -1      1810 8.41705E+01
 -1      1811 8.41705E+01
 -1      1812 8.41856E+01
 -1      1813 8.41856E+01
 -1      1814 8.41137E+01
 -1      1815 8.41883E+01
 -1      1816 8.41883E+01
 -1      1817 8.41710E+01
 -1      1818 8.41710E+01
 -1      1819 8.41590E+01
 -1      1820 8.41590E+01
 -1      1821 8.41367E+01
 -1      1822 8.41838E+01
 -1      1823 8.41838E+01
 -1      1824 8.41510E+01
 -1      1825 8.41510E+01
 -1      1826 8.41880E+01
 -1      1827 8.41880E+01
 -1      1828 8.41679E+01
 -1      1829 8.41679E+01
 -1      1830 8.41534E+01
 -1      1831 8.41534E+01
 -1      1832 8.41375E+01
 -1      1833 8.41833E+01
 -1      1834 8.41833E+01
 -1      1835 8.41405E+01
 -1      1836 8.41405E+01
 -1      1837 8.41236E+01
 -1      1838 8.41351E+01
 -1      1839 8.41351E+01
 -1      1840 8.41494E+01
 -1      1841 8.41494E+01
 -1      1842 8.41232E+01
 -1      1843 8.41222E+01
 -1      1844 8.41455E+01
 -1      1845 8.41455E+01
 -1      1846 8.41236E+01
 -1      1847 8.41236E+01
 -1      1848 8.41194E+01
 -1      1849 8.41225E+01
 -1      1850 8.41225E+01
 -1      1851 8.41339E+01
 -1      1852 8.41339E+01
 -1      1853 8.41049E+01
 -1      1854 8.41003E+01
 -1      1855 8.41216E+01
 -1      1856 8.41216E+01
 -1      1857 8.40957E+01
 -1      1858 8.40957E+01
 -1      1859 8.40761E+01
 -1      1860 8.40748E+01
 -1      1861 8.40700E+01
 -1      1862 8.40912E+01
 -1      1863 8.40912E+01
 -1      1864 8.40399E+01
 -1      1865 8.40399E+01
 -1      1866 8.39695E+01
 -1      1867 8.39695E+01
 -1      1868 8.38568E+01
 -1      1869 8.38141E+01
 -1      1870 8.36864E+01
 -1      1871 8.34978E+01
 -1      1872 8.31644E+01
 -1      1873 8.24170E+01
 -1      1874 8.05645E+01
 -1      1875 7.28762E+01
 -1      1876 4.48460E+01
 -1      1877 7.53621E+01
 -1      1878 8.11726E+01
 -1      1879 8.25558E+01
 -1      1880 8.32773E+01
 -1      1881 8.34972E+01
 -1      1882 8.37006E+01
 -1      1883 8.37993E+01
 -1      1884 8.38687E+01
 -1      1885 8.39329E+01
 -1      1886 8.39336E+01
 -1      1887 8.40255E+01
 -1      1888 8.40255E+01
 -1      1889 8.40688E+01
 -1      1890 8.40688E+01
 -1      1891 8.41056E+01
 -1      1892 8.41056E+01
 -1      1893 8.40478E+01
 -1      1894 8.41299E+01
 -1      1895 8.41299E+01
 -1      1896 8.41230E+01
 -1      1897 8.41230E+01
 -1      1898 8.41184E+01
 -1      1899 8.41184E+01
 -1      1900 8.41000E+01
 -1      1901 8.40996E+01
 -1      1902 8.41320E+01
 -1      1903 8.41320E+01
 -1      1904 8.41175E+01
 -1      1905 8.41175E+01
 -1      1906 8.41109E+01
 -1      1907 8.41209E+01
 -1      1908 8.41209E+01
 -1      1909 8.41431E+01
 -1      1910 8.41431E+01
 -1      1911 8.41120E+01
 -1      1912 8.41070E+01
 -1      1913 8.41574E+01
 -1      1914 8.41574E+01
 -1      1915 8.41473E+01
 -1      1916 8.41473E+01
 -1      1917 8.41481E+01
 -1      1918 8.41481E+01
 -1      1919 8.41376E+01
 -1      1920 8.41376E+01
 -1      1921 8.41441E+01
 -1      1922 8.41441E+01
 -1      1923 8.41983E+01
 -1      1924 8.41983E+01
 -1      1925 8.41813E+01
 -1      1926 8.65326E+01
 -1      1927 8.65326E+01
 -1      1928 7.46413E+01
 -1      1929 1.73453E-01
 -1      1930 5.68951E-01
 -1      1931 1.04918E+00
 -1      1932 1.58947E+00
 -1      1933 2.19021E+00
 -1      1934 2.85310E+00
 -1      1935 3.53813E+00
 -1      1936 1.54606E+01
 -1      1937 2.69409E+01
 -1      1938 2.69977E+01
 -1      1939 2.70508E+01
 -1      1940 2.70508E+01
 -1      1941 2.70591E+01
 -1      1942 2.70591E+01
 -1      1943 2.70293E+01
 -1      1944 2.70396E+01
 -1      1945 2.70396E+01
 -1      1946 2.70506E+01
 -1      1947 2.70506E+01
 -1      1948 2.70332E+01
 -1      1949 2.70332E+01
 -1      1950 2.70214E+01
 -1      1951 2.70294E+01
 -1      1952 2.70294E+01
 -1      1953 2.70300E+01
 -1      1954 2.70300E+01
 -1      1955 2.70243E+01
 -1      1956 2.70243E+01
 -1      1957 2.70263E+01
 -1      1958 2.70263E+01
 -1      1959 2.70209E+01
 -1      1960 2.70209E+01
 -1      1961 2.70193E+01
 -1      1962 2.70226E+01
 -1      1963 2.70226E+01
 -1      1964 2.70186E+01
 -1      1965 2.70252E+01
 -1      1966 2.70252E+01
 -1      1967 2.70340E+01
 -1      1968 2.70340E+01
 -1      1969 2.70281E+01
 -1      1970 2.70281E+01
 -1      1971 2.70254E+01
 -1      1972 2.70254E+01
 -1      1973 2.70263E+01
 -1      1974 2.70263E+01
 -1      1975 2.70181E+01
 -1      1976 2.70227E+01
 -1      1977 2.70227E+01
 -1      1978 2.70300E+01
 -1      1979 2.70300E+01
 -1      1980 2.70161E+01
 -1      1981 2.70261E+01
 -1      1982 2.70261E+01
 -1      1983 2.70339E+01
 -1      1984 2.70339E+01
 -1      1985 2.70298E+01
 -1      1986 2.70298E+01
 -1      1987 2.70283E+01
 -1      1988 2.70283E+01
 -1      1989 2.70283E+01
 -1      1990 2.70283E+01
 -1      1991 2.70151E+01
 -1      1992 2.70277E+01
 -1      1993 2.70277E+01
 -1      1994 2.70290E+01
 -1      1995 2.70290E+01
 -1      1996 2.70200E+01
 -1      1997 2.70215E+01
 -1      1998 2.70215E+01
 -1      1999 2.70293E+01
 -1      2000 2.70293E+01
 -1      2001 2.70233E+01
 -1      2002 2.70233E+01
 -1      2003 2.70170E+01
 -1      2004 2.70255E+01
 -1      2005 2.70255E+01
 -1      2006 2.70280E+01
 -1      2007 2.70280E+01
 -1      2008 2.70263E+01
 -1      2009 2.70263E+01
 -1      2010 2.70302E+01
 -1      2011 2.70302E+01
 -1      2012 2.70225E+01
 -1      2013 2.70225E+01
 -1      2014 2.70183E+01
 -1      2015 2.70269E+01
 -1      2016 2.70269E+01
 -1      2017 2.70233E+01
 -1      2018 2.70233E+01
 -1      2019 2.70160E+01
 -1      2020 2.70257E+01
 -1      2021 2.70257E+01
 -1      2022 2.70154E+01
 -1      2023 2.70244E+01
 -1      2024 2.70244E+01
 -1      2025 2.70282E+01
 -1      2026 2.70282E+01
 -1      2027 2.70206E+01
 -1      2028 2.70206E+01
 -1      2029 2.70186E+01
 -1      2030 2.70186E+01
 -1      2031 2.70214E+01
 -1      2032 2.70214E+01
 -1      2033 2.70189E+01
 -1      2034 2.70292E+01
 -1      2035 2.70292E+01
 -1      2036 2.70283E+01
 -1      2037 2.70283E+01
 -1      2038 2.70190E+01
 -1      2039 2.70204E+01
 -1      2040 2.70204E+01
 -1      2041 2.70254E+01
 -1      2042 2.70254E+01
 -1      2043 2.70166E+01
 -1      2044 2.70245E+01
 -1      2045 2.70245E+01
 -1      2046 2.70243E+01
 -1      2047 2.70243E+01
 -1      2048 2.70269E+01
 -1      2049 2.70269E+01
 -1      2050 2.70225E+01
 -1      2051 2.70225E+01
 -1      2052 2.70244E+01
 -1      2053 2.70244E+01
 -1      2054 2.70146E+01
 -1      2055 2.70146E+01
 -1      2056 2.70104E+01
 -1      2057 2.70184E+01
 -1      2058 2.70184E+01
 -1      2059 2.70129E+01
 -1      2060 2.70129E+01
 -1      2061 2.70084E+01
 -1      2062 2.70177E+01
 -1      2063 2.70177E+01
 -1      2064 2.70198E+01
 -1      2065 2.70198E+01
 -1      2066 2.70212E+01
 -1      2067 2.70212E+01
 -1      2068 2.70248E+01
 -1      2069 2.70248E+01
 -1      2070 2.70165E+01
 -1      2071 2.70165E+01
 -1      2072 2.70072E+01
 -1      2073 2.70169E+01
 -1      2074 2.70169E+01
 -1      2075 2.70183E+01
 -1      2076 2.70183E+01
 -1      2077 2.70083E+01
 -1      2078 2.70142E+01
 -1      2079 2.70142E+01
 -1      2080 2.70108E+01
 -1      2081 2.70108E+01
 -1      2082 2.70093E+01
 -1      2083 2.70139E+01
 -1      2084 2.70139E+01
 -1      2085 2.70094E+01
 -1      2086 2.70094E+01
 -1      2087 2.70111E+01
 -1      2088 2.70111E+01
 -1      2089 2.70211E+01
 -1      2090 2.70211E+01
 -1      2091 2.70124E+01
 -1      2092 2.70124E+01
 -1      2093 2.70066E+01
 -1      2094 2.70118E+01
 -1      2095 2.70118E+01
 -1      2096 2.70068E+01
 -1      2097 2.70095E+01
 -1      2098 2.70095E+01
 -1      2099 2.70123E+01
 -1      2100 2.70123E+01
 -1      2101 2.70050E+01
 -1      2102 2.70080E+01
 -1      2103 2.70080E+01
 -1      2104 2.70145E+01
 -1      2105 2.70145E+01
 -1      2106 2.70134E+01
 -1      2107 2.70134E+01
 -1      2108 2.70098E+01
 -1      2109 2.70098E+01
 -1      2110 2.70078E+01
 -1      2111 2.70078E+01
 -1      2112 2.69911E+01
 -1      2113 2.69911E+01
 -1      2114 2.69755E+01
 -1      2115 2.69502E+01
 -1      2116 2.69004E+01
 -1      2117 2.72102E+01
 -1      2118 2.72102E+01
 -1      2119 2.70444E+01
 -1      2120 2.70357E+01
 -1      2121 2.70357E+01
 -1      2122 2.70219E+01
 -1      2123 2.70234E+01
 -1      2124 2.70234E+01
 -1      2125 2.70293E+01
 -1      2126 2.70293E+01
 -1      2127 2.70256E+01
 -1      2128 2.70256E+01
 -1      2129 2.70262E+01
 -1      2130 2.70262E+01
 -1      2131 2.70312E+01
 -1      2132 2.70312E+01
 -1      2133 2.70160E+01
 -1      2134 2.70196E+01
 -1      2135 2.70196E+01
 -1      2136 2.70272E+01
 -1      2137 2.70272E+01
 -1      2138 2.70218E+01
 -1      2139 2.70218E+01
 -1      2140 2.70159E+01
 -1      2141 2.70159E+01
 -1      2142 2.70175E+01
 -1      2143 2.70175E+01
 -1      2144 2.70260E+01
 -1      2145 2.70260E+01
 -1      2146 2.70251E+01
 -1      2147 2.70251E+01
 -1      2148 2.70196E+01
 -1      2149 2.70196E+01
 -1      2150 2.70221E+01
 -1      2151 2.70221E+01
 -1      2152 2.70307E+01
 -1      2153 2.70307E+01
 -1      2154 2.70328E+01
 -1      2155 2.70328E+01
 -1      2156 2.70425E+01
 -1      2157 2.70425E+01
 -1      2158 2.70687E+01
 -1      2159 2.70687E+01
 -1      2160 2.71016E+01
 -1      2161 2.71016E+01
 -1      2162 2.71532E+01
 -1      2163 2.71532E+01
 -1      2164 2.71958E+01
 -1      2165 2.71958E+01
 -1      2166 2.69083E+01
 -1      2167 2.81965E+01
 -1      2168 2.81965E+01
 -1      2169 2.17073E+01
 -1      2170 1.73453E-01
 -1      2171 5.68951E-01
 -1      2172 1.04918E+00
 -1      2173 1.58947E+00
 -1      2174 2.19021E+00
 -1      2175 2.85310E+00
 -1      2176 3.53813E+00
 -1      2177 1.54606E+01
 -1      2178 2.69409E+01
 -1      2179 2.69977E+01
 -1      2180 2.70508E+01
 -1      2181 2.70508E+01
 -1      2182 2.70591E+01
 -1      2183 2.70591E+01
 -1      2184 2.70293E+01
 -1      2185 2.70396E+01
 -1      2186 2.70396E+01
 -1      2187 2.70506E+01
 -1      2188 2.70506E+01
 -1      2189 2.70332E+01
 -1      2190 2.70332E+01
 -1      2191 2.70214E+01
 -1      2192 2.70294E+01
 -1      2193 2.70294E+01
 -1      2194 2.70300E+01
 -1      2195 2.70300E+01
 -1      2196 2.70243E+01
 -1      2197 2.70243E+01
 -1      2198 2.70263E+01
 -1      2199 2.70263E+01
 -1      2200 2.70209E+01
 -1      2201 2.70209E+01
 -1      2202 2.70193E+01
 -1      2203 2.70226E+01
 -1      2204 2.70226E+01
 -1      2205 2.70186E+01
 -1      2206 2.70252E+01
 -1      2207 2.70252E+01
 -1      2208 2.70340E+01
 -1      2209 2.70340E+01
 -1      2210 2.70281E+01
 -1      2211 2.70281E+01
 -1      2212 2.70254E+01
 -1      2213 2.70254E+01
 -1      2214 2.70263E+01
 -1      2215 2.70263E+01
 -1      2216 2.70181E+01
 -1      2217 2.70227E+01
 -1      2218 2.70227E+01
 -1      2219 2.70300E+01
 -1      2220 2.70300E+01
 -1      2221 2.70161E+01
 -1      2222 2.70261E+01
 -1      2223 2.70261E+01
 -1      2224 2.70339E+01
 -1      2225 2.70339E+01
 -1      2226 2.70298E+01
 -1      2227 2.70298E+01
 -1      2228 2.70283E+01
 -1      2229 2.70283E+01
 -1      2230 2.70283E+01
 -1      2231 2.70283E+01
 -1      2232 2.70151E+01
 -1      2233 2.70277E+01
 -1      2234 2.70277E+01
 -1      2235 2.70290E+01
 -1      2236 2.70290E+01
 -1      2237 2.70200E+01
 -1      2238 2.70215E+01
 -1      2239 2.70215E+01
 -1      2240 2.70293E+01
 -1      2241 2.70293E+01
 -1      2242 2.70233E+01
 -1      2243 2.70233E+01
 -1      2244 2.70170E+01
 -1      2245 2.70255E+01
 -1      2246 2.70255E+01
 -1      2247 2.70280E+01
 -1      2248 2.70280E+01
 -1      2249 2.70263E+01
 -1      2250 2.70263E+01
 -1      2251 2.70302E+01
 -1      2252 2.70302E+01
 -1      2253 2.70225E+01
 -1      2254 2.70225E+01
 -1      2255 2.70183E+01
 -1      2256 2.70269E+01
 -1      2257 2.70269E+01
 -1      2258 2.70233E+01
 -1      2259 2.70233E+01
 -1      2260 2.70160E+01
 -1      2261 2.70257E+01
 -1      2262 2.70257E+01
 -1      2263 2.70154E+01
 -1      2264 2.70244E+01
 -1      2265 2.70244E+01
 -1      2266 2.70282E+01
 -1      2267 2.70282E+01
 -1      2268 2.70206E+01
 -1      2269 2.70206E+01
 -1      2270 2.70186E+01
 -1      2271 2.70186E+01
 -1      2272 2.70214E+01
 -1      2273 2.70214E+01
 -1      2274 2.70189E+01
 -1      2275 2.70292E+01
 -1      2276 2.70292E+01
 -1      2277 2.70283E+01
 -1      2278 2.70283E+01
 -1      2279 2.70190E+01
 -1      2280 2.70204E+01
 -1      2281 2.70204E+01
 -1      2282 2.70254E+01
 -1      2283 2.70254E+01
 -1      2284 2.70166E+01
 -1      2285 2.70245E+01
 -1      2286 2.70245E+01
 -1      2287 2.70243E+01
 -1      2288 2.70243E+01
 -1      2289 2.70269E+01
 -1      2290 2.70269E+01
 -1      2291 2.70225E+01
 -1      2292 2.70225E+01
 -1      2293 2.70244E+01
 -1      2294 2.70244E+01
 -1      2295 2.70146E+01
 -1      2296 2.70146E+01
 -1      2297 2.70104E+01
 -1      2298 2.70184E+01
 -1      2299 2.70184E+01
 -1      2300 2.70129E+01
 -1      2301 2.70129E+01
 -1      2302 2.70084E+01
 -1      2303 2.70177E+01
 -1      2304 2.70177E+01
 -1      2305 2.70198E+01
 -1      2306 2.70198E+01
 -1      2307 2.70212E+01
 -1      2308 2.70212E+01
 -1      2309 2.70248E+01
 -1      2310 2.70248E+01
 -1      2311 2.70165E+01
 -1      2312 2.70165E+01
 -1      2313 2.70072E+01
 -1      2314 2.70169E+01
 -1      2315 2.70169E+01
 -1      2316 2.70183E+01
 -1      2317 2.70183E+01
 -1      2318 2.70083E+01
 -1      2319 2.70142E+01
 -1      2320 2.70142E+01
 -1      2321 2.70108E+01
 -1      2322 2.70108E+01
 -1      2323 2.70093E+01
 -1      2324 2.70139E+01
 -1      2325 2.70139E+01
 -1      2326 2.70094E+01
 -1      2327 2.70094E+01
 -1      2328 2.70111E+01
 -1      2329 2.70111E+01
 -1      2330 2.70211E+01
 -1      2331 2.70211E+01
 -1      2332 2.70124E+01
 -1      2333 2.70124E+01
 -1      2334 2.70066E+01
 -1      2335 2.70118E+01
 -1      2336 2.70118E+01
 -1      2337 2.70068E+01
 -1      2338 2.70095E+01
 -1      2339 2.70095E+01
 -1      2340 2.70123E+01
 -1      2341 2.70123E+01
 -1      2342 2.70050E+01
 -1      2343 2.70080E+01
 -1      2344 2.70080E+01
 -1      2345 2.70145E+01
 -1      2346 2.70145E+01
 -1      2347 2.70134E+01
 -1      2348 2.70134E+01
 -1      2349 2.70098E+01
 -1      2350 2.70098E+01
 -1      2351 2.70078E+01
 -1      2352 2.70078E+01
 -1      2353 2.69911E+01
 -1      2354 2.69911E+01
 -1      2355 2.69755E+01
 -1      2356 2.69502E+01
 -1      2357 2.69004E+01
 -1      2358 2.72102E+01
 -1      2359 2.72102E+01
 -1      2360 2.70444E+01
 -1      2361 2.70357E+01
 -1      2362 2.70357E+01
 -1      2363 2.70219E+01
 -1      2364 2.70234E+01
 -1      2365 2.70234E+01
 -1      2366 2.70293E+01
 -1      2367 2.70293E+01
 -1      2368 2.70256E+01
 -1      2369 2.70256E+01
 -1      2370 2.70262E+01
 -1      2371 2.70262E+01
 -1      2372 2.70312E+01
 -1      2373 2.70312E+01
 -1      2374 2.70160E+01
 -1      2375 2.70196E+01
 -1      2376 2.70196E+01
 -1      2377 2.70272E+01
 -1      2378 2.70272E+01
 -1      2379 2.70218E+01
 -1      2380 2.70218E+01
 -1      2381 2.70159E+01
 -1      2382 2.70159E+01
 -1      2383 2.70175E+01
 -1      2384 2.70175E+01
 -1      2385 2.70260E+01
 -1      2386 2.70260E+01
 -1      2387 2.70251E+01
 -1      2388 2.70251E+01
 -1      2389 2.70196E+01
 -1      2390 2.70196E+01
 -1      2391 2.70221E+01
 -1      2392 2.70221E+01
 -1      2393 2.70307E+01
 -1      2394 2.70307E+01
 -1      2395 2.70328E+01
 -1      2396 2.70328E+01
 -1      2397 2.70425E+01
 -1      2398 2.70425E+01
 -1      2399 2.70687E+01
 -1      2400 2.70687E+01
 -1      2401 2.71016E+01
 -1      2402 2.71016E+01
 -1      2403 2.71532E+01
 -1      2404 2.71532E+01
 -1      2405 2.71958E+01
 -1      2406 2.71958E+01
 -1      2407 2.69083E+01
 -1      2408 2.81965E+01
 -1      2409 2.81965E+01
 -1      2410 2.17073E+01
 -3
    1PSTEP                         9           1           1          
    1PGM                1.000000E+00                                  
    1PGK                2.131057E+06                                  
    1PHID                         -1                                  
    1PSUBC                         0                                  
    1PMODE                         3                                  
  100CL  103 232.3366394        2410                     2    3MODAL      1
 -4  DISP        4    1
 -5  D1          1    2    1    0
 -5  D2          1    2    2    0
 -5  D3          1    2    3    0
 -5  ALL         1    2    0    0    1ALL
 -1         1-5.66668E-01-1.01034E+02 0.00000E+00
 -1         2-5.66664E-01-9.77280E+01 0.00000E+00
 -1         3-5.66641E-01-9.44224E+01 0.00000E+00
 -1         4-5.66579E-01-9.11170E+01 0.00000E+00
 -1         5-5.66461E-01-8.78123E+01 0.00000E+00
 -1         6-5.66268E-01-8.45083E+01 0.00000E+00
 -1         7-5.65984E-01-8.12059E+01 0.00000E+00
 -1         8-5.65592E-01-7.79053E+01 0.00000E+00
 -1         9-5.65077E-01-7.46075E+01 0.00000E+00
 -1        10-5.64423E-01-7.13129E+01 0.00000E+00
 -1        11-5.63617E-01-6.80228E+01 0.00000E+00
 -1        12-5.62644E-01-6.47377E+01 0.00000E+00
 -1        13-5.61492E-01-6.14589E+01 0.00000E+00
 -1        14-5.60148E-01-5.81873E+01 0.00000E+00
 -1        15-5.58600E-01-5.49242E+01 0.00000E+00
 -1        16-5.56837E-01-5.16707E+01 0.00000E+00
 -1        17-5.54848E-01-4.84281E+01 0.00000E+00
 -1        18-5.52626E-01-4.51979E+01 0.00000E+00
 -1        19-5.50157E-01-4.19813E+01 0.00000E+00
 -1        20-5.47437E-01-3.87799E+01 0.00000E+00
 -1        21-5.44454E-01-3.55950E+01 0.00000E+00
 -1        22-5.41204E-01-3.24285E+01 0.00000E+00
 -1        23-5.37678E-01-2.92816E+01 0.00000E+00
 -1        24-5.33872E-01-2.61562E+01 0.00000E+00
 -1        25-5.29779E-01-2.30537E+01 0.00000E+00
 -1        26-5.25393E-01-1.99760E+01 0.00000E+00
 -1        27-5.20714E-01-1.69247E+01 0.00000E+00
 -1        28-5.15734E-01-1.39016E+01 0.00000E+00
 -1        29-5.10452E-01-1.09084E+01 0.00000E+00
 -1        30-5.04865E-01-7.94698E+00 0.00000E+00
 -1        31-4.98972E-01-5.01901E+00 0.00000E+00
 -1        32-4.92770E-01-2.12631E+00 0.00000E+00
 -1        33-4.86260E-01 7.29306E-01 0.00000E+00
 -1        34-4.79442E-01 3.54605E+00 0.00000E+00
 -1        35-4.72314E-01 6.32211E+00 0.00000E+00
 -1        36-4.64880E-01 9.05571E+00 0.00000E+00
 -1        37-4.57139E-01 1.17451E+01 0.00000E+00
 -1        38-4.49094E-01 1.43884E+01 0.00000E+00
 -1        39-4.40749E-01 1.69839E+01 0.00000E+00
 -1        40-4.32105E-01 1.95298E+01 0.00000E+00
 -1        41-4.23167E-01 2.20245E+01 0.00000E+00
 -1        42-4.13938E-01 2.44661E+01 0.00000E+00
 -1        43-4.04424E-01 2.68531E+01 0.00000E+00
 -1        44-3.94628E-01 2.91838E+01 0.00000E+00
 -1        45-3.84559E-01 3.14565E+01 0.00000E+00
 -1        46-3.74217E-01 3.36697E+01 0.00000E+00
 -1        47-3.63615E-01 3.58218E+01 0.00000E+00
 -1        48-3.52756E-01 3.79113E+01 0.00000E+00
 -1        49-3.41648E-01 3.99367E+01 0.00000E+00
 -1        50-3.30300E-01 4.18967E+01 0.00000E+00
 -1        51-3.18716E-01 4.37898E+01 0.00000E+00
 -1        52-3.06910E-01 4.56146E+01 0.00000E+00
 -1        53-2.94887E-01 4.73699E+01 0.00000E+00
 -1        54-2.82658E-01 4.90545E+01 0.00000E+00
 -1        55-2.70233E-01 5.06671E+01 0.00000E+00
 -1        56-2.57618E-01 5.22068E+01 0.00000E+00
 -1        57-2.44828E-01 5.36723E+01 0.00000E+00
 -1        58-2.31869E-01 5.50627E+01 0.00000E+00
 -1        59-2.18756E-01 5.63771E+01 0.00000E+00
 -1        60-2.05497E-01 5.76146E+01 0.00000E+00
 -1        61-1.92105E-01 5.87743E+01 0.00000E+00
 -1        62-1.78589E-01 5.98555E+01 0.00000E+00
 -1        63-1.64964E-01 6.08576E+01 0.00000E+00
 -1        64-1.51239E-01 6.17799E+01 0.00000E+00
 -1        65-1.37426E-01 6.26219E+01 0.00000E+00
 -1        66-1.23542E-01 6.33831E+01 0.00000E+00
 -1        67-1.09593E-01 6.40631E+01 0.00000E+00
 -1        68-9.55959E-02 6.46615E+01 0.00000E+00
 -1        69-8.15617E-02 6.51783E+01 0.00000E+00
 -1        70-6.75033E-02 6.56131E+01 0.00000E+00
 -1        71-5.34344E-02 6.59658E+01 0.00000E+00
 -1        72-3.93656E-02 6.62365E+01 0.00000E+00
 -1        73-2.53138E-02 6.64251E+01 0.00000E+00
 -1        74-1.12886E-02 6.65319E+01 0.00000E+00
 -1        75 2.69570E-03 6.65569E+01 0.00000E+00
 -1        76 1.66245E-02 6.65006E+01 0.00000E+00
 -1        77 3.04886E-02 6.63631E+01 0.00000E+00
 -1        78 4.42687E-02 6.61451E+01 0.00000E+00
 -1        79 5.79605E-02 6.58469E+01 0.00000E+00
 -1        80 7.15413E-02 6.54691E+01 0.00000E+00
 -1        81 8.50054E-02 6.50125E+01 0.00000E+00
 -1        82 9.83356E-02 6.44777E+01 0.00000E+00
 -1        83 1.11523E-01 6.38656E+01 0.00000E+00
 -1        84 1.24551E-01 6.31770E+01 0.00000E+00
 -1        85 1.37409E-01 6.24129E+01 0.00000E+00
 -1        86 1.50086E-01 6.15744E+01 0.00000E+00
 -1        87 1.62567E-01 6.06624E+01 0.00000E+00
 -1        88 1.74842E-01 5.96782E+01 0.00000E+00
 -1        89 1.86898E-01 5.86231E+01 0.00000E+00
 -1        90 1.98724E-01 5.74983E+01 0.00000E+00
 -1        91 2.10309E-01 5.63052E+01 0.00000E+00
 -1        92 2.21639E-01 5.50453E+01 0.00000E+00
 -1        93 2.32709E-01 5.37200E+01 0.00000E+00
 -1        94 2.43501E-01 5.23310E+01 0.00000E+00
 -1        95 2.54009E-01 5.08799E+01 0.00000E+00
 -1        96 2.64222E-01 4.93683E+01 0.00000E+00
 -1        97 2.74130E-01 4.77980E+01 0.00000E+00
 -1        98 2.83724E-01 4.61708E+01 0.00000E+00
 -1        99 2.92992E-01 4.44886E+01 0.00000E+00
 -1       100 3.01930E-01 4.27534E+01 0.00000E+00
 -1       101 3.10525E-01 4.09669E+01 0.00000E+00
 -1       102 3.18770E-01 3.91314E+01 0.00000E+00
 -1       103 3.26658E-01 3.72488E+01 0.00000E+00
 -1       104 3.34182E-01 3.53212E+01 0.00000E+00
 -1       105 3.41332E-01 3.33509E+01 0.00000E+00
 -1       106 3.48104E-01 3.13399E+01 0.00000E+00
 -1       107 3.54491E-01 2.92905E+01 0.00000E+00
 -1       108 3.60486E-01 2.72051E+01 0.00000E+00
 -1       109 3.66085E-01 2.50858E+01 0.00000E+00
 -1       110 3.71281E-01 2.29350E+01 0.00000E+00
 -1       111 3.76070E-01 2.07551E+01 0.00000E+00
 -1       112 3.80449E-01 1.85485E+01 0.00000E+00
 -1       113 3.84412E-01 1.63176E+01 0.00000E+00
 -1       114 3.87958E-01 1.40647E+01 0.00000E+00
 -1       115 3.91081E-01 1.17924E+01 0.00000E+00
 -1       116 3.93781E-01 9.50307E+00 0.00000E+00
 -1       117 3.96055E-01 7.19926E+00 0.00000E+00
 -1       118 3.97901E-01 4.88343E+00 0.00000E+00
 -1       119 3.99319E-01 2.55809E+00 0.00000E+00
 -1       120 4.00307E-01 2.25725E-01 0.00000E+00
 -1       121 4.00865E-01-2.11121E+00 0.00000E+00
 -1       122 4.00993E-01-4.45008E+00 0.00000E+00
 -1       123 4.00692E-01-6.78845E+00 0.00000E+00
 -1       124 3.99964E-01-9.12382E+00 0.00000E+00
 -1       125 3.98809E-01-1.14537E+01 0.00000E+00
 -1       126 3.97229E-01-1.37756E+01 0.00000E+00
 -1       127 3.95228E-01-1.60870E+01 0.00000E+00
 -1       128 3.92808E-01-1.83856E+01 0.00000E+00
 -1       129 3.89973E-01-2.06688E+01 0.00000E+00
 -1       130 3.86725E-01-2.29343E+01 0.00000E+00
 -1       131 3.83071E-01-2.51797E+01 0.00000E+00
 -1       132 3.79014E-01-2.74025E+01 0.00000E+00
 -1       133 3.74559E-01-2.96006E+01 0.00000E+00
 -1       134 3.69713E-01-3.17715E+01 0.00000E+00
 -1       135 3.64480E-01-3.39130E+01 0.00000E+00
 -1       136 3.58869E-01-3.60229E+01 0.00000E+00
 -1       137 3.52885E-01-3.80990E+01 0.00000E+00
 -1       138 3.46536E-01-4.01390E+01 0.00000E+00
 -1       139 3.39830E-01-4.21410E+01 0.00000E+00
 -1       140 3.32774E-01-4.41029E+01 0.00000E+00
 -1       141 3.25377E-01-4.60226E+01 0.00000E+00
 -1       142 3.17649E-01-4.78982E+01 0.00000E+00
 -1       143 3.09598E-01-4.97278E+01 0.00000E+00
 -1       144 3.01234E-01-5.15094E+01 0.00000E+00
 -1       145 2.92567E-01-5.32415E+01 0.00000E+00
 -1       146 2.83606E-01-5.49220E+01 0.00000E+00
 -1       147 2.74365E-01-5.65495E+01 0.00000E+00
 -1       148 2.64851E-01-5.81224E+01 0.00000E+00
 -1       149 2.55078E-01-5.96389E+01 0.00000E+00
 -1       150 2.45058E-01-6.10977E+01 0.00000E+00
 -1       151 2.34799E-01-6.24974E+01 0.00000E+00
 -1       152 2.24318E-01-6.38365E+01 0.00000E+00
 -1       153 2.13625E-01-6.51139E+01 0.00000E+00
 -1       154 2.02732E-01-6.63283E+01 0.00000E+00
 -1       155 1.91654E-01-6.74787E+01 0.00000E+00
 -1       156 1.80402E-01-6.85639E+01 0.00000E+00
 -1       157 1.68992E-01-6.95830E+01 0.00000E+00
 -1       158 1.57435E-01-7.05351E+01 0.00000E+00
 -1       159 1.45746E-01-7.14195E+01 0.00000E+00
 -1       160 1.33939E-01-7.22352E+01 0.00000E+00
 -1       161 1.22030E-01-7.29819E+01 0.00000E+00
 -1       162 1.10027E-01-7.36587E+01 0.00000E+00
 -1       163 9.79529E-02-7.42654E+01 0.00000E+00
 -1       164 8.58164E-02-7.48014E+01 0.00000E+00
 -1       165 7.36341E-02-7.52665E+01 0.00000E+00
 -1       166 6.14217E-02-7.56604E+01 0.00000E+00
 -1       167 4.91913E-02-7.59830E+01 0.00000E+00
 -1       168 3.69614E-02-7.62343E+01 0.00000E+00
 -1       169 2.47439E-02-7.64143E+01 0.00000E+00
 -1       170 1.25556E-02-7.65231E+01 0.00000E+00
 -1       171 4.11866E-04-7.65609E+01 0.00000E+00
 -1       172-1.16751E-02-7.65280E+01 0.00000E+00
 -1       173-2.36861E-02-7.64249E+01 0.00000E+00
 -1       174-3.56090E-02-7.62519E+01 0.00000E+00
 -1       175-4.74271E-02-7.60097E+01 0.00000E+00
 -1       176-5.91276E-02-7.56989E+01 0.00000E+00
 -1       177-7.06937E-02-7.53202E+01 0.00000E+00
 -1       178-8.21095E-02-7.48745E+01 0.00000E+00
 -1       179-9.33631E-02-7.43626E+01 0.00000E+00
 -1       180-1.04438E-01-7.37857E+01 0.00000E+00
 -1       181-1.15320E-01-7.31447E+01 0.00000E+00
 -1       182-1.25993E-01-7.24408E+01 0.00000E+00
 -1       183-1.36447E-01-7.16753E+01 0.00000E+00
 -1       184-1.46662E-01-7.08495E+01 0.00000E+00
 -1       185-1.56629E-01-6.99649E+01 0.00000E+00
 -1       186-1.66332E-01-6.90228E+01 0.00000E+00
 -1       187-1.75757E-01-6.80250E+01 0.00000E+00
 -1       188-1.84891E-01-6.69730E+01 0.00000E+00
 -1       189-1.93720E-01-6.58687E+01 0.00000E+00
 -1       190-2.02233E-01-6.47137E+01 0.00000E+00
 -1       191-2.10414E-01-6.35101E+01 0.00000E+00
 -1       192-2.18253E-01-6.22597E+01 0.00000E+00
 -1       193-2.25737E-01-6.09647E+01 0.00000E+00
 -1       194-2.32852E-01-5.96270E+01 0.00000E+00
 -1       195-2.39589E-01-5.82490E+01 0.00000E+00
 -1       196-2.45934E-01-5.68328E+01 0.00000E+00
 -1       197-2.51877E-01-5.53807E+01 0.00000E+00
 -1       198-2.57408E-01-5.38952E+01 0.00000E+00
 -1       199-2.62513E-01-5.23787E+01 0.00000E+00
 -1       200-2.67184E-01-5.08336E+01 0.00000E+00
 -1       201-2.71410E-01-4.92626E+01 0.00000E+00
 -1       202-2.75182E-01-4.76683E+01 0.00000E+00
 -1       203-2.78489E-01-4.60533E+01 0.00000E+00
 -1       204-2.81323E-01-4.44204E+01 0.00000E+00
 -1       205-2.83675E-01-4.27723E+01 0.00000E+00
 -1       206-2.85536E-01-4.11120E+01 0.00000E+00
 -1       207-2.86897E-01-3.94423E+01 0.00000E+00
 -1       208-2.87751E-01-3.77661E+01 0.00000E+00
 -1       209-2.88091E-01-3.60865E+01 0.00000E+00
 -1       210-2.87908E-01-3.44064E+01 0.00000E+00
 -1       211-2.87197E-01-3.27289E+01 0.00000E+00
 -1       212-2.85950E-01-3.10571E+01 0.00000E+00
 -1       213-2.84161E-01-2.93941E+01 0.00000E+00
 -1       214-2.81825E-01-2.77432E+01 0.00000E+00
 -1       215-2.78935E-01-2.61075E+01 0.00000E+00
 -1       216-2.75486E-01-2.44903E+01 0.00000E+00
 -1       217-2.71473E-01-2.28949E+01 0.00000E+00
 -1       218-2.66893E-01-2.13245E+01 0.00000E+00
 -1       219-2.61738E-01-1.97825E+01 0.00000E+00
 -1       220-2.56008E-01-1.82723E+01 0.00000E+00
 -1       221-2.49697E-01-1.67972E+01 0.00000E+00
 -1       222-2.42802E-01-1.53607E+01 0.00000E+00
 -1       223-2.35319E-01-1.39660E+01 0.00000E+00
 -1       224-2.27248E-01-1.26167E+01 0.00000E+00
 -1       225-2.18581E-01-1.13163E+01 0.00000E+00
 -1       226-2.09324E-01-1.00681E+01 0.00000E+00
 -1       227-1.99464E-01-8.87568E+00 0.00000E+00
 -1       228-1.89010E-01-7.74251E+00 0.00000E+00
 -1       229-1.77950E-01-6.67209E+00 0.00000E+00
 -1       230-1.66296E-01-5.66793E+00 0.00000E+00
 -1       231-1.54027E-01-4.73352E+00 0.00000E+00
 -1       232-1.41169E-01-3.87242E+00 0.00000E+00
 -1       233-1.27686E-01-3.08814E+00 0.00000E+00
 -1       234-1.13623E-01-2.38422E+00 0.00000E+00
 -1       235-9.89209E-02-1.76419E+00 0.00000E+00
 -1       236-8.36506E-02-1.23159E+00 0.00000E+00
 -1       237-6.77361E-02-7.89935E-01 0.00000E+00
 -1       238-5.12185E-02-4.42900E-01 0.00000E+00
 -1       239-3.42445E-02-1.93471E-01 0.00000E+00
 -1       240-1.59014E-02-4.73566E-02 0.00000E+00
 -1       241 0.00000E+00 0.00000E+00 0.00000E+00
 -1       242-5.66668E-01-1.01034E+02 0.00000E+00
 -1       243-5.66664E-01-9.77280E+01 0.00000E+00
 -1       244-5.66641E-01-9.44224E+01 0.00000E+00
 -1       245-5.66579E-01-9.11170E+01 0.00000E+00
 -1       246-5.66461E-01-8.78123E+01 0.00000E+00
 -1       247-5.66268E-01-8.45083E+01 0.00000E+00
 -1       248-5.65984E-01-8.12059E+01 0.00000E+00
 -1       249-5.65592E-01-7.79053E+01 0.00000E+00
 -1       250-5.65077E-01-7.46075E+01 0.00000E+00
 -1       251-5.64423E-01-7.13129E+01 0.00000E+00
 -1       252-5.63617E-01-6.80228E+01 0.00000E+00
 -1       253-5.62644E-01-6.47377E+01 0.00000E+00
 -1       254-5.61492E-01-6.14589E+01 0.00000E+00
 -1       255-5.60148E-01-5.81873E+01 0.00000E+00
 -1       256-5.58600E-01-5.49242E+01 0.00000E+00
 -1       257-5.56837E-01-5.16707E+01 0.00000E+00
 -1       258-5.54848E-01-4.84281E+01 0.00000E+00
 -1       259-5.52626E-01-4.51979E+01 0.00000E+00
 -1       260-5.50157E-01-4.19813E+01 0.00000E+00
 -1       261-5.47437E-01-3.87799E+01 0.00000E+00
 -1       262-5.44454E-01-3.55950E+01 0.00000E+00
 -1       263-5.41204E-01-3.24285E+01 0.00000E+00
 -1       264-5.37678E-01-2.92816E+01 0.00000E+00
 -1       265-5.33872E-01-2.61562E+01 0.00000E+00
 -1       266-5.29779E-01-2.30537E+01 0.00000E+00
 -1       267-5.25393E-01-1.99760E+01 0.00000E+00
 -1       268-5.20714E-01-1.69247E+01 0.00000E+00
 -1       269-5.15734E-01-1.39016E+01 0.00000E+00
 -1       270-5.10452E-01-1.09084E+01 0.00000E+00
 -1       271-5.04865E-01-7.94698E+00 0.00000E+00
 -1       272-4.98972E-01-5.01901E+00 0.00000E+00
 -1       273-4.92770E-01-2.12631E+00 0.00000E+00
 -1       274-4.86260E-01 7.29306E-01 0.00000E+00
 -1       275-4.79442E-01 3.54605E+00 0.00000E+00
 -1       276-4.72314E-01 6.32212E+00 0.00000E+00
 -1       277-4.64880E-01 9.05571E+00 0.00000E+00
 -1       278-4.57139E-01 1.17451E+01 0.00000E+00
 -1       279-4.49094E-01 1.43884E+01 0.00000E+00
 -1       280-4.40749E-01 1.69839E+01 0.00000E+00
 -1       281-4.32105E-01 1.95298E+01 0.00000E+00
 -1       282-4.23167E-01 2.20245E+01 0.00000E+00
 -1       283-4.13938E-01 2.44661E+01 0.00000E+00
 -1       284-4.04424E-01 2.68531E+01 0.00000E+00
 -1       285-3.94628E-01 2.91838E+01 0.00000E+00
 -1       286-3.84559E-01 3.14565E+01 0.00000E+00
 -1       287-3.74217E-01 3.36697E+01 0.00000E+00
 -1       288-3.63615E-01 3.58218E+01 0.00000E+00
 -1       289-3.52756E-01 3.79113E+01 0.00000E+00
 -1       290-3.41648E-01 3.99367E+01 0.00000E+00
 -1       291-3.30300E-01 4.18967E+01 0.00000E+00
 -1       292-3.18716E-01 4.37898E+01 0.00000E+00
 -1       293-3.06910E-01 4.56146E+01 0.00000E+00
 -1       294-2.94887E-01 4.73699E+01 0.00000E+00
 -1       295-2.82658E-01 4.90545E+01 0.00000E+00
 -1       296-2.70233E-01 5.06671E+01 0.00000E+00
 -1       297-2.57618E-01 5.22068E+01 0.00000E+00
 -1       298-2.44828E-01 5.36723E+01 0.00000E+00
 -1       299-2.31869E-01 5.50627E+01 0.00000E+00
 -1       300-2.18756E-01 5.63771E+01 0.00000E+00
 -1       301-2.05497E-01 5.76146E+01 0.00000E+00
 -1       302-1.92105E-01 5.87743E+01 0.00000E+00
 -1       303-1.78589E-01 5.98555E+01 0.00000E+00
 -1       304-1.64964E-01 6.08576E+01 0.00000E+00
 -1       305-1.51239E-01 6.17799E+01 0.00000E+00
 -1       306-1.37426E-01 6.26219E+01 0.00000E+00
 -1       307-1.23542E-01 6.33831E+01 0.00000E+00
 -1       308-1.09593E-01 6.40631E+01 0.00000E+00
 -1       309-9.55959E-02 6.46615E+01 0.00000E+00
 -1       310-8.15617E-02 6.51783E+01 0.00000E+00
 -1       311-6.75033E-02 6.56131E+01 0.00000E+00
 -1       312-5.34344E-02 6.59658E+01 0.00000E+00
 -1       313-3.93656E-02 6.62365E+01 0.00000E+00
 -1       314-2.53138E-02 6.64251E+01 0.00000E+00
 -1       315-1.12886E-02 6.65319E+01 0.00000E+00
 -1       316 2.69570E-03 6.65569E+01 0.00000E+00
 -1       317 1.66245E-02 6.65006E+01 0.00000E+00
 -1       318 3.04886E-02 6.63631E+01 0.00000E+00
 -1       319 4.42687E-02 6.61451E+01 0.00000E+00
 -1       320 5.79605E-02 6.58469E+01 0.00000E+00
 -1       321 7.15413E-02 6.54691E+01 0.00000E+00
 -1       322 8.50054E-02 6.50125E+01 0.00000E+00
 -1       323 9.83356E-02 6.44777E+01 0.00000E+00
 -1       324 1.11523E-01 6.38656E+01 0.00000E+00
 -1       325 1.24551E-01 6.31770E+01 0.00000E+00
 -1       326 1.37409E-01 6.24129E+01 0.00000E+00
 -1       327 1.50086E-01 6.15744E+01 0.00000E+00
 -1       328 1.62567E-01 6.06624E+01 0.00000E+00
 -1       329 1.74842E-01 5.96782E+01 0.00000E+00
 -1       330 1.86898E-01 5.86231E+01 0.00000E+00
 -1       331 1.98724E-01 5.74983E+01 0.00000E+00
 -1       332 2.10309E-01 5.63052E+01 0.00000E+00
 -1       333 2.21639E-01 5.50453E+01 0.00000E+00
 -1       334 2.32709E-01 5.37200E+01 0.00000E+00
 -1       335 2.43501E-01 5.23310E+01 0.00000E+00
 -1       336 2.54009E-01 5.08799E+01 0.00000E+00
 -1       337 2.64222E-01 4.93683E+01 0.00000E+00
 -1       338 2.74130E-01 4.77980E+01 0.00000E+00
 -1       339 2.83724E-01 4.61708E+01 0.00000E+00
 -1       340 2.92992E-01 4.44886E+01 0.00000E+00
 -1       341 3.01930E-01 4.27534E+01 0.00000E+00
 -1       342 3.10525E-01 4.09669E+01 0.00000E+00
 -1       343 3.18770E-01 3.91314E+01 0.00000E+00
 -1       344 3.26658E-01 3.72488E+01 0.00000E+00
 -1       345 3.34182E-01 3.53212E+01 0.00000E+00
 -1       346 3.41332E-01 3.33509E+01 0.00000E+00
 -1       347 3.48104E-01 3.13399E+01 0.00000E+00
 -1       348 3.54491E-01 2.92905E+01 0.00000E+00
 -1       349 3.60486E-01 2.72051E+01 0.00000E+00
 -1       350 3.66085E-01 2.50858E+01 0.00000E+00
 -1       351 3.71281E-01 2.29350E+01 0.00000E+00
 -1       352 3.76070E-01 2.07551E+01 0.00000E+00
 -1       353 3.80449E-01 1.85485E+01 0.00000E+00
 -1       354 3.84412E-01 1.63176E+01 0.00000E+00
 -1       355 3.87958E-01 1.40647E+01 0.00000E+00
 -1       356 3.91081E-01 1.17924E+01 0.00000E+00
 -1       357 3.93781E-01 9.50307E+00 0.00000E+00
 -1       358 3.96055E-01 7.19926E+00 0.00000E+00
 -1       359 3.97901E-01 4.88343E+00 0.00000E+00
 -1       360 3.99319E-01 2.55809E+00 0.00000E+00
 -1       361 4.00307E-01 2.25725E-01 0.00000E+00
 -1       362 4.00865E-01-2.11121E+00 0.00000E+00
 -1       363 4.00993E-01-4.45008E+00 0.00000E+00
 -1       364 4.00692E-01-6.78845E+00 0.00000E+00
 -1       365 3.99964E-01-9.12382E+00 0.00000E+00
 -1       366 3.98809E-01-1.14537E+01 0.00000E+00
 -1       367 3.97229E-01-1.37756E+01 0.00000E+00
 -1       368 3.95228E-01-1.60870E+01 0.00000E+00
 -1       369 3.92808E-01-1.83856E+01 0.00000E+00
 -1       370 3.89973E-01-2.06688E+01 0.00000E+00
 -1       371 3.86725E-01-2.29343E+01 0.00000E+00
 -1       372 3.83071E-01-2.51797E+01 0.00000E+00
 -1       373 3.79014E-01-2.74025E+01 0.00000E+00
 -1       374 3.74559E-01-2.96006E+01 0.00000E+00
 -1       375 3.69713E-01-3.17715E+01 0.00000E+00
 -1       376 3.64480E-01-3.39130E+01 0.00000E+00
 -1       377 3.58869E-01-3.60229E+01 0.00000E+00
 -1       378 3.52885E-01-3.80990E+01 0.00000E+00
 -1       379 3.46536E-01-4.01390E+01 0.00000E+00
 -1       380 3.39830E-01-4.21410E+01 0.00000E+00
 -1       381 3.32774E-01-4.41029E+01 0.00000E+00
 -1       382 3.25377E-01-4.60226E+01 0.00000E+00
 -1       383 3.17649E-01-4.78982E+01 0.00000E+00
 -1       384 3.09598E-01-4.97278E+01 0.00000E+00
 -1       385 3.01234E-01-5.15094E+01 0.00000E+00
 -1       386 2.92567E-01-5.32415E+01 0.00000E+00
 -1       387 2.83606E-01-5.49220E+01 0.00000E+00
 -1       388 2.74365E-01-5.65495E+01 0.00000E+00
 -1       389 2.64851E-01-5.81224E+01 0.00000E+00
 -1       390 2.55078E-01-5.96389E+01 0.00000E+00
 -1       391 2.45058E-01-6.10977E+01 0.00000E+00
 -1       392 2.34799E-01-6.24974E+01 0.00000E+00
 -1       393 2.24318E-01-6.38365E+01 0.00000E+00
 -1       394 2.13625E-01-6.51139E+01 0.00000E+00
 -1       395 2.02732E-01-6.63283E+01 0.00000E+00
 -1       396 1.91654E-01-6.74787E+01 0.00000E+00
 -1       397 1.80402E-01-6.85639E+01 0.00000E+00
 -1       398 1.68992E-01-6.95830E+01 0.00000E+00
 -1       399 1.57435E-01-7.05351E+01 0.00000E+00
 -1       400 1.45746E-01-7.14195E+01 0.00000E+00
 -1       401 1.33939E-01-7.22352E+01 0.00000E+00
 -1       402 1.22030E-01-7.29819E+01 0.00000E+00
 -1       403 1.10027E-01-7.36587E+01 0.00000E+00
 -1       404 9.79529E-02-7.42654E+01 0.00000E+00
 -1       405 8.58164E-02-7.48014E+01 0.00000E+00
 -1       406 7.36341E-02-7.52665E+01 0.00000E+00
 -1       407 6.14217E-02-7.56604E+01 0.00000E+00
 -1       408 4.91913E-02-7.59830E+01 0.00000E+00
 -1       409 3.69614E-02-7.62343E+01 0.00000E+00
 -1       410 2.47439E-02-7.64143E+01 0.00000E+00
 -1       411 1.25556E-02-7.65231E+01 0.00000E+00
 -1       412 4.11867E-04-7.65609E+01 0.00000E+00
 -1       413-1.16751E-02-7.65280E+01 0.00000E+00
 -1       414-2.36861E-02-7.64249E+01 0.00000E+00
 -1       415-3.56090E-02-7.62519E+01 0.00000E+00
 -1       416-4.74271E-02-7.60097E+01 0.00000E+00
 -1       417-5.91276E-02-7.56989E+01 0.00000E+00
 -1       418-7.06937E-02-7.53202E+01 0.00000E+00
 -1       419-8.21095E-02-7.48745E+01 0.00000E+00
 -1       420-9.33631E-02-7.43626E+01 0.00000E+00
 -1       421-1.04438E-01-7.37857E+01 0.00000E+00
 -1       422-1.15320E-01-7.31447E+01 0.00000E+00
 -1       423-1.25993E-01-7.24408E+01 0.00000E+00
 -1       424-1.36447E-01-7.16753E+01 0.00000E+00
 -1       425-1.46662E-01-7.08495E+01 0.00000E+00
 -1       426-1.56629E-01-6.99649E+01 0.00000E+00
 -1       427-1.66332E-01-6.90228E+01 0.00000E+00
 -1       428-1.75757E-01-6.80250E+01 0.00000E+00
 -1       429-1.84891E-01-6.69730E+01 0.00000E+00
 -1       430-1.93720E-01-6.58687E+01 0.00000E+00
 -1       431-2.02233E-01-6.47137E+01 0.00000E+00
 -1       432-2.10414E-01-6.35101E+01 0.00000E+00
 -1       433-2.18253E-01-6.22597E+01 0.00000E+00
 -1       434-2.25737E-01-6.09647E+01 0.00000E+00
 -1       435-2.32852E-01-5.96270E+01 0.00000E+00
 -1       436-2.39589E-01-5.82490E+01 0.00000E+00
 -1       437-2.45934E-01-5.68328E+01 0.00000E+00
 -1       438-2.51877E-01-5.53807E+01 0.00000E+00
 -1       439-2.57408E-01-5.38952E+01 0.00000E+00
 -1       440-2.62513E-01-5.23787E+01 0.00000E+00
 -1       441-2.67184E-01-5.08336E+01 0.00000E+00
 -1       442-2.71410E-01-4.92626E+01 0.00000E+00
 -1       443-2.75182E-01-4.76683E+01 0.00000E+00
 -1       444-2.78489E-01-4.60533E+01 0.00000E+00
 -1       445-2.81323E-01-4.44204E+01 0.00000E+00
 -1       446-2.83675E-01-4.27723E+01 0.00000E+00
 -1       447-2.85536E-01-4.11120E+01 0.00000E+00
 -1       448-2.86897E-01-3.94423E+01 0.00000E+00
 -1       449-2.87751E-01-3.77661E+01 0.00000E+00
 -1       450-2.88091E-01-3.60865E+01 0.00000E+00
 -1       451-2.87908E-01-3.44064E+01 0.00000E+00
 -1       452-2.87197E-01-3.27289E+01 0.00000E+00
 -1       453-2.85950E-01-3.10571E+01 0.00000E+00
 -1       454-2.84161E-01-2.93941E+01 0.00000E+00
 -1       455-2.81825E-01-2.77432E+01 0.00000E+00
 -1       456-2.78935E-01-2.61075E+01 0.00000E+00
 -1       457-2.75486E-01-2.44903E+01 0.00000E+00
 -1       458-2.71473E-01-2.28949E+01 0.00000E+00
 -1       459-2.66893E-01-2.13245E+01 0.00000E+00
 -1       460-2.61738E-01-1.97825E+01 0.00000E+00
 -1       461-2.56008E-01-1.82723E+01 0.00000E+00
 -1       462-2.49697E-01-1.67972E+01 0.00000E+00
 -1       463-2.42802E-01-1.53607E+01 0.00000E+00
 -1       464-2.35319E-01-1.39660E+01 0.00000E+00
 -1       465-2.27248E-01-1.26167E+01 0.00000E+00
 -1       466-2.18581E-01-1.13163E+01 0.00000E+00
 -1       467-2.09324E-01-1.00681E+01 0.00000E+00
 -1       468-1.99464E-01-8.87568E+00 0.00000E+00
 -1       469-1.89010E-01-7.74251E+00 0.00000E+00
 -1       470-1.77950E-01-6.67209E+00 0.00000E+00
 -1       471-1.66296E-01-5.66793E+00 0.00000E+00
 -1       472-1.54027E-01-4.73352E+00 0.00000E+00
 -1       473-1.41169E-01-3.87242E+00 0.00000E+00
 -1       474-1.27686E-01-3.08814E+00 0.00000E+00
 -1       475-1.13623E-01-2.38422E+00 0.00000E+00
 -1       476-9.89209E-02-1.76419E+00 0.00000E+00
 -1       477-8.36506E-02-1.23159E+00 0.00000E+00
 -1       478-6.77361E-02-7.89935E-01 0.00000E+00
 -1       479-5.12185E-02-4.42900E-01 0.00000E+00
 -1       480-3.42445E-02-1.93471E-01 0.00000E+00
 -1       481-1.59014E-02-4.73566E-02 0.00000E+00
 -1       482 0.00000E+00 0.00000E+00 0.00000E+00
 -1       483-2.83367E-01-1.01034E+02 0.00000E+00
 -1       484-2.83365E-01-9.77280E+01 0.00000E+00
 -1       485-2.83353E-01-9.44224E+01 0.00000E+00
 -1       486-2.83322E-01-9.11172E+01 0.00000E+00
 -1       487-2.83263E-01-8.78123E+01 0.00000E+00
 -1       488-2.83166E-01-8.45085E+01 0.00000E+00
 -1       489-2.83024E-01-8.12061E+01 0.00000E+00
 -1       490-2.82828E-01-7.79054E+01 0.00000E+00
 -1       491-2.82571E-01-7.46076E+01 0.00000E+00
 -1       492-2.82244E-01-7.13131E+01 0.00000E+00
 -1       493-2.81840E-01-6.80229E+01 0.00000E+00
 -1       494-2.81354E-01-6.47380E+01 0.00000E+00
 -1       495-2.80778E-01-6.14590E+01 0.00000E+00
 -1       496-2.80105E-01-5.81876E+01 0.00000E+00
 -1       497-2.79332E-01-5.49243E+01 0.00000E+00
 -1       498-2.78450E-01-5.16710E+01 0.00000E+00
 -1       499-2.77455E-01-4.84285E+01 0.00000E+00
 -1       500-2.76344E-01-4.51982E+01 0.00000E+00
 -1       501-2.75109E-01-4.19817E+01 0.00000E+00
 -1       502-2.73749E-01-3.87801E+01 0.00000E+00
 -1       503-2.72257E-01-3.55954E+01 0.00000E+00
 -1       504-2.70633E-01-3.24289E+01 0.00000E+00
 -1       505-2.68869E-01-2.92819E+01 0.00000E+00
 -1       506-2.66966E-01-2.61565E+01 0.00000E+00
 -1       507-2.64919E-01-2.30540E+01 0.00000E+00
 -1       508-2.62726E-01-1.99763E+01 0.00000E+00
 -1       509-2.60386E-01-1.69250E+01 0.00000E+00
 -1       510-2.57896E-01-1.39019E+01 0.00000E+00
 -1       511-2.55255E-01-1.09088E+01 0.00000E+00
 -1       512-2.52461E-01-7.94736E+00 0.00000E+00
 -1       513-2.49514E-01-5.01937E+00 0.00000E+00
 -1       514-2.46413E-01-2.12665E+00 0.00000E+00
 -1       515-2.43157E-01 7.28989E-01 0.00000E+00
 -1       516-2.39748E-01 3.54575E+00 0.00000E+00
 -1       517-2.36183E-01 6.32177E+00 0.00000E+00
 -1       518-2.32466E-01 9.05539E+00 0.00000E+00
 -1       519-2.28595E-01 1.17447E+01 0.00000E+00
 -1       520-2.24573E-01 1.43881E+01 0.00000E+00
 -1       521-2.20400E-01 1.69836E+01 0.00000E+00
 -1       522-2.16078E-01 1.95295E+01 0.00000E+00
 -1       523-2.11608E-01 2.20241E+01 0.00000E+00
 -1       524-2.06993E-01 2.44658E+01 0.00000E+00
 -1       525-2.02235E-01 2.68528E+01 0.00000E+00
 -1       526-1.97337E-01 2.91835E+01 0.00000E+00
 -1       527-1.92302E-01 3.14563E+01 0.00000E+00
 -1       528-1.87131E-01 3.36694E+01 0.00000E+00
 -1       529-1.81829E-01 3.58216E+01 0.00000E+00
 -1       530-1.76399E-01 3.79111E+01 0.00000E+00
 -1       531-1.70844E-01 3.99366E+01 0.00000E+00
 -1       532-1.65170E-01 4.18965E+01 0.00000E+00
 -1       533-1.59377E-01 4.37896E+01 0.00000E+00
 -1       534-1.53474E-01 4.56144E+01 0.00000E+00
 -1       535-1.47462E-01 4.73698E+01 0.00000E+00
 -1       536-1.41347E-01 4.90544E+01 0.00000E+00
 -1       537-1.35133E-01 5.06671E+01 0.00000E+00
 -1       538-1.28826E-01 5.22067E+01 0.00000E+00
 -1       539-1.22429E-01 5.36723E+01 0.00000E+00
 -1       540-1.15950E-01 5.50627E+01 0.00000E+00
 -1       541-1.09392E-01 5.63771E+01 0.00000E+00
 -1       542-1.02763E-01 5.76146E+01 0.00000E+00
 -1       543-9.60652E-02 5.87744E+01 0.00000E+00
 -1       544-8.93072E-02 5.98556E+01 0.00000E+00
 -1       545-8.24936E-02 6.08577E+01 0.00000E+00
 -1       546-7.56308E-02 6.17801E+01 0.00000E+00
 -1       547-6.87239E-02 6.26221E+01 0.00000E+00
 -1       548-6.17807E-02 6.33833E+01 0.00000E+00
 -1       549-5.48060E-02 6.40633E+01 0.00000E+00
 -1       550-4.78065E-02 6.46618E+01 0.00000E+00
 -1       551-4.07886E-02 6.51786E+01 0.00000E+00
 -1       552-3.37589E-02 6.56134E+01 0.00000E+00
 -1       553-2.67233E-02 6.59662E+01 0.00000E+00
 -1       554-1.96889E-02 6.62369E+01 0.00000E+00
 -1       555-1.26616E-02 6.64256E+01 0.00000E+00
 -1       556-5.64880E-03 6.65324E+01 0.00000E+00
 -1       557 1.34448E-03 6.65575E+01 0.00000E+00
 -1       558 8.30949E-03 6.65012E+01 0.00000E+00
 -1       559 1.52421E-02 6.63638E+01 0.00000E+00
 -1       560 2.21331E-02 6.61458E+01 0.00000E+00
 -1       561 2.89792E-02 6.58476E+01 0.00000E+00
 -1       562 3.57709E-02 6.54699E+01 0.00000E+00
 -1       563 4.25030E-02 6.50133E+01 0.00000E+00
 -1       564 4.91696E-02 6.44786E+01 0.00000E+00
 -1       565 5.57631E-02 6.38665E+01 0.00000E+00
 -1       566 6.22784E-02 6.31779E+01 0.00000E+00
 -1       567 6.87080E-02 6.24139E+01 0.00000E+00
 -1       568 7.50473E-02 6.15753E+01 0.00000E+00
 -1       569 8.12883E-02 6.06634E+01 0.00000E+00
 -1       570 8.74265E-02 5.96793E+01 0.00000E+00
 -1       571 9.34554E-02 5.86242E+01 0.00000E+00
 -1       572 9.93688E-02 5.74994E+01 0.00000E+00
 -1       573 1.05162E-01 5.63064E+01 0.00000E+00
 -1       574 1.10828E-01 5.50465E+01 0.00000E+00
 -1       575 1.16363E-01 5.37213E+01 0.00000E+00
 -1       576 1.21760E-01 5.23323E+01 0.00000E+00
 -1       577 1.27015E-01 5.08812E+01 0.00000E+00
 -1       578 1.32121E-01 4.93696E+01 0.00000E+00
 -1       579 1.37076E-01 4.77994E+01 0.00000E+00
 -1       580 1.41873E-01 4.61723E+01 0.00000E+00
 -1       581 1.46509E-01 4.44901E+01 0.00000E+00
 -1       582 1.50978E-01 4.27549E+01 0.00000E+00
 -1       583 1.55276E-01 4.09685E+01 0.00000E+00
 -1       584 1.59399E-01 3.91330E+01 0.00000E+00
 -1       585 1.63344E-01 3.72504E+01 0.00000E+00
 -1       586 1.67106E-01 3.53229E+01 0.00000E+00
 -1       587 1.70682E-01 3.33525E+01 0.00000E+00
 -1       588 1.74068E-01 3.13416E+01 0.00000E+00
 -1       589 1.77262E-01 2.92923E+01 0.00000E+00
 -1       590 1.80260E-01 2.72068E+01 0.00000E+00
 -1       591 1.83060E-01 2.50876E+01 0.00000E+00
 -1       592 1.85658E-01 2.29368E+01 0.00000E+00
 -1       593 1.88053E-01 2.07570E+01 0.00000E+00
 -1       594 1.90243E-01 1.85503E+01 0.00000E+00
 -1       595 1.92225E-01 1.63194E+01 0.00000E+00
 -1       596 1.93998E-01 1.40666E+01 0.00000E+00
 -1       597 1.95560E-01 1.17942E+01 0.00000E+00
 -1       598 1.96910E-01 9.50493E+00 0.00000E+00
 -1       599 1.98048E-01 7.20111E+00 0.00000E+00
 -1       600 1.98971E-01 4.88528E+00 0.00000E+00
 -1       601 1.99680E-01 2.55998E+00 0.00000E+00
 -1       602 2.00174E-01 2.27603E-01 0.00000E+00
 -1       603 2.00453E-01-2.10928E+00 0.00000E+00
 -1       604 2.00518E-01-4.44817E+00 0.00000E+00
 -1       605 2.00367E-01-6.78656E+00 0.00000E+00
 -1       606 2.00003E-01-9.12195E+00 0.00000E+00
 -1       607 1.99426E-01-1.14518E+01 0.00000E+00
 -1       608 1.98636E-01-1.37737E+01 0.00000E+00
 -1       609 1.97636E-01-1.60852E+01 0.00000E+00
 -1       610 1.96426E-01-1.83838E+01 0.00000E+00
 -1       611 1.95008E-01-2.06670E+01 0.00000E+00
 -1       612 1.93385E-01-2.29325E+01 0.00000E+00
 -1       613 1.91557E-01-2.51779E+01 0.00000E+00
 -1       614 1.89529E-01-2.74008E+01 0.00000E+00
 -1       615 1.87302E-01-2.95988E+01 0.00000E+00
 -1       616 1.84878E-01-3.17698E+01 0.00000E+00
 -1       617 1.82262E-01-3.39113E+01 0.00000E+00
 -1       618 1.79456E-01-3.60212E+01 0.00000E+00
 -1       619 1.76464E-01-3.80973E+01 0.00000E+00
 -1       620 1.73289E-01-4.01374E+01 0.00000E+00
 -1       621 1.69936E-01-4.21395E+01 0.00000E+00
 -1       622 1.66408E-01-4.41014E+01 0.00000E+00
 -1       623 1.62710E-01-4.60211E+01 0.00000E+00
 -1       624 1.58845E-01-4.78968E+01 0.00000E+00
 -1       625 1.54820E-01-4.97264E+01 0.00000E+00
 -1       626 1.50637E-01-5.15081E+01 0.00000E+00
 -1       627 1.46303E-01-5.32402E+01 0.00000E+00
 -1       628 1.41823E-01-5.49208E+01 0.00000E+00
 -1       629 1.37202E-01-5.65484E+01 0.00000E+00
 -1       630 1.32444E-01-5.81212E+01 0.00000E+00
 -1       631 1.27558E-01-5.96378E+01 0.00000E+00
 -1       632 1.22547E-01-6.10967E+01 0.00000E+00
 -1       633 1.17417E-01-6.24964E+01 0.00000E+00
 -1       634 1.12176E-01-6.38356E+01 0.00000E+00
 -1       635 1.06829E-01-6.51131E+01 0.00000E+00
 -1       636 1.01382E-01-6.63276E+01 0.00000E+00
 -1       637 9.58430E-02-6.74780E+01 0.00000E+00
 -1       638 9.02165E-02-6.85633E+01 0.00000E+00
 -1       639 8.45110E-02-6.95824E+01 0.00000E+00
 -1       640 7.87319E-02-7.05346E+01 0.00000E+00
 -1       641 7.28872E-02-7.14190E+01 0.00000E+00
 -1       642 6.69830E-02-7.22349E+01 0.00000E+00
 -1       643 6.10278E-02-7.29816E+01 0.00000E+00
 -1       644 5.50260E-02-7.36585E+01 0.00000E+00
 -1       645 4.89883E-02-7.42652E+01 0.00000E+00
 -1       646 4.29198E-02-7.48013E+01 0.00000E+00
 -1       647 3.68278E-02-7.52665E+01 0.00000E+00
 -1       648 3.07211E-02-7.56605E+01 0.00000E+00
 -1       649 2.46053E-02-7.59832E+01 0.00000E+00
 -1       650 1.84898E-02-7.62345E+01 0.00000E+00
 -1       651 1.23803E-02-7.64146E+01 0.00000E+00
 -1       652 6.28561E-03-7.65235E+01 0.00000E+00
 -1       653 2.13068E-04-7.65614E+01 0.00000E+00
 -1       654-5.83104E-03-7.65286E+01 0.00000E+00
 -1       655-1.18369E-02-7.64255E+01 0.00000E+00
 -1       656-1.77995E-02-7.62526E+01 0.00000E+00
 -1       657-2.37086E-02-7.60105E+01 0.00000E+00
 -1       658-2.95602E-02-7.56997E+01 0.00000E+00
 -1       659-3.53428E-02-7.53211E+01 0.00000E+00
 -1       660-4.10524E-02-7.48755E+01 0.00000E+00
 -1       661-4.66790E-02-7.43637E+01 0.00000E+00
 -1       662-5.22176E-02-7.37869E+01 0.00000E+00
 -1       663-5.76588E-02-7.31459E+01 0.00000E+00
 -1       664-6.29966E-02-7.24421E+01 0.00000E+00
 -1       665-6.82237E-02-7.16767E+01 0.00000E+00
 -1       666-7.33324E-02-7.08510E+01 0.00000E+00
 -1       667-7.83164E-02-6.99664E+01 0.00000E+00
 -1       668-8.31683E-02-6.90244E+01 0.00000E+00
 -1       669-8.78814E-02-6.80266E+01 0.00000E+00
 -1       670-9.24492E-02-6.69747E+01 0.00000E+00
 -1       671-9.68641E-02-6.58704E+01 0.00000E+00
 -1       672-1.01121E-01-6.47155E+01 0.00000E+00
 -1       673-1.05212E-01-6.35120E+01 0.00000E+00
 -1       674-1.09133E-01-6.22616E+01 0.00000E+00
 -1       675-1.12875E-01-6.09667E+01 0.00000E+00
 -1       676-1.16433E-01-5.96291E+01 0.00000E+00
 -1       677-1.19802E-01-5.82511E+01 0.00000E+00
 -1       678-1.22976E-01-5.68349E+01 0.00000E+00
 -1       679-1.25947E-01-5.53829E+01 0.00000E+00
 -1       680-1.28713E-01-5.38974E+01 0.00000E+00
 -1       681-1.31266E-01-5.23809E+01 0.00000E+00
 -1       682-1.33602E-01-5.08359E+01 0.00000E+00
 -1       683-1.35716E-01-4.92649E+01 0.00000E+00
 -1       684-1.37602E-01-4.76706E+01 0.00000E+00
 -1       685-1.39256E-01-4.60556E+01 0.00000E+00
 -1       686-1.40674E-01-4.44227E+01 0.00000E+00
 -1       687-1.41850E-01-4.27747E+01 0.00000E+00
 -1       688-1.42781E-01-4.11144E+01 0.00000E+00
 -1       689-1.43462E-01-3.94447E+01 0.00000E+00
 -1       690-1.43889E-01-3.77685E+01 0.00000E+00
 -1       691-1.44060E-01-3.60888E+01 0.00000E+00
 -1       692-1.43969E-01-3.44087E+01 0.00000E+00
 -1       693-1.43613E-01-3.27312E+01 0.00000E+00
 -1       694-1.42990E-01-3.10593E+01 0.00000E+00
 -1       695-1.42096E-01-2.93964E+01 0.00000E+00
 -1       696-1.40928E-01-2.77454E+01 0.00000E+00
 -1       697-1.39483E-01-2.61097E+01 0.00000E+00
 -1       698-1.37759E-01-2.44925E+01 0.00000E+00
 -1       699-1.35753E-01-2.28970E+01 0.00000E+00
 -1       700-1.33462E-01-2.13266E+01 0.00000E+00
 -1       701-1.30886E-01-1.97846E+01 0.00000E+00
 -1       702-1.28020E-01-1.82743E+01 0.00000E+00
 -1       703-1.24865E-01-1.67991E+01 0.00000E+00
 -1       704-1.21417E-01-1.53625E+01 0.00000E+00
 -1       705-1.17677E-01-1.39677E+01 0.00000E+00
 -1       706-1.13640E-01-1.26184E+01 0.00000E+00
 -1       707-1.09308E-01-1.13178E+01 0.00000E+00
 -1       708-1.04677E-01-1.00696E+01 0.00000E+00
 -1       709-9.97498E-02-8.87704E+00 0.00000E+00
 -1       710-9.45194E-02-7.74375E+00 0.00000E+00
 -1       711-8.89939E-02-6.67321E+00 0.00000E+00
 -1       712-8.31604E-02-5.66894E+00 0.00000E+00
 -1       713-7.70337E-02-4.73442E+00 0.00000E+00
 -1       714-7.05940E-02-3.87318E+00 0.00000E+00
 -1       715-6.38662E-02-3.08876E+00 0.00000E+00
 -1       716-5.68163E-02-2.38468E+00 0.00000E+00
 -1       717-4.94880E-02-1.76451E+00 0.00000E+00
 -1       718-4.18231E-02-1.23174E+00 0.00000E+00
 -1       719-3.39029E-02-7.89926E-01 0.00000E+00
 -1       720-2.55963E-02-4.42697E-01 0.00000E+00
 -1       721-1.71656E-02-1.93155E-01 0.00000E+00
 -1       722-7.93640E-03-4.65953E-02 0.00000E+00
 -1       723 0.00000E+00 0.00000E+00 0.00000E+00
 -1       724-2.83367E-01-1.01034E+02 0.00000E+00
 -1       725-2.83365E-01-9.77280E+01 0.00000E+00
 -1       726-2.83353E-01-9.44224E+01 0.00000E+00
 -1       727-2.83322E-01-9.11172E+01 0.00000E+00
 -1       728-2.83263E-01-8.78123E+01 0.00000E+00
 -1       729-2.83166E-01-8.45085E+01 0.00000E+00
 -1       730-2.83024E-01-8.12061E+01 0.00000E+00
 -1       731-2.82828E-01-7.79054E+01 0.00000E+00
 -1       732-2.82571E-01-7.46076E+01 0.00000E+00
 -1       733-2.82244E-01-7.13131E+01 0.00000E+00
 -1       734-2.81840E-01-6.80229E+01 0.00000E+00
 -1       735-2.81354E-01-6.47380E+01 0.00000E+00
 -1       736-2.80778E-01-6.14590E+01 0.00000E+00
 -1       737-2.80105E-01-5.81876E+01 0.00000E+00
 -1       738-2.79332E-01-5.49243E+01 0.00000E+00
 -1       739-2.78450E-01-5.16710E+01 0.00000E+00
 -1       740-2.77455E-01-4.84285E+01 0.00000E+00
 -1       741-2.76344E-01-4.51982E+01 0.00000E+00
 -1       742-2.75109E-01-4.19817E+01 0.00000E+00
 -1       743-2.73749E-01-3.87801E+01 0.00000E+00
 -1       744-2.72257E-01-3.55954E+01 0.00000E+00
 -1       745-2.70633E-01-3.24289E+01 0.00000E+00
 -1       746-2.68869E-01-2.92819E+01 0.00000E+00
 -1       747-2.66966E-01-2.61565E+01 0.00000E+00
 -1       748-2.64919E-01-2.30540E+01 0.00000E+00
 -1       749-2.62726E-01-1.99763E+01 0.00000E+00
 -1       750-2.60386E-01-1.69250E+01 0.00000E+00
 -1       751-2.57896E-01-1.39019E+01 0.00000E+00
 -1       752-2.55255E-01-1.09088E+01 0.00000E+00
 -1       753-2.52461E-01-7.94736E+00 0.00000E+00
 -1       754-2.49514E-01-5.01937E+00 0.00000E+00
 -1       755-2.46413E-01-2.12665E+00 0.00000E+00
 -1       756-2.43157E-01 7.28989E-01 0.00000E+00
 -1       757-2.39748E-01 3.54575E+00 0.00000E+00
 -1       758-2.36183E-01 6.32177E+00 0.00000E+00
 -1       759-2.32466E-01 9.05539E+00 0.00000E+00
 -1       760-2.28595E-01 1.17447E+01 0.00000E+00
 -1       761-2.24573E-01 1.43881E+01 0.00000E+00
 -1       762-2.20400E-01 1.69836E+01 0.00000E+00
 -1       763-2.16078E-01 1.95295E+01 0.00000E+00
 -1       764-2.11608E-01 2.20241E+01 0.00000E+00
 -1       765-2.06993E-01 2.44658E+01 0.00000E+00
 -1       766-2.02235E-01 2.68528E+01 0.00000E+00
 -1       767-1.97337E-01 2.91835E+01 0.00000E+00
 -1       768-1.92302E-01 3.14563E+01 0.00000E+00
 -1       769-1.87131E-01 3.36694E+01 0.00000E+00
 -1       770-1.81829E-01 3.58216E+01 0.00000E+00
 -1       771-1.76399E-01 3.79111E+01 0.00000E+00
 -1       772-1.70844E-01 3.99366E+01 0.00000E+00
 -1       773-1.65170E-01 4.18965E+01 0.00000E+00
 -1       774-1.59377E-01 4.37896E+01 0.00000E+00
 -1       775-1.53474E-01 4.56144E+01 0.00000E+00
 -1       776-1.47462E-01 4.73698E+01 0.00000E+00
 -1       777-1.41347E-01 4.90544E+01 0.00000E+00
 -1       778-1.35133E-01 5.06671E+01 0.00000E+00
 -1       779-1.28826E-01 5.22067E+01 0.00000E+00
 -1       780-1.22429E-01 5.36723E+01 0.00000E+00
 -1       781-1.15950E-01 5.50627E+01 0.00000E+00
 -1       782-1.09392E-01 5.63771E+01 0.00000E+00
 -1       783-1.02763E-01 5.76146E+01 0.00000E+00
 -1       784-9.60652E-02 5.87744E+01 0.00000E+00
 -1       785-8.93072E-02 5.98556E+01 0.00000E+00
 -1       786-8.24936E-02 6.08577E+01 0.00000E+00
 -1       787-7.56308E-02 6.17801E+01 0.00000E+00
 -1       788-6.87239E-02 6.26221E+01 0.00000E+00
 -1       789-6.17807E-02 6.33833E+01 0.00000E+00
 -1       790-5.48060E-02 6.40633E+01 0.00000E+00
 -1       791-4.78065E-02 6.46618E+01 0.00000E+00
 -1       792-4.07886E-02 6.51786E+01 0.00000E+00
 -1       793-3.37589E-02 6.56134E+01 0.00000E+00
 -1       794-2.67233E-02 6.59662E+01 0.00000E+00
 -1       795-1.96889E-02 6.62369E+01 0.00000E+00
 -1       796-1.26616E-02 6.64256E+01 0.00000E+00
 -1       797-5.64880E-03 6.65324E+01 0.00000E+00
 -1       798 1.34448E-03 6.65575E+01 0.00000E+00
 -1       799 8.30949E-03 6.65012E+01 0.00000E+00
 -1       800 1.52421E-02 6.63638E+01 0.00000E+00
 -1       801 2.21331E-02 6.61458E+01 0.00000E+00
 -1       802 2.89792E-02 6.58476E+01 0.00000E+00
 -1       803 3.57709E-02 6.54699E+01 0.00000E+00
 -1       804 4.25030E-02 6.50133E+01 0.00000E+00
 -1       805 4.91696E-02 6.44786E+01 0.00000E+00
 -1       806 5.57631E-02 6.38665E+01 0.00000E+00
 -1       807 6.22784E-02 6.31779E+01 0.00000E+00
 -1       808 6.87080E-02 6.24139E+01 0.00000E+00
 -1       809 7.50473E-02 6.15753E+01 0.00000E+00
 -1       810 8.12883E-02 6.06634E+01 0.00000E+00
 -1       811 8.74265E-02 5.96793E+01 0.00000E+00
 -1       812 9.34554E-02 5.86242E+01 0.00000E+00
 -1       813 9.93688E-02 5.74994E+01 0.00000E+00
 -1       814 1.05162E-01 5.63064E+01 0.00000E+00
 -1       815 1.10828E-01 5.50465E+01 0.00000E+00
 -1       816 1.16363E-01 5.37213E+01 0.00000E+00
 -1       817 1.21760E-01 5.23323E+01 0.00000E+00
 -1       818 1.27015E-01 5.08812E+01 0.00000E+00
 -1       819 1.32121E-01 4.93696E+01 0.00000E+00
 -1       820 1.37076E-01 4.77994E+01 0.00000E+00
 -1       821 1.41873E-01 4.61723E+01 0.00000E+00
 -1       822 1.46509E-01 4.44901E+01 0.00000E+00
 -1       823 1.50978E-01 4.27549E+01 0.00000E+00
 -1       824 1.55276E-01 4.09685E+01 0.00000E+00
 -1       825 1.59399E-01 3.91330E+01 0.00000E+00
 -1       826 1.63344E-01 3.72504E+01 0.00000E+00
 -1       827 1.67106E-01 3.53229E+01 0.00000E+00
 -1       828 1.70682E-01 3.33525E+01 0.00000E+00
 -1       829 1.74068E-01 3.13416E+01 0.00000E+00
 -1       830 1.77262E-01 2.92923E+01 0.00000E+00
 -1       831 1.80260E-01 2.72068E+01 0.00000E+00
 -1       832 1.83060E-01 2.50876E+01 0.00000E+00
 -1       833 1.85658E-01 2.29368E+01 0.00000E+00
 -1       834 1.88053E-01 2.07570E+01 0.00000E+00
 -1       835 1.90243E-01 1.85503E+01 0.00000E+00
 -1       836 1.92225E-01 1.63194E+01 0.00000E+00
 -1       837 1.93998E-01 1.40666E+01 0.00000E+00
 -1       838 1.95560E-01 1.17942E+01 0.00000E+00
 -1       839 1.96910E-01 9.50493E+00 0.00000E+00
 -1       840 1.98048E-01 7.20111E+00 0.00000E+00
 -1       841 1.98971E-01 4.88528E+00 0.00000E+00
 -1       842 1.99680E-01 2.55998E+00 0.00000E+00
 -1       843 2.00174E-01 2.27603E-01 0.00000E+00
 -1       844 2.00453E-01-2.10928E+00 0.00000E+00
 -1       845 2.00518E-01-4.44817E+00 0.00000E+00
 -1       846 2.00367E-01-6.78656E+00 0.00000E+00
 -1       847 2.00003E-01-9.12195E+00 0.00000E+00
 -1       848 1.99426E-01-1.14518E+01 0.00000E+00
 -1       849 1.98636E-01-1.37737E+01 0.00000E+00
 -1       850 1.97636E-01-1.60852E+01 0.00000E+00
 -1       851 1.96426E-01-1.83838E+01 0.00000E+00
 -1       852 1.95008E-01-2.06670E+01 0.00000E+00
 -1       853 1.93385E-01-2.29325E+01 0.00000E+00
 -1       854 1.91557E-01-2.51779E+01 0.00000E+00
 -1       855 1.89529E-01-2.74008E+01 0.00000E+00
 -1       856 1.87302E-01-2.95988E+01 0.00000E+00
 -1       857 1.84878E-01-3.17698E+01 0.00000E+00
 -1       858 1.82262E-01-3.39113E+01 0.00000E+00
 -1       859 1.79456E-01-3.60212E+01 0.00000E+00
 -1       860 1.76464E-01-3.80973E+01 0.00000E+00
 -1       861 1.73289E-01-4.01374E+01 0.00000E+00
 -1       862 1.69936E-01-4.21395E+01 0.00000E+00
 -1       863 1.66408E-01-4.41014E+01 0.00000E+00
 -1       864 1.62710E-01-4.60211E+01 0.00000E+00
 -1       865 1.58845E-01-4.78968E+01 0.00000E+00
 -1       866 1.54820E-01-4.97264E+01 0.00000E+00
 -1       867 1.50637E-01-5.15081E+01 0.00000E+00
 -1       868 1.46303E-01-5.32402E+01 0.00000E+00
 -1       869 1.41823E-01-5.49208E+01 0.00000E+00
 -1       870 1.37202E-01-5.65484E+01 0.00000E+00
 -1       871 1.32444E-01-5.81212E+01 0.00000E+00
 -1       872 1.27558E-01-5.96378E+01 0.00000E+00
 -1       873 1.22547E-01-6.10967E+01 0.00000E+00
 -1       874 1.17417E-01-6.24964E+01 0.00000E+00
 -1       875 1.12176E-01-6.38356E+01 0.00000E+00
 -1       876 1.06829E-01-6.51131E+01 0.00000E+00
 -1       877 1.01382E-01-6.63276E+01 0.00000E+00
 -1       878 9.58431E-02-6.74780E+01 0.00000E+00
 -1       879 9.02165E-02-6.85633E+01 0.00000E+00
 -1       880 8.45110E-02-6.95824E+01 0.00000E+00
 -1       881 7.87319E-02-7.05346E+01 0.00000E+00
 -1       882 7.28872E-02-7.14190E+01 0.00000E+00
 -1       883 6.69830E-02-7.22349E+01 0.00000E+00
 -1       884 6.10278E-02-7.29816E+01 0.00000E+00
 -1       885 5.50260E-02-7.36585E+01 0.00000E+00
 -1       886 4.89883E-02-7.42652E+01 0.00000E+00
 -1       887 4.29198E-02-7.48013E+01 0.00000E+00
 -1       888 3.68278E-02-7.52665E+01 0.00000E+00
 -1       889 3.07211E-02-7.56605E+01 0.00000E+00
 -1       890 2.46053E-02-7.59832E+01 0.00000E+00
 -1       891 1.84898E-02-7.62345E+01 0.00000E+00
 -1       892 1.23803E-02-7.64146E+01 0.00000E+00
 -1       893 6.28561E-03-7.65235E+01 0.00000E+00
 -1       894 2.13069E-04-7.65614E+01 0.00000E+00
 -1       895-5.83104E-03-7.65286E+01 0.00000E+00
 -1       896-1.18369E-02-7.64255E+01 0.00000E+00
 -1       897-1.77995E-02-7.62526E+01 0.00000E+00
 -1       898-2.37086E-02-7.60105E+01 0.00000E+00
 -1       899-2.95602E-02-7.56997E+01 0.00000E+00
 -1       900-3.53428E-02-7.53211E+01 0.00000E+00
 -1       901-4.10524E-02-7.48755E+01 0.00000E+00
 -1       902-4.66790E-02-7.43637E+01 0.00000E+00
 -1       903-5.22176E-02-7.37869E+01 0.00000E+00
 -1       904-5.76588E-02-7.31459E+01 0.00000E+00
 -1       905-6.29966E-02-7.24421E+01 0.00000E+00
 -1       906-6.82237E-02-7.16767E+01 0.00000E+00
 -1       907-7.33324E-02-7.08510E+01 0.00000E+00
 -1       908-7.83164E-02-6.99664E+01 0.00000E+00
 -1       909-8.31683E-02-6.90244E+01 0.00000E+00
 -1       910-8.78814E-02-6.80266E+01 0.00000E+00
 -1       911-9.24492E-02-6.69747E+01 0.00000E+00
 -1       912-9.68641E-02-6.58704E+01 0.00000E+00
 -1       913-1.01121E-01-6.47155E+01 0.00000E+00
 -1       914-1.05212E-01-6.35120E+01 0.00000E+00
 -1       915-1.09133E-01-6.22616E+01 0.00000E+00
 -1       916-1.12875E-01-6.09667E+01 0.00000E+00
 -1       917-1.16433E-01-5.96291E+01 0.00000E+00
 -1       918-1.19802E-01-5.82511E+01 0.00000E+00
 -1       919-1.22976E-01-5.68349E+01 0.00000E+00
 -1       920-1.25947E-01-5.53829E+01 0.00000E+00
 -1       921-1.28713E-01-5.38974E+01 0.00000E+00
 -1       922-1.31266E-01-5.23809E+01 0.00000E+00
 -1       923-1.33602E-01-5.08359E+01 0.00000E+00
 -1       924-1.35716E-01-4.92649E+01 0.00000E+00
 -1       925-1.37602E-01-4.76706E+01 0.00000E+00
 -1       926-1.39256E-01-4.60556E+01 0.00000E+00
 -1       927-1.40674E-01-4.44227E+01 0.00000E+00
 -1       928-1.41850E-01-4.27747E+01 0.00000E+00
 -1       929-1.42781E-01-4.11144E+01 0.00000E+00
 -1       930-1.43462E-01-3.94447E+01 0.00000E+00
 -1       931-1.43889E-01-3.77685E+01 0.00000E+00
 -1       932-1.44060E-01-3.60888E+01 0.00000E+00
 -1       933-1.43969E-01-3.44087E+01 0.00000E+00
 -1       934-1.43613E-01-3.27312E+01 0.00000E+00
 -1       935-1.42990E-01-3.10593E+01 0.00000E+00
 -1       936-1.42096E-01-2.93964E+01 0.00000E+00
 -1       937-1.40928E-01-2.77454E+01 0.00000E+00
 -1       938-1.39483E-01-2.61097E+01 0.00000E+00
 -1       939-1.37759E-01-2.44925E+01 0.00000E+00
 -1       940-1.35753E-01-2.28970E+01 0.00000E+00
 -1       941-1.33462E-01-2.13266E+01 0.00000E+00
 -1       942-1.30886E-01-1.97846E+01 0.00000E+00
 -1       943-1.28020E-01-1.82743E+01 0.00000E+00
 -1       944-1.24865E-01-1.67991E+01 0.00000E+00
 -1       945-1.21417E-01-1.53625E+01 0.00000E+00
 -1       946-1.17677E-01-1.39677E+01 0.00000E+00
 -1       947-1.13640E-01-1.26184E+01 0.00000E+00
 -1       948-1.09308E-01-1.13178E+01 0.00000E+00
 -1       949-1.04677E-01-1.00696E+01 0.00000E+00
 -1       950-9.97498E-02-8.87704E+00 0.00000E+00
 -1       951-9.45194E-02-7.74375E+00 0.00000E+00
 -1       952-8.89939E-02-6.67321E+00 0.00000E+00
 -1       953-8.31604E-02-5.66894E+00 0.00000E+00
 -1       954-7.70337E-02-4.73442E+00 0.00000E+00
 -1       955-7.05940E-02-3.87318E+00 0.00000E+00
 -1       956-6.38662E-02-3.08876E+00 0.00000E+00
 -1       957-5.68163E-02-2.38468E+00 0.00000E+00
 -1       958-4.94880E-02-1.76451E+00 0.00000E+00
 -1       959-4.18231E-02-1.23174E+00 0.00000E+00
 -1       960-3.39029E-02-7.89926E-01 0.00000E+00
 -1       961-2.55963E-02-4.42697E-01 0.00000E+00
 -1       962-1.71656E-02-1.93155E-01 0.00000E+00
 -1       963-7.93640E-03-4.65953E-02 0.00000E+00
 -1       964 0.00000E+00 0.00000E+00 0.00000E+00
 -1       965-2.26674E-05-1.01034E+02 0.00000E+00
 -1       966-2.26672E-05-9.77280E+01 0.00000E+00
 -1       967-2.26662E-05-9.44224E+01 0.00000E+00
 -1       968-2.26638E-05-9.11172E+01 0.00000E+00
 -1       969-2.26590E-05-8.78124E+01 0.00000E+00
 -1       970-2.26513E-05-8.45085E+01 0.00000E+00
 -1       971-2.26399E-05-8.12061E+01 0.00000E+00
 -1       972-2.26242E-05-7.79056E+01 0.00000E+00
 -1       973-2.26036E-05-7.46076E+01 0.00000E+00
 -1       974-2.25775E-05-7.13132E+01 0.00000E+00
 -1       975-2.25452E-05-6.80229E+01 0.00000E+00
 -1       976-2.25063E-05-6.47380E+01 0.00000E+00
 -1       977-2.24602E-05-6.14592E+01 0.00000E+00
 -1       978-2.24064E-05-5.81875E+01 0.00000E+00
 -1       979-2.23445E-05-5.49245E+01 0.00000E+00
 -1       980-2.22740E-05-5.16711E+01 0.00000E+00
 -1       981-2.21945E-05-4.84285E+01 0.00000E+00
 -1       982-2.21055E-05-4.51983E+01 0.00000E+00
 -1       983-2.20068E-05-4.19818E+01 0.00000E+00
 -1       984-2.18980E-05-3.87803E+01 0.00000E+00
 -1       985-2.17787E-05-3.55955E+01 0.00000E+00
 -1       986-2.16487E-05-3.24288E+01 0.00000E+00
 -1       987-2.15076E-05-2.92820E+01 0.00000E+00
 -1       988-2.13554E-05-2.61566E+01 0.00000E+00
 -1       989-2.11916E-05-2.30541E+01 0.00000E+00
 -1       990-2.10162E-05-1.99764E+01 0.00000E+00
 -1       991-2.08290E-05-1.69251E+01 0.00000E+00
 -1       992-2.06299E-05-1.39021E+01 0.00000E+00
 -1       993-2.04186E-05-1.09089E+01 0.00000E+00
 -1       994-2.01951E-05-7.94743E+00 0.00000E+00
 -1       995-1.99594E-05-5.01944E+00 0.00000E+00
 -1       996-1.97113E-05-2.12679E+00 0.00000E+00
 -1       997-1.94509E-05 7.28859E-01 0.00000E+00
 -1       998-1.91781E-05 3.54563E+00 0.00000E+00
 -1       999-1.88931E-05 6.32165E+00 0.00000E+00
 -1      1000-1.85957E-05 9.05528E+00 0.00000E+00
 -1      1001-1.82860E-05 1.17446E+01 0.00000E+00
 -1      1002-1.79643E-05 1.43880E+01 0.00000E+00
 -1      1003-1.76305E-05 1.69834E+01 0.00000E+00
 -1      1004-1.72847E-05 1.95294E+01 0.00000E+00
 -1      1005-1.69272E-05 2.20241E+01 0.00000E+00
 -1      1006-1.65580E-05 2.44658E+01 0.00000E+00
 -1      1007-1.61775E-05 2.68527E+01 0.00000E+00
 -1      1008-1.57857E-05 2.91834E+01 0.00000E+00
 -1      1009-1.53828E-05 3.14562E+01 0.00000E+00
 -1      1010-1.49692E-05 3.36694E+01 0.00000E+00
 -1      1011-1.45451E-05 3.58215E+01 0.00000E+00
 -1      1012-1.41107E-05 3.79110E+01 0.00000E+00
 -1      1013-1.36664E-05 3.99365E+01 0.00000E+00
 -1      1014-1.32125E-05 4.18964E+01 0.00000E+00
 -1      1015-1.27492E-05 4.37895E+01 0.00000E+00
 -1      1016-1.22769E-05 4.56144E+01 0.00000E+00
 -1      1017-1.17960E-05 4.73697E+01 0.00000E+00
 -1      1018-1.13069E-05 4.90543E+01 0.00000E+00
 -1      1019-1.08098E-05 5.06670E+01 0.00000E+00
 -1      1020-1.03052E-05 5.22067E+01 0.00000E+00
 -1      1021-9.79363E-06 5.36722E+01 0.00000E+00
 -1      1022-9.27532E-06 5.50627E+01 0.00000E+00
 -1      1023-8.75077E-06 5.63771E+01 0.00000E+00
 -1      1024-8.22041E-06 5.76146E+01 0.00000E+00
 -1      1025-7.68472E-06 5.87744E+01 0.00000E+00
 -1      1026-7.14408E-06 5.98557E+01 0.00000E+00
 -1      1027-6.59908E-06 6.08578E+01 0.00000E+00
 -1      1028-6.05010E-06 6.17801E+01 0.00000E+00
 -1      1029-5.49762E-06 6.26221E+01 0.00000E+00
 -1      1030-4.94220E-06 6.33834E+01 0.00000E+00
 -1      1031-4.38427E-06 6.40634E+01 0.00000E+00
 -1      1032-3.82437E-06 6.46619E+01 0.00000E+00
 -1      1033-3.26301E-06 6.51787E+01 0.00000E+00
 -1      1034-2.70067E-06 6.56136E+01 0.00000E+00
 -1      1035-2.13792E-06 6.59663E+01 0.00000E+00
 -1      1036-1.57517E-06 6.62371E+01 0.00000E+00
 -1      1037-1.01308E-06 6.64258E+01 0.00000E+00
 -1      1038-4.52062E-07 6.65326E+01 0.00000E+00
 -1      1039 1.07271E-07 6.65577E+01 0.00000E+00
 -1      1040 6.64485E-07 6.65014E+01 0.00000E+00
 -1      1041 1.21898E-06 6.63640E+01 0.00000E+00
 -1      1042 1.77029E-06 6.61460E+01 0.00000E+00
 -1      1043 2.31784E-06 6.58478E+01 0.00000E+00
 -1      1044 2.86117E-06 6.54702E+01 0.00000E+00
 -1      1045 3.39966E-06 6.50136E+01 0.00000E+00
 -1      1046 3.93294E-06 6.44789E+01 0.00000E+00
 -1      1047 4.46038E-06 6.38668E+01 0.00000E+00
 -1      1048 4.98155E-06 6.31782E+01 0.00000E+00
 -1      1049 5.49587E-06 6.24142E+01 0.00000E+00
 -1      1050 6.00296E-06 6.15757E+01 0.00000E+00
 -1      1051 6.50216E-06 6.06638E+01 0.00000E+00
 -1      1052 6.99324E-06 5.96797E+01 0.00000E+00
 -1      1053 7.47541E-06 5.86246E+01 0.00000E+00
 -1      1054 7.94855E-06 5.74998E+01 0.00000E+00
 -1      1055 8.41183E-06 5.63068E+01 0.00000E+00
 -1      1056 8.86519E-06 5.50469E+01 0.00000E+00
 -1      1057 9.30782E-06 5.37217E+01 0.00000E+00
 -1      1058 9.73969E-06 5.23328E+01 0.00000E+00
 -1      1059 1.01598E-05 5.08816E+01 0.00000E+00
 -1      1060 1.05686E-05 4.93701E+01 0.00000E+00
 -1      1061 1.09646E-05 4.77999E+01 0.00000E+00
 -1      1062 1.13487E-05 4.61728E+01 0.00000E+00
 -1      1063 1.17191E-05 4.44906E+01 0.00000E+00
 -1      1064 1.20770E-05 4.27554E+01 0.00000E+00
 -1      1065 1.24204E-05 4.09690E+01 0.00000E+00
 -1      1066 1.27508E-05 3.91335E+01 0.00000E+00
 -1      1067 1.30656E-05 3.72509E+01 0.00000E+00
 -1      1068 1.33674E-05 3.53234E+01 0.00000E+00
 -1      1069 1.36524E-05 3.33531E+01 0.00000E+00
 -1      1070 1.39245E-05 3.13421E+01 0.00000E+00
 -1      1071 1.41785E-05 2.92928E+01 0.00000E+00
 -1      1072 1.44201E-05 2.72074E+01 0.00000E+00
 -1      1073 1.46419E-05 2.50882E+01 0.00000E+00
 -1      1074 1.48524E-05 2.29374E+01 0.00000E+00
 -1      1075 1.50409E-05 2.07576E+01 0.00000E+00
 -1      1076 1.52198E-05 1.85509E+01 0.00000E+00
 -1      1077 1.53738E-05 1.63200E+01 0.00000E+00
 -1      1078 1.55212E-05 1.40671E+01 0.00000E+00
 -1      1079 1.56393E-05 1.17949E+01 0.00000E+00
 -1      1080 1.57556E-05 9.50555E+00 0.00000E+00
 -1      1081 1.58368E-05 7.20173E+00 0.00000E+00
 -1      1082 1.59105E-05 4.88595E+00 0.00000E+00
 -1      1083 1.59778E-05 2.56059E+00 0.00000E+00
 -1      1084 1.60082E-05 2.28211E-01 0.00000E+00
 -1      1085 1.60383E-05-2.10868E+00 0.00000E+00
 -1      1086 1.60369E-05-4.44752E+00 0.00000E+00
 -1      1087 1.60303E-05-6.78591E+00 0.00000E+00
 -1      1088 1.59967E-05-9.12130E+00 0.00000E+00
 -1      1089 1.59543E-05-1.14512E+01 0.00000E+00
 -1      1090 1.58879E-05-1.37731E+01 0.00000E+00
 -1      1091 1.58106E-05-1.60846E+01 0.00000E+00
 -1      1092 1.57116E-05-1.83832E+01 0.00000E+00
 -1      1093 1.56000E-05-2.06664E+01 0.00000E+00
 -1      1094 1.54686E-05-2.29319E+01 0.00000E+00
 -1      1095 1.53237E-05-2.51773E+01 0.00000E+00
 -1      1096 1.51604E-05-2.74002E+01 0.00000E+00
 -1      1097 1.49831E-05-2.95982E+01 0.00000E+00
 -1      1098 1.47885E-05-3.17692E+01 0.00000E+00
 -1      1099 1.45799E-05-3.39108E+01 0.00000E+00
 -1      1100 1.43549E-05-3.60206E+01 0.00000E+00
 -1      1101 1.41160E-05-3.80968E+01 0.00000E+00
 -1      1102 1.38617E-05-4.01369E+01 0.00000E+00
 -1      1103 1.35938E-05-4.21390E+01 0.00000E+00
 -1      1104 1.33113E-05-4.41009E+01 0.00000E+00
 -1      1105 1.30157E-05-4.60206E+01 0.00000E+00
 -1      1106 1.27064E-05-4.78963E+01 0.00000E+00
 -1      1107 1.23845E-05-4.97259E+01 0.00000E+00
 -1      1108 1.20498E-05-5.15077E+01 0.00000E+00
 -1      1109 1.17033E-05-5.32397E+01 0.00000E+00
 -1      1110 1.13448E-05-5.49204E+01 0.00000E+00
 -1      1111 1.09752E-05-5.65480E+01 0.00000E+00
 -1      1112 1.05946E-05-5.81208E+01 0.00000E+00
 -1      1113 1.02038E-05-5.96375E+01 0.00000E+00
 -1      1114 9.80291E-06-6.10963E+01 0.00000E+00
 -1      1115 9.39261E-06-6.24961E+01 0.00000E+00
 -1      1116 8.97335E-06-6.38353E+01 0.00000E+00
 -1      1117 8.54565E-06-6.51128E+01 0.00000E+00
 -1      1118 8.10993E-06-6.63273E+01 0.00000E+00
 -1      1119 7.66684E-06-6.74777E+01 0.00000E+00
 -1      1120 7.21676E-06-6.85631E+01 0.00000E+00
 -1      1121 6.76036E-06-6.95823E+01 0.00000E+00
 -1      1122 6.29809E-06-7.05345E+01 0.00000E+00
 -1      1123 5.83055E-06-7.14189E+01 0.00000E+00
 -1      1124 5.35827E-06-7.22348E+01 0.00000E+00
 -1      1125 4.88190E-06-7.29815E+01 0.00000E+00
 -1      1126 4.40182E-06-7.36584E+01 0.00000E+00
 -1      1127 3.91884E-06-7.42652E+01 0.00000E+00
 -1      1128 3.43341E-06-7.48013E+01 0.00000E+00
 -1      1129 2.94611E-06-7.52665E+01 0.00000E+00
 -1      1130 2.45762E-06-7.56605E+01 0.00000E+00
 -1      1131 1.96840E-06-7.59832E+01 0.00000E+00
 -1      1132 1.47921E-06-7.62346E+01 0.00000E+00
 -1      1133 9.90505E-07-7.64147E+01 0.00000E+00
 -1      1134 5.02984E-07-7.65236E+01 0.00000E+00
 -1      1135 1.72139E-08-7.65615E+01 0.00000E+00
 -1      1136-4.66246E-07-7.65288E+01 0.00000E+00
 -1      1137-9.46692E-07-7.64257E+01 0.00000E+00
 -1      1138-1.42363E-06-7.62528E+01 0.00000E+00
 -1      1139-1.89634E-06-7.60107E+01 0.00000E+00
 -1      1140-2.36438E-06-7.57000E+01 0.00000E+00
 -1      1141-2.82698E-06-7.53214E+01 0.00000E+00
 -1      1142-3.28368E-06-7.48758E+01 0.00000E+00
 -1      1143-3.73378E-06-7.43641E+01 0.00000E+00
 -1      1144-4.17680E-06-7.37872E+01 0.00000E+00
 -1      1145-4.61207E-06-7.31463E+01 0.00000E+00
 -1      1146-5.03904E-06-7.24425E+01 0.00000E+00
 -1      1147-5.45718E-06-7.16771E+01 0.00000E+00
 -1      1148-5.86583E-06-7.08514E+01 0.00000E+00
 -1      1149-6.26452E-06-6.99669E+01 0.00000E+00
 -1      1150-6.65262E-06-6.90249E+01 0.00000E+00
 -1      1151-7.02964E-06-6.80272E+01 0.00000E+00
 -1      1152-7.39502E-06-6.69753E+01 0.00000E+00
 -1      1153-7.74820E-06-6.58710E+01 0.00000E+00
 -1      1154-8.08873E-06-6.47162E+01 0.00000E+00
 -1      1155-8.41599E-06-6.35126E+01 0.00000E+00
 -1      1156-8.72957E-06-6.22623E+01 0.00000E+00
 -1      1157-9.02893E-06-6.09673E+01 0.00000E+00
 -1      1158-9.31359E-06-5.96297E+01 0.00000E+00
 -1      1159-9.58306E-06-5.82518E+01 0.00000E+00
 -1      1160-9.83692E-06-5.68356E+01 0.00000E+00
 -1      1161-1.00747E-05-5.53836E+01 0.00000E+00
 -1      1162-1.02959E-05-5.38981E+01 0.00000E+00
 -1      1163-1.05001E-05-5.23816E+01 0.00000E+00
 -1      1164-1.06870E-05-5.08366E+01 0.00000E+00
 -1      1165-1.08561E-05-4.92657E+01 0.00000E+00
 -1      1166-1.10070E-05-4.76713E+01 0.00000E+00
 -1      1167-1.11393E-05-4.60564E+01 0.00000E+00
 -1      1168-1.12527E-05-4.44235E+01 0.00000E+00
 -1      1169-1.13468E-05-4.27755E+01 0.00000E+00
 -1      1170-1.14212E-05-4.11152E+01 0.00000E+00
 -1      1171-1.14757E-05-3.94455E+01 0.00000E+00
 -1      1172-1.15099E-05-3.77693E+01 0.00000E+00
 -1      1173-1.15235E-05-3.60896E+01 0.00000E+00
 -1      1174-1.15163E-05-3.44095E+01 0.00000E+00
 -1      1175-1.14879E-05-3.27319E+01 0.00000E+00
 -1      1176-1.14380E-05-3.10601E+01 0.00000E+00
 -1      1177-1.13665E-05-2.93971E+01 0.00000E+00
 -1      1178-1.12731E-05-2.77462E+01 0.00000E+00
 -1      1179-1.11575E-05-2.61104E+01 0.00000E+00
 -1      1180-1.10196E-05-2.44932E+01 0.00000E+00
 -1      1181-1.08591E-05-2.28977E+01 0.00000E+00
 -1      1182-1.06760E-05-2.13273E+01 0.00000E+00
 -1      1183-1.04698E-05-1.97853E+01 0.00000E+00
 -1      1184-1.02407E-05-1.82750E+01 0.00000E+00
 -1      1185-9.98820E-06-1.67998E+01 0.00000E+00
 -1      1186-9.71253E-06-1.53631E+01 0.00000E+00
 -1      1187-9.41316E-06-1.39683E+01 0.00000E+00
 -1      1188-9.09046E-06-1.26189E+01 0.00000E+00
 -1      1189-8.74372E-06-1.13183E+01 0.00000E+00
 -1      1190-8.37354E-06-1.00700E+01 0.00000E+00
 -1      1191-7.97910E-06-8.87750E+00 0.00000E+00
 -1      1192-7.56110E-06-7.74417E+00 0.00000E+00
 -1      1193-7.11865E-06-6.67359E+00 0.00000E+00
 -1      1194-6.65258E-06-5.66928E+00 0.00000E+00
 -1      1195-6.16184E-06-4.73471E+00 0.00000E+00
 -1      1196-5.64751E-06-3.87343E+00 0.00000E+00
 -1      1197-5.10840E-06-3.08896E+00 0.00000E+00
 -1      1198-4.54564E-06-2.38485E+00 0.00000E+00
 -1      1199-3.95801E-06-1.76461E+00 0.00000E+00
 -1      1200-3.34665E-06-1.23179E+00 0.00000E+00
 -1      1201-2.71092E-06-7.89927E-01 0.00000E+00
 -1      1202-2.04922E-06-4.42632E-01 0.00000E+00
 -1      1203-1.37147E-06-1.93052E-01 0.00000E+00
 -1      1204-6.36874E-07-4.63410E-02 0.00000E+00
 -1      1205 0.00000E+00 0.00000E+00 0.00000E+00
 -1      1206-2.26675E-05-1.01034E+02 0.00000E+00
 -1      1207-2.26674E-05-9.77280E+01 0.00000E+00
 -1      1208-2.26664E-05-9.44224E+01 0.00000E+00
 -1      1209-2.26639E-05-9.11172E+01 0.00000E+00
 -1      1210-2.26592E-05-8.78124E+01 0.00000E+00
 -1      1211-2.26515E-05-8.45085E+01 0.00000E+00
 -1      1212-2.26401E-05-8.12061E+01 0.00000E+00
 -1      1213-2.26244E-05-7.79056E+01 0.00000E+00
 -1      1214-2.26038E-05-7.46076E+01 0.00000E+00
 -1      1215-2.25777E-05-7.13132E+01 0.00000E+00
 -1      1216-2.25454E-05-6.80229E+01 0.00000E+00
 -1      1217-2.25065E-05-6.47380E+01 0.00000E+00
 -1      1218-2.24604E-05-6.14592E+01 0.00000E+00
 -1      1219-2.24066E-05-5.81875E+01 0.00000E+00
 -1      1220-2.23447E-05-5.49245E+01 0.00000E+00
 -1      1221-2.22742E-05-5.16711E+01 0.00000E+00
 -1      1222-2.21946E-05-4.84285E+01 0.00000E+00
 -1      1223-2.21057E-05-4.51983E+01 0.00000E+00
 -1      1224-2.20070E-05-4.19818E+01 0.00000E+00
 -1      1225-2.18981E-05-3.87803E+01 0.00000E+00
 -1      1226-2.17788E-05-3.55955E+01 0.00000E+00
 -1      1227-2.16488E-05-3.24288E+01 0.00000E+00
 -1      1228-2.15078E-05-2.92820E+01 0.00000E+00
 -1      1229-2.13555E-05-2.61566E+01 0.00000E+00
 -1      1230-2.11918E-05-2.30541E+01 0.00000E+00
 -1      1231-2.10164E-05-1.99764E+01 0.00000E+00
 -1      1232-2.08292E-05-1.69251E+01 0.00000E+00
 -1      1233-2.06300E-05-1.39021E+01 0.00000E+00
 -1      1234-2.04187E-05-1.09089E+01 0.00000E+00
 -1      1235-2.01952E-05-7.94743E+00 0.00000E+00
 -1      1236-1.99595E-05-5.01944E+00 0.00000E+00
 -1      1237-1.97115E-05-2.12679E+00 0.00000E+00
 -1      1238-1.94511E-05 7.28859E-01 0.00000E+00
 -1      1239-1.91783E-05 3.54563E+00 0.00000E+00
 -1      1240-1.88932E-05 6.32165E+00 0.00000E+00
 -1      1241-1.85958E-05 9.05528E+00 0.00000E+00
 -1      1242-1.82862E-05 1.17446E+01 0.00000E+00
 -1      1243-1.79644E-05 1.43880E+01 0.00000E+00
 -1      1244-1.76306E-05 1.69834E+01 0.00000E+00
 -1      1245-1.72849E-05 1.95294E+01 0.00000E+00
 -1      1246-1.69273E-05 2.20241E+01 0.00000E+00
 -1      1247-1.65582E-05 2.44658E+01 0.00000E+00
 -1      1248-1.61776E-05 2.68527E+01 0.00000E+00
 -1      1249-1.57858E-05 2.91834E+01 0.00000E+00
 -1      1250-1.53830E-05 3.14562E+01 0.00000E+00
 -1      1251-1.49694E-05 3.36694E+01 0.00000E+00
 -1      1252-1.45453E-05 3.58215E+01 0.00000E+00
 -1      1253-1.41109E-05 3.79110E+01 0.00000E+00
 -1      1254-1.36666E-05 3.99365E+01 0.00000E+00
 -1      1255-1.32126E-05 4.18964E+01 0.00000E+00
 -1      1256-1.27493E-05 4.37895E+01 0.00000E+00
 -1      1257-1.22771E-05 4.56144E+01 0.00000E+00
 -1      1258-1.17962E-05 4.73697E+01 0.00000E+00
 -1      1259-1.13070E-05 4.90543E+01 0.00000E+00
 -1      1260-1.08100E-05 5.06670E+01 0.00000E+00
 -1      1261-1.03054E-05 5.22067E+01 0.00000E+00
 -1      1262-9.79378E-06 5.36722E+01 0.00000E+00
 -1      1263-9.27547E-06 5.50627E+01 0.00000E+00
 -1      1264-8.75092E-06 5.63771E+01 0.00000E+00
 -1      1265-8.22056E-06 5.76146E+01 0.00000E+00
 -1      1266-7.68487E-06 5.87744E+01 0.00000E+00
 -1      1267-7.14423E-06 5.98557E+01 0.00000E+00
 -1      1268-6.59923E-06 6.08578E+01 0.00000E+00
 -1      1269-6.05025E-06 6.17801E+01 0.00000E+00
 -1      1270-5.49776E-06 6.26221E+01 0.00000E+00
 -1      1271-4.94235E-06 6.33834E+01 0.00000E+00
 -1      1272-4.38442E-06 6.40634E+01 0.00000E+00
 -1      1273-3.82452E-06 6.46619E+01 0.00000E+00
 -1      1274-3.26316E-06 6.51787E+01 0.00000E+00
 -1      1275-2.70082E-06 6.56136E+01 0.00000E+00
 -1      1276-2.13806E-06 6.59663E+01 0.00000E+00
 -1      1277-1.57531E-06 6.62371E+01 0.00000E+00
 -1      1278-1.01323E-06 6.64258E+01 0.00000E+00
 -1      1279-4.52208E-07 6.65326E+01 0.00000E+00
 -1      1280 1.07126E-07 6.65577E+01 0.00000E+00
 -1      1281 6.64339E-07 6.65014E+01 0.00000E+00
 -1      1282 1.21884E-06 6.63640E+01 0.00000E+00
 -1      1283 1.77014E-06 6.61460E+01 0.00000E+00
 -1      1284 2.31770E-06 6.58478E+01 0.00000E+00
 -1      1285 2.86103E-06 6.54702E+01 0.00000E+00
 -1      1286 3.39952E-06 6.50136E+01 0.00000E+00
 -1      1287 3.93279E-06 6.44789E+01 0.00000E+00
 -1      1288 4.46024E-06 6.38668E+01 0.00000E+00
 -1      1289 4.98141E-06 6.31782E+01 0.00000E+00
 -1      1290 5.49572E-06 6.24142E+01 0.00000E+00
 -1      1291 6.00281E-06 6.15757E+01 0.00000E+00
 -1      1292 6.50202E-06 6.06638E+01 0.00000E+00
 -1      1293 6.99310E-06 5.96797E+01 0.00000E+00
 -1      1294 7.47527E-06 5.86246E+01 0.00000E+00
 -1      1295 7.94841E-06 5.74998E+01 0.00000E+00
 -1      1296 8.41169E-06 5.63068E+01 0.00000E+00
 -1      1297 8.86505E-06 5.50469E+01 0.00000E+00
 -1      1298 9.30768E-06 5.37217E+01 0.00000E+00
 -1      1299 9.73955E-06 5.23328E+01 0.00000E+00
 -1      1300 1.01597E-05 5.08816E+01 0.00000E+00
 -1      1301 1.05684E-05 4.93701E+01 0.00000E+00
 -1      1302 1.09645E-05 4.77999E+01 0.00000E+00
 -1      1303 1.13486E-05 4.61728E+01 0.00000E+00
 -1      1304 1.17190E-05 4.44906E+01 0.00000E+00
 -1      1305 1.20769E-05 4.27554E+01 0.00000E+00
 -1      1306 1.24202E-05 4.09690E+01 0.00000E+00
 -1      1307 1.27507E-05 3.91335E+01 0.00000E+00
 -1      1308 1.30655E-05 3.72509E+01 0.00000E+00
 -1      1309 1.33673E-05 3.53234E+01 0.00000E+00
 -1      1310 1.36523E-05 3.33531E+01 0.00000E+00
 -1      1311 1.39244E-05 3.13421E+01 0.00000E+00
 -1      1312 1.41784E-05 2.92928E+01 0.00000E+00
 -1      1313 1.44200E-05 2.72074E+01 0.00000E+00
 -1      1314 1.46418E-05 2.50882E+01 0.00000E+00
 -1      1315 1.48523E-05 2.29374E+01 0.00000E+00
 -1      1316 1.50407E-05 2.07576E+01 0.00000E+00
 -1      1317 1.52197E-05 1.85509E+01 0.00000E+00
 -1      1318 1.53736E-05 1.63200E+01 0.00000E+00
 -1      1319 1.55211E-05 1.40671E+01 0.00000E+00
 -1      1320 1.56392E-05 1.17949E+01 0.00000E+00
 -1      1321 1.57555E-05 9.50555E+00 0.00000E+00
 -1      1322 1.58367E-05 7.20173E+00 0.00000E+00
 -1      1323 1.59104E-05 4.88595E+00 0.00000E+00
 -1      1324 1.59777E-05 2.56059E+00 0.00000E+00
 -1      1325 1.60081E-05 2.28211E-01 0.00000E+00
 -1      1326 1.60382E-05-2.10868E+00 0.00000E+00
 -1      1327 1.60368E-05-4.44752E+00 0.00000E+00
 -1      1328 1.60302E-05-6.78591E+00 0.00000E+00
 -1      1329 1.59966E-05-9.12130E+00 0.00000E+00
 -1      1330 1.59542E-05-1.14512E+01 0.00000E+00
 -1      1331 1.58879E-05-1.37731E+01 0.00000E+00
 -1      1332 1.58105E-05-1.60846E+01 0.00000E+00
 -1      1333 1.57115E-05-1.83832E+01 0.00000E+00
 -1      1334 1.55999E-05-2.06664E+01 0.00000E+00
 -1      1335 1.54685E-05-2.29319E+01 0.00000E+00
 -1      1336 1.53237E-05-2.51773E+01 0.00000E+00
 -1      1337 1.51603E-05-2.74002E+01 0.00000E+00
 -1      1338 1.49831E-05-2.95982E+01 0.00000E+00
 -1      1339 1.47885E-05-3.17692E+01 0.00000E+00
 -1      1340 1.45798E-05-3.39108E+01 0.00000E+00
 -1      1341 1.43549E-05-3.60206E+01 0.00000E+00
 -1      1342 1.41160E-05-3.80968E+01 0.00000E+00
 -1      1343 1.38616E-05-4.01369E+01 0.00000E+00
 -1      1344 1.35937E-05-4.21390E+01 0.00000E+00
 -1      1345 1.33113E-05-4.41009E+01 0.00000E+00
 -1      1346 1.30156E-05-4.60206E+01 0.00000E+00
 -1      1347 1.27063E-05-4.78963E+01 0.00000E+00
 -1      1348 1.23845E-05-4.97259E+01 0.00000E+00
 -1      1349 1.20498E-05-5.15077E+01 0.00000E+00
 -1      1350 1.17032E-05-5.32397E+01 0.00000E+00
 -1      1351 1.13447E-05-5.49204E+01 0.00000E+00
 -1      1352 1.09752E-05-5.65480E+01 0.00000E+00
 -1      1353 1.05946E-05-5.81208E+01 0.00000E+00
 -1      1354 1.02037E-05-5.96375E+01 0.00000E+00
 -1      1355 9.80287E-06-6.10963E+01 0.00000E+00
 -1      1356 9.39258E-06-6.24961E+01 0.00000E+00
 -1      1357 8.97332E-06-6.38353E+01 0.00000E+00
 -1      1358 8.54562E-06-6.51128E+01 0.00000E+00
 -1      1359 8.10991E-06-6.63273E+01 0.00000E+00
 -1      1360 7.66682E-06-6.74777E+01 0.00000E+00
 -1      1361 7.21673E-06-6.85631E+01 0.00000E+00
 -1      1362 6.76034E-06-6.95823E+01 0.00000E+00
 -1      1363 6.29807E-06-7.05345E+01 0.00000E+00
 -1      1364 5.83054E-06-7.14189E+01 0.00000E+00
 -1      1365 5.35826E-06-7.22348E+01 0.00000E+00
 -1      1366 4.88188E-06-7.29815E+01 0.00000E+00
 -1      1367 4.40181E-06-7.36584E+01 0.00000E+00
 -1      1368 3.91883E-06-7.42652E+01 0.00000E+00
 -1      1369 3.43340E-06-7.48013E+01 0.00000E+00
 -1      1370 2.94610E-06-7.52665E+01 0.00000E+00
 -1      1371 2.45762E-06-7.56605E+01 0.00000E+00
 -1      1372 1.96839E-06-7.59832E+01 0.00000E+00
 -1      1373 1.47920E-06-7.62346E+01 0.00000E+00
 -1      1374 9.90499E-07-7.64147E+01 0.00000E+00
 -1      1375 5.02979E-07-7.65236E+01 0.00000E+00
 -1      1376 1.72090E-08-7.65615E+01 0.00000E+00
 -1      1377-4.66252E-07-7.65288E+01 0.00000E+00
 -1      1378-9.46698E-07-7.64257E+01 0.00000E+00
 -1      1379-1.42364E-06-7.62528E+01 0.00000E+00
 -1      1380-1.89634E-06-7.60107E+01 0.00000E+00
 -1      1381-2.36439E-06-7.57000E+01 0.00000E+00
 -1      1382-2.82699E-06-7.53214E+01 0.00000E+00
 -1      1383-3.28369E-06-7.48758E+01 0.00000E+00
 -1      1384-3.73379E-06-7.43641E+01 0.00000E+00
 -1      1385-4.17682E-06-7.37872E+01 0.00000E+00
 -1      1386-4.61208E-06-7.31463E+01 0.00000E+00
 -1      1387-5.03906E-06-7.24425E+01 0.00000E+00
 -1      1388-5.45720E-06-7.16771E+01 0.00000E+00
 -1      1389-5.86585E-06-7.08514E+01 0.00000E+00
 -1      1390-6.26454E-06-6.99669E+01 0.00000E+00
 -1      1391-6.65264E-06-6.90249E+01 0.00000E+00
 -1      1392-7.02967E-06-6.80272E+01 0.00000E+00
 -1      1393-7.39505E-06-6.69753E+01 0.00000E+00
 -1      1394-7.74822E-06-6.58710E+01 0.00000E+00
 -1      1395-8.08876E-06-6.47162E+01 0.00000E+00
 -1      1396-8.41602E-06-6.35126E+01 0.00000E+00
 -1      1397-8.72960E-06-6.22623E+01 0.00000E+00
 -1      1398-9.02896E-06-6.09673E+01 0.00000E+00
 -1      1399-9.31362E-06-5.96297E+01 0.00000E+00
 -1      1400-9.58309E-06-5.82518E+01 0.00000E+00
 -1      1401-9.83695E-06-5.68356E+01 0.00000E+00
 -1      1402-1.00747E-05-5.53836E+01 0.00000E+00
 -1      1403-1.02959E-05-5.38981E+01 0.00000E+00
 -1      1404-1.05002E-05-5.23816E+01 0.00000E+00
 -1      1405-1.06870E-05-5.08366E+01 0.00000E+00
 -1      1406-1.08561E-05-4.92657E+01 0.00000E+00
 -1      1407-1.10070E-05-4.76713E+01 0.00000E+00
 -1      1408-1.11393E-05-4.60564E+01 0.00000E+00
 -1      1409-1.12527E-05-4.44235E+01 0.00000E+00
 -1      1410-1.13468E-05-4.27755E+01 0.00000E+00
 -1      1411-1.14213E-05-4.11152E+01 0.00000E+00
 -1      1412-1.14757E-05-3.94455E+01 0.00000E+00
 -1      1413-1.15100E-05-3.77693E+01 0.00000E+00
 -1      1414-1.15236E-05-3.60896E+01 0.00000E+00
 -1      1415-1.15163E-05-3.44095E+01 0.00000E+00
 -1      1416-1.14879E-05-3.27319E+01 0.00000E+00
 -1      1417-1.14381E-05-3.10601E+01 0.00000E+00
 -1      1418-1.13665E-05-2.93971E+01 0.00000E+00
 -1      1419-1.12731E-05-2.77462E+01 0.00000E+00
 -1      1420-1.11575E-05-2.61104E+01 0.00000E+00
 -1      1421-1.10196E-05-2.44932E+01 0.00000E+00
 -1      1422-1.08591E-05-2.28977E+01 0.00000E+00
 -1      1423-1.06760E-05-2.13273E+01 0.00000E+00
 -1      1424-1.04698E-05-1.97853E+01 0.00000E+00
 -1      1425-1.02407E-05-1.82750E+01 0.00000E+00
 -1      1426-9.98820E-06-1.67998E+01 0.00000E+00
 -1      1427-9.71254E-06-1.53631E+01 0.00000E+00
 -1      1428-9.41317E-06-1.39683E+01 0.00000E+00
 -1      1429-9.09046E-06-1.26189E+01 0.00000E+00
 -1      1430-8.74373E-06-1.13183E+01 0.00000E+00
 -1      1431-8.37355E-06-1.00700E+01 0.00000E+00
 -1      1432-7.97910E-06-8.87750E+00 0.00000E+00
 -1      1433-7.56110E-06-7.74417E+00 0.00000E+00
 -1      1434-7.11866E-06-6.67359E+00 0.00000E+00
 -1      1435-6.65258E-06-5.66928E+00 0.00000E+00
 -1      1436-6.16184E-06-4.73471E+00 0.00000E+00
 -1      1437-5.64752E-06-3.87343E+00 0.00000E+00
 -1      1438-5.10840E-06-3.08896E+00 0.00000E+00
 -1      1439-4.54564E-06-2.38485E+00 0.00000E+00
 -1      1440-3.95801E-06-1.76461E+00 0.00000E+00
 -1      1441-3.34665E-06-1.23179E+00 0.00000E+00
 -1      1442-2.71092E-06-7.89927E-01 0.00000E+00
 -1      1443-2.04922E-06-4.42632E-01 0.00000E+00
 -1      1444-1.37147E-06-1.93052E-01 0.00000E+00
 -1      1445-6.36874E-07-4.63410E-02 0.00000E+00
 -1      1446 0.00000E+00 0.00000E+00 0.00000E+00
 -1      1447 2.83322E-01-1.01034E+02 0.00000E+00
 -1      1448 2.83319E-01-9.77280E+01 0.00000E+00
 -1      1449 2.83308E-01-9.44224E+01 0.00000E+00
 -1      1450 2.83277E-01-9.11172E+01 0.00000E+00
 -1      1451 2.83218E-01-8.78123E+01 0.00000E+00
 -1      1452 2.83121E-01-8.45085E+01 0.00000E+00
 -1      1453 2.82979E-01-8.12061E+01 0.00000E+00
 -1      1454 2.82783E-01-7.79054E+01 0.00000E+00
 -1      1455 2.82525E-01-7.46076E+01 0.00000E+00
 -1      1456 2.82198E-01-7.13131E+01 0.00000E+00
 -1      1457 2.81795E-01-6.80229E+01 0.00000E+00
 -1      1458 2.81309E-01-6.47380E+01 0.00000E+00
 -1      1459 2.80733E-01-6.14590E+01 0.00000E+00
 -1      1460 2.80061E-01-5.81876E+01 0.00000E+00
 -1      1461 2.79287E-01-5.49243E+01 0.00000E+00
 -1      1462 2.78405E-01-5.16710E+01 0.00000E+00
 -1      1463 2.77411E-01-4.84285E+01 0.00000E+00
 -1      1464 2.76300E-01-4.51982E+01 0.00000E+00
 -1      1465 2.75065E-01-4.19817E+01 0.00000E+00
 -1      1466 2.73705E-01-3.87801E+01 0.00000E+00
 -1      1467 2.72214E-01-3.55954E+01 0.00000E+00
 -1      1468 2.70589E-01-3.24289E+01 0.00000E+00
 -1      1469 2.68826E-01-2.92819E+01 0.00000E+00
 -1      1470 2.66923E-01-2.61565E+01 0.00000E+00
 -1      1471 2.64877E-01-2.30540E+01 0.00000E+00
 -1      1472 2.62684E-01-1.99763E+01 0.00000E+00
 -1      1473 2.60344E-01-1.69250E+01 0.00000E+00
 -1      1474 2.57854E-01-1.39019E+01 0.00000E+00
 -1      1475 2.55214E-01-1.09088E+01 0.00000E+00
 -1      1476 2.52420E-01-7.94736E+00 0.00000E+00
 -1      1477 2.49474E-01-5.01937E+00 0.00000E+00
 -1      1478 2.46373E-01-2.12665E+00 0.00000E+00
 -1      1479 2.43118E-01 7.28989E-01 0.00000E+00
 -1      1480 2.39710E-01 3.54575E+00 0.00000E+00
 -1      1481 2.36146E-01 6.32177E+00 0.00000E+00
 -1      1482 2.32429E-01 9.05539E+00 0.00000E+00
 -1      1483 2.28559E-01 1.17447E+01 0.00000E+00
 -1      1484 2.24537E-01 1.43881E+01 0.00000E+00
 -1      1485 2.20364E-01 1.69836E+01 0.00000E+00
 -1      1486 2.16043E-01 1.95295E+01 0.00000E+00
 -1      1487 2.11574E-01 2.20241E+01 0.00000E+00
 -1      1488 2.06960E-01 2.44658E+01 0.00000E+00
 -1      1489 2.02203E-01 2.68528E+01 0.00000E+00
 -1      1490 1.97306E-01 2.91835E+01 0.00000E+00
 -1      1491 1.92271E-01 3.14563E+01 0.00000E+00
 -1      1492 1.87101E-01 3.36694E+01 0.00000E+00
 -1      1493 1.81800E-01 3.58216E+01 0.00000E+00
 -1      1494 1.76371E-01 3.79111E+01 0.00000E+00
 -1      1495 1.70817E-01 3.99366E+01 0.00000E+00
 -1      1496 1.65143E-01 4.18965E+01 0.00000E+00
 -1      1497 1.59352E-01 4.37896E+01 0.00000E+00
 -1      1498 1.53450E-01 4.56144E+01 0.00000E+00
 -1      1499 1.47438E-01 4.73698E+01 0.00000E+00
 -1      1500 1.41324E-01 4.90544E+01 0.00000E+00
 -1      1501 1.35111E-01 5.06671E+01 0.00000E+00
 -1      1502 1.28805E-01 5.22067E+01 0.00000E+00
 -1      1503 1.22410E-01 5.36723E+01 0.00000E+00
 -1      1504 1.15932E-01 5.50627E+01 0.00000E+00
 -1      1505 1.09375E-01 5.63771E+01 0.00000E+00
 -1      1506 1.02746E-01 5.76146E+01 0.00000E+00
 -1      1507 9.60498E-02 5.87744E+01 0.00000E+00
 -1      1508 8.92929E-02 5.98556E+01 0.00000E+00
 -1      1509 8.24804E-02 6.08577E+01 0.00000E+00
 -1      1510 7.56187E-02 6.17801E+01 0.00000E+00
 -1      1511 6.87129E-02 6.26221E+01 0.00000E+00
 -1      1512 6.17708E-02 6.33833E+01 0.00000E+00
 -1      1513 5.47972E-02 6.40633E+01 0.00000E+00
 -1      1514 4.77988E-02 6.46618E+01 0.00000E+00
 -1      1515 4.07821E-02 6.51786E+01 0.00000E+00
 -1      1516 3.37535E-02 6.56134E+01 0.00000E+00
 -1      1517 2.67190E-02 6.59662E+01 0.00000E+00
 -1      1518 1.96857E-02 6.62369E+01 0.00000E+00
 -1      1519 1.26596E-02 6.64256E+01 0.00000E+00
 -1      1520 5.64790E-03 6.65324E+01 0.00000E+00
 -1      1521-1.34426E-03 6.65575E+01 0.00000E+00
 -1      1522-8.30816E-03 6.65012E+01 0.00000E+00
 -1      1523-1.52397E-02 6.63638E+01 0.00000E+00
 -1      1524-2.21296E-02 6.61458E+01 0.00000E+00
 -1      1525-2.89746E-02 6.58476E+01 0.00000E+00
 -1      1526-3.57652E-02 6.54699E+01 0.00000E+00
 -1      1527-4.24962E-02 6.50133E+01 0.00000E+00
 -1      1528-4.91618E-02 6.44786E+01 0.00000E+00
 -1      1529-5.57542E-02 6.38665E+01 0.00000E+00
 -1      1530-6.22685E-02 6.31779E+01 0.00000E+00
 -1      1531-6.86970E-02 6.24139E+01 0.00000E+00
 -1      1532-7.50353E-02 6.15753E+01 0.00000E+00
 -1      1533-8.12753E-02 6.06634E+01 0.00000E+00
 -1      1534-8.74125E-02 5.96793E+01 0.00000E+00
 -1      1535-9.34405E-02 5.86242E+01 0.00000E+00
 -1      1536-9.93529E-02 5.74994E+01 0.00000E+00
 -1      1537-1.05145E-01 5.63064E+01 0.00000E+00
 -1      1538-1.10810E-01 5.50465E+01 0.00000E+00
 -1      1539-1.16345E-01 5.37213E+01 0.00000E+00
 -1      1540-1.21740E-01 5.23323E+01 0.00000E+00
 -1      1541-1.26994E-01 5.08812E+01 0.00000E+00
 -1      1542-1.32100E-01 4.93696E+01 0.00000E+00
 -1      1543-1.37054E-01 4.77994E+01 0.00000E+00
 -1      1544-1.41851E-01 4.61723E+01 0.00000E+00
 -1      1545-1.46485E-01 4.44901E+01 0.00000E+00
 -1      1546-1.50954E-01 4.27549E+01 0.00000E+00
 -1      1547-1.55251E-01 4.09685E+01 0.00000E+00
 -1      1548-1.59374E-01 3.91330E+01 0.00000E+00
 -1      1549-1.63318E-01 3.72504E+01 0.00000E+00
 -1      1550-1.67079E-01 3.53229E+01 0.00000E+00
 -1      1551-1.70654E-01 3.33525E+01 0.00000E+00
 -1      1552-1.74040E-01 3.13416E+01 0.00000E+00
 -1      1553-1.77234E-01 2.92923E+01 0.00000E+00
 -1      1554-1.80231E-01 2.72068E+01 0.00000E+00
 -1      1555-1.83030E-01 2.50876E+01 0.00000E+00
 -1      1556-1.85628E-01 2.29368E+01 0.00000E+00
 -1      1557-1.88023E-01 2.07570E+01 0.00000E+00
 -1      1558-1.90213E-01 1.85503E+01 0.00000E+00
 -1      1559-1.92194E-01 1.63194E+01 0.00000E+00
 -1      1560-1.93967E-01 1.40666E+01 0.00000E+00
 -1      1561-1.95529E-01 1.17942E+01 0.00000E+00
 -1      1562-1.96879E-01 9.50493E+00 0.00000E+00
 -1      1563-1.98016E-01 7.20111E+00 0.00000E+00
 -1      1564-1.98970E-01 4.88528E+00 0.00000E+00
 -1      1565-1.99678E-01 2.55998E+00 0.00000E+00
 -1      1566-2.00173E-01 2.27603E-01 0.00000E+00
 -1      1567-2.00452E-01-2.10928E+00 0.00000E+00
 -1      1568-2.00516E-01-4.44817E+00 0.00000E+00
 -1      1569-2.00366E-01-6.78656E+00 0.00000E+00
 -1      1570-2.00002E-01-9.12195E+00 0.00000E+00
 -1      1571-1.99424E-01-1.14518E+01 0.00000E+00
 -1      1572-1.98635E-01-1.37737E+01 0.00000E+00
 -1      1573-1.97634E-01-1.60852E+01 0.00000E+00
 -1      1574-1.96424E-01-1.83838E+01 0.00000E+00
 -1      1575-1.95007E-01-2.06670E+01 0.00000E+00
 -1      1576-1.93383E-01-2.29325E+01 0.00000E+00
 -1      1577-1.91556E-01-2.51779E+01 0.00000E+00
 -1      1578-1.89527E-01-2.74008E+01 0.00000E+00
 -1      1579-1.87300E-01-2.95988E+01 0.00000E+00
 -1      1580-1.84877E-01-3.17698E+01 0.00000E+00
 -1      1581-1.82261E-01-3.39113E+01 0.00000E+00
 -1      1582-1.79455E-01-3.60212E+01 0.00000E+00
 -1      1583-1.76463E-01-3.80973E+01 0.00000E+00
 -1      1584-1.73288E-01-4.01374E+01 0.00000E+00
 -1      1585-1.69935E-01-4.21395E+01 0.00000E+00
 -1      1586-1.66407E-01-4.41014E+01 0.00000E+00
 -1      1587-1.62708E-01-4.60211E+01 0.00000E+00
 -1      1588-1.58844E-01-4.78968E+01 0.00000E+00
 -1      1589-1.54818E-01-4.97264E+01 0.00000E+00
 -1      1590-1.50636E-01-5.15081E+01 0.00000E+00
 -1      1591-1.46302E-01-5.32402E+01 0.00000E+00
 -1      1592-1.41822E-01-5.49208E+01 0.00000E+00
 -1      1593-1.37201E-01-5.65484E+01 0.00000E+00
 -1      1594-1.32443E-01-5.81212E+01 0.00000E+00
 -1      1595-1.27557E-01-5.96378E+01 0.00000E+00
 -1      1596-1.22546E-01-6.10967E+01 0.00000E+00
 -1      1597-1.17416E-01-6.24964E+01 0.00000E+00
 -1      1598-1.12175E-01-6.38356E+01 0.00000E+00
 -1      1599-1.06828E-01-6.51131E+01 0.00000E+00
 -1      1600-1.01382E-01-6.63276E+01 0.00000E+00
 -1      1601-9.58423E-02-6.74780E+01 0.00000E+00
 -1      1602-9.02158E-02-6.85633E+01 0.00000E+00
 -1      1603-8.45103E-02-6.95824E+01 0.00000E+00
 -1      1604-7.87312E-02-7.05346E+01 0.00000E+00
 -1      1605-7.28866E-02-7.14190E+01 0.00000E+00
 -1      1606-6.69824E-02-7.22349E+01 0.00000E+00
 -1      1607-6.10273E-02-7.29816E+01 0.00000E+00
 -1      1608-5.50256E-02-7.36585E+01 0.00000E+00
 -1      1609-4.89880E-02-7.42652E+01 0.00000E+00
 -1      1610-4.29194E-02-7.48013E+01 0.00000E+00
 -1      1611-3.68275E-02-7.52665E+01 0.00000E+00
 -1      1612-3.07209E-02-7.56605E+01 0.00000E+00
 -1      1613-2.46051E-02-7.59832E+01 0.00000E+00
 -1      1614-1.84897E-02-7.62345E+01 0.00000E+00
 -1      1615-1.23802E-02-7.64146E+01 0.00000E+00
 -1      1616-6.28556E-03-7.65235E+01 0.00000E+00
 -1      1617-2.13067E-04-7.65614E+01 0.00000E+00
 -1      1618 5.83099E-03-7.65286E+01 0.00000E+00
 -1      1619 1.18368E-02-7.64255E+01 0.00000E+00
 -1      1620 1.77994E-02-7.62526E+01 0.00000E+00
 -1      1621 2.37084E-02-7.60105E+01 0.00000E+00
 -1      1622 2.95600E-02-7.56997E+01 0.00000E+00
 -1      1623 3.53425E-02-7.53211E+01 0.00000E+00
 -1      1624 4.10520E-02-7.48755E+01 0.00000E+00
 -1      1625 4.66786E-02-7.43637E+01 0.00000E+00
 -1      1626 5.22172E-02-7.37869E+01 0.00000E+00
 -1      1627 5.76583E-02-7.31459E+01 0.00000E+00
 -1      1628 6.29961E-02-7.24421E+01 0.00000E+00
 -1      1629 6.82232E-02-7.16767E+01 0.00000E+00
 -1      1630 7.33318E-02-7.08510E+01 0.00000E+00
 -1      1631 7.83158E-02-6.99664E+01 0.00000E+00
 -1      1632 8.31676E-02-6.90244E+01 0.00000E+00
 -1      1633 8.78807E-02-6.80266E+01 0.00000E+00
 -1      1634 9.24484E-02-6.69747E+01 0.00000E+00
 -1      1635 9.68633E-02-6.58704E+01 0.00000E+00
 -1      1636 1.01121E-01-6.47155E+01 0.00000E+00
 -1      1637 1.05212E-01-6.35120E+01 0.00000E+00
 -1      1638 1.09132E-01-6.22616E+01 0.00000E+00
 -1      1639 1.12874E-01-6.09667E+01 0.00000E+00
 -1      1640 1.16433E-01-5.96291E+01 0.00000E+00
 -1      1641 1.19801E-01-5.82511E+01 0.00000E+00
 -1      1642 1.22975E-01-5.68349E+01 0.00000E+00
 -1      1643 1.25946E-01-5.53829E+01 0.00000E+00
 -1      1644 1.28712E-01-5.38974E+01 0.00000E+00
 -1      1645 1.31265E-01-5.23809E+01 0.00000E+00
 -1      1646 1.33601E-01-5.08359E+01 0.00000E+00
 -1      1647 1.35715E-01-4.92649E+01 0.00000E+00
 -1      1648 1.37601E-01-4.76706E+01 0.00000E+00
 -1      1649 1.39255E-01-4.60556E+01 0.00000E+00
 -1      1650 1.40673E-01-4.44227E+01 0.00000E+00
 -1      1651 1.41849E-01-4.27747E+01 0.00000E+00
 -1      1652 1.42780E-01-4.11144E+01 0.00000E+00
 -1      1653 1.43461E-01-3.94447E+01 0.00000E+00
 -1      1654 1.43888E-01-3.77685E+01 0.00000E+00
 -1      1655 1.44058E-01-3.60888E+01 0.00000E+00
 -1      1656 1.43967E-01-3.44087E+01 0.00000E+00
 -1      1657 1.43612E-01-3.27312E+01 0.00000E+00
 -1      1658 1.42989E-01-3.10593E+01 0.00000E+00
 -1      1659 1.42095E-01-2.93964E+01 0.00000E+00
 -1      1660 1.40927E-01-2.77454E+01 0.00000E+00
 -1      1661 1.39482E-01-2.61097E+01 0.00000E+00
 -1      1662 1.37758E-01-2.44925E+01 0.00000E+00
 -1      1663 1.35752E-01-2.28970E+01 0.00000E+00
 -1      1664 1.33461E-01-2.13266E+01 0.00000E+00
 -1      1665 1.30885E-01-1.97846E+01 0.00000E+00
 -1      1666 1.28019E-01-1.82743E+01 0.00000E+00
 -1      1667 1.24864E-01-1.67991E+01 0.00000E+00
 -1      1668 1.21416E-01-1.53625E+01 0.00000E+00
 -1      1669 1.17676E-01-1.39677E+01 0.00000E+00
 -1      1670 1.13639E-01-1.26184E+01 0.00000E+00
 -1      1671 1.09307E-01-1.13178E+01 0.00000E+00
 -1      1672 1.04676E-01-1.00696E+01 0.00000E+00
 -1      1673 9.97490E-02-8.87704E+00 0.00000E+00
 -1      1674 9.45187E-02-7.74375E+00 0.00000E+00
 -1      1675 8.89932E-02-6.67321E+00 0.00000E+00
 -1      1676 8.31597E-02-5.66894E+00 0.00000E+00
 -1      1677 7.70331E-02-4.73442E+00 0.00000E+00
 -1      1678 7.05934E-02-3.87318E+00 0.00000E+00
 -1      1679 6.38657E-02-3.08876E+00 0.00000E+00
 -1      1680 5.68158E-02-2.38468E+00 0.00000E+00
 -1      1681 4.94876E-02-1.76451E+00 0.00000E+00
 -1      1682 4.18228E-02-1.23174E+00 0.00000E+00
 -1      1683 3.39026E-02-7.89926E-01 0.00000E+00
 -1      1684 2.55961E-02-4.42697E-01 0.00000E+00
 -1      1685 1.71655E-02-1.93155E-01 0.00000E+00
 -1      1686 7.93634E-03-4.65953E-02 0.00000E+00
 -1      1687 0.00000E+00 0.00000E+00 0.00000E+00
 -1      1688 2.83322E-01-1.01034E+02 0.00000E+00
 -1      1689 2.83319E-01-9.77280E+01 0.00000E+00
 -1      1690 2.83308E-01-9.44224E+01 0.00000E+00
 -1      1691 2.83277E-01-9.11172E+01 0.00000E+00
 -1      1692 2.83218E-01-8.78123E+01 0.00000E+00
 -1      1693 2.83121E-01-8.45085E+01 0.00000E+00
 -1      1694 2.82979E-01-8.12061E+01 0.00000E+00
 -1      1695 2.82783E-01-7.79054E+01 0.00000E+00
 -1      1696 2.82525E-01-7.46076E+01 0.00000E+00
 -1      1697 2.82198E-01-7.13131E+01 0.00000E+00
 -1      1698 2.81795E-01-6.80229E+01 0.00000E+00
 -1      1699 2.81309E-01-6.47380E+01 0.00000E+00
 -1      1700 2.80733E-01-6.14590E+01 0.00000E+00
 -1      1701 2.80061E-01-5.81876E+01 0.00000E+00
 -1      1702 2.79287E-01-5.49243E+01 0.00000E+00
 -1      1703 2.78405E-01-5.16710E+01 0.00000E+00
 -1      1704 2.77411E-01-4.84285E+01 0.00000E+00
 -1      1705 2.76300E-01-4.51982E+01 0.00000E+00
 -1      1706 2.75065E-01-4.19817E+01 0.00000E+00
 -1      1707 2.73705E-01-3.87801E+01 0.00000E+00
 -1      1708 2.72214E-01-3.55954E+01 0.00000E+00
 -1      1709 2.70589E-01-3.24289E+01 0.00000E+00
 -1      1710 2.68826E-01-2.92819E+01 0.00000E+00
 -1      1711 2.66923E-01-2.61565E+01 0.00000E+00
 -1      1712 2.64877E-01-2.30540E+01 0.00000E+00
 -1      1713 2.62684E-01-1.99763E+01 0.00000E+00
 -1      1714 2.60344E-01-1.69250E+01 0.00000E+00
 -1      1715 2.57854E-01-1.39019E+01 0.00000E+00
 -1      1716 2.55214E-01-1.09088E+01 0.00000E+00
 -1      1717 2.52420E-01-7.94736E+00 0.00000E+00
 -1      1718 2.49474E-01-5.01937E+00 0.00000E+00
 -1      1719 2.46373E-01-2.12665E+00 0.00000E+00
 -1      1720 2.43118E-01 7.28989E-01 0.00000E+00
 -1      1721 2.39710E-01 3.54575E+00 0.00000E+00
 -1      1722 2.36146E-01 6.32177E+00 0.00000E+00
 -1      1723 2.32429E-01 9.05539E+00 0.00000E+00
 -1      1724 2.28559E-01 1.17447E+01 0.00000E+00
 -1      1725 2.24537E-01 1.43881E+01 0.00000E+00
 -1      1726 2.20364E-01 1.69836E+01 0.00000E+00
 -1      1727 2.16043E-01 1.95295E+01 0.00000E+00
 -1      1728 2.11574E-01 2.20241E+01 0.00000E+00
 -1      1729 2.06960E-01 2.44658E+01 0.00000E+00
 -1      1730 2.02203E-01 2.68528E+01 0.00000E+00
 -1      1731 1.97306E-01 2.91835E+01 0.00000E+00
 -1      1732 1.92271E-01 3.14563E+01 0.00000E+00
 -1      1733 1.87101E-01 3.36694E+01 0.00000E+00
 -1      1734 1.81800E-01 3.58216E+01 0.00000E+00
 -1      1735 1.76371E-01 3.79111E+01 0.00000E+00
 -1      1736 1.70817E-01 3.99366E+01 0.00000E+00
 -1      1737 1.65143E-01 4.18965E+01 0.00000E+00
 -1      1738 1.59352E-01 4.37896E+01 0.00000E+00
 -1      1739 1.53450E-01 4.56144E+01 0.00000E+00
 -1      1740 1.47438E-01 4.73698E+01 0.00000E+00
 -1      1741 1.41324E-01 4.90544E+01 0.00000E+00
 -1      1742 1.35111E-01 5.06671E+01 0.00000E+00
 -1      1743 1.28805E-01 5.22067E+01 0.00000E+00
 -1      1744 1.22410E-01 5.36723E+01 0.00000E+00
 -1      1745 1.15932E-01 5.50627E+01 0.00000E+00
 -1      1746 1.09375E-01 5.63771E+01 0.00000E+00
 -1      1747 1.02746E-01 5.76146E+01 0.00000E+00
 -1      1748 9.60498E-02 5.87744E+01 0.00000E+00
 -1      1749 8.92929E-02 5.98556E+01 0.00000E+00
 -1      1750 8.24804E-02 6.08577E+01 0.00000E+00
 -1      1751 7.56187E-02 6.17801E+01 0.00000E+00
 -1      1752 6.87129E-02 6.26221E+01 0.00000E+00
 -1      1753 6.17708E-02 6.33833E+01 0.00000E+00
 -1      1754 5.47972E-02 6.40633E+01 0.00000E+00
 -1      1755 4.77988E-02 6.46618E+01 0.00000E+00
 -1      1756 4.07821E-02 6.51786E+01 0.00000E+00
 -1      1757 3.37535E-02 6.56134E+01 0.00000E+00
 -1      1758 2.67190E-02 6.59662E+01 0.00000E+00
 -1      1759 1.96857E-02 6.62369E+01 0.00000E+00
 -1      1760 1.26596E-02 6.64256E+01 0.00000E+00
 -1      1761 5.64789E-03 6.65324E+01 0.00000E+00
 -1      1762-1.34427E-03 6.65575E+01 0.00000E+00
 -1      1763-8.30816E-03 6.65012E+01 0.00000E+00
 -1      1764-1.52397E-02 6.63638E+01 0.00000E+00
 -1      1765-2.21296E-02 6.61458E+01 0.00000E+00
 -1      1766-2.89746E-02 6.58476E+01 0.00000E+00
 -1      1767-3.57652E-02 6.54699E+01 0.00000E+00
 -1      1768-4.24962E-02 6.50133E+01 0.00000E+00
 -1      1769-4.91618E-02 6.44786E+01 0.00000E+00
 -1      1770-5.57542E-02 6.38665E+01 0.00000E+00
 -1      1771-6.22685E-02 6.31779E+01 0.00000E+00
 -1      1772-6.86970E-02 6.24139E+01 0.00000E+00
 -1      1773-7.50353E-02 6.15753E+01 0.00000E+00
 -1      1774-8.12753E-02 6.06634E+01 0.00000E+00
 -1      1775-8.74125E-02 5.96793E+01 0.00000E+00
 -1      1776-9.34405E-02 5.86242E+01 0.00000E+00
 -1      1777-9.93529E-02 5.74994E+01 0.00000E+00
 -1      1778-1.05145E-01 5.63064E+01 0.00000E+00
 -1      1779-1.10810E-01 5.50465E+01 0.00000E+00
 -1      1780-1.16345E-01 5.37213E+01 0.00000E+00
 -1      1781-1.21740E-01 5.23323E+01 0.00000E+00
 -1      1782-1.26994E-01 5.08812E+01 0.00000E+00
 -1      1783-1.32100E-01 4.93696E+01 0.00000E+00
 -1      1784-1.37054E-01 4.77994E+01 0.00000E+00
 -1      1785-1.41851E-01 4.61723E+01 0.00000E+00
 -1      1786-1.46485E-01 4.44901E+01 0.00000E+00
 -1      1787-1.50954E-01 4.27549E+01 0.00000E+00
 -1      1788-1.55251E-01 4.09685E+01 0.00000E+00
 -1      1789-1.59374E-01 3.91330E+01 0.00000E+00
 -1      1790-1.63318E-01 3.72504E+01 0.00000E+00
 -1      1791-1.67079E-01 3.53229E+01 0.00000E+00
 -1      1792-1.70654E-01 3.33525E+01 0.00000E+00
 -1      1793-1.74040E-01 3.13416E+01 0.00000E+00
 -1      1794-1.77234E-01 2.92923E+01 0.00000E+00
 -1      1795-1.80231E-01 2.72068E+01 0.00000E+00
 -1      1796-1.83030E-01 2.50876E+01 0.00000E+00
 -1      1797-1.85628E-01 2.29368E+01 0.00000E+00
 -1      1798-1.88023E-01 2.07570E+01 0.00000E+00
 -1      1799-1.90213E-01 1.85503E+01 0.00000E+00
 -1      1800-1.92194E-01 1.63194E+01 0.00000E+00
 -1      1801-1.93967E-01 1.40666E+01 0.00000E+00
 -1      1802-1.95529E-01 1.17942E+01 0.00000E+00
 -1      1803-1.96879E-01 9.50493E+00 0.00000E+00
 -1      1804-1.98016E-01 7.20111E+00 0.00000E+00
 -1      1805-1.98970E-01 4.88528E+00 0.00000E+00
 -1      1806-1.99678E-01 2.55998E+00 0.00000E+00
 -1      1807-2.00173E-01 2.27603E-01 0.00000E+00
 -1      1808-2.00452E-01-2.10928E+00 0.00000E+00
 -1      1809-2.00516E-01-4.44817E+00 0.00000E+00
 -1      1810-2.00366E-01-6.78656E+00 0.00000E+00
 -1      1811-2.00002E-01-9.12195E+00 0.00000E+00
 -1      1812-1.99424E-01-1.14518E+01 0.00000E+00
 -1      1813-1.98635E-01-1.37737E+01 0.00000E+00
 -1      1814-1.97634E-01-1.60852E+01 0.00000E+00
 -1      1815-1.96424E-01-1.83838E+01 0.00000E+00
 -1      1816-1.95007E-01-2.06670E+01 0.00000E+00
 -1      1817-1.93383E-01-2.29325E+01 0.00000E+00
 -1      1818-1.91556E-01-2.51779E+01 0.00000E+00
 -1      1819-1.89527E-01-2.74008E+01 0.00000E+00
 -1      1820-1.87300E-01-2.95988E+01 0.00000E+00
 -1      1821-1.84877E-01-3.17698E+01 0.00000E+00
 -1      1822-1.82261E-01-3.39113E+01 0.00000E+00
 -1      1823-1.79455E-01-3.60212E+01 0.00000E+00
 -1      1824-1.76463E-01-3.80973E+01 0.00000E+00
 -1      1825-1.73288E-01-4.01374E+01 0.00000E+00
 -1      1826-1.69935E-01-4.21395E+01 0.00000E+00
 -1      1827-1.66407E-01-4.41014E+01 0.00000E+00
 -1      1828-1.62708E-01-4.60211E+01 0.00000E+00
 -1      1829-1.58844E-01-4.78968E+01 0.00000E+00
 -1      1830-1.54818E-01-4.97264E+01 0.00000E+00
 -1      1831-1.50636E-01-5.15081E+01 0.00000E+00
 -1      1832-1.46302E-01-5.32402E+01 0.00000E+00
 -1      1833-1.41822E-01-5.49208E+01 0.00000E+00
 -1      1834-1.37201E-01-5.65484E+01 0.00000E+00
 -1      1835-1.32443E-01-5.81212E+01 0.00000E+00
 -1      1836-1.27557E-01-5.96378E+01 0.00000E+00
 -1      1837-1.22546E-01-6.10967E+01 0.00000E+00
 -1      1838-1.17416E-01-6.24964E+01 0.00000E+00
 -1      1839-1.12175E-01-6.38356E+01 0.00000E+00
 -1      1840-1.06828E-01-6.51131E+01 0.00000E+00
 -1      1841-1.01382E-01-6.63276E+01 0.00000E+00
 -1      1842-9.58423E-02-6.74780E+01 0.00000E+00
 -1      1843-9.02158E-02-6.85633E+01 0.00000E+00
 -1      1844-8.45103E-02-6.95824E+01 0.00000E+00
 -1      1845-7.87312E-02-7.05346E+01 0.00000E+00
 -1      1846-7.28866E-02-7.14190E+01 0.00000E+00
 -1      1847-6.69824E-02-7.22349E+01 0.00000E+00
 -1      1848-6.10273E-02-7.29816E+01 0.00000E+00
 -1      1849-5.50256E-02-7.36585E+01 0.00000E+00
 -1      1850-4.89880E-02-7.42652E+01 0.00000E+00
 -1      1851-4.29194E-02-7.48013E+01 0.00000E+00
 -1      1852-3.68275E-02-7.52665E+01 0.00000E+00
 -1      1853-3.07209E-02-7.56605E+01 0.00000E+00
 -1      1854-2.46051E-02-7.59832E+01 0.00000E+00
 -1      1855-1.84897E-02-7.62345E+01 0.00000E+00
 -1      1856-1.23802E-02-7.64146E+01 0.00000E+00
 -1      1857-6.28556E-03-7.65235E+01 0.00000E+00
 -1      1858-2.13067E-04-7.65614E+01 0.00000E+00
 -1      1859 5.83099E-03-7.65286E+01 0.00000E+00
 -1      1860 1.18368E-02-7.64255E+01 0.00000E+00
 -1      1861 1.77994E-02-7.62526E+01 0.00000E+00
 -1      1862 2.37084E-02-7.60105E+01 0.00000E+00
 -1      1863 2.95600E-02-7.56997E+01 0.00000E+00
 -1      1864 3.53425E-02-7.53211E+01 0.00000E+00
 -1      1865 4.10520E-02-7.48755E+01 0.00000E+00
 -1      1866 4.66786E-02-7.43637E+01 0.00000E+00
 -1      1867 5.22172E-02-7.37869E+01 0.00000E+00
 -1      1868 5.76583E-02-7.31459E+01 0.00000E+00
 -1      1869 6.29961E-02-7.24421E+01 0.00000E+00
 -1      1870 6.82232E-02-7.16767E+01 0.00000E+00
 -1      1871 7.33318E-02-7.08510E+01 0.00000E+00
 -1      1872 7.83158E-02-6.99664E+01 0.00000E+00
 -1      1873 8.31676E-02-6.90244E+01 0.00000E+00
 -1      1874 8.78807E-02-6.80266E+01 0.00000E+00
 -1      1875 9.24484E-02-6.69747E+01 0.00000E+00
 -1      1876 9.68633E-02-6.58704E+01 0.00000E+00
 -1      1877 1.01121E-01-6.47155E+01 0.00000E+00
 -1      1878 1.05212E-01-6.35120E+01 0.00000E+00
 -1      1879 1.09132E-01-6.22616E+01 0.00000E+00
 -1      1880 1.12874E-01-6.09667E+01 0.00000E+00
 -1      1881 1.16433E-01-5.96291E+01 0.00000E+00
 -1      1882 1.19801E-01-5.82511E+01 0.00000E+00
 -1      1883 1.22975E-01-5.68349E+01 0.00000E+00
 -1      1884 1.25946E-01-5.53829E+01 0.00000E+00
 -1      1885 1.28712E-01-5.38974E+01 0.00000E+00
 -1      1886 1.31265E-01-5.23809E+01 0.00000E+00
 -1      1887 1.33601E-01-5.08359E+01 0.00000E+00
 -1      1888 1.35715E-01-4.92649E+01 0.00000E+00
 -1      1889 1.37601E-01-4.76706E+01 0.00000E+00
 -1      1890 1.39255E-01-4.60556E+01 0.00000E+00
 -1      1891 1.40673E-01-4.44227E+01 0.00000E+00
 -1      1892 1.41849E-01-4.27747E+01 0.00000E+00
 -1      1893 1.42780E-01-4.11144E+01 0.00000E+00
 -1      1894 1.43461E-01-3.94447E+01 0.00000E+00
 -1      1895 1.43888E-01-3.77685E+01 0.00000E+00
 -1      1896 1.44058E-01-3.60888E+01 0.00000E+00
 -1      1897 1.43967E-01-3.44087E+01 0.00000E+00
 -1      1898 1.43612E-01-3.27312E+01 0.00000E+00
 -1      1899 1.42989E-01-3.10593E+01 0.00000E+00
 -1      1900 1.42095E-01-2.93964E+01 0.00000E+00
 -1      1901 1.40927E-01-2.77454E+01 0.00000E+00
 -1      1902 1.39482E-01-2.61097E+01 0.00000E+00
 -1      1903 1.37758E-01-2.44925E+01 0.00000E+00
 -1      1904 1.35752E-01-2.28970E+01 0.00000E+00
 -1      1905 1.33461E-01-2.13266E+01 0.00000E+00
 -1      1906 1.30885E-01-1.97846E+01 0.00000E+00
 -1      1907 1.28019E-01-1.82743E+01 0.00000E+00
 -1      1908 1.24864E-01-1.67991E+01 0.00000E+00
 -1      1909 1.21416E-01-1.53625E+01 0.00000E+00
 -1      1910 1.17676E-01-1.39677E+01 0.00000E+00
 -1      1911 1.13639E-01-1.26184E+01 0.00000E+00
 -1      1912 1.09307E-01-1.13178E+01 0.00000E+00
 -1      1913 1.04676E-01-1.00696E+01 0.00000E+00
 -1      1914 9.97490E-02-8.87704E+00 0.00000E+00
 -1      1915 9.45187E-02-7.74375E+00 0.00000E+00
 -1      1916 8.89932E-02-6.67321E+00 0.00000E+00
 -1      1917 8.31597E-02-5.66894E+00 0.00000E+00
 -1      1918 7.70331E-02-4.73442E+00 0.00000E+00
 -1      1919 7.05934E-02-3.87318E+00 0.00000E+00
 -1      1920 6.38657E-02-3.08876E+00 0.00000E+00
 -1      1921 5.68158E-02-2.38468E+00 0.00000E+00
 -1      1922 4.94876E-02-1.76451E+00 0.00000E+00
 -1      1923 4.18228E-02-1.23174E+00 0.00000E+00
 -1      1924 3.39026E-02-7.89926E-01 0.00000E+00
 -1      1925 2.55961E-02-4.42697E-01 0.00000E+00
 -1      1926 1.71655E-02-1.93155E-01 0.00000E+00
 -1      1927 7.93634E-03-4.65953E-02 0.00000E+00
 -1      1928 0.00000E+00 0.00000E+00 0.00000E+00
 -1      1929 5.66668E-01-1.01034E+02 0.00000E+00
 -1      1930 5.66664E-01-9.77280E+01 0.00000E+00
 -1      1931 5.66641E-01-9.44224E+01 0.00000E+00
 -1      1932 5.66579E-01-9.11170E+01 0.00000E+00
 -1      1933 5.66461E-01-8.78123E+01 0.00000E+00
 -1      1934 5.66268E-01-8.45083E+01 0.00000E+00
 -1      1935 5.65984E-01-8.12059E+01 0.00000E+00
 -1      1936 5.65592E-01-7.79053E+01 0.00000E+00
 -1      1937 5.65077E-01-7.46075E+01 0.00000E+00
 -1      1938 5.64423E-01-7.13129E+01 0.00000E+00
 -1      1939 5.63617E-01-6.80228E+01 0.00000E+00
 -1      1940 5.62644E-01-6.47377E+01 0.00000E+00
 -1      1941 5.61492E-01-6.14589E+01 0.00000E+00
 -1      1942 5.60148E-01-5.81873E+01 0.00000E+00
 -1      1943 5.58600E-01-5.49242E+01 0.00000E+00
 -1      1944 5.56837E-01-5.16707E+01 0.00000E+00
 -1      1945 5.54848E-01-4.84281E+01 0.00000E+00
 -1      1946 5.52626E-01-4.51979E+01 0.00000E+00
 -1      1947 5.50157E-01-4.19813E+01 0.00000E+00
 -1      1948 5.47437E-01-3.87799E+01 0.00000E+00
 -1      1949 5.44454E-01-3.55950E+01 0.00000E+00
 -1      1950 5.41204E-01-3.24285E+01 0.00000E+00
 -1      1951 5.37678E-01-2.92816E+01 0.00000E+00
 -1      1952 5.33872E-01-2.61562E+01 0.00000E+00
 -1      1953 5.29779E-01-2.30537E+01 0.00000E+00
 -1      1954 5.25393E-01-1.99760E+01 0.00000E+00
 -1      1955 5.20714E-01-1.69247E+01 0.00000E+00
 -1      1956 5.15734E-01-1.39016E+01 0.00000E+00
 -1      1957 5.10452E-01-1.09084E+01 0.00000E+00
 -1      1958 5.04865E-01-7.94698E+00 0.00000E+00
 -1      1959 4.98972E-01-5.01901E+00 0.00000E+00
 -1      1960 4.92770E-01-2.12631E+00 0.00000E+00
 -1      1961 4.86260E-01 7.29306E-01 0.00000E+00
 -1      1962 4.79442E-01 3.54605E+00 0.00000E+00
 -1      1963 4.72314E-01 6.32211E+00 0.00000E+00
 -1      1964 4.64880E-01 9.05571E+00 0.00000E+00
 -1      1965 4.57139E-01 1.17451E+01 0.00000E+00
 -1      1966 4.49094E-01 1.43884E+01 0.00000E+00
 -1      1967 4.40749E-01 1.69839E+01 0.00000E+00
 -1      1968 4.32105E-01 1.95298E+01 0.00000E+00
 -1      1969 4.23167E-01 2.20245E+01 0.00000E+00
 -1      1970 4.13938E-01 2.44661E+01 0.00000E+00
 -1      1971 4.04424E-01 2.68531E+01 0.00000E+00
 -1      1972 3.94628E-01 2.91838E+01 0.00000E+00
 -1      1973 3.84559E-01 3.14565E+01 0.00000E+00
 -1      1974 3.74217E-01 3.36697E+01 0.00000E+00
 -1      1975 3.63615E-01 3.58218E+01 0.00000E+00
 -1      1976 3.52756E-01 3.79113E+01 0.00000E+00
 -1      1977 3.41648E-01 3.99367E+01 0.00000E+00
 -1      1978 3.30300E-01 4.18967E+01 0.00000E+00
 -1      1979 3.18716E-01 4.37898E+01 0.00000E+00
 -1      1980 3.06910E-01 4.56146E+01 0.00000E+00
 -1      1981 2.94887E-01 4.73699E+01 0.00000E+00
 -1      1982 2.82658E-01 4.90545E+01 0.00000E+00
 -1      1983 2.70233E-01 5.06671E+01 0.00000E+00
 -1      1984 2.57618E-01 5.22068E+01 0.00000E+00
 -1      1985 2.44828E-01 5.36723E+01 0.00000E+00
 -1      1986 2.31869E-01 5.50627E+01 0.00000E+00
 -1      1987 2.18756E-01 5.63771E+01 0.00000E+00
 -1      1988 2.05497E-01 5.76146E+01 0.00000E+00
 -1      1989 1.92105E-01 5.87743E+01 0.00000E+00
 -1      1990 1.78589E-01 5.98555E+01 0.00000E+00
 -1      1991 1.64964E-01 6.08576E+01 0.00000E+00
 -1      1992 1.51239E-01 6.17799E+01 0.00000E+00
 -1      1993 1.37426E-01 6.26219E+01 0.00000E+00
 -1      1994 1.23542E-01 6.33831E+01 0.00000E+00
 -1      1995 1.09593E-01 6.40631E+01 0.00000E+00
 -1      1996 9.55959E-02 6.46615E+01 0.00000E+00
 -1      1997 8.15617E-02 6.51783E+01 0.00000E+00
 -1      1998 6.75033E-02 6.56131E+01 0.00000E+00
 -1      1999 5.34344E-02 6.59658E+01 0.00000E+00
 -1      2000 3.93656E-02 6.62365E+01 0.00000E+00
 -1      2001 2.53138E-02 6.64251E+01 0.00000E+00
 -1      2002 1.12886E-02 6.65319E+01 0.00000E+00
 -1      2003-2.69570E-03 6.65569E+01 0.00000E+00
 -1      2004-1.66245E-02 6.65006E+01 0.00000E+00
 -1      2005-3.04886E-02 6.63631E+01 0.00000E+00
 -1      2006-4.42687E-02 6.61451E+01 0.00000E+00
 -1      2007-5.79605E-02 6.58469E+01 0.00000E+00
 -1      2008-7.15413E-02 6.54691E+01 0.00000E+00
 -1      2009-8.50054E-02 6.50125E+01 0.00000E+00
 -1      2010-9.83356E-02 6.44777E+01 0.00000E+00
 -1      2011-1.11523E-01 6.38656E+01 0.00000E+00
 -1      2012-1.24551E-01 6.31770E+01 0.00000E+00
 -1      2013-1.37409E-01 6.24129E+01 0.00000E+00
 -1      2014-1.50086E-01 6.15744E+01 0.00000E+00
 -1      2015-1.62567E-01 6.06624E+01 0.00000E+00
 -1      2016-1.74842E-01 5.96782E+01 0.00000E+00
 -1      2017-1.86898E-01 5.86231E+01 0.00000E+00
 -1      2018-1.98724E-01 5.74983E+01 0.00000E+00
 -1      2019-2.10309E-01 5.63052E+01 0.00000E+00
 -1      2020-2.21639E-01 5.50453E+01 0.00000E+00
 -1      2021-2.32709E-01 5.37200E+01 0.00000E+00
 -1      2022-2.43501E-01 5.23310E+01 0.00000E+00
 -1      2023-2.54009E-01 5.08799E+01 0.00000E+00
 -1      2024-2.64222E-01 4.93683E+01 0.00000E+00
 -1      2025-2.74130E-01 4.77980E+01 0.00000E+00
 -1      2026-2.83724E-01 4.61708E+01 0.00000E+00
 -1      2027-2.92992E-01 4.44886E+01 0.00000E+00
 -1      2028-3.01930E-01 4.27534E+01 0.00000E+00
 -1      2029-3.10525E-01 4.09669E+01 0.00000E+00
 -1      2030-3.18770E-01 3.91314E+01 0.00000E+00
 -1      2031-3.26658E-01 3.72488E+01 0.00000E+00
 -1      2032-3.34182E-01 3.53212E+01 0.00000E+00
 -1      2033-3.41332E-01 3.33509E+01 0.00000E+00
 -1      2034-3.48104E-01 3.13399E+01 0.00000E+00
 -1      2035-3.54491E-01 2.92905E+01 0.00000E+00
 -1      2036-3.60486E-01 2.72051E+01 0.00000E+00
 -1      2037-3.66085E-01 2.50858E+01 0.00000E+00
 -1      2038-3.71281E-01 2.29350E+01 0.00000E+00
 -1      2039-3.76070E-01 2.07551E+01 0.00000E+00
 -1      2040-3.80449E-01 1.85485E+01 0.00000E+00
 -1      2041-3.84412E-01 1.63176E+01 0.00000E+00
 -1      2042-3.87958E-01 1.40647E+01 0.00000E+00
 -1      2043-3.91081E-01 1.17924E+01 0.00000E+00
 -1      2044-3.93781E-01 9.50307E+00 0.00000E+00
 -1      2045-3.96055E-01 7.19926E+00 0.00000E+00
 -1      2046-3.97901E-01 4.88343E+00 0.00000E+00
 -1      2047-3.99319E-01 2.55809E+00 0.00000E+00
 -1      2048-4.00307E-01 2.25725E-01 0.00000E+00
 -1      2049-4.00865E-01-2.11121E+00 0.00000E+00
 -1      2050-4.00993E-01-4.45008E+00 0.00000E+00
 -1      2051-4.00692E-01-6.78845E+00 0.00000E+00
 -1      2052-3.99964E-01-9.12382E+00 0.00000E+00
 -1      2053-3.98809E-01-1.14537E+01 0.00000E+00
 -1      2054-3.97229E-01-1.37756E+01 0.00000E+00
 -1      2055-3.95228E-01-1.60870E+01 0.00000E+00
 -1      2056-3.92808E-01-1.83856E+01 0.00000E+00
 -1      2057-3.89973E-01-2.06688E+01 0.00000E+00
 -1      2058-3.86725E-01-2.29343E+01 0.00000E+00
 -1      2059-3.83071E-01-2.51797E+01 0.00000E+00
 -1      2060-3.79014E-01-2.74025E+01 0.00000E+00
 -1      2061-3.74559E-01-2.96006E+01 0.00000E+00
 -1      2062-3.69713E-01-3.17715E+01 0.00000E+00
 -1      2063-3.64480E-01-3.39130E+01 0.00000E+00
 -1      2064-3.58869E-01-3.60229E+01 0.00000E+00
 -1      2065-3.52885E-01-3.80990E+01 0.00000E+00
 -1      2066-3.46536E-01-4.01390E+01 0.00000E+00
 -1      2067-3.39830E-01-4.21410E+01 0.00000E+00
 -1      2068-3.32774E-01-4.41029E+01 0.00000E+00
 -1      2069-3.25377E-01-4.60226E+01 0.00000E+00
 -1      2070-3.17649E-01-4.78982E+01 0.00000E+00
 -1      2071-3.09598E-01-4.97278E+01 0.00000E+00
 -1      2072-3.01234E-01-5.15094E+01 0.00000E+00
 -1      2073-2.92567E-01-5.32415E+01 0.00000E+00
 -1      2074-2.83606E-01-5.49220E+01 0.00000E+00
 -1      2075-2.74365E-01-5.65495E+01 0.00000E+00
 -1      2076-2.64851E-01-5.81224E+01 0.00000E+00
 -1      2077-2.55078E-01-5.96389E+01 0.00000E+00
 -1      2078-2.45058E-01-6.10977E+01 0.00000E+00
 -1      2079-2.34799E-01-6.24974E+01 0.00000E+00
 -1      2080-2.24318E-01-6.38365E+01 0.00000E+00
 -1      2081-2.13625E-01-6.51139E+01 0.00000E+00
 -1      2082-2.02732E-01-6.63283E+01 0.00000E+00
 -1      2083-1.91654E-01-6.74787E+01 0.00000E+00
 -1      2084-1.80402E-01-6.85639E+01 0.00000E+00
 -1      2085-1.68992E-01-6.95830E+01 0.00000E+00
 -1      2086-1.57435E-01-7.05351E+01 0.00000E+00
 -1      2087-1.45746E-01-7.14195E+01 0.00000E+00
 -1      2088-1.33939E-01-7.22352E+01 0.00000E+00
 -1      2089-1.22030E-01-7.29819E+01 0.00000E+00
 -1      2090-1.10027E-01-7.36587E+01 0.00000E+00
 -1      2091-9.79529E-02-7.42654E+01 0.00000E+00
 -1      2092-8.58164E-02-7.48014E+01 0.00000E+00
 -1      2093-7.36341E-02-7.52665E+01 0.00000E+00
 -1      2094-6.14217E-02-7.56604E+01 0.00000E+00
 -1      2095-4.91913E-02-7.59830E+01 0.00000E+00
 -1      2096-3.69614E-02-7.62343E+01 0.00000E+00
 -1      2097-2.47439E-02-7.64143E+01 0.00000E+00
 -1      2098-1.25556E-02-7.65231E+01 0.00000E+00
 -1      2099-4.11866E-04-7.65609E+01 0.00000E+00
 -1      2100 1.16751E-02-7.65280E+01 0.00000E+00
 -1      2101 2.36861E-02-7.64249E+01 0.00000E+00
 -1      2102 3.56090E-02-7.62519E+01 0.00000E+00
 -1      2103 4.74271E-02-7.60097E+01 0.00000E+00
 -1      2104 5.91276E-02-7.56989E+01 0.00000E+00
 -1      2105 7.06937E-02-7.53202E+01 0.00000E+00
 -1      2106 8.21095E-02-7.48745E+01 0.00000E+00
 -1      2107 9.33631E-02-7.43626E+01 0.00000E+00
 -1      2108 1.04438E-01-7.37857E+01 0.00000E+00
 -1      2109 1.15320E-01-7.31447E+01 0.00000E+00
 -1      2110 1.25993E-01-7.24408E+01 0.00000E+00
 -1      2111 1.36447E-01-7.16753E+01 0.00000E+00
 -1      2112 1.46662E-01-7.08495E+01 0.00000E+00
 -1      2113 1.56629E-01-6.99649E+01 0.00000E+00
 -1      2114 1.66332E-01-6.90228E+01 0.00000E+00
 -1      2115 1.75757E-01-6.80250E+01 0.00000E+00
 -1      2116 1.84891E-01-6.69730E+01 0.00000E+00
 -1      2117 1.93720E-01-6.58687E+01 0.00000E+00
 -1      2118 2.02233E-01-6.47137E+01 0.00000E+00
 -1      2119 2.10414E-01-6.35101E+01 0.00000E+00
 -1      2120 2.18253E-01-6.22597E+01 0.00000E+00
 -1      2121 2.25737E-01-6.09647E+01 0.00000E+00
 -1      2122 2.32852E-01-5.96270E+01 0.00000E+00
 -1      2123 2.39589E-01-5.82490E+01 0.00000E+00
 -1      2124 2.45934E-01-5.68328E+01 0.00000E+00
 -1      2125 2.51877E-01-5.53807E+01 0.00000E+00
 -1      2126 2.57408E-01-5.38952E+01 0.00000E+00
 -1      2127 2.62513E-01-5.23787E+01 0.00000E+00
 -1      2128 2.67184E-01-5.08336E+01 0.00000E+00
 -1      2129 2.71410E-01-4.92626E+01 0.00000E+00
 -1      2130 2.75182E-01-4.76683E+01 0.00000E+00
 -1      2131 2.78489E-01-4.60533E+01 0.00000E+00
 -1      2132 2.81323E-01-4.44204E+01 0.00000E+00
 -1      2133 2.83675E-01-4.27723E+01 0.00000E+00
 -1      2134 2.85536E-01-4.11120E+01 0.00000E+00
 -1      2135 2.86897E-01-3.94423E+01 0.00000E+00
 -1      2136 2.87751E-01-3.77661E+01 0.00000E+00
 -1      2137 2.88091E-01-3.60865E+01 0.00000E+00
 -1      2138 2.87908E-01-3.44064E+01 0.00000E+00
 -1      2139 2.87197E-01-3.27289E+01 0.00000E+00
 -1      2140 2.85950E-01-3.10571E+01 0.00000E+00
 -1      2141 2.84161E-01-2.93941E+01 0.00000E+00
 -1      2142 2.81825E-01-2.77432E+01 0.00000E+00
 -1      2143 2.78935E-01-2.61075E+01 0.00000E+00
 -1      2144 2.75486E-01-2.44903E+01 0.00000E+00
 -1      2145 2.71473E-01-2.28949E+01 0.00000E+00
 -1      2146 2.66893E-01-2.13245E+01 0.00000E+00
 -1      2147 2.61738E-01-1.97825E+01 0.00000E+00
 -1      2148 2.56008E-01-1.82723E+01 0.00000E+00
 -1      2149 2.49697E-01-1.67972E+01 0.00000E+00
 -1      2150 2.42802E-01-1.53607E+01 0.00000E+00
 -1      2151 2.35319E-01-1.39660E+01 0.00000E+00
 -1      2152 2.27248E-01-1.26167E+01 0.00000E+00
 -1      2153 2.18581E-01-1.13163E+01 0.00000E+00
 -1      2154 2.09324E-01-1.00681E+01 0.00000E+00
 -1      2155 1.99464E-01-8.87568E+00 0.00000E+00
 -1      2156 1.89010E-01-7.74251E+00 0.00000E+00
 -1      2157 1.77950E-01-6.67209E+00 0.00000E+00
 -1      2158 1.66296E-01-5.66793E+00 0.00000E+00
 -1      2159 1.54027E-01-4.73352E+00 0.00000E+00
 -1      2160 1.41169E-01-3.87242E+00 0.00000E+00
 -1      2161 1.27686E-01-3.08814E+00 0.00000E+00
 -1      2162 1.13623E-01-2.38422E+00 0.00000E+00
 -1      2163 9.89209E-02-1.76419E+00 0.00000E+00
 -1      2164 8.36506E-02-1.23159E+00 0.00000E+00
 -1      2165 6.77361E-02-7.89935E-01 0.00000E+00
 -1      2166 5.12185E-02-4.42900E-01 0.00000E+00
 -1      2167 3.42445E-02-1.93471E-01 0.00000E+00
 -1      2168 1.59014E-02-4.73566E-02 0.00000E+00
 -1      2169 0.00000E+00 0.00000E+00 0.00000E+00
 -1      2170 5.66668E-01-1.01034E+02 0.00000E+00
 -1      2171 5.66664E-01-9.77280E+01 0.00000E+00
 -1      2172 5.66641E-01-9.44224E+01 0.00000E+00
 -1      2173 5.66579E-01-9.11170E+01 0.00000E+00
 -1      2174 5.66461E-01-8.78123E+01 0.00000E+00
 -1      2175 5.66268E-01-8.45083E+01 0.00000E+00
 -1      2176 5.65984E-01-8.12059E+01 0.00000E+00
 -1      2177 5.65592E-01-7.79053E+01 0.00000E+00
 -1      2178 5.65077E-01-7.46075E+01 0.00000E+00
 -1      2179 5.64423E-01-7.13129E+01 0.00000E+00
 -1      2180 5.63617E-01-6.80228E+01 0.00000E+00
 -1      2181 5.62644E-01-6.47377E+01 0.00000E+00
 -1      2182 5.61492E-01-6.14589E+01 0.00000E+00
 -1      2183 5.60148E-01-5.81873E+01 0.00000E+00
 -1      2184 5.58600E-01-5.49242E+01 0.00000E+00
 -1      2185 5.56837E-01-5.16707E+01 0.00000E+00
 -1      2186 5.54848E-01-4.84281E+01 0.00000E+00
 -1      2187 5.52626E-01-4.51979E+01 0.00000E+00
 -1      2188 5.50157E-01-4.19813E+01 0.00000E+00
 -1      2189 5.47437E-01-3.87799E+01 0.00000E+00
 -1      2190 5.44454E-01-3.55950E+01 0.00000E+00
 -1      2191 5.41204E-01-3.24285E+01 0.00000E+00
 -1      2192 5.37678E-01-2.92816E+01 0.00000E+00
 -1      2193 5.33872E-01-2.61562E+01 0.00000E+00
 -1      2194 5.29779E-01-2.30537E+01 0.00000E+00
 -1      2195 5.25393E-01-1.99760E+01 0.00000E+00
 -1      2196 5.20714E-01-1.69247E+01 0.00000E+00
 -1      2197 5.15734E-01-1.39016E+01 0.00000E+00
 -1      2198 5.10452E-01-1.09084E+01 0.00000E+00
 -1      2199 5.04865E-01-7.94698E+00 0.00000E+00
 -1      2200 4.98972E-01-5.01901E+00 0.00000E+00
 -1      2201 4.92770E-01-2.12631E+00 0.00000E+00
 -1      2202 4.86260E-01 7.29306E-01 0.00000E+00
 -1      2203 4.79442E-01 3.54605E+00 0.00000E+00
 -1      2204 4.72314E-01 6.32212E+00 0.00000E+00
 -1      2205 4.64880E-01 9.05571E+00 0.00000E+00
 -1      2206 4.57139E-01 1.17451E+01 0.00000E+00
 -1      2207 4.49094E-01 1.43884E+01 0.00000E+00
 -1      2208 4.40749E-01 1.69839E+01 0.00000E+00
 -1      2209 4.32105E-01 1.95298E+01 0.00000E+00
 -1      2210 4.23167E-01 2.20245E+01 0.00000E+00
 -1      2211 4.13938E-01 2.44661E+01 0.00000E+00
 -1      2212 4.04424E-01 2.68531E+01 0.00000E+00
 -1      2213 3.94628E-01 2.91838E+01 0.00000E+00
 -1      2214 3.84559E-01 3.14565E+01 0.00000E+00
 -1      2215 3.74217E-01 3.36697E+01 0.00000E+00
 -1      2216 3.63615E-01 3.58218E+01 0.00000E+00
 -1      2217 3.52756E-01 3.79113E+01 0.00000E+00
 -1      2218 3.41648E-01 3.99367E+01 0.00000E+00
 -1      2219 3.30300E-01 4.18967E+01 0.00000E+00
 -1      2220 3.18716E-01 4.37898E+01 0.00000E+00
 -1      2221 3.06910E-01 4.56146E+01 0.00000E+00
 -1      2222 2.94887E-01 4.73699E+01 0.00000E+00
 -1      2223 2.82658E-01 4.90545E+01 0.00000E+00
 -1      2224 2.70233E-01 5.06671E+01 0.00000E+00
 -1      2225 2.57618E-01 5.22068E+01 0.00000E+00
 -1      2226 2.44828E-01 5.36723E+01 0.00000E+00
 -1      2227 2.31869E-01 5.50627E+01 0.00000E+00
 -1      2228 2.18756E-01 5.63771E+01 0.00000E+00
 -1      2229 2.05497E-01 5.76146E+01 0.00000E+00
 -1      2230 1.92105E-01 5.87743E+01 0.00000E+00
 -1      2231 1.78589E-01 5.98555E+01 0.00000E+00
 -1      2232 1.64964E-01 6.08576E+01 0.00000E+00
 -1      2233 1.51239E-01 6.17799E+01 0.00000E+00
 -1      2234 1.37426E-01 6.26219E+01 0.00000E+00
 -1      2235 1.23542E-01 6.33831E+01 0.00000E+00
 -1      2236 1.09593E-01 6.40631E+01 0.00000E+00
 -1      2237 9.55959E-02 6.46615E+01 0.00000E+00
 -1      2238 8.15617E-02 6.51783E+01 0.00000E+00
 -1      2239 6.75033E-02 6.56131E+01 0.00000E+00
 -1      2240 5.34344E-02 6.59658E+01 0.00000E+00
 -1      2241 3.93656E-02 6.62365E+01 0.00000E+00
 -1      2242 2.53138E-02 6.64251E+01 0.00000E+00
 -1      2243 1.12886E-02 6.65319E+01 0.00000E+00
 -1      2244-2.69570E-03 6.65569E+01 0.00000E+00
 -1      2245-1.66245E-02 6.65006E+01 0.00000E+00
 -1      2246-3.04886E-02 6.63631E+01 0.00000E+00
 -1      2247-4.42687E-02 6.61451E+01 0.00000E+00
 -1      2248-5.79605E-02 6.58469E+01 0.00000E+00
 -1      2249-7.15413E-02 6.54691E+01 0.00000E+00
 -1      2250-8.50054E-02 6.50125E+01 0.00000E+00
 -1      2251-9.83356E-02 6.44777E+01 0.00000E+00
 -1      2252-1.11523E-01 6.38656E+01 0.00000E+00
 -1      2253-1.24551E-01 6.31770E+01 0.00000E+00
 -1      2254-1.37409E-01 6.24129E+01 0.00000E+00
 -1      2255-1.50086E-01 6.15744E+01 0.00000E+00
 -1      2256-1.62567E-01 6.06624E+01 0.00000E+00
 -1      2257-1.74842E-01 5.96782E+01 0.00000E+00
 -1      2258-1.86898E-01 5.86231E+01 0.00000E+00
 -1      2259-1.98724E-01 5.74983E+01 0.00000E+00
 -1      2260-2.10309E-01 5.63052E+01 0.00000E+00
 -1      2261-2.21639E-01 5.50453E+01 0.00000E+00
 -1      2262-2.32709E-01 5.37200E+01 0.00000E+00
 -1      2263-2.43501E-01 5.23310E+01 0.00000E+00
 -1      2264-2.54009E-01 5.08799E+01 0.00000E+00
 -1      2265-2.64222E-01 4.93683E+01 0.00000E+00
 -1      2266-2.74130E-01 4.77980E+01 0.00000E+00
 -1      2267-2.83724E-01 4.61708E+01 0.00000E+00
 -1      2268-2.92992E-01 4.44886E+01 0.00000E+00
 -1      2269-3.01930E-01 4.27534E+01 0.00000E+00
 -1      2270-3.10525E-01 4.09669E+01 0.00000E+00
 -1      2271-3.18770E-01 3.91314E+01 0.00000E+00
 -1      2272-3.26658E-01 3.72488E+01 0.00000E+00
 -1      2273-3.34182E-01 3.53212E+01 0.00000E+00
 -1      2274-3.41332E-01 3.33509E+01 0.00000E+00
 -1      2275-3.48104E-01 3.13399E+01 0.00000E+00
 -1      2276-3.54491E-01 2.92905E+01 0.00000E+00
 -1      2277-3.60486E-01 2.72051E+01 0.00000E+00
 -1      2278-3.66085E-01 2.50858E+01 0.00000E+00
 -1      2279-3.71281E-01 2.29350E+01 0.00000E+00
 -1      2280-3.76070E-01 2.07551E+01 0.00000E+00
 -1      2281-3.80449E-01 1.85485E+01 0.00000E+00
 -1      2282-3.84412E-01 1.63176E+01 0.00000E+00
 -1      2283-3.87958E-01 1.40647E+01 0.00000E+00
 -1      2284-3.91081E-01 1.17924E+01 0.00000E+00
 -1      2285-3.93781E-01 9.50307E+00 0.00000E+00
 -1      2286-3.96055E-01 7.19926E+00 0.00000E+00
 -1      2287-3.97901E-01 4.88343E+00 0.00000E+00
 -1      2288-3.99319E-01 2.55809E+00 0.00000E+00
 -1      2289-4.00307E-01 2.25725E-01 0.00000E+00
 -1      2290-4.00865E-01-2.11121E+00 0.00000E+00
 -1      2291-4.00993E-01-4.45008E+00 0.00000E+00
 -1      2292-4.00692E-01-6.78845E+00 0.00000E+00
 -1      2293-3.99964E-01-9.12382E+00 0.00000E+00
 -1      2294-3.98809E-01-1.14537E+01 0.00000E+00
 -1      2295-3.97229E-01-1.37756E+01 0.00000E+00
 -1      2296-3.95228E-01-1.60870E+01 0.00000E+00
 -1      2297-3.92808E-01-1.83856E+01 0.00000E+00
 -1      2298-3.89973E-01-2.06688E+01 0.00000E+00
 -1      2299-3.86725E-01-2.29343E+01 0.00000E+00
 -1      2300-3.83071E-01-2.51797E+01 0.00000E+00
 -1      2301-3.79014E-01-2.74025E+01 0.00000E+00
 -1      2302-3.74559E-01-2.96006E+01 0.00000E+00
 -1      2303-3.69713E-01-3.17715E+01 0.00000E+00
 -1      2304-3.64480E-01-3.39130E+01 0.00000E+00
 -1      2305-3.58869E-01-3.60229E+01 0.00000E+00
 -1      2306-3.52885E-01-3.80990E+01 0.00000E+00
 -1      2307-3.46536E-01-4.01390E+01 0.00000E+00
 -1      2308-3.39830E-01-4.21410E+01 0.00000E+00
 -1      2309-3.32774E-01-4.41029E+01 0.00000E+00
 -1      2310-3.25377E-01-4.60226E+01 0.00000E+00
 -1      2311-3.17649E-01-4.78982E+01 0.00000E+00
 -1      2312-3.09598E-01-4.97278E+01 0.00000E+00
 -1      2313-3.01234E-01-5.15094E+01 0.00000E+00
 -1      2314-2.92567E-01-5.32415E+01 0.00000E+00
 -1      2315-2.83606E-01-5.49220E+01 0.00000E+00
 -1      2316-2.74365E-01-5.65495E+01 0.00000E+00
 -1      2317-2.64851E-01-5.81224E+01 0.00000E+00
 -1      2318-2.55078E-01-5.96389E+01 0.00000E+00
 -1      2319-2.45058E-01-6.10977E+01 0.00000E+00
 -1      2320-2.34799E-01-6.24974E+01 0.00000E+00
 -1      2321-2.24318E-01-6.38365E+01 0.00000E+00
 -1      2322-2.13625E-01-6.51139E+01 0.00000E+00
 -1      2323-2.02732E-01-6.63283E+01 0.00000E+00
 -1      2324-1.91654E-01-6.74787E+01 0.00000E+00
 -1      2325-1.80402E-01-6.85639E+01 0.00000E+00
 -1      2326-1.68992E-01-6.95830E+01 0.00000E+00
 -1      2327-1.57435E-01-7.05351E+01 0.00000E+00
 -1      2328-1.45746E-01-7.14195E+01 0.00000E+00
 -1      2329-1.33939E-01-7.22352E+01 0.00000E+00
 -1      2330-1.22030E-01-7.29819E+01 0.00000E+00
 -1      2331-1.10027E-01-7.36587E+01 0.00000E+00
 -1      2332-9.79529E-02-7.42654E+01 0.00000E+00
 -1      2333-8.58164E-02-7.48014E+01 0.00000E+00
 -1      2334-7.36341E-02-7.52665E+01 0.00000E+00
 -1      2335-6.14217E-02-7.56604E+01 0.00000E+00
 -1      2336-4.91913E-02-7.59830E+01 0.00000E+00
 -1      2337-3.69614E-02-7.62343E+01 0.00000E+00
 -1      2338-2.47439E-02-7.64143E+01 0.00000E+00
 -1      2339-1.25556E-02-7.65231E+01 0.00000E+00
 -1      2340-4.11867E-04-7.65609E+01 0.00000E+00
 -1      2341 1.16751E-02-7.65280E+01 0.00000E+00
 -1      2342 2.36861E-02-7.64249E+01 0.00000E+00
 -1      2343 3.56090E-02-7.62519E+01 0.00000E+00
 -1      2344 4.74271E-02-7.60097E+01 0.00000E+00
 -1      2345 5.91276E-02-7.56989E+01 0.00000E+00
 -1      2346 7.06937E-02-7.53202E+01 0.00000E+00
 -1      2347 8.21095E-02-7.48745E+01 0.00000E+00
 -1      2348 9.33631E-02-7.43626E+01 0.00000E+00
 -1      2349 1.04438E-01-7.37857E+01 0.00000E+00
 -1      2350 1.15320E-01-7.31447E+01 0.00000E+00
 -1      2351 1.25993E-01-7.24408E+01 0.00000E+00
 -1      2352 1.36447E-01-7.16753E+01 0.00000E+00
 -1      2353 1.46662E-01-7.08495E+01 0.00000E+00
 -1      2354 1.56629E-01-6.99649E+01 0.00000E+00
 -1      2355 1.66332E-01-6.90228E+01 0.00000E+00
 -1      2356 1.75757E-01-6.80250E+01 0.00000E+00
 -1      2357 1.84891E-01-6.69730E+01 0.00000E+00
 -1      2358 1.93720E-01-6.58687E+01 0.00000E+00
 -1      2359 2.02233E-01-6.47137E+01 0.00000E+00
 -1      2360 2.10414E-01-6.35101E+01 0.00000E+00
 -1      2361 2.18253E-01-6.22597E+01 0.00000E+00
 -1      2362 2.25737E-01-6.09647E+01 0.00000E+00
 -1      2363 2.32852E-01-5.96270E+01 0.00000E+00
 -1      2364 2.39589E-01-5.82490E+01 0.00000E+00
 -1      2365 2.45934E-01-5.68328E+01 0.00000E+00
 -1      2366 2.51877E-01-5.53807E+01 0.00000E+00
 -1      2367 2.57408E-01-5.38952E+01 0.00000E+00
 -1      2368 2.62513E-01-5.23787E+01 0.00000E+00
 -1      2369 2.67184E-01-5.08336E+01 0.00000E+00
 -1      2370 2.71410E-01-4.92626E+01 0.00000E+00
 -1      2371 2.75182E-01-4.76683E+01 0.00000E+00
 -1      2372 2.78489E-01-4.60533E+01 0.00000E+00
 -1      2373 2.81323E-01-4.44204E+01 0.00000E+00
 -1      2374 2.83675E-01-4.27723E+01 0.00000E+00
 -1      2375 2.85536E-01-4.11120E+01 0.00000E+00
 -1      2376 2.86897E-01-3.94423E+01 0.00000E+00
 -1      2377 2.87751E-01-3.77661E+01 0.00000E+00
 -1      2378 2.88091E-01-3.60865E+01 0.00000E+00
 -1      2379 2.87908E-01-3.44064E+01 0.00000E+00
 -1      2380 2.87197E-01-3.27289E+01 0.00000E+00
 -1      2381 2.85950E-01-3.10571E+01 0.00000E+00
 -1      2382 2.84161E-01-2.93941E+01 0.00000E+00
 -1      2383 2.81825E-01-2.77432E+01 0.00000E+00
 -1      2384 2.78935E-01-2.61075E+01 0.00000E+00
 -1      2385 2.75486E-01-2.44903E+01 0.00000E+00
 -1      2386 2.71473E-01-2.28949E+01 0.00000E+00
 -1      2387 2.66893E-01-2.13245E+01 0.00000E+00
 -1      2388 2.61738E-01-1.97825E+01 0.00000E+00
 -1      2389 2.56008E-01-1.82723E+01 0.00000E+00
 -1      2390 2.49697E-01-1.67972E+01 0.00000E+00
 -1      2391 2.42802E-01-1.53607E+01 0.00000E+00
 -1      2392 2.35319E-01-1.39660E+01 0.00000E+00
 -1      2393 2.27248E-01-1.26167E+01 0.00000E+00
 -1      2394 2.18581E-01-1.13163E+01 0.00000E+00
 -1      2395 2.09324E-01-1.00681E+01 0.00000E+00
 -1      2396 1.99464E-01-8.87568E+00 0.00000E+00
 -1      2397 1.89010E-01-7.74251E+00 0.00000E+00
 -1      2398 1.77950E-01-6.67209E+00 0.00000E+00
 -1      2399 1.66296E-01-5.66793E+00 0.00000E+00
 -1      2400 1.54027E-01-4.73352E+00 0.00000E+00
 -1      2401 1.41169E-01-3.87242E+00 0.00000E+00
 -1      2402 1.27686E-01-3.08814E+00 0.00000E+00
 -1      2403 1.13623E-01-2.38422E+00 0.00000E+00
 -1      2404 9.89209E-02-1.76419E+00 0.00000E+00
 -1      2405 8.36506E-02-1.23159E+00 0.00000E+00
 -1      2406 6.77361E-02-7.89935E-01 0.00000E+00
 -1      2407 5.12185E-02-4.42900E-01 0.00000E+00
 -1      2408 3.42445E-02-1.93471E-01 0.00000E+00
 -1      2409 1.59014E-02-4.73566E-02 0.00000E+00
 -1      2410 0.00000E+00 0.00000E+00 0.00000E+00
 -3
    1PSTEP                        10           1           1          
    1PGM                1.000000E+00                                  
    1PGK                2.131057E+06                                  
    1PHID                         -1                                  
    1PSUBC                         0                                  
    1PMODE                         3                                  
  100CL  103 232.3366394        2410                     2    3MODAL      1
 -4  STRESS      6    1
 -5  SXX         1    4    1    1
 -5  SYY         1    4    2    2
 -5  SZZ         1    4    3    3
 -5  SXY         1    4    1    2
 -5  SYZ         1    4    2    3
 -5  SZX         1    4    3    1
 -1         1-1.21254E+08-6.04979E+07-6.90658E+07 5.59782E+06 2.36363E+10 1.01084E+08
 -1         2-5.04880E+08-5.64998E+07-2.13324E+08-2.73680E+07 2.32432E+10 1.01083E+08
 -1         3-1.62276E+09-5.77916E+07-6.38609E+08-5.29494E+07 2.24570E+10 1.01078E+08
 -1         4-3.45480E+09-5.23884E+07-1.33273E+09-7.84333E+07 2.16709E+10 1.01066E+08
 -1         5-5.97990E+09-5.19359E+07-2.29210E+09-1.02450E+08 2.08849E+10 1.01044E+08
 -1         6-9.16908E+09-5.22544E+07-3.50411E+09-1.25978E+08 2.00991E+10 1.01009E+08
 -1         7-1.30030E+10-4.62980E+07-4.95873E+09-1.48365E+08 1.93137E+10 1.00958E+08
 -1         8-1.74484E+10-4.63672E+07-6.64801E+09-1.69671E+08 1.85288E+10 1.00887E+08
 -1         9-2.24893E+10-4.67454E+07-8.56372E+09-1.90840E+08 1.77444E+10 1.00795E+08
 -1        10-2.80935E+10-3.24626E+07-1.06879E+10-2.10034E+08 1.69609E+10 1.00678E+08
 -1        11-3.42381E+10-5.69969E+07-1.30322E+10-2.29766E+08 1.61784E+10 1.00534E+08
 -1        12-4.09040E+10-2.43394E+07-1.55528E+10-2.46638E+08 1.53972E+10 1.00359E+08
 -1        13-4.80539E+10-4.30574E+07-1.82768E+10-2.64611E+08 1.46174E+10 1.00153E+08
 -1        14-5.56739E+10-3.80122E+07-2.11705E+10-2.79962E+08 1.38394E+10 9.99131E+07
 -1        15-6.37389E+10-2.84021E+06-2.42218E+10-2.96939E+08 1.30633E+10 9.96365E+07
 -1        16-7.22118E+10-8.18097E+07-2.74716E+10-3.10294E+08 1.22896E+10 9.93219E+07
 -1        17-8.10837E+10 7.29940E+06-3.08090E+10-3.22912E+08 1.15184E+10 9.89666E+07
 -1        18-9.03245E+10-3.91555E+07-3.43382E+10-3.37595E+08 1.07502E+10 9.85696E+07
 -1        19-9.98997E+10-2.49330E+07-3.79714E+10-3.46594E+08 9.98528E+09 9.81290E+07
 -1        20-1.09803E+11-1.48152E+06-4.17258E+10-3.61668E+08 9.22392E+09 9.76433E+07
 -1        21-1.19992E+11-5.93719E+07-4.56194E+10-3.67598E+08 8.46653E+09 9.71112E+07
 -1        22-1.30457E+11 6.16849E+06-4.95711E+10-3.79596E+08 7.71346E+09 9.65310E+07
 -1        23-1.41172E+11-2.61793E+07-5.36552E+10-3.86023E+08 6.96509E+09 9.59019E+07
 -1        24-1.52095E+11-3.18123E+06-5.77973E+10-3.94672E+08 6.22180E+09 9.52226E+07
 -1        25-1.63230E+11-2.25270E+07-6.20361E+10-4.02147E+08 5.48400E+09 9.44923E+07
 -1        26-1.74533E+11-2.15254E+07-6.63307E+10-4.05763E+08 4.75208E+09 9.37100E+07
 -1        27-1.85991E+11-1.44673E+06-7.06771E+10-4.12362E+08 4.02645E+09 9.28749E+07
 -1        28-1.97579E+11 4.70389E+06-7.50782E+10-4.15701E+08 3.30752E+09 9.19865E+07
 -1        29-2.09264E+11-1.80087E+07-7.95271E+10-4.20556E+08 2.59571E+09 9.10443E+07
 -1        30-2.21037E+11-1.96993E+07-8.40017E+10-4.21045E+08 1.89144E+09 9.00476E+07
 -1        31-2.32877E+11 1.68995E+07-8.84868E+10-4.24023E+08 1.19513E+09 8.89962E+07
 -1        32-2.44747E+11-1.23695E+07-9.30085E+10-4.23993E+08 5.07218E+08 8.78900E+07
 -1        33-2.56632E+11 2.30372E+07-9.75113E+10-4.25335E+08-1.71881E+08 8.67287E+07
 -1        34-2.68517E+11-1.88874E+07-1.02044E+11-4.25500E+08-8.41732E+08 8.55124E+07
 -1        35-2.80373E+11 7.11398E+06-1.06539E+11-4.21962E+08-1.50191E+09 8.42411E+07
 -1        36-2.92180E+11 1.49068E+07-1.11023E+11-4.22180E+08-2.15198E+09 8.29149E+07
 -1        37-3.03919E+11-2.97040E+07-1.15500E+11-4.16552E+08-2.79154E+09 8.15343E+07
 -1        38-3.15573E+11 6.27974E+07-1.19894E+11-4.15003E+08-3.42014E+09 8.00993E+07
 -1        39-3.27113E+11-1.68538E+07-1.24309E+11-4.11023E+08-4.03737E+09 7.86108E+07
 -1        40-3.38520E+11-9.61724E+06-1.28641E+11-4.04493E+08-4.64282E+09 7.70691E+07
 -1        41-3.49788E+11 4.09158E+07-1.32904E+11-3.98842E+08-5.23607E+09 7.54748E+07
 -1        42-3.60889E+11 7.99536E+06-1.37135E+11-3.94011E+08-5.81672E+09 7.38287E+07
 -1        43-3.71800E+11 1.09623E+07-1.41280E+11-3.85695E+08-6.38437E+09 7.21317E+07
 -1        44-3.82503E+11 4.42070E+07-1.45334E+11-3.78874E+08-6.93862E+09 7.03846E+07
 -1        45-3.92993E+11-1.18111E+06-1.49338E+11-3.72869E+08-7.47909E+09 6.85884E+07
 -1        46-4.03244E+11-8.51501E+06-1.53236E+11-3.59581E+08-8.00541E+09 6.67442E+07
 -1        47-4.13234E+11 6.11537E+07-1.57006E+11-3.52330E+08-8.51719E+09 6.48531E+07
 -1        48-4.22952E+11-1.02708E+07-1.60726E+11-3.41414E+08-9.01410E+09 6.29163E+07
 -1        49-4.32395E+11 9.66300E+07-1.64273E+11-3.33513E+08-9.49576E+09 6.09351E+07
 -1        50-4.41522E+11-2.45566E+07-1.67788E+11-3.23243E+08-9.96185E+09 5.89110E+07
 -1        51-4.50326E+11-3.66911E+07-1.71138E+11-3.06265E+08-1.04120E+10 5.68454E+07
 -1        52-4.58819E+11 1.05251E+08-1.74311E+11-2.96244E+08-1.08460E+10 5.47395E+07
 -1        53-4.66954E+11-5.93030E+06-1.77445E+11-2.83643E+08-1.12634E+10 5.25952E+07
 -1        54-4.74724E+11 7.68548E+07-1.80366E+11-2.71965E+08-1.16640E+10 5.04141E+07
 -1        55-4.82125E+11-6.35380E+06-1.83210E+11-2.58991E+08-1.20475E+10 4.81979E+07
 -1        56-4.89149E+11 4.97360E+06-1.85875E+11-2.43085E+08-1.24137E+10 4.59483E+07
 -1        57-4.95779E+11 6.88843E+07-1.88370E+11-2.27868E+08-1.27622E+10 4.36670E+07
 -1        58-5.01985E+11 2.50954E+07-1.90745E+11-2.14899E+08-1.30929E+10 4.13559E+07
 -1        59-5.07782E+11 2.48120E+07-1.92948E+11-1.99198E+08-1.34054E+10 3.90171E+07
 -1        60-5.13167E+11 7.02309E+07-1.94977E+11-1.85330E+08-1.36997E+10 3.66524E+07
 -1        61-5.18093E+11 1.44148E+07-1.96870E+11-1.69188E+08-1.39755E+10 3.42638E+07
 -1        62-5.22572E+11-1.89417E+07-1.98585E+11-1.50593E+08-1.42326E+10 3.18534E+07
 -1        63-5.26619E+11 1.30209E+08-2.00066E+11-1.36140E+08-1.44710E+10 2.94233E+07
 -1        64-5.30193E+11-2.51218E+07-2.01483E+11-1.20826E+08-1.46903E+10 2.69755E+07
 -1        65-5.33293E+11 5.59332E+07-2.02630E+11-1.01168E+08-1.48905E+10 2.45122E+07
 -1        66-5.35913E+11 4.07931E+07-2.03632E+11-8.56803E+07-1.50716E+10 2.20357E+07
 -1        67-5.38072E+11-8.46908E+06-2.04471E+11-6.81197E+07-1.52333E+10 1.95482E+07
 -1        68-5.39740E+11 9.76188E+07-2.05064E+11-4.82043E+07-1.53756E+10 1.70517E+07
 -1        69-5.40894E+11-2.72156E+06-2.05541E+11-3.31801E+07-1.54985E+10 1.45488E+07
 -1        70-5.41590E+11 9.76356E+07-2.05767E+11-1.66299E+07-1.56019E+10 1.20415E+07
 -1        71-5.41764E+11 2.30842E+06-2.05870E+11 2.06083E+06-1.56858E+10 9.53224E+06
 -1        72-5.41435E+11 2.33081E+06-2.05744E+11 2.12593E+07-1.57502E+10 7.02337E+06
 -1        73-5.40619E+11 8.96736E+07-2.05401E+11 4.02720E+07-1.57951E+10 4.51711E+06
 -1        74-5.39296E+11 8.56873E+06-2.04929E+11 5.52586E+07-1.58205E+10 2.01580E+06
 -1        75-5.37467E+11 9.53076E+07-2.04201E+11 7.54457E+07-1.58264E+10-4.78206E+05
 -1        76-5.35122E+11-9.51388E+06-2.03350E+11 9.00264E+07-1.58131E+10-2.96254E+06
 -1        77-5.32275E+11 4.77797E+07-2.02246E+11 1.13053E+08-1.57804E+10-5.43482E+06
 -1        78-5.28951E+11 4.71996E+07-2.00983E+11 1.25227E+08-1.57286E+10-7.89284E+06
 -1        79-5.25100E+11 4.65292E+06-1.99536E+11 1.50365E+08-1.56577E+10-1.03342E+07
 -1        80-5.20739E+11 6.30786E+07-1.97857E+11 1.64428E+08-1.55679E+10-1.27566E+07
 -1        81-5.15917E+11 7.01792E+07-1.96022E+11 1.80721E+08-1.54593E+10-1.51577E+07
 -1        82-5.10574E+11 1.38845E+07-1.94013E+11 1.98969E+08-1.53321E+10-1.75353E+07
 -1        83-5.04746E+11-9.26944E+05-1.91804E+11 2.17534E+08-1.51866E+10-1.98870E+07
 -1        84-4.98441E+11 8.57563E+07-1.89375E+11 2.35914E+08-1.50229E+10-2.22105E+07
 -1        85-4.91658E+11 9.84458E+06-1.86826E+11 2.49810E+08-1.48412E+10-2.45038E+07
 -1        86-4.84400E+11 8.31144E+07-1.84040E+11 2.68576E+08-1.46418E+10-2.67646E+07
 -1        87-4.76656E+11-2.12761E+05-1.81130E+11 2.83178E+08-1.44249E+10-2.89906E+07
 -1        88-4.68479E+11 9.16743E+06-1.78019E+11 3.01010E+08-1.41909E+10-3.11797E+07
 -1        89-4.59845E+11 7.76889E+07-1.74712E+11 3.18945E+08-1.39400E+10-3.33299E+07
 -1        90-4.50747E+11 2.22000E+06-1.71283E+11 3.31923E+08-1.36726E+10-3.54390E+07
 -1        91-4.41230E+11 1.05265E+08-1.67627E+11 3.48058E+08-1.33889E+10-3.75050E+07
 -1        92-4.31284E+11-2.25148E+07-1.63896E+11 3.58837E+08-1.30893E+10-3.95260E+07
 -1        93-4.20918E+11-1.91199E+07-1.59956E+11 3.81932E+08-1.27742E+10-4.14999E+07
 -1        94-4.10141E+11 1.02874E+08-1.55814E+11 3.93147E+08-1.24439E+10-4.34247E+07
 -1        95-3.98968E+11-2.46381E+06-1.51609E+11 4.06146E+08-1.20988E+10-4.52988E+07
 -1        96-3.87421E+11 6.52266E+07-1.47195E+11 4.18954E+08-1.17394E+10-4.71203E+07
 -1        97-3.75486E+11 9.18282E+06-1.42681E+11 4.32485E+08-1.13660E+10-4.88874E+07
 -1        98-3.63183E+11-2.51344E+06-1.38011E+11 4.46714E+08-1.09791E+10-5.05983E+07
 -1        99-3.50553E+11 6.04735E+07-1.33187E+11 4.57937E+08-1.05791E+10-5.22514E+07
 -1       100-3.37569E+11 1.77933E+07-1.28270E+11 4.70506E+08-1.01664E+10-5.38453E+07
 -1       101-3.24258E+11 1.79424E+07-1.23211E+11 4.80587E+08-9.74163E+09-5.53782E+07
 -1       102-3.10647E+11 4.66718E+07-1.18028E+11 4.92281E+08-9.30516E+09-5.68488E+07
 -1       103-2.96732E+11 6.61400E+06-1.12756E+11 5.00721E+08-8.85749E+09-5.82557E+07
 -1       104-2.82539E+11-3.90170E+06-1.07366E+11 5.13627E+08-8.39914E+09-5.95974E+07
 -1       105-2.68072E+11 6.43685E+07-1.01843E+11 5.21795E+08-7.93061E+09-6.08727E+07
 -1       106-2.53356E+11-9.48702E+06-9.62788E+10 5.29112E+08-7.45242E+09-6.20805E+07
 -1       107-2.38407E+11 2.24684E+07-9.05861E+10 5.39076E+08-6.96510E+09-6.32195E+07
 -1       108-2.23227E+11 2.28785E+07-8.48176E+10 5.46201E+08-6.46920E+09-6.42888E+07
 -1       109-2.07840E+11-7.13183E+06-7.89820E+10 5.53687E+08-5.96526E+09-6.52872E+07
 -1       110-1.92274E+11 3.61092E+07-7.30505E+10 5.59693E+08-5.45383E+09-6.62140E+07
 -1       111-1.76526E+11 2.20599E+06-6.70791E+10 5.65913E+08-4.93547E+09-6.70682E+07
 -1       112-1.60620E+11 2.39849E+07-6.10264E+10 5.70461E+08-4.41075E+09-6.78491E+07
 -1       113-1.44575E+11-7.26244E+04-5.49385E+10 5.75526E+08-3.88024E+09-6.85561E+07
 -1       114-1.28407E+11 4.78362E+05-4.87946E+10 5.79869E+08-3.34453E+09-6.91884E+07
 -1       115-1.12134E+11 1.93198E+07-4.26035E+10 5.83710E+08-2.80419E+09-6.97455E+07
 -1       116-9.57652E+10-9.79961E+05-3.63911E+10 5.85940E+08-2.25981E+09-7.02271E+07
 -1       117-7.93315E+10 1.14373E+07-3.01416E+10 5.88078E+08-1.71198E+09-7.06327E+07
 -1       118-6.28393E+10-2.12864E+06-2.38797E+10 5.90149E+08-1.16130E+09-7.09620E+07
 -1       119-4.63092E+10-6.97141E+03-1.75975E+10 5.91087E+08-6.08349E+08-7.12149E+07
 -1       120-2.97632E+10 3.60610E+06-1.13087E+10 5.91521E+08-5.37286E+07-7.13911E+07
 -1       121-1.32124E+10-4.64343E+06-5.02249E+09 5.91238E+08 5.01968E+08-7.14907E+07
 -1       122 3.32081E+09 9.71043E+05 1.26228E+09 5.90138E+08 1.05814E+09-7.15136E+07
 -1       123 1.98213E+10-8.71453E+06 7.52880E+09 5.88638E+08 1.61419E+09-7.14600E+07
 -1       124 3.62680E+10-2.20633E+06 1.37810E+10 5.86636E+08 2.16952E+09-7.13301E+07
 -1       125 5.26486E+10-3.45267E+06 2.00051E+10 5.83879E+08 2.72355E+09-7.11242E+07
 -1       126 6.89412E+10-1.42090E+07 2.61923E+10 5.79896E+08 3.27569E+09-7.08426E+07
 -1       127 8.51261E+10-3.26105E+06 3.23467E+10 5.76132E+08 3.82534E+09-7.04858E+07
 -1       128 1.01196E+11-2.26653E+07 3.84457E+10 5.71722E+08 4.37192E+09-7.00542E+07
 -1       129 1.17119E+11-4.52093E+06 4.45037E+10 5.66452E+08 4.91486E+09-6.95486E+07
 -1       130 1.32889E+11-5.23359E+06 5.04957E+10 5.60353E+08 5.45358E+09-6.89696E+07
 -1       131 1.48483E+11-2.41012E+07 5.64145E+10 5.53021E+08 5.98751E+09-6.83179E+07
 -1       132 1.63890E+11-2.03646E+07 6.22705E+10 5.47110E+08 6.51610E+09-6.75944E+07
 -1       133 1.79088E+11-2.67272E+07 6.80433E+10 5.39541E+08 7.03879E+09-6.68000E+07
 -1       134 1.94055E+11 8.05173E+06 7.37439E+10 5.30899E+08 7.55502E+09-6.59358E+07
 -1       135 2.08789E+11-2.41896E+07 7.93305E+10 5.21210E+08 8.06426E+09-6.50027E+07
 -1       136 2.23266E+11-3.17350E+07 8.48292E+10 5.11491E+08 8.56598E+09-6.40020E+07
 -1       137 2.37461E+11-2.13415E+07 9.02271E+10 5.02022E+08 9.05966E+09-6.29349E+07
 -1       138 2.51372E+11-1.76226E+07 9.55148E+10 4.91319E+08 9.54479E+09-6.18027E+07
 -1       139 2.64986E+11-4.75588E+07 1.00677E+11 4.80747E+08 1.00209E+10-6.06067E+07
 -1       140 2.78269E+11-1.06190E+07 1.05738E+11 4.69223E+08 1.04874E+10-5.93485E+07
 -1       141 2.91220E+11-6.24106E+06 1.10661E+11 4.56127E+08 1.09439E+10-5.80295E+07
 -1       142 3.03824E+11-5.53508E+07 1.15432E+11 4.42462E+08 1.13899E+10-5.66512E+07
 -1       143 3.16069E+11-1.27534E+07 1.20101E+11 4.31159E+08 1.18250E+10-5.52154E+07
 -1       144 3.27933E+11-6.50731E+07 1.24590E+11 4.16172E+08 1.22486E+10-5.37238E+07
 -1       145 3.39395E+11 2.21966E+06 1.28971E+11 4.03617E+08 1.26605E+10-5.21782E+07
 -1       146 3.50471E+11-4.20572E+07 1.33163E+11 3.87740E+08 1.30602E+10-5.05804E+07
 -1       147 3.61128E+11-4.12818E+07 1.37213E+11 3.73105E+08 1.34472E+10-4.89322E+07
 -1       148 3.71343E+11 6.02480E+06 1.41113E+11 3.56256E+08 1.38212E+10-4.72357E+07
 -1       149 3.81126E+11-9.81902E+07 1.44791E+11 3.40184E+08 1.41818E+10-4.54928E+07
 -1       150 3.90458E+11-2.19135E+06 1.48373E+11 3.27246E+08 1.45287E+10-4.37057E+07
 -1       151 3.99326E+11-1.73948E+07 1.51737E+11 3.06397E+08 1.48616E+10-4.18764E+07
 -1       152 4.07711E+11-6.89554E+07 1.54904E+11 2.89731E+08 1.51800E+10-4.00071E+07
 -1       153 4.15626E+11-1.89810E+07 1.57931E+11 2.74550E+08 1.54838E+10-3.81001E+07
 -1       154 4.23044E+11-7.73950E+07 1.60727E+11 2.54524E+08 1.57726E+10-3.61576E+07
 -1       155 4.29944E+11-1.45114E+07 1.63373E+11 2.39593E+08 1.60462E+10-3.41819E+07
 -1       156 4.36343E+11-1.08198E+07 1.65806E+11 2.17544E+08 1.63042E+10-3.21755E+07
 -1       157 4.42234E+11-7.52929E+07 1.68020E+11 2.00128E+08 1.65466E+10-3.01405E+07
 -1       158 4.47580E+11-4.10859E+07 1.70065E+11 1.80248E+08 1.67730E+10-2.80795E+07
 -1       159 4.52392E+11-1.94354E+07 1.71901E+11 1.62834E+08 1.69833E+10-2.59950E+07
 -1       160 4.56667E+11-1.16157E+08 1.73489E+11 1.41465E+08 1.71773E+10-2.38894E+07
 -1       161 4.60397E+11 1.19352E+07 1.74955E+11 1.28576E+08 1.73549E+10-2.17654E+07
 -1       162 4.63572E+11 1.21908E+07 1.76162E+11 9.88021E+07 1.75159E+10-1.96253E+07
 -1       163 4.66175E+11-1.16924E+08 1.77102E+11 8.12375E+07 1.76601E+10-1.74718E+07
 -1       164 4.68237E+11-1.22170E+07 1.77925E+11 6.39414E+07 1.77876E+10-1.53075E+07
 -1       165 4.69722E+11-9.10067E+07 1.78460E+11 4.12701E+07 1.78982E+10-1.31350E+07
 -1       166 4.70624E+11-1.36857E+07 1.78832E+11 2.43156E+07 1.79919E+10-1.09570E+07
 -1       167 4.70962E+11-1.28460E+07 1.78960E+11-3.54969E+05 1.80686E+10-8.77608E+06
 -1       168 4.70736E+11-8.79536E+07 1.78846E+11-1.94251E+07 1.81284E+10-6.59491E+06
 -1       169 4.69915E+11-2.45044E+07 1.78559E+11-4.08385E+07 1.81712E+10-4.41615E+06
 -1       170 4.68513E+11-8.25339E+07 1.78004E+11-6.04590E+07 1.81971E+10-2.24255E+06
 -1       171 4.66542E+11-1.75686E+07 1.77279E+11-7.90268E+07 1.82062E+10-7.67701E+04
 -1       172 4.63987E+11-1.77751E+07 1.76308E+11-1.04161E+08 1.81984E+10 2.07850E+06
 -1       173 4.60845E+11-7.80628E+07 1.75091E+11-1.23698E+08 1.81739E+10 4.22061E+06
 -1       174 4.57125E+11-5.32133E+07 1.73687E+11-1.44031E+08 1.81327E+10 6.34684E+06
 -1       175 4.52839E+11-6.22746E+07 1.72055E+11-1.60831E+08 1.80752E+10 8.45454E+06
 -1       176 4.47964E+11 1.38256E+07 1.70232E+11-1.85983E+08 1.80013E+10 1.05410E+07
 -1       177 4.42508E+11-5.37737E+07 1.68133E+11-2.06795E+08 1.79113E+10 1.26035E+07
 -1       178 4.36497E+11-6.97592E+07 1.65842E+11-2.26696E+08 1.78053E+10 1.46395E+07
 -1       179 4.29914E+11-3.58430E+07 1.63354E+11-2.45128E+08 1.76836E+10 1.66463E+07
 -1       180 4.22763E+11-4.16754E+07 1.60634E+11-2.66601E+08 1.75465E+10 1.86213E+07
 -1       181 4.15048E+11-6.87492E+07 1.57692E+11-2.86011E+08 1.73941E+10 2.05619E+07
 -1       182 4.06787E+11-2.34160E+07 1.54570E+11-3.03133E+08 1.72267E+10 2.24654E+07
 -1       183 3.97976E+11-1.42203E+07 1.51225E+11-3.27198E+08 1.70447E+10 2.43294E+07
 -1       184 3.88614E+11-7.95963E+07 1.47643E+11-3.44757E+08 1.68484E+10 2.61514E+07
 -1       185 3.78718E+11-1.90940E+07 1.43905E+11-3.63876E+08 1.66380E+10 2.79287E+07
 -1       186 3.68299E+11-7.44381E+07 1.39925E+11-3.81383E+08 1.64141E+10 2.96590E+07
 -1       187 3.57347E+11-1.61550E+07 1.35786E+11-4.00621E+08 1.61768E+10 3.13398E+07
 -1       188 3.45871E+11-3.47075E+07 1.31418E+11-4.19920E+08 1.59267E+10 3.29686E+07
 -1       189 3.33912E+11-5.58745E+07 1.26865E+11-4.35888E+08 1.56641E+10 3.45431E+07
 -1       190 3.21435E+11-5.05505E+05 1.22145E+11-4.56782E+08 1.53895E+10 3.60611E+07
 -1       191 3.08466E+11-8.91525E+07 1.17183E+11-4.72378E+08 1.51033E+10 3.75201E+07
 -1       192 2.95020E+11-1.15213E+07 1.12103E+11-4.88498E+08 1.48060E+10 3.89180E+07
 -1       193 2.81105E+11-1.85873E+07 1.06813E+11-5.06152E+08 1.44981E+10 4.02524E+07
 -1       194 2.66727E+11-6.21081E+07 1.01333E+11-5.23674E+08 1.41801E+10 4.15213E+07
 -1       195 2.51889E+11-1.96809E+07 9.57102E+10-5.37757E+08 1.38524E+10 4.27226E+07
 -1       196 2.36615E+11-5.50626E+07 8.98928E+10-5.54093E+08 1.35157E+10 4.38541E+07
 -1       197 2.20911E+11-1.69239E+07 8.39399E+10-5.67926E+08 1.31704E+10 4.49139E+07
 -1       198 2.04784E+11-2.12570E+07 7.78097E+10-5.84931E+08 1.28172E+10 4.58999E+07
 -1       199 1.88247E+11-4.58128E+07 7.15166E+10-5.98686E+08 1.24566E+10 4.68103E+07
 -1       200 1.71317E+11-2.74885E+07 6.50900E+10-6.11775E+08 1.20893E+10 4.76431E+07
 -1       201 1.54000E+11-2.58047E+07 5.85102E+10-6.26070E+08 1.17157E+10 4.83967E+07
 -1       202 1.36305E+11-4.41230E+07 5.17793E+10-6.38802E+08 1.13367E+10 4.90691E+07
 -1       203 1.18253E+11-1.45228E+07 4.49305E+10-6.50930E+08 1.09527E+10 4.96589E+07
 -1       204 9.98507E+10-1.29790E+07 3.79383E+10-6.64779E+08 1.05644E+10 5.01641E+07
 -1       205 8.11113E+10-4.28568E+07 3.08060E+10-6.76153E+08 1.01726E+10 5.05832E+07
 -1       206 6.20452E+10-1.82392E+07 2.35702E+10-6.86897E+08 9.77780E+09 5.09149E+07
 -1       207 4.26705E+10-2.66844E+07 1.62046E+10-6.97680E+08 9.38080E+09 5.11575E+07
 -1       208 2.29951E+10-2.06482E+07 8.73031E+09-7.08691E+08 8.98227E+09 5.13097E+07
 -1       209 3.03207E+09-2.07846E+07 1.14429E+09-7.18372E+08 8.58290E+09 5.13700E+07
 -1       210-1.72023E+10-2.10904E+07-6.54491E+09-7.27959E+08 8.18343E+09 5.13372E+07
 -1       211-3.76998E+10-2.09133E+07-1.43339E+10-7.36861E+08 7.78458E+09 5.12101E+07
 -1       212-5.84459E+10-1.18698E+07-2.22140E+10-7.45596E+08 7.38709E+09 5.09875E+07
 -1       213-7.94245E+10-2.08834E+07-3.01892E+10-7.54179E+08 6.99170E+09 5.06683E+07
 -1       214-1.00628E+11-2.72183E+07-3.82492E+10-7.61618E+08 6.59918E+09 5.02513E+07
 -1       215-1.22044E+11 5.89494E+06-4.63745E+10-7.68346E+08 6.21029E+09 4.97356E+07
 -1       216-1.43658E+11-3.01104E+07-5.46015E+10-7.76846E+08 5.82578E+09 4.91203E+07
 -1       217-1.65453E+11-7.94264E+06-6.28751E+10-7.81158E+08 5.44646E+09 4.84044E+07
 -1       218-1.87428E+11-1.11609E+07-7.12269E+10-7.89493E+08 5.07309E+09 4.75871E+07
 -1       219-2.09560E+11-2.77900E+07-7.96434E+10-7.92556E+08 4.70649E+09 4.66677E+07
 -1       220-2.31847E+11 4.72476E+06-8.81000E+10-7.98929E+08 4.34743E+09 4.56454E+07
 -1       221-2.54263E+11-1.19303E+07-9.66243E+10-8.02350E+08 3.99673E+09 4.45195E+07
 -1       222-2.76823E+11-1.75168E+07-1.05199E+11-8.09365E+08 3.65518E+09 4.32895E+07
 -1       223-2.99484E+11 2.14791E+07-1.13796E+11-8.09605E+08 3.32361E+09 4.19547E+07
 -1       224-3.22260E+11-2.96836E+07-1.22470E+11-8.19025E+08 3.00283E+09 4.05148E+07
 -1       225-3.45114E+11-2.83717E+07-1.31154E+11-8.15389E+08 2.69366E+09 3.89691E+07
 -1       226-3.68096E+11 2.21087E+07-1.39868E+11-8.24122E+08 2.39693E+09 3.73172E+07
 -1       227-3.91101E+11-1.44018E+07-1.48624E+11-8.19544E+08 2.11346E+09 3.55588E+07
 -1       228-4.14224E+11 1.19941E+07-1.57401E+11-8.31270E+08 1.84407E+09 3.36936E+07
 -1       229-4.37346E+11 1.61952E+07-1.66185E+11-8.23972E+08 1.58961E+09 3.17213E+07
 -1       230-4.60608E+11-7.23206E+07-1.75059E+11-8.39761E+08 1.35091E+09 2.96416E+07
 -1       231-4.83792E+11 2.54214E+07-1.83831E+11-8.17896E+08 1.12880E+09 2.74542E+07
 -1       232-5.07158E+11-1.25861E+07-1.92725E+11-8.45164E+08 9.24126E+08 2.51591E+07
 -1       233-5.30378E+11 5.67933E+07-2.01522E+11-8.16506E+08 7.37721E+08 2.27560E+07
 -1       234-5.53854E+11-2.98551E+07-2.10476E+11-8.58310E+08 5.70424E+08 2.02448E+07
 -1       235-5.77026E+11-1.34745E+08-2.19321E+11-8.05747E+08 4.23083E+08 1.76256E+07
 -1       236-6.00605E+11 4.91724E+08-2.28043E+11-8.63782E+08 2.96529E+08 1.48980E+07
 -1       237-6.23878E+11-1.76559E+09-2.37745E+11-8.21565E+08 1.91616E+08 1.20622E+07
 -1       238-6.46896E+11 6.58083E+09-2.43320E+11-7.60024E+08 1.09173E+08 9.11770E+06
 -1       239-6.72538E+11-2.42331E+10-2.64773E+11-1.27015E+09 5.00576E+07 6.06638E+06
 -1       240-6.86570E+11 8.88960E+10-2.27116E+11 9.50705E+08 1.51003E+07 2.90112E+06
 -1       241-6.87590E+11-3.26888E+11-3.85502E+11-7.20264E+09 3.74623E+06 1.28757E+06
 -1       242-1.21253E+08-6.04975E+07-6.90654E+07 5.59745E+06-2.36363E+10-1.01084E+08
 -1       243-5.04879E+08-5.64996E+07-2.13324E+08-2.73684E+07-2.32432E+10-1.01083E+08
 -1       244-1.62276E+09-5.77912E+07-6.38608E+08-5.29494E+07-2.24570E+10-1.01078E+08
 -1       245-3.45480E+09-5.23880E+07-1.33273E+09-7.84331E+07-2.16709E+10-1.01066E+08
 -1       246-5.97990E+09-5.19357E+07-2.29210E+09-1.02450E+08-2.08849E+10-1.01044E+08
 -1       247-9.16908E+09-5.22547E+07-3.50411E+09-1.25977E+08-2.00991E+10-1.01009E+08
 -1       248-1.30030E+10-4.62984E+07-4.95873E+09-1.48364E+08-1.93137E+10-1.00958E+08
 -1       249-1.74484E+10-4.63680E+07-6.64801E+09-1.69671E+08-1.85288E+10-1.00887E+08
 -1       250-2.24894E+10-4.67462E+07-8.56372E+09-1.90840E+08-1.77444E+10-1.00795E+08
 -1       251-2.80935E+10-3.24635E+07-1.06879E+10-2.10034E+08-1.69609E+10-1.00678E+08
 -1       252-3.42382E+10-5.69978E+07-1.30322E+10-2.29766E+08-1.61784E+10-1.00533E+08
 -1       253-4.09040E+10-2.43400E+07-1.55528E+10-2.46638E+08-1.53972E+10-1.00359E+08
 -1       254-4.80539E+10-4.30577E+07-1.82768E+10-2.64612E+08-1.46174E+10-1.00153E+08
 -1       255-5.56739E+10-3.80121E+07-2.11705E+10-2.79962E+08-1.38394E+10-9.99130E+07
 -1       256-6.37389E+10-2.83980E+06-2.42218E+10-2.96939E+08-1.30633E+10-9.96365E+07
 -1       257-7.22117E+10-8.18092E+07-2.74716E+10-3.10294E+08-1.22896E+10-9.93219E+07
 -1       258-8.10836E+10 7.30000E+06-3.08090E+10-3.22912E+08-1.15184E+10-9.89666E+07
 -1       259-9.03245E+10-3.91548E+07-3.43382E+10-3.37595E+08-1.07502E+10-9.85695E+07
 -1       260-9.98997E+10-2.49324E+07-3.79714E+10-3.46594E+08-9.98528E+09-9.81290E+07
 -1       261-1.09803E+11-1.48099E+06-4.17258E+10-3.61668E+08-9.22392E+09-9.76433E+07
 -1       262-1.19992E+11-5.93715E+07-4.56194E+10-3.67598E+08-8.46653E+09-9.71112E+07
 -1       263-1.30457E+11 6.16886E+06-4.95711E+10-3.79596E+08-7.71346E+09-9.65310E+07
 -1       264-1.41172E+11-2.61790E+07-5.36552E+10-3.86023E+08-6.96509E+09-9.59018E+07
 -1       265-1.52095E+11-3.18101E+06-5.77973E+10-3.94672E+08-6.22180E+09-9.52226E+07
 -1       266-1.63230E+11-2.25267E+07-6.20361E+10-4.02147E+08-5.48400E+09-9.44923E+07
 -1       267-1.74533E+11-2.15250E+07-6.63307E+10-4.05764E+08-4.75208E+09-9.37100E+07
 -1       268-1.85991E+11-1.44621E+06-7.06771E+10-4.12362E+08-4.02645E+09-9.28749E+07
 -1       269-1.97579E+11 4.70456E+06-7.50782E+10-4.15701E+08-3.30752E+09-9.19864E+07
 -1       270-2.09264E+11-1.80078E+07-7.95271E+10-4.20556E+08-2.59571E+09-9.10442E+07
 -1       271-2.21037E+11-1.96983E+07-8.40017E+10-4.21045E+08-1.89144E+09-9.00476E+07
 -1       272-2.32877E+11 1.69006E+07-8.84868E+10-4.24023E+08-1.19514E+09-8.89962E+07
 -1       273-2.44747E+11-1.23684E+07-9.30085E+10-4.23993E+08-5.07221E+08-8.78899E+07
 -1       274-2.56632E+11 2.30383E+07-9.75113E+10-4.25336E+08 1.71878E+08-8.67286E+07
 -1       275-2.68517E+11-1.88863E+07-1.02044E+11-4.25500E+08 8.41728E+08-8.55123E+07
 -1       276-2.80373E+11 7.11516E+06-1.06539E+11-4.21962E+08 1.50190E+09-8.42410E+07
 -1       277-2.92180E+11 1.49080E+07-1.11023E+11-4.22180E+08 2.15198E+09-8.29149E+07
 -1       278-3.03919E+11-2.97029E+07-1.15500E+11-4.16552E+08 2.79153E+09-8.15342E+07
 -1       279-3.15573E+11 6.27985E+07-1.19894E+11-4.15003E+08 3.42014E+09-8.00993E+07
 -1       280-3.27113E+11-1.68529E+07-1.24309E+11-4.11022E+08 4.03737E+09-7.86107E+07
 -1       281-3.38520E+11-9.61640E+06-1.28641E+11-4.04493E+08 4.64281E+09-7.70690E+07
 -1       282-3.49788E+11 4.09165E+07-1.32904E+11-3.98842E+08 5.23606E+09-7.54747E+07
 -1       283-3.60889E+11 7.99576E+06-1.37135E+11-3.94011E+08 5.81671E+09-7.38286E+07
 -1       284-3.71800E+11 1.09624E+07-1.41280E+11-3.85694E+08 6.38436E+09-7.21316E+07
 -1       285-3.82503E+11 4.42067E+07-1.45334E+11-3.78873E+08 6.93861E+09-7.03845E+07
 -1       286-3.92993E+11-1.18191E+06-1.49338E+11-3.72869E+08 7.47908E+09-6.85883E+07
 -1       287-4.03244E+11-8.51619E+06-1.53236E+11-3.59580E+08 8.00540E+09-6.67441E+07
 -1       288-4.13234E+11 6.11522E+07-1.57006E+11-3.52329E+08 8.51718E+09-6.48530E+07
 -1       289-4.22952E+11-1.02727E+07-1.60726E+11-3.41413E+08 9.01409E+09-6.29162E+07
 -1       290-4.32395E+11 9.66278E+07-1.64273E+11-3.33513E+08 9.49575E+09-6.09351E+07
 -1       291-4.41522E+11-2.45594E+07-1.67788E+11-3.23243E+08 9.96184E+09-5.89110E+07
 -1       292-4.50326E+11-3.66942E+07-1.71138E+11-3.06264E+08 1.04120E+10-5.68453E+07
 -1       293-4.58819E+11 1.05248E+08-1.74311E+11-2.96244E+08 1.08460E+10-5.47395E+07
 -1       294-4.66954E+11-5.93381E+06-1.77445E+11-2.83643E+08 1.12634E+10-5.25952E+07
 -1       295-4.74724E+11 7.68512E+07-1.80366E+11-2.71965E+08 1.16640E+10-5.04141E+07
 -1       296-4.82125E+11-6.35740E+06-1.83210E+11-2.58991E+08 1.20475E+10-4.81979E+07
 -1       297-4.89149E+11 4.96984E+06-1.85875E+11-2.43084E+08 1.24137E+10-4.59483E+07
 -1       298-4.95779E+11 6.88804E+07-1.88370E+11-2.27868E+08 1.27622E+10-4.36669E+07
 -1       299-5.01985E+11 2.50915E+07-1.90745E+11-2.14898E+08 1.30928E+10-4.13559E+07
 -1       300-5.07782E+11 2.48078E+07-1.92948E+11-1.99198E+08 1.34054E+10-3.90171E+07
 -1       301-5.13167E+11 7.02266E+07-1.94977E+11-1.85330E+08 1.36997E+10-3.66524E+07
 -1       302-5.18093E+11 1.44101E+07-1.96870E+11-1.69187E+08 1.39755E+10-3.42638E+07
 -1       303-5.22572E+11-1.89465E+07-1.98585E+11-1.50593E+08 1.42326E+10-3.18535E+07
 -1       304-5.26619E+11 1.30204E+08-2.00066E+11-1.36140E+08 1.44709E+10-2.94233E+07
 -1       305-5.30193E+11-2.51265E+07-2.01483E+11-1.20827E+08 1.46903E+10-2.69755E+07
 -1       306-5.33293E+11 5.59287E+07-2.02630E+11-1.01168E+08 1.48905E+10-2.45123E+07
 -1       307-5.35913E+11 4.07888E+07-2.03632E+11-8.56805E+07 1.50715E+10-2.20358E+07
 -1       308-5.38072E+11-8.47305E+06-2.04471E+11-6.81199E+07 1.52333E+10-1.95483E+07
 -1       309-5.39740E+11 9.76152E+07-2.05064E+11-4.82048E+07 1.53756E+10-1.70518E+07
 -1       310-5.40894E+11-2.72451E+06-2.05541E+11-3.31809E+07 1.54985E+10-1.45489E+07
 -1       311-5.41590E+11 9.76333E+07-2.05767E+11-1.66308E+07 1.56019E+10-1.20416E+07
 -1       312-5.41764E+11 2.30677E+06-2.05870E+11 2.05998E+06 1.56858E+10-9.53235E+06
 -1       313-5.41435E+11 2.33007E+06-2.05744E+11 2.12585E+07 1.57502E+10-7.02348E+06
 -1       314-5.40619E+11 8.96736E+07-2.05401E+11 4.02712E+07 1.57951E+10-4.51722E+06
 -1       315-5.39296E+11 8.56938E+06-2.04929E+11 5.52578E+07 1.58205E+10-2.01592E+06
 -1       316-5.37467E+11 9.53089E+07-2.04201E+11 7.54451E+07 1.58264E+10 4.78094E+05
 -1       317-5.35122E+11-9.51215E+06-2.03350E+11 9.00261E+07 1.58131E+10 2.96243E+06
 -1       318-5.32275E+11 4.77818E+07-2.02246E+11 1.13053E+08 1.57804E+10 5.43471E+06
 -1       319-5.28951E+11 4.72018E+07-2.00983E+11 1.25227E+08 1.57285E+10 7.89274E+06
 -1       320-5.25100E+11 4.65535E+06-1.99536E+11 1.50365E+08 1.56577E+10 1.03342E+07
 -1       321-5.20739E+11 6.30812E+07-1.97857E+11 1.64428E+08 1.55678E+10 1.27565E+07
 -1       322-5.15917E+11 7.01820E+07-1.96022E+11 1.80720E+08 1.54593E+10 1.51577E+07
 -1       323-5.10574E+11 1.38874E+07-1.94013E+11 1.98969E+08 1.53321E+10 1.75352E+07
 -1       324-5.04746E+11-9.23765E+05-1.91804E+11 2.17534E+08 1.51866E+10 1.98869E+07
 -1       325-4.98441E+11 8.57595E+07-1.89375E+11 2.35914E+08 1.50229E+10 2.22105E+07
 -1       326-4.91658E+11 9.84788E+06-1.86826E+11 2.49810E+08 1.48412E+10 2.45038E+07
 -1       327-4.84400E+11 8.31177E+07-1.84040E+11 2.68576E+08 1.46418E+10 2.67645E+07
 -1       328-4.76656E+11-2.09567E+05-1.81130E+11 2.83178E+08 1.44249E+10 2.89906E+07
 -1       329-4.68479E+11 9.17041E+06-1.78019E+11 3.01010E+08 1.41909E+10 3.11797E+07
 -1       330-4.59845E+11 7.76917E+07-1.74712E+11 3.18946E+08 1.39400E+10 3.33299E+07
 -1       331-4.50747E+11 2.22268E+06-1.71283E+11 3.31923E+08 1.36726E+10 3.54390E+07
 -1       332-4.41230E+11 1.05268E+08-1.67627E+11 3.48059E+08 1.33889E+10 3.75050E+07
 -1       333-4.31284E+11-2.25126E+07-1.63896E+11 3.58837E+08 1.30893E+10 3.95260E+07
 -1       334-4.20918E+11-1.91181E+07-1.59956E+11 3.81933E+08 1.27742E+10 4.14999E+07
 -1       335-4.10141E+11 1.02875E+08-1.55814E+11 3.93147E+08 1.24439E+10 4.34247E+07
 -1       336-3.98968E+11-2.46291E+06-1.51609E+11 4.06147E+08 1.20988E+10 4.52988E+07
 -1       337-3.87421E+11 6.52271E+07-1.47195E+11 4.18954E+08 1.17394E+10 4.71203E+07
 -1       338-3.75486E+11 9.18300E+06-1.42681E+11 4.32486E+08 1.13660E+10 4.88874E+07
 -1       339-3.63183E+11-2.51347E+06-1.38011E+11 4.46714E+08 1.09791E+10 5.05983E+07
 -1       340-3.50553E+11 6.04734E+07-1.33187E+11 4.57937E+08 1.05791E+10 5.22514E+07
 -1       341-3.37569E+11 1.77931E+07-1.28270E+11 4.70506E+08 1.01664E+10 5.38453E+07
 -1       342-3.24258E+11 1.79422E+07-1.23211E+11 4.80587E+08 9.74163E+09 5.53782E+07
 -1       343-3.10647E+11 4.66718E+07-1.18028E+11 4.92280E+08 9.30516E+09 5.68488E+07
 -1       344-2.96732E+11 6.61403E+06-1.12756E+11 5.00721E+08 8.85749E+09 5.82557E+07
 -1       345-2.82539E+11-3.90159E+06-1.07366E+11 5.13627E+08 8.39914E+09 5.95974E+07
 -1       346-2.68072E+11 6.43687E+07-1.01843E+11 5.21795E+08 7.93061E+09 6.08727E+07
 -1       347-2.53356E+11-9.48688E+06-9.62788E+10 5.29112E+08 7.45242E+09 6.20805E+07
 -1       348-2.38407E+11 2.24686E+07-9.05861E+10 5.39076E+08 6.96510E+09 6.32195E+07
 -1       349-2.23227E+11 2.28788E+07-8.48176E+10 5.46201E+08 6.46920E+09 6.42888E+07
 -1       350-2.07840E+11-7.13142E+06-7.89819E+10 5.53686E+08 5.96526E+09 6.52873E+07
 -1       351-1.92274E+11 3.61098E+07-7.30505E+10 5.59693E+08 5.45383E+09 6.62140E+07
 -1       352-1.76526E+11 2.20649E+06-6.70791E+10 5.65913E+08 4.93547E+09 6.70682E+07
 -1       353-1.60620E+11 2.39853E+07-6.10264E+10 5.70461E+08 4.41075E+09 6.78491E+07
 -1       354-1.44575E+11-7.22627E+04-5.49385E+10 5.75527E+08 3.88024E+09 6.85561E+07
 -1       355-1.28407E+11 4.78630E+05-4.87946E+10 5.79869E+08 3.34453E+09 6.91884E+07
 -1       356-1.12134E+11 1.93200E+07-4.26035E+10 5.83710E+08 2.80419E+09 6.97455E+07
 -1       357-9.57652E+10-9.79856E+05-3.63911E+10 5.85940E+08 2.25981E+09 7.02271E+07
 -1       358-7.93315E+10 1.14373E+07-3.01416E+10 5.88078E+08 1.71198E+09 7.06327E+07
 -1       359-6.28393E+10-2.12868E+06-2.38797E+10 5.90149E+08 1.16130E+09 7.09620E+07
 -1       360-4.63092E+10-7.14155E+03-1.75975E+10 5.91087E+08 6.08349E+08 7.12149E+07
 -1       361-2.97632E+10 3.60590E+06-1.13087E+10 5.91521E+08 5.37283E+07 7.13911E+07
 -1       362-1.32124E+10-4.64371E+06-5.02249E+09 5.91238E+08-5.01969E+08 7.14907E+07
 -1       363 3.32081E+09 9.70637E+05 1.26228E+09 5.90138E+08-1.05814E+09 7.15136E+07
 -1       364 1.98213E+10-8.71502E+06 7.52880E+09 5.88638E+08-1.61419E+09 7.14600E+07
 -1       365 3.62680E+10-2.20690E+06 1.37810E+10 5.86636E+08-2.16953E+09 7.13301E+07
 -1       366 5.26486E+10-3.45327E+06 2.00051E+10 5.83879E+08-2.72355E+09 7.11242E+07
 -1       367 6.89412E+10-1.42097E+07 2.61923E+10 5.79896E+08-3.27569E+09 7.08426E+07
 -1       368 8.51261E+10-3.26185E+06 3.23467E+10 5.76132E+08-3.82534E+09 7.04858E+07
 -1       369 1.01196E+11-2.26661E+07 3.84457E+10 5.71722E+08-4.37192E+09 7.00542E+07
 -1       370 1.17119E+11-4.52168E+06 4.45037E+10 5.66452E+08-4.91486E+09 6.95486E+07
 -1       371 1.32889E+11-5.23419E+06 5.04957E+10 5.60352E+08-5.45358E+09 6.89696E+07
 -1       372 1.48483E+11-2.41016E+07 5.64145E+10 5.53020E+08-5.98751E+09 6.83179E+07
 -1       373 1.63890E+11-2.03649E+07 6.22705E+10 5.47110E+08-6.51610E+09 6.75944E+07
 -1       374 1.79088E+11-2.67274E+07 6.80433E+10 5.39541E+08-7.03879E+09 6.68000E+07
 -1       375 1.94055E+11 8.05135E+06 7.37439E+10 5.30899E+08-7.55502E+09 6.59358E+07
 -1       376 2.08789E+11-2.41900E+07 7.93305E+10 5.21210E+08-8.06426E+09 6.50027E+07
 -1       377 2.23266E+11-3.17354E+07 8.48292E+10 5.11491E+08-8.56598E+09 6.40020E+07
 -1       378 2.37461E+11-2.13419E+07 9.02271E+10 5.02022E+08-9.05966E+09 6.29349E+07
 -1       379 2.51372E+11-1.76232E+07 9.55148E+10 4.91319E+08-9.54479E+09 6.18027E+07
 -1       380 2.64986E+11-4.75594E+07 1.00677E+11 4.80747E+08-1.00209E+10 6.06067E+07
 -1       381 2.78269E+11-1.06198E+07 1.05738E+11 4.69224E+08-1.04874E+10 5.93485E+07
 -1       382 2.91220E+11-6.24223E+06 1.10661E+11 4.56128E+08-1.09439E+10 5.80295E+07
 -1       383 3.03824E+11-5.53522E+07 1.15432E+11 4.42463E+08-1.13899E+10 5.66512E+07
 -1       384 3.16069E+11-1.27549E+07 1.20101E+11 4.31159E+08-1.18250E+10 5.52154E+07
 -1       385 3.27933E+11-6.50746E+07 1.24590E+11 4.16172E+08-1.22486E+10 5.37238E+07
 -1       386 3.39395E+11 2.21841E+06 1.28971E+11 4.03617E+08-1.26605E+10 5.21782E+07
 -1       387 3.50471E+11-4.20584E+07 1.33163E+11 3.87740E+08-1.30602E+10 5.05803E+07
 -1       388 3.61128E+11-4.12827E+07 1.37213E+11 3.73104E+08-1.34472E+10 4.89322E+07
 -1       389 3.71343E+11 6.02414E+06 1.41113E+11 3.56255E+08-1.38212E+10 4.72356E+07
 -1       390 3.81126E+11-9.81908E+07 1.44791E+11 3.40184E+08-1.41818E+10 4.54927E+07
 -1       391 3.90458E+11-2.19195E+06 1.48373E+11 3.27246E+08-1.45287E+10 4.37056E+07
 -1       392 3.99326E+11-1.73952E+07 1.51737E+11 3.06397E+08-1.48616E+10 4.18764E+07
 -1       393 4.07711E+11-6.89558E+07 1.54904E+11 2.89731E+08-1.51800E+10 4.00071E+07
 -1       394 4.15626E+11-1.89812E+07 1.57931E+11 2.74549E+08-1.54838E+10 3.81001E+07
 -1       395 4.23044E+11-7.73951E+07 1.60727E+11 2.54524E+08-1.57726E+10 3.61575E+07
 -1       396 4.29944E+11-1.45113E+07 1.63373E+11 2.39593E+08-1.60462E+10 3.41819E+07
 -1       397 4.36343E+11-1.08196E+07 1.65806E+11 2.17544E+08-1.63042E+10 3.21754E+07
 -1       398 4.42234E+11-7.52928E+07 1.68020E+11 2.00128E+08-1.65466E+10 3.01405E+07
 -1       399 4.47580E+11-4.10858E+07 1.70065E+11 1.80248E+08-1.67730E+10 2.80795E+07
 -1       400 4.52392E+11-1.94348E+07 1.71901E+11 1.62833E+08-1.69833E+10 2.59950E+07
 -1       401 4.56667E+11-1.16156E+08 1.73489E+11 1.41464E+08-1.71773E+10 2.38894E+07
 -1       402 4.60397E+11 1.19364E+07 1.74955E+11 1.28576E+08-1.73549E+10 2.17653E+07
 -1       403 4.63572E+11 1.21922E+07 1.76162E+11 9.88020E+07-1.75158E+10 1.96253E+07
 -1       404 4.66175E+11-1.16923E+08 1.77102E+11 8.12376E+07-1.76601E+10 1.74718E+07
 -1       405 4.68237E+11-1.22159E+07 1.77925E+11 6.39417E+07-1.77876E+10 1.53075E+07
 -1       406 4.69722E+11-9.10058E+07 1.78460E+11 4.12706E+07-1.78982E+10 1.31350E+07
 -1       407 4.70624E+11-1.36852E+07 1.78832E+11 2.43160E+07-1.79919E+10 1.09569E+07
 -1       408 4.70962E+11-1.28457E+07 1.78960E+11-3.54840E+05-1.80686E+10 8.77605E+06
 -1       409 4.70736E+11-8.79532E+07 1.78846E+11-1.94252E+07-1.81284E+10 6.59488E+06
 -1       410 4.69915E+11-2.45040E+07 1.78559E+11-4.08388E+07-1.81712E+10 4.41613E+06
 -1       411 4.68513E+11-8.25333E+07 1.78004E+11-6.04590E+07-1.81971E+10 2.24253E+06
 -1       412 4.66542E+11-1.75678E+07 1.77279E+11-7.90268E+07-1.82061E+10 7.67518E+04
 -1       413 4.63987E+11-1.77743E+07 1.76308E+11-1.04161E+08-1.81984E+10-2.07852E+06
 -1       414 4.60845E+11-7.80619E+07 1.75091E+11-1.23698E+08-1.81738E+10-4.22062E+06
 -1       415 4.57125E+11-5.32122E+07 1.73687E+11-1.44031E+08-1.81327E+10-6.34685E+06
 -1       416 4.52839E+11-6.22733E+07 1.72055E+11-1.60831E+08-1.80752E+10-8.45454E+06
 -1       417 4.47964E+11 1.38273E+07 1.70232E+11-1.85983E+08-1.80013E+10-1.05410E+07
 -1       418 4.42508E+11-5.37715E+07 1.68133E+11-2.06795E+08-1.79113E+10-1.26035E+07
 -1       419 4.36497E+11-6.97565E+07 1.65842E+11-2.26696E+08-1.78053E+10-1.46395E+07
 -1       420 4.29914E+11-3.58400E+07 1.63354E+11-2.45128E+08-1.76836E+10-1.66463E+07
 -1       421 4.22763E+11-4.16721E+07 1.60634E+11-2.66601E+08-1.75465E+10-1.86213E+07
 -1       422 4.15048E+11-6.87458E+07 1.57692E+11-2.86011E+08-1.73941E+10-2.05618E+07
 -1       423 4.06787E+11-2.34126E+07 1.54570E+11-3.03133E+08-1.72267E+10-2.24654E+07
 -1       424 3.97976E+11-1.42173E+07 1.51225E+11-3.27198E+08-1.70447E+10-2.43294E+07
 -1       425 3.88614E+11-7.95938E+07 1.47643E+11-3.44756E+08-1.68484E+10-2.61513E+07
 -1       426 3.78718E+11-1.90920E+07 1.43905E+11-3.63876E+08-1.66380E+10-2.79286E+07
 -1       427 3.68299E+11-7.44365E+07 1.39925E+11-3.81382E+08-1.64140E+10-2.96589E+07
 -1       428 3.57347E+11-1.61538E+07 1.35786E+11-4.00621E+08-1.61768E+10-3.13397E+07
 -1       429 3.45871E+11-3.47067E+07 1.31418E+11-4.19919E+08-1.59267E+10-3.29685E+07
 -1       430 3.33912E+11-5.58741E+07 1.26865E+11-4.35888E+08-1.56641E+10-3.45431E+07
 -1       431 3.21435E+11-5.05822E+05 1.22145E+11-4.56781E+08-1.53895E+10-3.60610E+07
 -1       432 3.08466E+11-8.91535E+07 1.17183E+11-4.72377E+08-1.51033E+10-3.75200E+07
 -1       433 2.95020E+11-1.15231E+07 1.12103E+11-4.88497E+08-1.48060E+10-3.89179E+07
 -1       434 2.81105E+11-1.85898E+07 1.06813E+11-5.06151E+08-1.44981E+10-4.02523E+07
 -1       435 2.66727E+11-6.21110E+07 1.01333E+11-5.23674E+08-1.41801E+10-4.15212E+07
 -1       436 2.51889E+11-1.96840E+07 9.57102E+10-5.37757E+08-1.38524E+10-4.27225E+07
 -1       437 2.36615E+11-5.50657E+07 8.98928E+10-5.54094E+08-1.35157E+10-4.38540E+07
 -1       438 2.20911E+11-1.69269E+07 8.39399E+10-5.67926E+08-1.31704E+10-4.49139E+07
 -1       439 2.04784E+11-2.12597E+07 7.78097E+10-5.84931E+08-1.28172E+10-4.58999E+07
 -1       440 1.88247E+11-4.58154E+07 7.15166E+10-5.98687E+08-1.24566E+10-4.68102E+07
 -1       441 1.71317E+11-2.74908E+07 6.50900E+10-6.11775E+08-1.20893E+10-4.76431E+07
 -1       442 1.54000E+11-2.58069E+07 5.85102E+10-6.26070E+08-1.17157E+10-4.83967E+07
 -1       443 1.36305E+11-4.41249E+07 5.17793E+10-6.38803E+08-1.13367E+10-4.90692E+07
 -1       444 1.18253E+11-1.45243E+07 4.49305E+10-6.50931E+08-1.09527E+10-4.96589E+07
 -1       445 9.98507E+10-1.29801E+07 3.79383E+10-6.64779E+08-1.05644E+10-5.01641E+07
 -1       446 8.11113E+10-4.28574E+07 3.08060E+10-6.76154E+08-1.01726E+10-5.05832E+07
 -1       447 6.20452E+10-1.82394E+07 2.35702E+10-6.86898E+08-9.77780E+09-5.09149E+07
 -1       448 4.26705E+10-2.66843E+07 1.62046E+10-6.97680E+08-9.38080E+09-5.11575E+07
 -1       449 2.29951E+10-2.06479E+07 8.73031E+09-7.08691E+08-8.98227E+09-5.13097E+07
 -1       450 3.03208E+09-2.07841E+07 1.14429E+09-7.18372E+08-8.58290E+09-5.13700E+07
 -1       451-1.72023E+10-2.10899E+07-6.54490E+09-7.27960E+08-8.18343E+09-5.13372E+07
 -1       452-3.76998E+10-2.09127E+07-1.43339E+10-7.36861E+08-7.78458E+09-5.12101E+07
 -1       453-5.84459E+10-1.18690E+07-2.22140E+10-7.45596E+08-7.38709E+09-5.09875E+07
 -1       454-7.94245E+10-2.08826E+07-3.01892E+10-7.54179E+08-6.99170E+09-5.06683E+07
 -1       455-1.00628E+11-2.72176E+07-3.82492E+10-7.61618E+08-6.59918E+09-5.02513E+07
 -1       456-1.22044E+11 5.89564E+06-4.63745E+10-7.68346E+08-6.21028E+09-4.97356E+07
 -1       457-1.43658E+11-3.01097E+07-5.46015E+10-7.76846E+08-5.82578E+09-4.91203E+07
 -1       458-1.65453E+11-7.94194E+06-6.28751E+10-7.81158E+08-5.44646E+09-4.84044E+07
 -1       459-1.87428E+11-1.11602E+07-7.12269E+10-7.89493E+08-5.07309E+09-4.75871E+07
 -1       460-2.09560E+11-2.77893E+07-7.96434E+10-7.92556E+08-4.70649E+09-4.66677E+07
 -1       461-2.31847E+11 4.72538E+06-8.81000E+10-7.98929E+08-4.34743E+09-4.56454E+07
 -1       462-2.54263E+11-1.19298E+07-9.66243E+10-8.02350E+08-3.99672E+09-4.45195E+07
 -1       463-2.76823E+11-1.75164E+07-1.05199E+11-8.09365E+08-3.65518E+09-4.32895E+07
 -1       464-2.99484E+11 2.14795E+07-1.13796E+11-8.09605E+08-3.32361E+09-4.19547E+07
 -1       465-3.22260E+11-2.96832E+07-1.22470E+11-8.19025E+08-3.00283E+09-4.05147E+07
 -1       466-3.45114E+11-2.83714E+07-1.31154E+11-8.15389E+08-2.69366E+09-3.89691E+07
 -1       467-3.68096E+11 2.21089E+07-1.39868E+11-8.24122E+08-2.39693E+09-3.73172E+07
 -1       468-3.91101E+11-1.44017E+07-1.48624E+11-8.19544E+08-2.11345E+09-3.55588E+07
 -1       469-4.14224E+11 1.19942E+07-1.57401E+11-8.31270E+08-1.84407E+09-3.36936E+07
 -1       470-4.37346E+11 1.61953E+07-1.66185E+11-8.23972E+08-1.58961E+09-3.17213E+07
 -1       471-4.60608E+11-7.23205E+07-1.75059E+11-8.39761E+08-1.35091E+09-2.96416E+07
 -1       472-4.83792E+11 2.54213E+07-1.83831E+11-8.17896E+08-1.12880E+09-2.74542E+07
 -1       473-5.07158E+11-1.25863E+07-1.92725E+11-8.45164E+08-9.24126E+08-2.51590E+07
 -1       474-5.30378E+11 5.67930E+07-2.01522E+11-8.16506E+08-7.37721E+08-2.27560E+07
 -1       475-5.53854E+11-2.98554E+07-2.10476E+11-8.58310E+08-5.70424E+08-2.02448E+07
 -1       476-5.77026E+11-1.34745E+08-2.19321E+11-8.05747E+08-4.23083E+08-1.76255E+07
 -1       477-6.00605E+11 4.91723E+08-2.28043E+11-8.63782E+08-2.96529E+08-1.48980E+07
 -1       478-6.23878E+11-1.76560E+09-2.37745E+11-8.21565E+08-1.91616E+08-1.20622E+07
 -1       479-6.46896E+11 6.58083E+09-2.43320E+11-7.60023E+08-1.09173E+08-9.11770E+06
 -1       480-6.72538E+11-2.42331E+10-2.64773E+11-1.27015E+09-5.00576E+07-6.06638E+06
 -1       481-6.86570E+11 8.88960E+10-2.27116E+11 9.50705E+08-1.51003E+07-2.90111E+06
 -1       482-6.87590E+11-3.26888E+11-3.85502E+11-7.20265E+09-3.74623E+06-1.28756E+06
 -1       483-7.15629E+07-3.79126E+07-4.16007E+07-1.14676E+05 2.36363E+10 6.73919E+07
 -1       484-2.53323E+08-3.69746E+07-1.10313E+08-4.31987E+07 2.32432E+10 6.73912E+07
 -1       485-8.10649E+08-3.64114E+07-3.21883E+08-8.48560E+07 2.24570E+10 6.73880E+07
 -1       486-1.72788E+09-3.42923E+07-6.69625E+08-1.25152E+08 2.16709E+10 6.73801E+07
 -1       487-2.98953E+09-3.42978E+07-1.14905E+09-1.63723E+08 2.08849E+10 6.73655E+07
 -1       488-4.58620E+09-2.96609E+07-1.75403E+09-2.01334E+08 2.00992E+10 6.73421E+07
 -1       489-6.50021E+09-3.49156E+07-2.48335E+09-2.37237E+08 1.93137E+10 6.73080E+07
 -1       490-8.72651E+09-2.59413E+07-3.32593E+09-2.71428E+08 1.85288E+10 6.72609E+07
 -1       491-1.12447E+10-3.07898E+07-4.28467E+09-3.04947E+08 1.77445E+10 6.71992E+07
 -1       492-1.40476E+10-2.65996E+07-5.34820E+09-3.35984E+08 1.69610E+10 6.71211E+07
 -1       493-1.71234E+10-2.23021E+07-6.51536E+09-3.66542E+08 1.61785E+10 6.70249E+07
 -1       494-2.04502E+10-3.11610E+07-7.78292E+09-3.96042E+08 1.53972E+10 6.69089E+07
 -1       495-2.40312E+10-2.05379E+07-9.13965E+09-4.21531E+08 1.46174E+10 6.67715E+07
 -1       496-2.78410E+10-1.67626E+07-1.05860E+10-4.49880E+08 1.38394E+10 6.66113E+07
 -1       497-3.18673E+10-2.73383E+07-1.21200E+10-4.72041E+08 1.30633E+10 6.64270E+07
 -1       498-3.61150E+10-2.28151E+07-1.37324E+10-4.95908E+08 1.22896E+10 6.62171E+07
 -1       499-4.05444E+10-4.91280E+06-1.54088E+10-5.19753E+08 1.15185E+10 6.59803E+07
 -1       500-4.51633E+10-3.60627E+07-1.71758E+10-5.36716E+08 1.07503E+10 6.57157E+07
 -1       501-4.99577E+10-6.48522E+05-1.89842E+10-5.58226E+08 9.98530E+09 6.54219E+07
 -1       502-5.49028E+10-2.37496E+07-2.08721E+10-5.73335E+08 9.22395E+09 6.50981E+07
 -1       503-6.00068E+10-9.80181E+06-2.28063E+10-5.90785E+08 8.46655E+09 6.47432E+07
 -1       504-6.52346E+10-1.96774E+06-2.47899E+10-6.06914E+08 7.71348E+09 6.43565E+07
 -1       505-7.05867E+10-3.46957E+07-2.68361E+10-6.18128E+08 6.96511E+09 6.39371E+07
 -1       506-7.60592E+10 1.20609E+07-2.88979E+10-6.30841E+08 6.22183E+09 6.34842E+07
 -1       507-8.16216E+10-2.08812E+07-3.10241E+10-6.41079E+08 5.48402E+09 6.29973E+07
 -1       508-8.72768E+10-2.82289E+06-3.31663E+10-6.51432E+08 4.75210E+09 6.24757E+07
 -1       509-9.30037E+10-6.64094E+06-3.53439E+10-6.59351E+08 4.02647E+09 6.19190E+07
 -1       510-9.87943E+10-1.32619E+07-3.75469E+10-6.64980E+08 3.30754E+09 6.13268E+07
 -1       511-1.04646E+11 2.38706E+06-3.97646E+10-6.69713E+08 2.59573E+09 6.06985E+07
 -1       512-1.10534E+11 4.44060E+06-4.20011E+10-6.76279E+08 1.89147E+09 6.00340E+07
 -1       513-1.16445E+11-9.63832E+06-4.42526E+10-6.78446E+08 1.19516E+09 5.93331E+07
 -1       514-1.22385E+11-9.68344E+06-4.65098E+10-6.78670E+08 5.07245E+08 5.85956E+07
 -1       515-1.28330E+11 1.98326E+07-4.87580E+10-6.79581E+08-1.71855E+08 5.78214E+07
 -1       516-1.34272E+11-1.19718E+07-5.10280E+10-6.77991E+08-8.41706E+08 5.70105E+07
 -1       517-1.40199E+11 7.01361E+06-5.32731E+10-6.77390E+08-1.50188E+09 5.61629E+07
 -1       518-1.46105E+11 2.04127E+05-5.55196E+10-6.72406E+08-2.15196E+09 5.52788E+07
 -1       519-1.51978E+11 7.91592E+06-5.77487E+10-6.69598E+08-2.79151E+09 5.43583E+07
 -1       520-1.57796E+11 5.03502E+06-5.99606E+10-6.63995E+08-3.42011E+09 5.34017E+07
 -1       521-1.63572E+11-5.06759E+06-6.21593E+10-6.53405E+08-4.03734E+09 5.24093E+07
 -1       522-1.69283E+11 1.79650E+07-6.43208E+10-6.50265E+08-4.64279E+09 5.13814E+07
 -1       523-1.74911E+11 1.80620E+07-6.64593E+10-6.39312E+08-5.23604E+09 5.03185E+07
 -1       524-1.80459E+11 1.61943E+05-6.85743E+10-6.30189E+08-5.81669E+09 4.92211E+07
 -1       525-1.85916E+11-5.27165E+06-7.06502E+10-6.17083E+08-6.38434E+09 4.80897E+07
 -1       526-1.91274E+11 4.03458E+07-7.26686E+10-6.05844E+08-6.93860E+09 4.69249E+07
 -1       527-1.96517E+11-3.99411E+06-7.46780E+10-5.91710E+08-7.47907E+09 4.57274E+07
 -1       528-2.01641E+11 4.17678E+06-7.66218E+10-5.79877E+08-8.00539E+09 4.44979E+07
 -1       529-2.06637E+11 2.20471E+07-7.85136E+10-5.63502E+08-8.51718E+09 4.32371E+07
 -1       530-2.11504E+11 2.72558E+07-8.03613E+10-5.47594E+08-9.01408E+09 4.19458E+07
 -1       531-2.16209E+11 1.59191E+07-8.21533E+10-5.31900E+08-9.49575E+09 4.06251E+07
 -1       532-2.20783E+11-1.44814E+07-8.39032E+10-5.07971E+08-9.96184E+09 3.92756E+07
 -1       533-2.25199E+11 4.31573E+07-8.55592E+10-4.98357E+08-1.04120E+10 3.78984E+07
 -1       534-2.29423E+11 8.27768E+06-8.71778E+10-4.76241E+08-1.08460E+10 3.64945E+07
 -1       535-2.33497E+11 7.32214E+06-8.87262E+10-4.53593E+08-1.12634E+10 3.50650E+07
 -1       536-2.37387E+11 2.92216E+07-9.01958E+10-4.33745E+08-1.16640E+10 3.36108E+07
 -1       537-2.41094E+11 3.36058E+07-9.16031E+10-4.09576E+08-1.20475E+10 3.21332E+07
 -1       538-2.44601E+11 8.32405E+06-9.29451E+10-3.94265E+08-1.24137E+10 3.06334E+07
 -1       539-2.47904E+11 3.51436E+06-9.42023E+10-3.65579E+08-1.27622E+10 2.91125E+07
 -1       540-2.51023E+11 3.56205E+07-9.53754E+10-3.43497E+08-1.30929E+10 2.75718E+07
 -1       541-2.53925E+11 3.79708E+07-9.64772E+10-3.19098E+08-1.34054E+10 2.60125E+07
 -1       542-2.56597E+11 6.06485E+06-9.75046E+10-2.96084E+08-1.36997E+10 2.44360E+07
 -1       543-2.59074E+11 1.64393E+06-9.84477E+10-2.64977E+08-1.39755E+10 2.28436E+07
 -1       544-2.61328E+11 6.20734E+07-9.92810E+10-2.46547E+08-1.42327E+10 2.12365E+07
 -1       545-2.63327E+11 1.69788E+07-1.00058E+11-2.18832E+08-1.44710E+10 1.96164E+07
 -1       546-2.65121E+11-2.49236E+06-1.00747E+11-1.87990E+08-1.46903E+10 1.79845E+07
 -1       547-2.66673E+11 2.03152E+07-1.01328E+11-1.65288E+08-1.48905E+10 1.63423E+07
 -1       548-2.67996E+11 6.04094E+07-1.01815E+11-1.33374E+08-1.50716E+10 1.46912E+07
 -1       549-2.69064E+11 7.42155E+06-1.02241E+11-1.13773E+08-1.52333E+10 1.30327E+07
 -1       550-2.69886E+11-2.13667E+06-1.02558E+11-7.92152E+07-1.53756E+10 1.13684E+07
 -1       551-2.70492E+11 7.37850E+07-1.02759E+11-5.28995E+07-1.54985E+10 9.69969E+06
 -1       552-2.70811E+11-2.90766E+06-1.02909E+11-2.60510E+07-1.56019E+10 8.02812E+06
 -1       553-2.70910E+11 1.25497E+07-1.02941E+11 8.76215E+06-1.56858E+10 6.35526E+06
 -1       554-2.70758E+11 4.29436E+07-1.02872E+11 2.95690E+07-1.57502E+10 4.68256E+06
 -1       555-2.70337E+11 3.73517E+07-1.02714E+11 6.15211E+07-1.57951E+10 3.01164E+06
 -1       556-2.69675E+11 1.18530E+07-1.02472E+11 8.87328E+07-1.58205E+10 1.34406E+06
 -1       557-2.68753E+11 9.65827E+06-1.02123E+11 1.20738E+08-1.58265E+10-3.18632E+05
 -1       558-2.67598E+11 3.60030E+07-1.01673E+11 1.51112E+08-1.58131E+10-1.97490E+06
 -1       559-2.66180E+11 6.13730E+07-1.01125E+11 1.73848E+08-1.57804E+10-3.62322E+06
 -1       560-2.64491E+11-5.94288E+06-1.00509E+11 2.05547E+08-1.57286E+10-5.26196E+06
 -1       561-2.62576E+11-1.20809E+07-9.97833E+10 2.33927E+08-1.56577E+10-6.88958E+06
 -1       562-2.60413E+11 8.77542E+07-9.89234E+10 2.62947E+08-1.55679E+10-8.50458E+06
 -1       563-2.57975E+11-6.65492E+06-9.80331E+10 2.89393E+08-1.54593E+10-1.01054E+07
 -1       564-2.55317E+11 1.67346E+07-9.70141E+10 3.23401E+08-1.53322E+10-1.16905E+07
 -1       565-2.52410E+11 3.82726E+07-9.59012E+10 3.43921E+08-1.51867E+10-1.32583E+07
 -1       566-2.49249E+11 3.46785E+07-9.47014E+10 3.74430E+08-1.50229E+10-1.48075E+07
 -1       567-2.45855E+11 1.61665E+07-9.34186E+10 4.00220E+08-1.48412E+10-1.63364E+07
 -1       568-2.42218E+11-3.14929E+06-9.20440E+10 4.29893E+08-1.46419E+10-1.78436E+07
 -1       569-2.38371E+11 6.52169E+07-9.05561E+10 4.57796E+08-1.44250E+10-1.93276E+07
 -1       570-2.34267E+11 3.61020E+06-8.90202E+10 4.76903E+08-1.41910E+10-2.07871E+07
 -1       571-2.29938E+11 6.25185E+06-8.73740E+10 5.08160E+08-1.39401E+10-2.22206E+07
 -1       572-2.25410E+11 3.72173E+07-8.56415E+10 5.31826E+08-1.36727E+10-2.36267E+07
 -1       573-2.20639E+11 4.46138E+07-8.38259E+10 5.56851E+08-1.33890E+10-2.50042E+07
 -1       574-2.15669E+11-2.68834E+06-8.19552E+10 5.83103E+08-1.30894E+10-2.63515E+07
 -1       575-2.10485E+11-2.21457E+06-7.99850E+10 6.01710E+08-1.27743E+10-2.76675E+07
 -1       576-2.05095E+11 4.55167E+07-7.79187E+10 6.27556E+08-1.24440E+10-2.89508E+07
 -1       577-1.99516E+11 2.84631E+07-7.58053E+10 6.49627E+08-1.20989E+10-3.02002E+07
 -1       578-1.93726E+11 6.77773E+06-7.36134E+10 6.70288E+08-1.17395E+10-3.14146E+07
 -1       579-1.87766E+11 3.48934E+06-7.13499E+10 6.95738E+08-1.13661E+10-3.25926E+07
 -1       580-1.81628E+11 4.88972E+07-6.89999E+10 7.10745E+08-1.09792E+10-3.37333E+07
 -1       581-1.75291E+11-1.74985E+06-6.66113E+10 7.31476E+08-1.05792E+10-3.48355E+07
 -1       582-1.68804E+11 9.11474E+06-6.41422E+10 7.52458E+08-1.01665E+10-3.58981E+07
 -1       583-1.62157E+11 2.66015E+07-6.16094E+10 7.69497E+08-9.74175E+09-3.69201E+07
 -1       584-1.55342E+11 2.05459E+07-5.90221E+10 7.86943E+08-9.30528E+09-3.79005E+07
 -1       585-1.48388E+11 8.24116E+06-5.63844E+10 8.04355E+08-8.85762E+09-3.88385E+07
 -1       586-1.41289E+11 2.68999E+06-5.36887E+10 8.18316E+08-8.39927E+09-3.97330E+07
 -1       587-1.34055E+11 2.89894E+07-5.09300E+10 8.34229E+08-7.93074E+09-4.05832E+07
 -1       588-1.26700E+11 1.27179E+07-4.81413E+10 8.48806E+08-7.45255E+09-4.13885E+07
 -1       589-1.19217E+11-3.18327E+06-4.53035E+10 8.59932E+08-6.96524E+09-4.21479E+07
 -1       590-1.11631E+11 9.52347E+06-4.24160E+10 8.75497E+08-6.46934E+09-4.28607E+07
 -1       591-1.03944E+11 2.58785E+07-3.94888E+10 8.83625E+08-5.96540E+09-4.35264E+07
 -1       592-9.61487E+10-1.07978E+06-3.65369E+10 8.94720E+08-5.45397E+09-4.41443E+07
 -1       593-8.82773E+10 4.18421E+06-3.35438E+10 9.05209E+08-4.93561E+09-4.47138E+07
 -1       594-8.03252E+10 1.22742E+07-3.05189E+10 9.13273E+08-4.41089E+09-4.52344E+07
 -1       595-7.23030E+10 9.02291E+06-2.74717E+10 9.21562E+08-3.88039E+09-4.57057E+07
 -1       596-6.42171E+10 3.12152E+06-2.44013E+10 9.26244E+08-3.34468E+09-4.61273E+07
 -1       597-5.60761E+10-1.44837E+06-2.13095E+10 9.33358E+08-2.80434E+09-4.64987E+07
 -1       598-4.78970E+10 1.25622E+07-1.81961E+10 9.37524E+08-2.25996E+09-4.68198E+07
 -1       599-3.96745E+10-1.77338E+06-1.50770E+10 9.41003E+08-1.71213E+09-4.70902E+07
 -1       600-3.14291E+10 1.38709E+05-1.19430E+10 9.44368E+08-1.16145E+09-4.73098E+07
 -1       601-2.31653E+10 4.88932E+06-8.80097E+09 9.45134E+08-6.08498E+08-4.74783E+07
 -1       602-1.48886E+10-1.83476E+06-5.65837E+09 9.46148E+08-5.38774E+07-4.75958E+07
 -1       603-6.61411E+09-7.88676E+05-2.51366E+09 9.45601E+08 5.01818E+08-4.76622E+07
 -1       604 1.65424E+09-1.79785E+06 6.27929E+08 9.44188E+08 1.05799E+09-4.76775E+07
 -1       605 9.90401E+09-1.34718E+06 3.76301E+09 9.41682E+08 1.61404E+09-4.76418E+07
 -1       606 1.81308E+10-6.12176E+06 6.88736E+09 9.38045E+08 2.16938E+09-4.75552E+07
 -1       607 2.63198E+10-3.08324E+06 1.00004E+10 9.34325E+08 2.72340E+09-4.74179E+07
 -1       608 3.44660E+10-1.32284E+06 1.30966E+10 9.28127E+08 3.27554E+09-4.72302E+07
 -1       609 4.25637E+10-1.40718E+07 1.61689E+10 9.21794E+08 3.82519E+09-4.69923E+07
 -1       610 5.05934E+10-1.70047E+06 1.92248E+10 9.14681E+08 4.37178E+09-4.67046E+07
 -1       611 5.85602E+10-5.63942E+06 2.22507E+10 9.04925E+08 4.91472E+09-4.63676E+07
 -1       612 6.64458E+10-1.15247E+07 2.52450E+10 8.97203E+08 5.45344E+09-4.59815E+07
 -1       613 7.42442E+10-1.32616E+07 2.82078E+10 8.85950E+08 5.98737E+09-4.55470E+07
 -1       614 8.19456E+10-1.31371E+07 3.11343E+10 8.75011E+08 6.51596E+09-4.50647E+07
 -1       615 8.95437E+10 2.91186E+06 3.40277E+10 8.61322E+08 7.03865E+09-4.45351E+07
 -1       616 9.70366E+10-2.30651E+07 3.68651E+10 8.48424E+08 7.55488E+09-4.39589E+07
 -1       617 1.04399E+11-1.14169E+07 3.96674E+10 8.36497E+08 8.06413E+09-4.33369E+07
 -1       618 1.11633E+11-5.19883E+06 4.24187E+10 8.18842E+08 8.56585E+09-4.26697E+07
 -1       619 1.18740E+11-2.06463E+07 4.51133E+10 8.03402E+08 9.05953E+09-4.19583E+07
 -1       620 1.25697E+11-2.53991E+07 4.77552E+10 7.86380E+08 9.54466E+09-4.12034E+07
 -1       621 1.32494E+11-5.20173E+06 5.03459E+10 7.69349E+08 1.00207E+10-4.04061E+07
 -1       622 1.39145E+11-1.09595E+07 5.28709E+10 7.47559E+08 1.04873E+10-3.95673E+07
 -1       623 1.45623E+11-2.51530E+07 5.53273E+10 7.32062E+08 1.09438E+10-3.86879E+07
 -1       624 1.51924E+11-2.57221E+07 5.77212E+10 7.09871E+08 1.13898E+10-3.77690E+07
 -1       625 1.58043E+11-1.38601E+07 6.00512E+10 6.89776E+08 1.18249E+10-3.68118E+07
 -1       626 1.63972E+11-2.78359E+06 6.23083E+10 6.65840E+08 1.22485E+10-3.58174E+07
 -1       627 1.69721E+11-4.56703E+07 6.44766E+10 6.42277E+08 1.26604E+10-3.47869E+07
 -1       628 1.75248E+11-1.99909E+07 6.65868E+10 6.23578E+08 1.30601E+10-3.37217E+07
 -1       629 1.80571E+11-6.98015E+04 6.86169E+10 5.94596E+08 1.34471E+10-3.26229E+07
 -1       630 1.85692E+11-2.37292E+07 7.05539E+10 5.72901E+08 1.38211E+10-3.14918E+07
 -1       631 1.90578E+11-4.38811E+07 7.24030E+10 5.45690E+08 1.41817E+10-3.03298E+07
 -1       632 1.95246E+11-1.31615E+07 7.41886E+10 5.19012E+08 1.45287E+10-2.91384E+07
 -1       633 1.99678E+11-6.44108E+06 7.58754E+10 4.94453E+08 1.48615E+10-2.79188E+07
 -1       634 2.03878E+11-5.53196E+07 7.74527E+10 4.65388E+08 1.51800E+10-2.66726E+07
 -1       635 2.07830E+11-1.02796E+07 7.89715E+10 4.39084E+08 1.54837E+10-2.54012E+07
 -1       636 2.11531E+11-1.03753E+07 8.03780E+10 4.08058E+08 1.57725E+10-2.41062E+07
 -1       637 2.15000E+11-3.94628E+07 8.16849E+10 3.77699E+08 1.60461E+10-2.27891E+07
 -1       638 2.18201E+11-4.11596E+07 8.29005E+10 3.53303E+08 1.63042E+10-2.14513E+07
 -1       639 2.21127E+11-9.13656E+06 8.40249E+10 3.22079E+08 1.65465E+10-2.00947E+07
 -1       640 2.23810E+11-1.79749E+07 8.50408E+10 2.89056E+08 1.67730E+10-1.87207E+07
 -1       641 2.26223E+11-3.63487E+07 8.59509E+10 2.59662E+08 1.69833E+10-1.73309E+07
 -1       642 2.28355E+11-5.41938E+07 8.67543E+10 2.28161E+08 1.71773E+10-1.59271E+07
 -1       643 2.30222E+11-4.25794E+06 8.74826E+10 1.94565E+08 1.73549E+10-1.45110E+07
 -1       644 2.31808E+11 3.89719E+06 8.80883E+10 1.68242E+08 1.75158E+10-1.30843E+07
 -1       645 2.33117E+11-8.05655E+07 8.85540E+10 1.32637E+08 1.76601E+10-1.16485E+07
 -1       646 2.34140E+11-5.24481E+06 8.89711E+10 1.02324E+08 1.77876E+10-1.02056E+07
 -1       647 2.34876E+11-1.66656E+07 8.92465E+10 6.67968E+07 1.78982E+10-8.75728E+06
 -1       648 2.35345E+11-4.18892E+07 8.94153E+10 3.28146E+07 1.79919E+10-7.30522E+06
 -1       649 2.35516E+11-4.43391E+07 8.94790E+10 5.42620E+06 1.80687E+10-5.85118E+06
 -1       650 2.35383E+11-1.42915E+07 8.94400E+10-2.90716E+07 1.81284E+10-4.39702E+06
 -1       651 2.34982E+11-1.06130E+07 8.92891E+10-6.46681E+07 1.81713E+10-2.94452E+06
 -1       652 2.34287E+11-6.53407E+07 8.90042E+10-9.69719E+07 1.81972E+10-1.49539E+06
 -1       653 2.33298E+11-9.81324E+06 8.86495E+10-1.30946E+08 1.82062E+10-5.14653E+04
 -1       654 2.32018E+11-1.95484E+07 8.81593E+10-1.61400E+08 1.81984E+10 1.38544E+06
 -1       655 2.30450E+11-3.49565E+07 8.75577E+10-1.96435E+08 1.81739E+10 2.81356E+06
 -1       656 2.28595E+11-6.11604E+07 8.68429E+10-2.29362E+08 1.81328E+10 4.23111E+06
 -1       657 2.26438E+11-9.86546E+05 8.60462E+10-2.62324E+08 1.80752E+10 5.63629E+06
 -1       658 2.24008E+11-2.70314E+06 8.51221E+10-2.97352E+08 1.80014E+10 7.02728E+06
 -1       659 2.21290E+11-6.09476E+07 8.40670E+10-3.25515E+08 1.79113E+10 8.40237E+06
 -1       660 2.18275E+11-3.32502E+07 8.29317E+10-3.60670E+08 1.78054E+10 9.75976E+06
 -1       661 2.14981E+11-1.93071E+07 8.16854E+10-3.91491E+08 1.76837E+10 1.10977E+07
 -1       662 2.11406E+11-1.06873E+07 8.03304E+10-4.26068E+08 1.75465E+10 1.24144E+07
 -1       663 2.07555E+11-5.93296E+07 7.88482E+10-4.57047E+08 1.73942E+10 1.37081E+07
 -1       664 2.03422E+11-1.09729E+07 7.72961E+10-4.89376E+08 1.72268E+10 1.49772E+07
 -1       665 1.99013E+11-1.81734E+07 7.56180E+10-5.18301E+08 1.70448E+10 1.62200E+07
 -1       666 1.94334E+11-3.66927E+07 7.38330E+10-5.50704E+08 1.68485E+10 1.74346E+07
 -1       667 1.89390E+11-3.80737E+07 7.19539E+10-5.80981E+08 1.66382E+10 1.86196E+07
 -1       668 1.84168E+11-1.57692E+07 6.99780E+10-6.10162E+08 1.64142E+10 1.97731E+07
 -1       669 1.78699E+11-8.76063E+06 6.79022E+10-6.43792E+08 1.61769E+10 2.08937E+07
 -1       670 1.72973E+11-6.66523E+07 6.57044E+10-6.68329E+08 1.59268E+10 2.19796E+07
 -1       671 1.66973E+11 2.43210E+06 6.34508E+10-6.98867E+08 1.56643E+10 2.30294E+07
 -1       672 1.60741E+11-1.03648E+07 6.10778E+10-7.27139E+08 1.53897E+10 2.40414E+07
 -1       673 1.54259E+11-4.32743E+07 5.86018E+10-7.55255E+08 1.51035E+10 2.50141E+07
 -1       674 1.47539E+11-2.86895E+07 5.60540E+10-7.83967E+08 1.48062E+10 2.59460E+07
 -1       675 1.40577E+11-1.75550E+07 5.34126E+10-8.06450E+08 1.44983E+10 2.68357E+07
 -1       676 1.33382E+11-1.22607E+07 5.06804E+10-8.36000E+08 1.41802E+10 2.76817E+07
 -1       677 1.25971E+11-3.27032E+07 4.78567E+10-8.60635E+08 1.38526E+10 2.84826E+07
 -1       678 1.18331E+11-2.55897E+07 4.49559E+10-8.85727E+08 1.35158E+10 2.92370E+07
 -1       679 1.10477E+11-1.59195E+07 4.19752E+10-9.10535E+08 1.31706E+10 2.99435E+07
 -1       680 1.02414E+11-1.26002E+07 3.89127E+10-9.32959E+08 1.28174E+10 3.06009E+07
 -1       681 9.41460E+10-3.42553E+07 3.57625E+10-9.56798E+08 1.24568E+10 3.12079E+07
 -1       682 8.56785E+10-1.24222E+07 3.25531E+10-9.78505E+08 1.20895E+10 3.17632E+07
 -1       683 7.70181E+10-1.33910E+07 2.92618E+10-1.00116E+09 1.17159E+10 3.22656E+07
 -1       684 6.81729E+10-2.72675E+07 2.58954E+10-1.02185E+09 1.13368E+10 3.27139E+07
 -1       685 5.91463E+10-1.62476E+07 2.24694E+10-1.04303E+09 1.09529E+10 3.31070E+07
 -1       686 4.99436E+10-1.19441E+07 1.89740E+10-1.06056E+09 1.05646E+10 3.34439E+07
 -1       687 4.05711E+10-1.60258E+07 1.54109E+10-1.08090E+09 1.01728E+10 3.37234E+07
 -1       688 3.10410E+10-2.04471E+07 1.17878E+10-1.09867E+09 9.77799E+09 3.39444E+07
 -1       689 2.13504E+10-1.27206E+07 8.10832E+09-1.11610E+09 9.38099E+09 3.41062E+07
 -1       690 1.15121E+10-1.34964E+07 4.36946E+09-1.13315E+09 8.98245E+09 3.42077E+07
 -1       691 1.53128E+09-1.56619E+07 5.75936E+08-1.14889E+09 8.58309E+09 3.42479E+07
 -1       692-8.58856E+09-1.07964E+07-3.26776E+09-1.16414E+09 8.18362E+09 3.42261E+07
 -1       693-1.88374E+10-1.36641E+07-7.16339E+09-1.17888E+09 7.78476E+09 3.41414E+07
 -1       694-2.92096E+10-1.35670E+07-1.11048E+10-1.19239E+09 7.38727E+09 3.39930E+07
 -1       695-3.97032E+10-1.02162E+07-1.50911E+10-1.20519E+09 6.99188E+09 3.37801E+07
 -1       696-5.03061E+10-7.05334E+06-1.91190E+10-1.21862E+09 6.59936E+09 3.35021E+07
 -1       697-6.10115E+10-7.93968E+06-2.31874E+10-1.22997E+09 6.21046E+09 3.31584E+07
 -1       698-7.18195E+10-2.02520E+07-2.72991E+10-1.24006E+09 5.82595E+09 3.27482E+07
 -1       699-8.27219E+10 2.07232E+05-3.14342E+10-1.25139E+09 5.44663E+09 3.22709E+07
 -1       700-9.37064E+10-1.07282E+07-3.56125E+10-1.25999E+09 5.07326E+09 3.17260E+07
 -1       701-1.04777E+11-1.22287E+07-3.98198E+10-1.27015E+09 4.70665E+09 3.11131E+07
 -1       702-1.15916E+11-4.72108E+06-4.40499E+10-1.27749E+09 4.34759E+09 3.04315E+07
 -1       703-1.27135E+11 5.84280E+06-4.83091E+10-1.28516E+09 3.99688E+09 2.96809E+07
 -1       704-1.38403E+11-1.73567E+07-5.25998E+10-1.29310E+09 3.65533E+09 2.88609E+07
 -1       705-1.49741E+11-1.01160E+07-5.69053E+10-1.29758E+09 3.32375E+09 2.79711E+07
 -1       706-1.61128E+11-2.31914E+06-6.12296E+10-1.30248E+09 3.00296E+09 2.70110E+07
 -1       707-1.72576E+11 1.53009E+07-6.55730E+10-1.31148E+09 2.69379E+09 2.59805E+07
 -1       708-1.84029E+11-2.47549E+07-6.99403E+10-1.31517E+09 2.39704E+09 2.48793E+07
 -1       709-1.95570E+11-5.58073E+06-7.43188E+10-1.31704E+09 2.11356E+09 2.37070E+07
 -1       710-2.07098E+11 9.49030E+06-7.86936E+10-1.32163E+09 1.84417E+09 2.24635E+07
 -1       711-2.18708E+11 1.46270E+07-8.31037E+10-1.32344E+09 1.58970E+09 2.11486E+07
 -1       712-2.30272E+11-4.89707E+07-8.75219E+10-1.32847E+09 1.35099E+09 1.97621E+07
 -1       713-2.41952E+11 2.46363E+07-9.19324E+10-1.33084E+09 1.12888E+09 1.83038E+07
 -1       714-2.53532E+11-5.33126E+06-9.63442E+10-1.33178E+09 9.24187E+08 1.67736E+07
 -1       715-2.65271E+11 2.69146E+07-1.00793E+11-1.33413E+09 7.37770E+08 1.51715E+07
 -1       716-2.76831E+11-7.05767E+07-1.05223E+11-1.33018E+09 5.70462E+08 1.34975E+07
 -1       717-2.88676E+11 4.71614E+07-1.09679E+11-1.33915E+09 4.23107E+08 1.17511E+07
 -1       718-3.00155E+11 1.94945E+08-1.13985E+11-1.33325E+09 2.96543E+08 9.93273E+06
 -1       719-3.12059E+11-1.10887E+09-1.19004E+11-1.35231E+09 1.91614E+08 8.04219E+06
 -1       720-3.23625E+11 4.35159E+09-1.21324E+11-1.26915E+09 1.09160E+08 6.07911E+06
 -1       721-3.35037E+11-1.61611E+10-1.33455E+11-1.58484E+09 5.00267E+07 4.04496E+06
 -1       722-3.48692E+11 5.93195E+10-1.09961E+11-4.18046E+08 1.50575E+07 1.93425E+06
 -1       723-3.55675E+11-2.17876E+11-2.17949E+11-4.72194E+09 3.71503E+06 8.58030E+05
 -1       724-7.15625E+07-3.79124E+07-4.16005E+07-1.15014E+05-2.36363E+10-6.73919E+07
 -1       725-2.53322E+08-3.69747E+07-1.10313E+08-4.31990E+07-2.32432E+10-6.73911E+07
 -1       726-8.10648E+08-3.64115E+07-3.21883E+08-8.48561E+07-2.24570E+10-6.73879E+07
 -1       727-1.72788E+09-3.42924E+07-6.69625E+08-1.25152E+08-2.16709E+10-6.73801E+07
 -1       728-2.98953E+09-3.42978E+07-1.14905E+09-1.63723E+08-2.08849E+10-6.73655E+07
 -1       729-4.58620E+09-2.96609E+07-1.75403E+09-2.01333E+08-2.00992E+10-6.73421E+07
 -1       730-6.50021E+09-3.49155E+07-2.48335E+09-2.37237E+08-1.93137E+10-6.73079E+07
 -1       731-8.72652E+09-2.59414E+07-3.32593E+09-2.71428E+08-1.85288E+10-6.72608E+07
 -1       732-1.12447E+10-3.07897E+07-4.28467E+09-3.04947E+08-1.77445E+10-6.71992E+07
 -1       733-1.40476E+10-2.65996E+07-5.34820E+09-3.35984E+08-1.69609E+10-6.71211E+07
 -1       734-1.71234E+10-2.23021E+07-6.51536E+09-3.66542E+08-1.61785E+10-6.70248E+07
 -1       735-2.04502E+10-3.11610E+07-7.78292E+09-3.96043E+08-1.53972E+10-6.69089E+07
 -1       736-2.40312E+10-2.05379E+07-9.13965E+09-4.21531E+08-1.46174E+10-6.67715E+07
 -1       737-2.78410E+10-1.67625E+07-1.05860E+10-4.49881E+08-1.38394E+10-6.66113E+07
 -1       738-3.18673E+10-2.73383E+07-1.21200E+10-4.72042E+08-1.30633E+10-6.64270E+07
 -1       739-3.61150E+10-2.28152E+07-1.37324E+10-4.95908E+08-1.22896E+10-6.62170E+07
 -1       740-4.05444E+10-4.91295E+06-1.54088E+10-5.19753E+08-1.15185E+10-6.59802E+07
 -1       741-4.51633E+10-3.60626E+07-1.71758E+10-5.36716E+08-1.07503E+10-6.57156E+07
 -1       742-4.99577E+10-6.48501E+05-1.89842E+10-5.58225E+08-9.98530E+09-6.54218E+07
 -1       743-5.49028E+10-2.37496E+07-2.08721E+10-5.73335E+08-9.22395E+09-6.50980E+07
 -1       744-6.00068E+10-9.80181E+06-2.28063E+10-5.90785E+08-8.46655E+09-6.47432E+07
 -1       745-6.52346E+10-1.96768E+06-2.47899E+10-6.06914E+08-7.71348E+09-6.43564E+07
 -1       746-7.05867E+10-3.46958E+07-2.68361E+10-6.18128E+08-6.96511E+09-6.39371E+07
 -1       747-7.60592E+10 1.20608E+07-2.88979E+10-6.30841E+08-6.22183E+09-6.34842E+07
 -1       748-8.16216E+10-2.08812E+07-3.10241E+10-6.41079E+08-5.48402E+09-6.29973E+07
 -1       749-8.72768E+10-2.82286E+06-3.31663E+10-6.51432E+08-4.75210E+09-6.24757E+07
 -1       750-9.30037E+10-6.64092E+06-3.53439E+10-6.59351E+08-4.02647E+09-6.19190E+07
 -1       751-9.87943E+10-1.32619E+07-3.75469E+10-6.64980E+08-3.30755E+09-6.13267E+07
 -1       752-1.04646E+11 2.38706E+06-3.97646E+10-6.69713E+08-2.59574E+09-6.06985E+07
 -1       753-1.10534E+11 4.44061E+06-4.20011E+10-6.76280E+08-1.89147E+09-6.00340E+07
 -1       754-1.16445E+11-9.63829E+06-4.42526E+10-6.78446E+08-1.19516E+09-5.93331E+07
 -1       755-1.22385E+11-9.68340E+06-4.65098E+10-6.78671E+08-5.07248E+08-5.85956E+07
 -1       756-1.28330E+11 1.98326E+07-4.87580E+10-6.79581E+08 1.71851E+08-5.78213E+07
 -1       757-1.34272E+11-1.19719E+07-5.10280E+10-6.77991E+08 8.41702E+08-5.70104E+07
 -1       758-1.40199E+11 7.01362E+06-5.32731E+10-6.77390E+08 1.50188E+09-5.61628E+07
 -1       759-1.46105E+11 2.04119E+05-5.55196E+10-6.72406E+08 2.15195E+09-5.52787E+07
 -1       760-1.51978E+11 7.91594E+06-5.77487E+10-6.69598E+08 2.79151E+09-5.43582E+07
 -1       761-1.57796E+11 5.03496E+06-5.99606E+10-6.63995E+08 3.42011E+09-5.34016E+07
 -1       762-1.63572E+11-5.06761E+06-6.21593E+10-6.53405E+08 4.03734E+09-5.24092E+07
 -1       763-1.69283E+11 1.79650E+07-6.43208E+10-6.50265E+08 4.64278E+09-5.13813E+07
 -1       764-1.74911E+11 1.80620E+07-6.64593E+10-6.39312E+08 5.23603E+09-5.03184E+07
 -1       765-1.80459E+11 1.61928E+05-6.85743E+10-6.30189E+08 5.81669E+09-4.92211E+07
 -1       766-1.85916E+11-5.27166E+06-7.06502E+10-6.17083E+08 6.38433E+09-4.80897E+07
 -1       767-1.91274E+11 4.03458E+07-7.26686E+10-6.05843E+08 6.93859E+09-4.69249E+07
 -1       768-1.96517E+11-3.99412E+06-7.46780E+10-5.91710E+08 7.47906E+09-4.57274E+07
 -1       769-2.01641E+11 4.17674E+06-7.66218E+10-5.79877E+08 8.00538E+09-4.44978E+07
 -1       770-2.06637E+11 2.20471E+07-7.85136E+10-5.63502E+08 8.51717E+09-4.32370E+07
 -1       771-2.11504E+11 2.72558E+07-8.03613E+10-5.47594E+08 9.01407E+09-4.19458E+07
 -1       772-2.16209E+11 1.59192E+07-8.21533E+10-5.31900E+08 9.49574E+09-4.06250E+07
 -1       773-2.20783E+11-1.44815E+07-8.39032E+10-5.07971E+08 9.96183E+09-3.92756E+07
 -1       774-2.25199E+11 4.31572E+07-8.55592E+10-4.98357E+08 1.04120E+10-3.78983E+07
 -1       775-2.29423E+11 8.27771E+06-8.71778E+10-4.76241E+08 1.08460E+10-3.64945E+07
 -1       776-2.33497E+11 7.32211E+06-8.87262E+10-4.53593E+08 1.12634E+10-3.50649E+07
 -1       777-2.37387E+11 2.92216E+07-9.01958E+10-4.33745E+08 1.16640E+10-3.36108E+07
 -1       778-2.41094E+11 3.36057E+07-9.16031E+10-4.09576E+08 1.20475E+10-3.21332E+07
 -1       779-2.44601E+11 8.32399E+06-9.29451E+10-3.94264E+08 1.24137E+10-3.06334E+07
 -1       780-2.47904E+11 3.51439E+06-9.42023E+10-3.65579E+08 1.27622E+10-2.91125E+07
 -1       781-2.51023E+11 3.56206E+07-9.53754E+10-3.43497E+08 1.30928E+10-2.75718E+07
 -1       782-2.53925E+11 3.79707E+07-9.64772E+10-3.19098E+08 1.34054E+10-2.60125E+07
 -1       783-2.56597E+11 6.06490E+06-9.75046E+10-2.96084E+08 1.36997E+10-2.44360E+07
 -1       784-2.59074E+11 1.64393E+06-9.84477E+10-2.64977E+08 1.39755E+10-2.28436E+07
 -1       785-2.61328E+11 6.20734E+07-9.92810E+10-2.46547E+08 1.42326E+10-2.12365E+07
 -1       786-2.63327E+11 1.69788E+07-1.00058E+11-2.18832E+08 1.44710E+10-1.96164E+07
 -1       787-2.65121E+11-2.49233E+06-1.00747E+11-1.87990E+08 1.46903E+10-1.79845E+07
 -1       788-2.66673E+11 2.03152E+07-1.01328E+11-1.65288E+08 1.48905E+10-1.63423E+07
 -1       789-2.67996E+11 6.04094E+07-1.01815E+11-1.33375E+08 1.50716E+10-1.46912E+07
 -1       790-2.69064E+11 7.42156E+06-1.02241E+11-1.13773E+08 1.52333E+10-1.30328E+07
 -1       791-2.69886E+11-2.13667E+06-1.02558E+11-7.92157E+07 1.53756E+10-1.13685E+07
 -1       792-2.70492E+11 7.37852E+07-1.02759E+11-5.29002E+07 1.54985E+10-9.69974E+06
 -1       793-2.70811E+11-2.90772E+06-1.02909E+11-2.60518E+07 1.56019E+10-8.02817E+06
 -1       794-2.70910E+11 1.25496E+07-1.02941E+11 8.76137E+06 1.56858E+10-6.35532E+06
 -1       795-2.70758E+11 4.29437E+07-1.02872E+11 2.95683E+07 1.57502E+10-4.68262E+06
 -1       796-2.70337E+11 3.73517E+07-1.02714E+11 6.15203E+07 1.57951E+10-3.01170E+06
 -1       797-2.69675E+11 1.18530E+07-1.02472E+11 8.87320E+07 1.58205E+10-1.34411E+06
 -1       798-2.68753E+11 9.65822E+06-1.02123E+11 1.20738E+08 1.58265E+10 3.18577E+05
 -1       799-2.67598E+11 3.60030E+07-1.01673E+11 1.51111E+08 1.58131E+10 1.97485E+06
 -1       800-2.66180E+11 6.13729E+07-1.01125E+11 1.73848E+08 1.57804E+10 3.62317E+06
 -1       801-2.64491E+11-5.94295E+06-1.00509E+11 2.05547E+08 1.57286E+10 5.26192E+06
 -1       802-2.62576E+11-1.20808E+07-9.97833E+10 2.33927E+08 1.56577E+10 6.88953E+06
 -1       803-2.60413E+11 8.77542E+07-9.89234E+10 2.62947E+08 1.55679E+10 8.50454E+06
 -1       804-2.57975E+11-6.65487E+06-9.80331E+10 2.89393E+08 1.54593E+10 1.01054E+07
 -1       805-2.55317E+11 1.67346E+07-9.70141E+10 3.23401E+08 1.53322E+10 1.16904E+07
 -1       806-2.52410E+11 3.82726E+07-9.59012E+10 3.43921E+08 1.51867E+10 1.32583E+07
 -1       807-2.49249E+11 3.46784E+07-9.47014E+10 3.74430E+08 1.50229E+10 1.48074E+07
 -1       808-2.45855E+11 1.61665E+07-9.34186E+10 4.00220E+08 1.48412E+10 1.63363E+07
 -1       809-2.42218E+11-3.14933E+06-9.20440E+10 4.29893E+08 1.46419E+10 1.78435E+07
 -1       810-2.38371E+11 6.52168E+07-9.05561E+10 4.57796E+08 1.44250E+10 1.93276E+07
 -1       811-2.34267E+11 3.61025E+06-8.90202E+10 4.76903E+08 1.41910E+10 2.07871E+07
 -1       812-2.29938E+11 6.25190E+06-8.73740E+10 5.08160E+08 1.39401E+10 2.22206E+07
 -1       813-2.25410E+11 3.72173E+07-8.56415E+10 5.31826E+08 1.36727E+10 2.36267E+07
 -1       814-2.20639E+11 4.46138E+07-8.38259E+10 5.56852E+08 1.33890E+10 2.50041E+07
 -1       815-2.15669E+11-2.68838E+06-8.19552E+10 5.83103E+08 1.30894E+10 2.63515E+07
 -1       816-2.10485E+11-2.21459E+06-7.99850E+10 6.01711E+08 1.27743E+10 2.76675E+07
 -1       817-2.05095E+11 4.55167E+07-7.79187E+10 6.27556E+08 1.24440E+10 2.89508E+07
 -1       818-1.99516E+11 2.84631E+07-7.58053E+10 6.49628E+08 1.20989E+10 3.02002E+07
 -1       819-1.93726E+11 6.77775E+06-7.36134E+10 6.70289E+08 1.17395E+10 3.14146E+07
 -1       820-1.87766E+11 3.48931E+06-7.13499E+10 6.95738E+08 1.13661E+10 3.25926E+07
 -1       821-1.81628E+11 4.88972E+07-6.89999E+10 7.10746E+08 1.09792E+10 3.37333E+07
 -1       822-1.75291E+11-1.74979E+06-6.66113E+10 7.31476E+08 1.05792E+10 3.48355E+07
 -1       823-1.68804E+11 9.11480E+06-6.41422E+10 7.52458E+08 1.01665E+10 3.58981E+07
 -1       824-1.62157E+11 2.66015E+07-6.16094E+10 7.69496E+08 9.74175E+09 3.69201E+07
 -1       825-1.55342E+11 2.05458E+07-5.90221E+10 7.86943E+08 9.30528E+09 3.79005E+07
 -1       826-1.48388E+11 8.24113E+06-5.63844E+10 8.04355E+08 8.85762E+09 3.88385E+07
 -1       827-1.41289E+11 2.69000E+06-5.36887E+10 8.18316E+08 8.39927E+09 3.97330E+07
 -1       828-1.34055E+11 2.89895E+07-5.09300E+10 8.34229E+08 7.93074E+09 4.05832E+07
 -1       829-1.26700E+11 1.27179E+07-4.81413E+10 8.48806E+08 7.45256E+09 4.13885E+07
 -1       830-1.19217E+11-3.18328E+06-4.53035E+10 8.59932E+08 6.96524E+09 4.21479E+07
 -1       831-1.11631E+11 9.52345E+06-4.24160E+10 8.75497E+08 6.46934E+09 4.28607E+07
 -1       832-1.03944E+11 2.58786E+07-3.94888E+10 8.83625E+08 5.96540E+09 4.35264E+07
 -1       833-9.61487E+10-1.07978E+06-3.65369E+10 8.94720E+08 5.45397E+09 4.41443E+07
 -1       834-8.82773E+10 4.18421E+06-3.35438E+10 9.05209E+08 4.93561E+09 4.47138E+07
 -1       835-8.03252E+10 1.22742E+07-3.05189E+10 9.13273E+08 4.41089E+09 4.52344E+07
 -1       836-7.23030E+10 9.02289E+06-2.74717E+10 9.21562E+08 3.88039E+09 4.57057E+07
 -1       837-6.42171E+10 3.12152E+06-2.44013E+10 9.26244E+08 3.34468E+09 4.61273E+07
 -1       838-5.60761E+10-1.44835E+06-2.13095E+10 9.33358E+08 2.80434E+09 4.64987E+07
 -1       839-4.78970E+10 1.25622E+07-1.81961E+10 9.37524E+08 2.25996E+09 4.68198E+07
 -1       840-3.96745E+10-1.77337E+06-1.50770E+10 9.41003E+08 1.71213E+09 4.70902E+07
 -1       841-3.14291E+10 1.38681E+05-1.19430E+10 9.44368E+08 1.16145E+09 4.73098E+07
 -1       842-2.31653E+10 4.88930E+06-8.80097E+09 9.45134E+08 6.08498E+08 4.74783E+07
 -1       843-1.48886E+10-1.83473E+06-5.65837E+09 9.46148E+08 5.38770E+07 4.75958E+07
 -1       844-6.61411E+09-7.88664E+05-2.51366E+09 9.45601E+08-5.01818E+08 4.76623E+07
 -1       845 1.65424E+09-1.79788E+06 6.27929E+08 9.44188E+08-1.05799E+09 4.76775E+07
 -1       846 9.90401E+09-1.34720E+06 3.76301E+09 9.41682E+08-1.61404E+09 4.76418E+07
 -1       847 1.81307E+10-6.12177E+06 6.88736E+09 9.38045E+08-2.16938E+09 4.75552E+07
 -1       848 2.63198E+10-3.08323E+06 1.00004E+10 9.34325E+08-2.72340E+09 4.74179E+07
 -1       849 3.44660E+10-1.32283E+06 1.30966E+10 9.28127E+08-3.27554E+09 4.72302E+07
 -1       850 4.25637E+10-1.40718E+07 1.61689E+10 9.21794E+08-3.82519E+09 4.69923E+07
 -1       851 5.05934E+10-1.70047E+06 1.92248E+10 9.14681E+08-4.37178E+09 4.67046E+07
 -1       852 5.85602E+10-5.63938E+06 2.22507E+10 9.04925E+08-4.91472E+09 4.63676E+07
 -1       853 6.64458E+10-1.15247E+07 2.52450E+10 8.97203E+08-5.45344E+09 4.59815E+07
 -1       854 7.42442E+10-1.32616E+07 2.82078E+10 8.85950E+08-5.98737E+09 4.55470E+07
 -1       855 8.19456E+10-1.31371E+07 3.11343E+10 8.75011E+08-6.51596E+09 4.50647E+07
 -1       856 8.95437E+10 2.91190E+06 3.40277E+10 8.61322E+08-7.03865E+09 4.45351E+07
 -1       857 9.70366E+10-2.30651E+07 3.68651E+10 8.48424E+08-7.55488E+09 4.39589E+07
 -1       858 1.04399E+11-1.14169E+07 3.96674E+10 8.36497E+08-8.06413E+09 4.33369E+07
 -1       859 1.11633E+11-5.19882E+06 4.24187E+10 8.18842E+08-8.56585E+09 4.26697E+07
 -1       860 1.18740E+11-2.06463E+07 4.51133E+10 8.03402E+08-9.05953E+09 4.19583E+07
 -1       861 1.25697E+11-2.53992E+07 4.77552E+10 7.86380E+08-9.54466E+09 4.12034E+07
 -1       862 1.32494E+11-5.20178E+06 5.03459E+10 7.69349E+08-1.00207E+10 4.04061E+07
 -1       863 1.39145E+11-1.09595E+07 5.28709E+10 7.47560E+08-1.04873E+10 3.95673E+07
 -1       864 1.45623E+11-2.51531E+07 5.53273E+10 7.32063E+08-1.09438E+10 3.86879E+07
 -1       865 1.51924E+11-2.57220E+07 5.77212E+10 7.09871E+08-1.13898E+10 3.77690E+07
 -1       866 1.58043E+11-1.38601E+07 6.00512E+10 6.89776E+08-1.18249E+10 3.68118E+07
 -1       867 1.63972E+11-2.78358E+06 6.23083E+10 6.65840E+08-1.22485E+10 3.58174E+07
 -1       868 1.69721E+11-4.56702E+07 6.44766E+10 6.42277E+08-1.26604E+10 3.47869E+07
 -1       869 1.75248E+11-1.99909E+07 6.65868E+10 6.23578E+08-1.30601E+10 3.37217E+07
 -1       870 1.80571E+11-6.97038E+04 6.86169E+10 5.94596E+08-1.34471E+10 3.26229E+07
 -1       871 1.85692E+11-2.37291E+07 7.05539E+10 5.72901E+08-1.38211E+10 3.14918E+07
 -1       872 1.90578E+11-4.38812E+07 7.24030E+10 5.45690E+08-1.41817E+10 3.03298E+07
 -1       873 1.95246E+11-1.31616E+07 7.41886E+10 5.19012E+08-1.45287E+10 2.91384E+07
 -1       874 1.99678E+11-6.44106E+06 7.58754E+10 4.94453E+08-1.48615E+10 2.79188E+07
 -1       875 2.03878E+11-5.53196E+07 7.74527E+10 4.65388E+08-1.51800E+10 2.66726E+07
 -1       876 2.07830E+11-1.02796E+07 7.89715E+10 4.39084E+08-1.54837E+10 2.54012E+07
 -1       877 2.11531E+11-1.03754E+07 8.03780E+10 4.08058E+08-1.57725E+10 2.41062E+07
 -1       878 2.15000E+11-3.94626E+07 8.16849E+10 3.77699E+08-1.60461E+10 2.27890E+07
 -1       879 2.18201E+11-4.11597E+07 8.29005E+10 3.53303E+08-1.63042E+10 2.14513E+07
 -1       880 2.21127E+11-9.13658E+06 8.40249E+10 3.22079E+08-1.65465E+10 2.00946E+07
 -1       881 2.23810E+11-1.79749E+07 8.50408E+10 2.89056E+08-1.67730E+10 1.87206E+07
 -1       882 2.26223E+11-3.63486E+07 8.59509E+10 2.59661E+08-1.69833E+10 1.73309E+07
 -1       883 2.28355E+11-5.41938E+07 8.67543E+10 2.28160E+08-1.71773E+10 1.59271E+07
 -1       884 2.30222E+11-4.25787E+06 8.74826E+10 1.94565E+08-1.73549E+10 1.45110E+07
 -1       885 2.31808E+11 3.89708E+06 8.80883E+10 1.68242E+08-1.75158E+10 1.30843E+07
 -1       886 2.33117E+11-8.05654E+07 8.85540E+10 1.32637E+08-1.76601E+10 1.16485E+07
 -1       887 2.34140E+11-5.24486E+06 8.89711E+10 1.02324E+08-1.77876E+10 1.02056E+07
 -1       888 2.34876E+11-1.66656E+07 8.92465E+10 6.67972E+07-1.78982E+10 8.75727E+06
 -1       889 2.35345E+11-4.18892E+07 8.94153E+10 3.28150E+07-1.79919E+10 7.30520E+06
 -1       890 2.35516E+11-4.43391E+07 8.94790E+10 5.42632E+06-1.80687E+10 5.85117E+06
 -1       891 2.35383E+11-1.42914E+07 8.94400E+10-2.90717E+07-1.81284E+10 4.39701E+06
 -1       892 2.34982E+11-1.06130E+07 8.92891E+10-6.46683E+07-1.81713E+10 2.94450E+06
 -1       893 2.34287E+11-6.53408E+07 8.90042E+10-9.69719E+07-1.81972E+10 1.49538E+06
 -1       894 2.33298E+11-9.81314E+06 8.86495E+10-1.30946E+08-1.82062E+10 5.14563E+04
 -1       895 2.32018E+11-1.95484E+07 8.81593E+10-1.61400E+08-1.81984E+10-1.38545E+06
 -1       896 2.30450E+11-3.49566E+07 8.75577E+10-1.96435E+08-1.81739E+10-2.81357E+06
 -1       897 2.28595E+11-6.11604E+07 8.68429E+10-2.29362E+08-1.81328E+10-4.23112E+06
 -1       898 2.26438E+11-9.86516E+05 8.60462E+10-2.62324E+08-1.80752E+10-5.63629E+06
 -1       899 2.24008E+11-2.70311E+06 8.51221E+10-2.97353E+08-1.80014E+10-7.02729E+06
 -1       900 2.21290E+11-6.09475E+07 8.40670E+10-3.25515E+08-1.79113E+10-8.40237E+06
 -1       901 2.18275E+11-3.32502E+07 8.29317E+10-3.60670E+08-1.78054E+10-9.75976E+06
 -1       902 2.14981E+11-1.93071E+07 8.16854E+10-3.91492E+08-1.76837E+10-1.10977E+07
 -1       903 2.11406E+11-1.06874E+07 8.03304E+10-4.26068E+08-1.75465E+10-1.24144E+07
 -1       904 2.07555E+11-5.93296E+07 7.88482E+10-4.57047E+08-1.73941E+10-1.37081E+07
 -1       905 2.03422E+11-1.09730E+07 7.72961E+10-4.89376E+08-1.72268E+10-1.49772E+07
 -1       906 1.99013E+11-1.81735E+07 7.56180E+10-5.18301E+08-1.70448E+10-1.62199E+07
 -1       907 1.94334E+11-3.66927E+07 7.38330E+10-5.50704E+08-1.68485E+10-1.74346E+07
 -1       908 1.89390E+11-3.80737E+07 7.19539E+10-5.80980E+08-1.66381E+10-1.86195E+07
 -1       909 1.84168E+11-1.57691E+07 6.99780E+10-6.10162E+08-1.64142E+10-1.97731E+07
 -1       910 1.78699E+11-8.76073E+06 6.79022E+10-6.43792E+08-1.61769E+10-2.08936E+07
 -1       911 1.72973E+11-6.66524E+07 6.57044E+10-6.68328E+08-1.59268E+10-2.19796E+07
 -1       912 1.66973E+11 2.43207E+06 6.34508E+10-6.98866E+08-1.56642E+10-2.30294E+07
 -1       913 1.60741E+11-1.03649E+07 6.10778E+10-7.27139E+08-1.53896E+10-2.40414E+07
 -1       914 1.54259E+11-4.32743E+07 5.86018E+10-7.55254E+08-1.51035E+10-2.50141E+07
 -1       915 1.47539E+11-2.86896E+07 5.60540E+10-7.83966E+08-1.48062E+10-2.59460E+07
 -1       916 1.40577E+11-1.75549E+07 5.34126E+10-8.06449E+08-1.44983E+10-2.68357E+07
 -1       917 1.33382E+11-1.22607E+07 5.06804E+10-8.35999E+08-1.41802E+10-2.76817E+07
 -1       918 1.25971E+11-3.27031E+07 4.78567E+10-8.60635E+08-1.38526E+10-2.84826E+07
 -1       919 1.18331E+11-2.55896E+07 4.49559E+10-8.85727E+08-1.35158E+10-2.92369E+07
 -1       920 1.10477E+11-1.59195E+07 4.19752E+10-9.10535E+08-1.31706E+10-2.99435E+07
 -1       921 1.02414E+11-1.26001E+07 3.89127E+10-9.32959E+08-1.28174E+10-3.06009E+07
 -1       922 9.41460E+10-3.42553E+07 3.57625E+10-9.56798E+08-1.24568E+10-3.12079E+07
 -1       923 8.56785E+10-1.24221E+07 3.25531E+10-9.78506E+08-1.20895E+10-3.17632E+07
 -1       924 7.70181E+10-1.33910E+07 2.92618E+10-1.00116E+09-1.17159E+10-3.22655E+07
 -1       925 6.81729E+10-2.72674E+07 2.58954E+10-1.02185E+09-1.13368E+10-3.27139E+07
 -1       926 5.91463E+10-1.62476E+07 2.24694E+10-1.04303E+09-1.09529E+10-3.31070E+07
 -1       927 4.99436E+10-1.19441E+07 1.89740E+10-1.06056E+09-1.05646E+10-3.34439E+07
 -1       928 4.05711E+10-1.60257E+07 1.54109E+10-1.08090E+09-1.01728E+10-3.37234E+07
 -1       929 3.10410E+10-2.04471E+07 1.17878E+10-1.09867E+09-9.77799E+09-3.39445E+07
 -1       930 2.13504E+10-1.27207E+07 8.10832E+09-1.11610E+09-9.38099E+09-3.41062E+07
 -1       931 1.15121E+10-1.34964E+07 4.36946E+09-1.13315E+09-8.98245E+09-3.42077E+07
 -1       932 1.53128E+09-1.56618E+07 5.75936E+08-1.14889E+09-8.58309E+09-3.42479E+07
 -1       933-8.58856E+09-1.07964E+07-3.26776E+09-1.16414E+09-8.18362E+09-3.42261E+07
 -1       934-1.88374E+10-1.36641E+07-7.16339E+09-1.17888E+09-7.78476E+09-3.41414E+07
 -1       935-2.92096E+10-1.35670E+07-1.11048E+10-1.19239E+09-7.38727E+09-3.39930E+07
 -1       936-3.97032E+10-1.02162E+07-1.50911E+10-1.20519E+09-6.99188E+09-3.37801E+07
 -1       937-5.03061E+10-7.05335E+06-1.91190E+10-1.21862E+09-6.59936E+09-3.35021E+07
 -1       938-6.10115E+10-7.93968E+06-2.31874E+10-1.22997E+09-6.21046E+09-3.31584E+07
 -1       939-7.18195E+10-2.02520E+07-2.72991E+10-1.24006E+09-5.82595E+09-3.27482E+07
 -1       940-8.27218E+10 2.07259E+05-3.14342E+10-1.25139E+09-5.44662E+09-3.22709E+07
 -1       941-9.37064E+10-1.07282E+07-3.56125E+10-1.25999E+09-5.07326E+09-3.17260E+07
 -1       942-1.04777E+11-1.22288E+07-3.98198E+10-1.27015E+09-4.70665E+09-3.11131E+07
 -1       943-1.15916E+11-4.72108E+06-4.40499E+10-1.27749E+09-4.34759E+09-3.04315E+07
 -1       944-1.27135E+11 5.84278E+06-4.83091E+10-1.28516E+09-3.99687E+09-2.96809E+07
 -1       945-1.38403E+11-1.73567E+07-5.25998E+10-1.29310E+09-3.65532E+09-2.88609E+07
 -1       946-1.49741E+11-1.01160E+07-5.69053E+10-1.29758E+09-3.32375E+09-2.79711E+07
 -1       947-1.61128E+11-2.31915E+06-6.12296E+10-1.30248E+09-3.00296E+09-2.70110E+07
 -1       948-1.72576E+11 1.53009E+07-6.55730E+10-1.31148E+09-2.69379E+09-2.59805E+07
 -1       949-1.84029E+11-2.47549E+07-6.99403E+10-1.31517E+09-2.39704E+09-2.48793E+07
 -1       950-1.95570E+11-5.58074E+06-7.43188E+10-1.31704E+09-2.11356E+09-2.37070E+07
 -1       951-2.07098E+11 9.49029E+06-7.86936E+10-1.32163E+09-1.84417E+09-2.24635E+07
 -1       952-2.18708E+11 1.46270E+07-8.31037E+10-1.32344E+09-1.58970E+09-2.11486E+07
 -1       953-2.30272E+11-4.89707E+07-8.75219E+10-1.32847E+09-1.35099E+09-1.97621E+07
 -1       954-2.41952E+11 2.46363E+07-9.19324E+10-1.33084E+09-1.12887E+09-1.83038E+07
 -1       955-2.53532E+11-5.33128E+06-9.63442E+10-1.33178E+09-9.24187E+08-1.67736E+07
 -1       956-2.65271E+11 2.69146E+07-1.00793E+11-1.33413E+09-7.37769E+08-1.51715E+07
 -1       957-2.76831E+11-7.05767E+07-1.05223E+11-1.33018E+09-5.70462E+08-1.34974E+07
 -1       958-2.88676E+11 4.71614E+07-1.09679E+11-1.33915E+09-4.23107E+08-1.17511E+07
 -1       959-3.00155E+11 1.94945E+08-1.13985E+11-1.33325E+09-2.96543E+08-9.93272E+06
 -1       960-3.12059E+11-1.10887E+09-1.19004E+11-1.35231E+09-1.91614E+08-8.04219E+06
 -1       961-3.23625E+11 4.35159E+09-1.21324E+11-1.26915E+09-1.09160E+08-6.07910E+06
 -1       962-3.35037E+11-1.61611E+10-1.33455E+11-1.58484E+09-5.00267E+07-4.04496E+06
 -1       963-3.48692E+11 5.93195E+10-1.09961E+11-4.18046E+08-1.50575E+07-1.93425E+06
 -1       964-3.55675E+11-2.17876E+11-2.17949E+11-4.72195E+09-3.71503E+06-8.58030E+05
 -1       965-5.65908E+03-3.05923E+03-3.31720E+03-5.83816E+06 2.36363E+10 5.39300E+03
 -1       966-2.02369E+04-2.88517E+03-8.77750E+03-5.90412E+07 2.32432E+10 5.39292E+03
 -1       967-6.48663E+04-2.96539E+03-2.57692E+04-1.16828E+08 2.24570E+10 5.39267E+03
 -1       968-1.38289E+05-2.61724E+03-5.35551E+04-1.71627E+08 2.16709E+10 5.39206E+03
 -1       969-2.39112E+05-2.74984E+03-9.19085E+04-2.25562E+08 2.08849E+10 5.39087E+03
 -1       970-3.66895E+05-2.44404E+03-1.40351E+05-2.76354E+08 2.00992E+10 5.38897E+03
 -1       971-5.20049E+05-2.55483E+03-1.98602E+05-3.25790E+08 1.93138E+10 5.38623E+03
 -1       972-6.97972E+05-2.20818E+03-2.66073E+05-3.74003E+08 1.85288E+10 5.38246E+03
 -1       973-8.99592E+05-2.33033E+03-3.42734E+05-4.18027E+08 1.77445E+10 5.37756E+03
 -1       974-1.12366E+06-2.18825E+03-4.27821E+05-4.63278E+08 1.69610E+10 5.37135E+03
 -1       975-1.36969E+06-1.87553E+03-5.21185E+05-5.03449E+08 1.61785E+10 5.36363E+03
 -1       976-1.63594E+06-2.09187E+03-6.22452E+05-5.42563E+08 1.53972E+10 5.35433E+03
 -1       977-1.92235E+06-1.70281E+03-7.31143E+05-5.82942E+08 1.46174E+10 5.34333E+03
 -1       978-2.22683E+06-1.87544E+03-8.46908E+05-6.14645E+08 1.38394E+10 5.33050E+03
 -1       979-2.54939E+06-1.62820E+03-9.69389E+05-6.51533E+08 1.30634E+10 5.31574E+03
 -1       980-2.88890E+06-1.50758E+03-1.09836E+06-6.83472E+08 1.22896E+10 5.29893E+03
 -1       981-3.24302E+06-1.42487E+03-1.23289E+06-7.09130E+08 1.15185E+10 5.27998E+03
 -1       982-3.61305E+06-1.46506E+03-1.37352E+06-7.42016E+08 1.07503E+10 5.25882E+03
 -1       983-3.99598E+06-1.13449E+03-1.51891E+06-7.65333E+08 9.98533E+09 5.23533E+03
 -1       984-4.39191E+06-1.30423E+03-1.66942E+06-7.90070E+08 9.22397E+09 5.20943E+03
 -1       985-4.80003E+06-9.91835E+02-1.82440E+06-8.14130E+08 8.46658E+09 5.18104E+03
 -1       986-5.21815E+06-9.96556E+02-1.98329E+06-8.28357E+08 7.71351E+09 5.15011E+03
 -1       987-5.64676E+06-9.98107E+02-2.14615E+06-8.53355E+08 6.96514E+09 5.11658E+03
 -1       988-6.08377E+06-5.36517E+02-2.31203E+06-8.66990E+08 6.22185E+09 5.08033E+03
 -1       989-6.52917E+06-9.23151E+02-2.48143E+06-8.82074E+08 5.48405E+09 5.04136E+03
 -1       990-6.98155E+06-3.45371E+02-2.65312E+06-8.95023E+08 4.75213E+09 4.99963E+03
 -1       991-7.43947E+06-7.15307E+02-2.82727E+06-9.04353E+08 4.02650E+09 4.95508E+03
 -1       992-7.90294E+06-3.54700E+02-3.00325E+06-9.16503E+08 3.30757E+09 4.90769E+03
 -1       993-8.37074E+06-2.52581E+02-3.18098E+06-9.23754E+08 2.59576E+09 4.85742E+03
 -1       994-8.84159E+06-2.97648E+02-3.35992E+06-9.26521E+08 1.89149E+09 4.80424E+03
 -1       995-9.31497E+06-1.04250E+02-3.53973E+06-9.30242E+08 1.19519E+09 4.74817E+03
 -1       996-9.78990E+06-1.18174E+02-3.72021E+06-9.36129E+08 5.07272E+08 4.68915E+03
 -1       997-1.02651E+07-5.44081E+00-3.90072E+06-9.33857E+08-1.71828E+08 4.62722E+03
 -1       998-1.07409E+07 1.69869E+02-4.08148E+06-9.33655E+08-8.41680E+08 4.56239E+03
 -1       999-1.12149E+07 1.84621E+02-4.26159E+06-9.29694E+08-1.50185E+09 4.49460E+03
 -1      1000-1.16872E+07 1.56895E+02-4.44108E+06-9.26075E+08-2.15193E+09 4.42386E+03
 -1      1001-1.21571E+07 5.44543E+02-4.61949E+06-9.19440E+08-2.79148E+09 4.35021E+03
 -1      1002-1.26224E+07 2.54748E+02-4.79640E+06-9.08948E+08-3.42009E+09 4.27368E+03
 -1      1003-1.30848E+07 5.29750E+02-4.97201E+06-9.07436E+08-4.03732E+09 4.19430E+03
 -1      1004-1.35412E+07 8.11549E+02-5.14536E+06-8.88415E+08-4.64276E+09 4.11207E+03
 -1      1005-1.39911E+07 2.84929E+02-5.31651E+06-8.79481E+08-5.23602E+09 4.02701E+03
 -1      1006-1.44357E+07 9.98541E+02-5.48518E+06-8.62535E+08-5.81667E+09 3.93921E+03
 -1      1007-1.48721E+07 8.25584E+02-5.65109E+06-8.52597E+08-6.38432E+09 3.84874E+03
 -1      1008-1.52997E+07 6.44942E+02-5.81365E+06-8.32839E+08-6.93858E+09 3.75559E+03
 -1      1009-1.57202E+07 1.12153E+03-5.97324E+06-8.15140E+08-7.47905E+09 3.65977E+03
 -1      1010-1.61299E+07 1.07909E+03-6.12897E+06-7.95625E+08-8.00537E+09 3.56137E+03
 -1      1011-1.65291E+07 9.45401E+02-6.28069E+06-7.74698E+08-8.51716E+09 3.46050E+03
 -1      1012-1.69183E+07 1.28149E+03-6.42848E+06-7.53798E+08-9.01407E+09 3.35724E+03
 -1      1013-1.72951E+07 9.25101E+02-6.57177E+06-7.25171E+08-9.49574E+09 3.25156E+03
 -1      1014-1.76616E+07 1.42970E+03-6.71085E+06-7.13350E+08-9.96183E+09 3.14357E+03
 -1      1015-1.80138E+07 1.57029E+03-6.84465E+06-6.75105E+08-1.04120E+10 3.03341E+03
 -1      1016-1.83520E+07 9.11146E+02-6.97343E+06-6.50814E+08-1.08460E+10 2.92112E+03
 -1      1017-1.86784E+07 1.80316E+03-7.09711E+06-6.28734E+08-1.12634E+10 2.80674E+03
 -1      1018-1.89887E+07 1.26038E+03-7.21523E+06-5.95837E+08-1.16640E+10 2.69042E+03
 -1      1019-1.92853E+07 1.48083E+03-7.32787E+06-5.71164E+08-1.20475E+10 2.57222E+03
 -1      1020-1.95666E+07 1.86252E+03-7.43458E+06-5.28663E+08-1.24137E+10 2.45223E+03
 -1      1021-1.98307E+07 1.31346E+03-7.53518E+06-5.08962E+08-1.27622E+10 2.33058E+03
 -1      1022-2.00796E+07 1.68947E+03-7.62962E+06-4.71798E+08-1.30929E+10 2.20732E+03
 -1      1023-2.03116E+07 1.81541E+03-7.71771E+06-4.39641E+08-1.34054E+10 2.08255E+03
 -1      1024-2.05262E+07 1.43870E+03-7.79940E+06-4.00622E+08-1.36997E+10 1.95644E+03
 -1      1025-2.07244E+07 2.00011E+03-7.87450E+06-3.78472E+08-1.39755E+10 1.82909E+03
 -1      1026-2.09034E+07 1.88825E+03-7.94259E+06-3.30889E+08-1.42327E+10 1.70053E+03
 -1      1027-2.10640E+07 1.40732E+03-8.00378E+06-2.95311E+08-1.44710E+10 1.57092E+03
 -1      1028-2.12085E+07 2.28911E+03-8.05837E+06-2.67163E+08-1.46903E+10 1.44036E+03
 -1      1029-2.13317E+07 1.84120E+03-8.10537E+06-2.23642E+08-1.48906E+10 1.30901E+03
 -1      1030-2.14367E+07 1.62975E+03-8.14533E+06-1.93395E+08-1.50716E+10 1.17696E+03
 -1      1031-2.15236E+07 2.35564E+03-8.17808E+06-1.40424E+08-1.52333E+10 1.04423E+03
 -1      1032-2.15892E+07 1.58989E+03-8.20330E+06-1.17084E+08-1.53757E+10 9.11073E+02
 -1      1033-2.16363E+07 2.29941E+03-8.22092E+06-7.22868E+07-1.54986E+10 7.77620E+02
 -1      1034-2.16632E+07 1.54789E+03-8.23143E+06-2.89237E+07-1.56020E+10 6.43891E+02
 -1      1035-2.16713E+07 2.37603E+03-8.23419E+06-3.68532E+06-1.56859E+10 5.10100E+02
 -1      1036-2.16580E+07 1.83867E+03-8.22935E+06 5.03074E+07-1.57503E+10 3.76285E+02
 -1      1037-2.16246E+07 1.97706E+03-8.21660E+06 8.31066E+07-1.57951E+10 2.42604E+02
 -1      1038-2.15722E+07 2.02700E+03-8.19667E+06 1.28221E+08-1.58206E+10 1.09255E+02
 -1      1039-2.14986E+07 2.00672E+03-8.16868E+06 1.60025E+08-1.58265E+10-2.37836E+01
 -1      1040-2.14055E+07 2.01475E+03-8.13333E+06 1.99618E+08-1.58132E+10-1.56303E+02
 -1      1041-2.12914E+07 1.92867E+03-8.09001E+06 2.46894E+08-1.57805E+10-2.88161E+02
 -1      1042-2.11581E+07 2.05003E+03-8.03932E+06 2.85876E+08-1.57287E+10-4.19265E+02
 -1      1043-2.10048E+07 2.05039E+03-7.98106E+06 3.17988E+08-1.56578E+10-5.49459E+02
 -1      1044-2.08296E+07 1.99344E+03-7.91450E+06 3.60991E+08-1.55680E+10-6.78638E+02
 -1      1045-2.06365E+07 1.51670E+03-7.84130E+06 4.04289E+08-1.54594E+10-8.06710E+02
 -1      1046-2.04239E+07 2.46717E+03-7.76013E+06 4.30144E+08-1.53323E+10-9.33536E+02
 -1      1047-2.01905E+07 1.64507E+03-7.67176E+06 4.81806E+08-1.51867E+10-1.05894E+03
 -1      1048-1.99376E+07 1.86680E+03-7.57557E+06 5.13268E+08-1.50230E+10-1.18287E+03
 -1      1049-1.96669E+07 2.03571E+03-7.47266E+06 5.55946E+08-1.48413E+10-1.30516E+03
 -1      1050-1.93759E+07 1.69099E+03-7.36219E+06 5.85784E+08-1.46419E+10-1.42572E+03
 -1      1051-1.90672E+07 1.83448E+03-7.24486E+06 6.21427E+08-1.44251E+10-1.54447E+03
 -1      1052-1.87397E+07 1.95968E+03-7.12034E+06 6.69270E+08-1.41911E+10-1.66125E+03
 -1      1053-1.83941E+07 1.48696E+03-6.98918E+06 6.91932E+08-1.39402E+10-1.77589E+03
 -1      1054-1.80303E+07 2.16521E+03-6.85070E+06 7.31887E+08-1.36727E+10-1.88832E+03
 -1      1055-1.76492E+07 9.53068E+02-6.70633E+06 7.65391E+08-1.33891E+10-1.99856E+03
 -1      1056-1.72522E+07 2.25403E+03-6.55498E+06 7.97605E+08-1.30895E+10-2.10640E+03
 -1      1057-1.68383E+07 1.41258E+03-6.39801E+06 8.31541E+08-1.27744E+10-2.21166E+03
 -1      1058-1.64048E+07 1.72857E+03-6.23318E+06 8.61860E+08-1.24441E+10-2.31434E+03
 -1      1059-1.59601E+07 1.02181E+03-6.06445E+06 8.93010E+08-1.20990E+10-2.41432E+03
 -1      1060-1.54963E+07 2.27342E+03-5.88776E+06 9.26396E+08-1.17396E+10-2.51146E+03
 -1      1061-1.50210E+07 4.00067E+02-5.70784E+06 9.45807E+08-1.13662E+10-2.60570E+03
 -1      1062-1.45272E+07 2.68095E+03-5.51934E+06 9.83265E+08-1.09793E+10-2.69696E+03
 -1      1063-1.40235E+07-1.66834E+02-5.32900E+06 1.00933E+09-1.05793E+10-2.78517E+03
 -1      1064-1.35019E+07 2.88474E+03-5.12961E+06 1.03009E+09-1.01667E+10-2.87020E+03
 -1      1065-1.29729E+07-3.85034E+02-4.92984E+06 1.05864E+09-9.74187E+09-2.95193E+03
 -1      1066-1.24237E+07 2.92404E+03-4.71992E+06 1.08173E+09-9.30540E+09-3.03034E+03
 -1      1067-1.18729E+07-9.88146E+02-4.51210E+06 1.10450E+09-8.85775E+09-3.10537E+03
 -1      1068-1.12990E+07 3.78616E+03-4.29220E+06 1.12644E+09-8.39940E+09-3.17697E+03
 -1      1069-1.07270E+07-2.29623E+03-4.07714E+06 1.14669E+09-7.93087E+09-3.24505E+03
 -1      1070-1.01302E+07 4.67301E+03-3.84772E+06 1.16571E+09-7.45269E+09-3.30945E+03
 -1      1071-9.54272E+06-3.26941E+03-3.62749E+06 1.18637E+09-6.96537E+09-3.37021E+03
 -1      1072-8.92247E+06 5.51773E+03-3.38846E+06 1.19716E+09-6.46948E+09-3.42730E+03
 -1      1073-8.32317E+06-4.50729E+03-3.16453E+06 1.21846E+09-5.96554E+09-3.48055E+03
 -1      1074-7.68066E+06 6.53980E+03-2.91618E+06 1.23204E+09-5.45411E+09-3.52998E+03
 -1      1075-7.07482E+06-6.13079E+03-2.69077E+06 1.24238E+09-4.93575E+09-3.57557E+03
 -1      1076-6.40936E+06 8.87766E+03-2.43219E+06 1.25603E+09-4.41104E+09-3.61724E+03
 -1      1077-5.80243E+06-1.15459E+04-2.20932E+06 1.26456E+09-3.88053E+09-3.65493E+03
 -1      1078-5.11677E+06 2.26858E+04-1.93577E+06 1.27724E+09-3.34482E+09-3.68869E+03
 -1      1079-4.50226E+06-4.97000E+04-1.72976E+06 1.28153E+09-2.80449E+09-3.71842E+03
 -1      1080-3.83425E+06 1.22180E+05-1.41060E+06 1.28927E+09-2.26011E+09-3.74415E+03
 -1      1081-3.21506E+06-2.64360E+05-1.32220E+06 1.29476E+09-1.71228E+09-3.31616E+03
 -1      1082-2.46259E+06 2.11017E+05-8.55605E+05 1.29654E+09-1.16159E+09-2.43315E+03
 -1      1083-1.86233E+06-9.95309E+04-7.45519E+05 1.30047E+09-6.08647E+08-1.99294E+03
 -1      1084-1.17201E+06 5.31496E+04-4.25184E+05 1.30050E+09-5.40261E+07-1.99784E+03
 -1      1085-5.49766E+05-3.21225E+04-2.21135E+05 1.30031E+09 5.01668E+08-2.00069E+03
 -1      1086 1.51228E+05 2.14708E+04 6.56101E+04 1.29821E+09 1.05784E+09-2.00130E+03
 -1      1087 7.75395E+05-1.57697E+04 2.88646E+05 1.29475E+09 1.61389E+09-1.99984E+03
 -1      1088 1.46442E+06 1.20349E+04 5.61038E+05 1.29049E+09 2.16923E+09-1.99626E+03
 -1      1089 2.09339E+06-1.07528E+04 7.91387E+05 1.28300E+09 2.72326E+09-1.99050E+03
 -1      1090 2.76661E+06 9.45889E+03 1.05489E+06 1.27712E+09 3.27539E+09-1.98264E+03
 -1      1091 3.39656E+06-9.12540E+03 1.28721E+06 1.26753E+09 3.82504E+09-1.97272E+03
 -1      1092 4.05355E+06 7.39577E+03 1.54315E+06 1.25629E+09 4.37163E+09-1.96066E+03
 -1      1093 4.67842E+06-5.59754E+03 1.77565E+06 1.24764E+09 4.91457E+09-1.94648E+03
 -1      1094 5.32015E+06 2.73975E+03 2.02268E+06 1.23118E+09 5.45329E+09-1.93027E+03
 -1      1095 5.93455E+06-3.80574E+03 2.25367E+06 1.21876E+09 5.98723E+09-1.91205E+03
 -1      1096 6.55825E+06 2.37976E+03 2.49303E+06 1.20113E+09 6.51582E+09-1.89182E+03
 -1      1097 7.15918E+06-8.38626E+01 2.72045E+06 1.18713E+09 7.03851E+09-1.86963E+03
 -1      1098 7.76526E+06-2.23773E+03 2.94994E+06 1.16854E+09 7.55475E+09-1.84550E+03
 -1      1099 8.34882E+06-1.70727E+03 3.17188E+06 1.14463E+09 8.06399E+09-1.81937E+03
 -1      1100 8.93084E+06 2.89321E+03 3.39480E+06 1.12877E+09 8.56571E+09-1.79138E+03
 -1      1101 9.49682E+06-2.89164E+03 3.60768E+06 1.10465E+09 9.05940E+09-1.76153E+03
 -1      1102 1.00561E+07-1.68700E+03 3.82069E+06 1.08153E+09 9.54453E+09-1.72983E+03
 -1      1103 1.05966E+07 1.84022E+03 4.02740E+06 1.05478E+09 1.00206E+10-1.69639E+03
 -1      1104 1.11313E+07-3.88735E+02 4.22973E+06 1.03573E+09 1.04871E+10-1.66117E+03
 -1      1105 1.16485E+07-4.07806E+03 4.42489E+06 1.00146E+09 1.09436E+10-1.62425E+03
 -1      1106 1.21526E+07 5.57931E+02 4.61819E+06 9.77105E+08 1.13897E+10-1.58568E+03
 -1      1107 1.26418E+07-1.74887E+03 4.80322E+06 9.44820E+08 1.18247E+10-1.54547E+03
 -1      1108 1.31155E+07 4.67705E+03 4.98565E+06 9.19330E+08 1.22484E+10-1.50376E+03
 -1      1109 1.35772E+07-7.68142E+03 5.15640E+06 8.88532E+08 1.26603E+10-1.46052E+03
 -1      1110 1.40183E+07 1.98066E+02 5.32703E+06 8.47859E+08 1.30600E+10-1.41577E+03
 -1      1111 1.44431E+07 2.63506E+03 5.48939E+06 8.24169E+08 1.34470E+10-1.36966E+03
 -1      1112 1.48548E+07-4.13224E+03 5.64325E+06 7.85233E+08 1.38210E+10-1.32220E+03
 -1      1113 1.52434E+07 4.38807E+02 5.79266E+06 7.51442E+08 1.41817E+10-1.27342E+03
 -1      1114 1.56187E+07-1.97930E+03 5.93434E+06 7.15196E+08 1.45286E+10-1.22340E+03
 -1      1115 1.59724E+07-7.31862E+00 6.06951E+06 6.77859E+08 1.48614E+10-1.17218E+03
 -1      1116 1.63086E+07-3.34771E+03 6.19598E+06 6.41307E+08 1.51799E+10-1.11986E+03
 -1      1117 1.66246E+07-3.97189E+02 6.31718E+06 5.98825E+08 1.54837E+10-1.06651E+03
 -1      1118 1.69196E+07 4.14526E+03 6.43100E+06 5.66024E+08 1.57725E+10-1.01219E+03
 -1      1119 1.71989E+07-5.26858E+03 6.53356E+06 5.26143E+08 1.60460E+10-9.56855E+02
 -1      1120 1.74553E+07-5.69076E+03 6.63083E+06 4.79121E+08 1.63041E+10-9.00650E+02
 -1      1121 1.76870E+07 4.05060E+03 6.72260E+06 4.38526E+08 1.65465E+10-8.43745E+02
 -1      1122 1.79027E+07 1.45133E+02 6.80306E+06 4.03396E+08 1.67729E+10-7.86082E+02
 -1      1123 1.80966E+07-4.40278E+03 6.87502E+06 3.56496E+08 1.69832E+10-7.27702E+02
 -1      1124 1.82654E+07 3.54764E+02 6.94097E+06 3.14436E+08 1.71773E+10-6.68752E+02
 -1      1125 1.84165E+07-1.99703E+03 6.99751E+06 2.71588E+08 1.73548E+10-6.09300E+02
 -1      1126 1.85432E+07-4.98673E+02 7.04621E+06 2.27079E+08 1.75158E+10-5.49402E+02
 -1      1127 1.86469E+07-3.75709E+03 7.08440E+06 1.83751E+08 1.76601E+10-4.89137E+02
 -1      1128 1.87294E+07-9.15805E+01 7.11712E+06 1.35474E+08 1.77876E+10-4.28562E+02
 -1      1129 1.87868E+07 4.04390E+03 7.14051E+06 9.75622E+07 1.78982E+10-3.67741E+02
 -1      1130 1.88266E+07-5.69108E+03 7.15194E+06 5.24110E+07 1.79919E+10-3.06764E+02
 -1      1131 1.88403E+07-6.04658E+03 7.15702E+06 4.03412E+05 1.80687E+10-2.45724E+02
 -1      1132 1.88274E+07 4.18639E+03 7.15598E+06-4.44070E+07 1.81285E+10-1.84602E+02
 -1      1133 1.87965E+07-1.22720E+01 7.14268E+06-8.29564E+07 1.81713E+10-1.23596E+02
 -1      1134 1.87410E+07-4.04592E+03 7.12006E+06-1.33341E+08 1.81972E+10-6.27658E+01
 -1      1135 1.86620E+07-4.64613E+02 7.09138E+06-1.77527E+08 1.82062E+10-2.11450E+00
 -1      1136 1.85600E+07-1.95721E+03 7.05205E+06-2.24409E+08 1.81984E+10 5.81955E+01
 -1      1137 1.84334E+07 3.47140E+02 7.00482E+06-2.68744E+08 1.81740E+10 1.18172E+02
 -1      1138 1.82862E+07-5.59303E+03 6.94665E+06-3.14980E+08 1.81329E+10 1.77728E+02
 -1      1139 1.81121E+07 4.29268E+03 6.88425E+06-3.63544E+08 1.80753E+10 2.36754E+02
 -1      1140 1.79195E+07-1.78268E+03 6.80874E+06-3.98641E+08 1.80014E+10 2.95200E+02
 -1      1141 1.77019E+07-5.53004E+03 6.72463E+06-4.54586E+08 1.79114E+10 3.52975E+02
 -1      1142 1.74596E+07 1.09996E+01 6.63468E+06-4.94379E+08 1.78055E+10 4.09964E+02
 -1      1143 1.71967E+07-5.61751E+02 6.53455E+06-5.42895E+08 1.76838E+10 4.66162E+02
 -1      1144 1.69103E+07 1.28022E+03 6.42642E+06-5.80657E+08 1.75466E+10 5.21514E+02
 -1      1145 1.66028E+07-4.11034E+03 6.30753E+06-6.28090E+08 1.73943E+10 5.75861E+02
 -1      1146 1.62721E+07-1.84989E+02 6.18332E+06-6.71005E+08 1.72269E+10 6.29171E+02
 -1      1147 1.59199E+07-1.94428E+03 6.04881E+06-7.14026E+08 1.70449E+10 6.81375E+02
 -1      1148 1.55445E+07 1.84223E+02 5.90697E+06-7.56661E+08 1.68486E+10 7.32406E+02
 -1      1149 1.51504E+07-4.61386E+03 5.75542E+06-7.97978E+08 1.66383E+10 7.82208E+02
 -1      1150 1.47310E+07 2.91093E+03 5.59889E+06-8.43354E+08 1.64143E+10 8.30645E+02
 -1      1151 1.42946E+07-3.09227E+02 5.43182E+06-8.74623E+08 1.61771E+10 8.77717E+02
 -1      1152 1.38375E+07-7.81244E+03 5.25529E+06-9.24695E+08 1.59270E+10 9.23347E+02
 -1      1153 1.33555E+07 4.34859E+03 5.07673E+06-9.62172E+08 1.56644E+10 9.67451E+02
 -1      1154 1.28586E+07-1.78348E+03 4.88559E+06-9.97116E+08 1.53898E+10 1.00994E+03
 -1      1155 1.23387E+07-7.87265E+01 4.68868E+06-1.03853E+09 1.51036E+10 1.05077E+03
 -1      1156 1.18027E+07-3.75403E+03 4.48359E+06-1.07245E+09 1.48063E+10 1.08994E+03
 -1      1157 1.12454E+07-1.48599E+03 4.27268E+06-1.11669E+09 1.44984E+10 1.12730E+03
 -1      1158 1.06686E+07 2.63798E+03 4.05507E+06-1.14521E+09 1.41804E+10 1.16280E+03
 -1      1159 1.00774E+07-3.71387E+03 3.82799E+06-1.18353E+09 1.38527E+10 1.19644E+03
 -1      1160 9.46513E+06 9.14206E+01 3.59678E+06-1.21737E+09 1.35160E+10 1.22812E+03
 -1      1161 8.83762E+06-1.37633E+03 3.35777E+06-1.25064E+09 1.31708E+10 1.25779E+03
 -1      1162 8.19241E+06-5.41881E+02 3.11290E+06-1.28356E+09 1.28176E+10 1.28539E+03
 -1      1163 7.53104E+06-1.89495E+03 2.86106E+06-1.31486E+09 1.24570E+10 1.31086E+03
 -1      1164 6.85351E+06-5.50935E+01 2.60431E+06-1.34719E+09 1.20896E+10 1.33417E+03
 -1      1165 6.16093E+06-2.50572E+02 2.34106E+06-1.37436E+09 1.17161E+10 1.35528E+03
 -1      1166 5.45318E+06-1.00554E+03 2.07183E+06-1.40484E+09 1.13370E+10 1.37411E+03
 -1      1167 4.73161E+06-1.53745E+03 1.79742E+06-1.43150E+09 1.09530E+10 1.39060E+03
 -1      1168 3.99532E+06-1.02291E+03 1.51783E+06-1.46104E+09 1.05648E+10 1.40474E+03
 -1      1169 3.24505E+06 6.56598E+02 1.23336E+06-1.48465E+09 1.01729E+10 1.41645E+03
 -1      1170 2.48333E+06-1.89719E+03 9.42929E+05-1.51051E+09 9.77818E+09 1.42575E+03
 -1      1171 1.70789E+06 2.09786E+01 6.48996E+05-1.53490E+09 9.38118E+09 1.43251E+03
 -1      1172 9.20954E+05-6.67294E+02 3.49701E+05-1.55694E+09 8.98264E+09 1.43678E+03
 -1      1173 1.22691E+05-9.11616E+02 4.62676E+04-1.57970E+09 8.58328E+09 1.43849E+03
 -1      1174-6.87065E+05-2.31556E+02-2.61178E+05-1.60035E+09 8.18380E+09 1.43754E+03
 -1      1175-1.50669E+06-5.72216E+02-5.72764E+05-1.62039E+09 7.78495E+09 1.43399E+03
 -1      1176-2.33633E+06-1.37366E+03-8.88332E+05-1.63974E+09 7.38745E+09 1.42774E+03
 -1      1177-3.17585E+06 1.55133E+01-1.20682E+06-1.65827E+09 6.99206E+09 1.41881E+03
 -1      1178-4.02445E+06 7.63992E+02-1.52901E+06-1.67361E+09 6.59954E+09 1.40713E+03
 -1      1179-4.87979E+06-1.63077E+03-1.85494E+06-1.68996E+09 6.21063E+09 1.39265E+03
 -1      1180-5.74514E+06-9.97623E+02-2.18354E+06-1.70674E+09 5.82613E+09 1.37541E+03
 -1      1181-6.61692E+06 6.65590E+02-2.51418E+06-1.71975E+09 5.44679E+09 1.35539E+03
 -1      1182-7.49584E+06-1.04896E+03-2.84882E+06-1.73284E+09 5.07343E+09 1.33251E+03
 -1      1183-8.38121E+06 3.83725E+02-3.18472E+06-1.74555E+09 4.70681E+09 1.30673E+03
 -1      1184-9.27233E+06-1.39462E+03-3.52402E+06-1.75607E+09 4.34774E+09 1.27810E+03
 -1      1185-1.01696E+07 2.01814E+03-3.86370E+06-1.76783E+09 3.99703E+09 1.24658E+03
 -1      1186-1.10716E+07-1.69238E+03-4.20784E+06-1.77365E+09 3.65547E+09 1.21215E+03
 -1      1187-1.19766E+07-2.86990E+03-4.55220E+06-1.78880E+09 3.32389E+09 1.17478E+03
 -1      1188-1.28902E+07 1.51800E+03-4.89771E+06-1.79377E+09 3.00309E+09 1.13445E+03
 -1      1189-1.38047E+07 4.80843E+03-5.24398E+06-1.79979E+09 2.69391E+09 1.09118E+03
 -1      1190-1.47208E+07-5.91400E+03-5.59615E+06-1.80168E+09 2.39716E+09 1.04494E+03
 -1      1191-1.56429E+07 6.21357E+02-5.94405E+06-1.81941E+09 2.11367E+09 9.95686E+02
 -1      1192-1.65677E+07 1.68256E+02-6.29564E+06-1.81175E+09 1.84427E+09 9.43450E+02
 -1      1193-1.74929E+07 1.19121E+03-6.64687E+06-1.82819E+09 1.58979E+09 8.88212E+02
 -1      1194-1.84228E+07-1.89922E+03-7.00139E+06-1.81718E+09 1.35107E+09 8.29972E+02
 -1      1195-1.93513E+07 1.22769E+03-7.35302E+06-1.83867E+09 1.12895E+09 7.68771E+02
 -1      1196-2.02844E+07 1.42230E+03-7.70752E+06-1.81809E+09 9.24248E+08 7.04483E+02
 -1      1197-2.12142E+07-2.74641E+03-8.06246E+06-1.84574E+09 7.37818E+08 6.37163E+02
 -1      1198-2.21494E+07-4.05152E+03-8.41831E+06-1.82144E+09 5.70501E+08 5.66918E+02
 -1      1199-2.30882E+07 1.01981E+04-8.76962E+06-1.85918E+09 4.23132E+08 4.93578E+02
 -1      1200-2.40134E+07 3.51164E+03-9.12374E+06-1.79614E+09 2.96556E+08 4.17154E+02
 -1      1201-2.49652E+07-5.21628E+04-9.50659E+06-1.88990E+09 1.91612E+08 3.37772E+02
 -1      1202-2.58484E+07 1.92706E+05-9.74915E+06-1.77789E+09 1.09147E+08 2.55343E+02
 -1      1203-2.69832E+07-6.87664E+05-1.05149E+07-1.90409E+09 4.99959E+07 1.69884E+02
 -1      1204-2.71745E+07 2.49381E+06-9.37868E+06-1.78284E+09 1.50147E+07 8.12891E+01
 -1      1205-2.66323E+07-9.16650E+06-1.36035E+07-2.24065E+09 3.68382E+06 3.61699E+01
 -1      1206-5.55695E+03-2.89999E+03-3.20939E+03-5.83847E+06-2.36363E+10-5.38923E+03
 -1      1207-2.03616E+04-3.01118E+03-8.89058E+03-5.90415E+07-2.32432E+10-5.38916E+03
 -1      1208-6.48488E+04-2.88805E+03-2.57468E+04-1.16828E+08-2.24570E+10-5.38893E+03
 -1      1209-1.38253E+05-2.62327E+03-5.35226E+04-1.71627E+08-2.16709E+10-5.38832E+03
 -1      1210-2.39139E+05-2.79476E+03-9.19336E+04-2.25561E+08-2.08849E+10-5.38711E+03
 -1      1211-3.66854E+05-2.36317E+03-1.40301E+05-2.76354E+08-2.00992E+10-5.38522E+03
 -1      1212-5.20035E+05-2.56264E+03-1.98575E+05-3.25790E+08-1.93137E+10-5.38248E+03
 -1      1213-6.98038E+05-2.31179E+03-2.66129E+05-3.74003E+08-1.85288E+10-5.37871E+03
 -1      1214-8.99526E+05-2.22765E+03-3.42663E+05-4.18027E+08-1.77445E+10-5.37382E+03
 -1      1215-1.12367E+06-2.18274E+03-4.27826E+05-4.63278E+08-1.69610E+10-5.36760E+03
 -1      1216-1.36977E+06-1.95023E+03-5.21264E+05-5.03449E+08-1.61785E+10-5.35989E+03
 -1      1217-1.63599E+06-2.14060E+03-6.22487E+05-5.42563E+08-1.53972E+10-5.35061E+03
 -1      1218-1.92230E+06-1.59409E+03-7.31076E+05-5.82943E+08-1.46174E+10-5.33962E+03
 -1      1219-2.22688E+06-1.91483E+03-8.46943E+05-6.14645E+08-1.38394E+10-5.32680E+03
 -1      1220-2.54938E+06-1.57641E+03-9.69363E+05-6.51534E+08-1.30634E+10-5.31205E+03
 -1      1221-2.88894E+06-1.51662E+03-1.09837E+06-6.83472E+08-1.22896E+10-5.29526E+03
 -1      1222-3.24312E+06-1.54911E+03-1.23298E+06-7.09130E+08-1.15185E+10-5.27633E+03
 -1      1223-3.61297E+06-1.32425E+03-1.37343E+06-7.42016E+08-1.07503E+10-5.25517E+03
 -1      1224-3.99602E+06-1.20431E+03-1.51894E+06-7.65333E+08-9.98533E+09-5.23169E+03
 -1      1225-4.39192E+06-1.27031E+03-1.66941E+06-7.90070E+08-9.22397E+09-5.20579E+03
 -1      1226-4.80003E+06-9.74399E+02-1.82437E+06-8.14130E+08-8.46658E+09-5.17742E+03
 -1      1227-5.21810E+06-9.13040E+02-1.98321E+06-8.28357E+08-7.71350E+09-5.14650E+03
 -1      1228-5.64682E+06-1.05565E+03-2.14619E+06-8.53355E+08-6.96514E+09-5.11297E+03
 -1      1229-6.08385E+06-6.16597E+02-2.31210E+06-8.66990E+08-6.22185E+09-5.07674E+03
 -1      1230-6.52921E+06-9.69663E+02-2.48147E+06-8.82074E+08-5.48405E+09-5.03778E+03
 -1      1231-6.98152E+06-2.97957E+02-2.65309E+06-8.95023E+08-4.75213E+09-4.99606E+03
 -1      1232-7.43948E+06-7.00844E+02-2.82727E+06-9.04353E+08-4.02650E+09-4.95152E+03
 -1      1233-7.90301E+06-4.08841E+02-3.00330E+06-9.16503E+08-3.30757E+09-4.90414E+03
 -1      1234-8.37078E+06-2.86871E+02-3.18100E+06-9.23755E+08-2.59576E+09-4.85389E+03
 -1      1235-8.84160E+06-2.99966E+02-3.35992E+06-9.26521E+08-1.89150E+09-4.80071E+03
 -1      1236-9.31495E+06-6.36246E+01-3.53970E+06-9.30242E+08-1.19519E+09-4.74464E+03
 -1      1237-9.78988E+06-7.17757E+01-3.72017E+06-9.36129E+08-5.07275E+08-4.68564E+03
 -1      1238-1.02651E+07-3.15026E+01-3.90075E+06-9.33857E+08 1.71825E+08-4.62371E+03
 -1      1239-1.07409E+07 1.50620E+02-4.08150E+06-9.33655E+08 8.41676E+08-4.55889E+03
 -1      1240-1.12149E+07 2.21882E+02-4.26156E+06-9.29695E+08 1.50185E+09-4.49112E+03
 -1      1241-1.16872E+07 1.64019E+02-4.44107E+06-9.26075E+08 2.15193E+09-4.42038E+03
 -1      1242-1.21571E+07 5.47134E+02-4.61949E+06-9.19440E+08 2.79148E+09-4.34673E+03
 -1      1243-1.26224E+07 1.99373E+02-4.79644E+06-9.08948E+08 3.42008E+09-4.27022E+03
 -1      1244-1.30848E+07 5.61968E+02-4.97199E+06-9.07436E+08 4.03731E+09-4.19085E+03
 -1      1245-1.35412E+07 8.64327E+02-5.14532E+06-8.88415E+08 4.64276E+09-4.10863E+03
 -1      1246-1.39911E+07 2.62897E+02-5.31652E+06-8.79481E+08 5.23601E+09-4.02358E+03
 -1      1247-1.44357E+07 9.80609E+02-5.48520E+06-8.62535E+08 5.81666E+09-3.93580E+03
 -1      1248-1.48721E+07 8.23677E+02-5.65108E+06-8.52597E+08 6.38431E+09-3.84534E+03
 -1      1249-1.52997E+07 6.73246E+02-5.81363E+06-8.32838E+08 6.93857E+09-3.75219E+03
 -1      1250-1.57202E+07 1.10006E+03-5.97326E+06-8.15139E+08 7.47904E+09-3.65639E+03
 -1      1251-1.61300E+07 1.05175E+03-6.12899E+06-7.95625E+08 8.00536E+09-3.55800E+03
 -1      1252-1.65291E+07 9.39639E+02-6.28071E+06-7.74698E+08 8.51715E+09-3.45715E+03
 -1      1253-1.69183E+07 1.29394E+03-6.42847E+06-7.53797E+08 9.01406E+09-3.35389E+03
 -1      1254-1.72950E+07 1.00429E+03-6.57173E+06-7.25171E+08 9.49573E+09-3.24822E+03
 -1      1255-1.76616E+07 1.36573E+03-6.71091E+06-7.13350E+08 9.96182E+09-3.14023E+03
 -1      1256-1.80138E+07 1.56183E+03-6.84466E+06-6.75105E+08 1.04120E+10-3.03009E+03
 -1      1257-1.83521E+07 8.96583E+02-6.97343E+06-6.50814E+08 1.08460E+10-2.91780E+03
 -1      1258-1.86784E+07 1.78568E+03-7.09711E+06-6.28734E+08 1.12634E+10-2.80343E+03
 -1      1259-1.89887E+07 1.26936E+03-7.21521E+06-5.95837E+08 1.16640E+10-2.68712E+03
 -1      1260-1.92854E+07 1.46308E+03-7.32788E+06-5.71164E+08 1.20475E+10-2.56892E+03
 -1      1261-1.95666E+07 1.82894E+03-7.43461E+06-5.28663E+08 1.24137E+10-2.44894E+03
 -1      1262-1.98307E+07 1.37523E+03-7.53515E+06-5.08962E+08 1.27622E+10-2.32729E+03
 -1      1263-2.00796E+07 1.75838E+03-7.62959E+06-4.71798E+08 1.30928E+10-2.20405E+03
 -1      1264-2.03116E+07 1.76870E+03-7.71774E+06-4.39641E+08 1.34054E+10-2.07928E+03
 -1      1265-2.05262E+07 1.51309E+03-7.79938E+06-4.00622E+08 1.36997E+10-1.95318E+03
 -1      1266-2.07244E+07 2.03879E+03-7.87450E+06-3.78471E+08 1.39755E+10-1.82584E+03
 -1      1267-2.09035E+07 1.88937E+03-7.94260E+06-3.30889E+08 1.42327E+10-1.69729E+03
 -1      1268-2.10640E+07 1.37730E+03-8.00381E+06-2.95312E+08 1.44710E+10-1.56770E+03
 -1      1269-2.12085E+07 2.28868E+03-8.05836E+06-2.67163E+08 1.46903E+10-1.43715E+03
 -1      1270-2.13318E+07 1.74447E+03-8.10541E+06-2.23643E+08 1.48905E+10-1.30580E+03
 -1      1271-2.14367E+07 1.69375E+03-8.14528E+06-1.93396E+08 1.50716E+10-1.17375E+03
 -1      1272-2.15236E+07 2.35162E+03-8.17807E+06-1.40424E+08 1.52333E+10-1.04103E+03
 -1      1273-2.15893E+07 1.54088E+03-8.20333E+06-1.17084E+08 1.53756E+10-9.07873E+02
 -1      1274-2.16363E+07 2.34537E+03-8.22088E+06-7.22875E+07 1.54985E+10-7.74425E+02
 -1      1275-2.16632E+07 1.49053E+03-8.23146E+06-2.89245E+07 1.56020E+10-6.40700E+02
 -1      1276-2.16713E+07 2.40211E+03-8.23418E+06-3.68604E+06 1.56859E+10-5.06915E+02
 -1      1277-2.16580E+07 1.82293E+03-8.22935E+06 5.03067E+07 1.57503E+10-3.73111E+02
 -1      1278-2.16246E+07 1.96819E+03-8.21659E+06 8.31059E+07 1.57951E+10-2.39436E+02
 -1      1279-2.15722E+07 2.03346E+03-8.19666E+06 1.28221E+08 1.58205E+10-1.06088E+02
 -1      1280-2.14986E+07 1.97431E+03-8.16872E+06 1.60025E+08 1.58265E+10 2.69529E+01
 -1      1281-2.14055E+07 2.08576E+03-8.13330E+06 1.99618E+08 1.58131E+10 1.59475E+02
 -1      1282-2.12914E+07 1.87595E+03-8.09003E+06 2.46894E+08 1.57805E+10 2.91335E+02
 -1      1283-2.11582E+07 1.97749E+03-8.03935E+06 2.85875E+08 1.57287E+10 4.22444E+02
 -1      1284-2.10048E+07 2.06423E+03-7.98106E+06 3.17988E+08 1.56578E+10 5.52643E+02
 -1      1285-2.08296E+07 2.03865E+03-7.91449E+06 3.60991E+08 1.55680E+10 6.81819E+02
 -1      1286-2.06365E+07 1.53007E+03-7.84130E+06 4.04289E+08 1.54594E+10 8.09884E+02
 -1      1287-2.04239E+07 2.48171E+03-7.76013E+06 4.30144E+08 1.53323E+10 9.36703E+02
 -1      1288-2.01905E+07 1.63056E+03-7.67178E+06 4.81806E+08 1.51867E+10 1.06211E+03
 -1      1289-1.99376E+07 1.90104E+03-7.57555E+06 5.13268E+08 1.50230E+10 1.18603E+03
 -1      1290-1.96670E+07 1.98013E+03-7.47270E+06 5.55946E+08 1.48413E+10 1.30831E+03
 -1      1291-1.93759E+07 1.72310E+03-7.36217E+06 5.85784E+08 1.46419E+10 1.42886E+03
 -1      1292-1.90673E+07 1.80759E+03-7.24487E+06 6.21427E+08 1.44251E+10 1.54759E+03
 -1      1293-1.87397E+07 1.91532E+03-7.12037E+06 6.69270E+08 1.41911E+10 1.66436E+03
 -1      1294-1.83941E+07 1.53886E+03-6.98916E+06 6.91932E+08 1.39402E+10 1.77899E+03
 -1      1295-1.80303E+07 2.16686E+03-6.85069E+06 7.31887E+08 1.36727E+10 1.89140E+03
 -1      1296-1.76492E+07 9.87640E+02-6.70630E+06 7.65392E+08 1.33891E+10 2.00162E+03
 -1      1297-1.72522E+07 2.30509E+03-6.55495E+06 7.97606E+08 1.30895E+10 2.10946E+03
 -1      1298-1.68383E+07 1.32089E+03-6.39806E+06 8.31541E+08 1.27744E+10 2.21471E+03
 -1      1299-1.64048E+07 1.78602E+03-6.23315E+06 8.61860E+08 1.24441E+10 2.31736E+03
 -1      1300-1.59601E+07 1.00229E+03-6.06447E+06 8.93010E+08 1.20990E+10 2.41732E+03
 -1      1301-1.54964E+07 2.30865E+03-5.88773E+06 9.26396E+08 1.17396E+10 2.51443E+03
 -1      1302-1.50210E+07 4.00317E+02-5.70783E+06 9.45807E+08 1.13662E+10 2.60865E+03
 -1      1303-1.45273E+07 2.66644E+03-5.51935E+06 9.83265E+08 1.09793E+10 2.69989E+03
 -1      1304-1.40235E+07-1.87820E+02-5.32902E+06 1.00933E+09 1.05793E+10 2.78808E+03
 -1      1305-1.35019E+07 2.91004E+03-5.12960E+06 1.03009E+09 1.01667E+10 2.87309E+03
 -1      1306-1.29729E+07-4.21295E+02-4.92987E+06 1.05864E+09 9.74187E+09 2.95480E+03
 -1      1307-1.24238E+07 2.90067E+03-4.71993E+06 1.08173E+09 9.30540E+09 3.03319E+03
 -1      1308-1.18730E+07-9.69819E+02-4.51208E+06 1.10450E+09 8.85775E+09 3.10819E+03
 -1      1309-1.12991E+07 3.76061E+03-4.29221E+06 1.12644E+09 8.39940E+09 3.17977E+03
 -1      1310-1.07270E+07-2.28441E+03-4.07713E+06 1.14669E+09 7.93087E+09 3.24781E+03
 -1      1311-1.01303E+07 4.66665E+03-3.84773E+06 1.16571E+09 7.45269E+09 3.31218E+03
 -1      1312-9.54278E+06-3.26811E+03-3.62749E+06 1.18637E+09 6.96537E+09 3.37290E+03
 -1      1313-8.92253E+06 5.52889E+03-3.38845E+06 1.19716E+09 6.46948E+09 3.42994E+03
 -1      1314-8.32320E+06-4.46256E+03-3.16450E+06 1.21846E+09 5.96554E+09 3.48316E+03
 -1      1315-7.68073E+06 6.52499E+03-2.91618E+06 1.23204E+09 5.45411E+09 3.53255E+03
 -1      1316-7.07487E+06-6.10471E+03-2.69076E+06 1.24238E+09 4.93575E+09 3.57810E+03
 -1      1317-6.40945E+06 8.84440E+03-2.43222E+06 1.25603E+09 4.41104E+09 3.61971E+03
 -1      1318-5.80251E+06-1.15537E+04-2.20933E+06 1.26456E+09 3.88053E+09 3.65736E+03
 -1      1319-5.11684E+06 2.26932E+04-1.93576E+06 1.27724E+09 3.34482E+09 3.69107E+03
 -1      1320-4.50233E+06-4.96911E+04-1.72976E+06 1.28153E+09 2.80449E+09 3.72075E+03
 -1      1321-3.83428E+06 1.22231E+05-1.41056E+06 1.28927E+09 2.26011E+09 3.74644E+03
 -1      1322-3.21511E+06-2.64329E+05-1.32217E+06 1.29476E+09 1.71228E+09 3.31840E+03
 -1      1323-2.46271E+06 2.10955E+05-8.55659E+05 1.29654E+09 1.16159E+09 2.43534E+03
 -1      1324-1.86243E+06-9.95537E+04-7.45541E+05 1.30047E+09 6.08647E+08 1.99508E+03
 -1      1325-1.17208E+06 5.31612E+04-4.25174E+05 1.30050E+09 5.40258E+07 1.99993E+03
 -1      1326-5.49822E+05-3.20990E+04-2.21113E+05 1.30031E+09-5.01668E+08 2.00272E+03
 -1      1327 1.51157E+05 2.14805E+04 6.56178E+04 1.29821E+09-1.05784E+09 2.00329E+03
 -1      1328 7.75306E+05-1.57804E+04 2.88632E+05 1.29475E+09-1.61389E+09 2.00178E+03
 -1      1329 1.46434E+06 1.20341E+04 5.61034E+05 1.29049E+09-2.16923E+09 1.99814E+03
 -1      1330 2.09332E+06-1.07493E+04 7.91393E+05 1.28300E+09-2.72326E+09 1.99234E+03
 -1      1331 2.76654E+06 9.45936E+03 1.05490E+06 1.27712E+09-3.27539E+09 1.98442E+03
 -1      1332 3.39648E+06-9.13371E+03 1.28721E+06 1.26753E+09-3.82504E+09 1.97446E+03
 -1      1333 4.05344E+06 7.35704E+03 1.54312E+06 1.25629E+09-4.37163E+09 1.96235E+03
 -1      1334 4.67836E+06-5.58616E+03 1.77567E+06 1.24764E+09-4.91457E+09 1.94812E+03
 -1      1335 5.32011E+06 2.77038E+03 2.02271E+06 1.23118E+09-5.45329E+09 1.93186E+03
 -1      1336 5.93447E+06-3.81350E+03 2.25366E+06 1.21876E+09-5.98723E+09 1.91359E+03
 -1      1337 6.55818E+06 2.37807E+03 2.49303E+06 1.20113E+09-6.51582E+09 1.89331E+03
 -1      1338 7.15909E+06-1.12597E+02 2.72042E+06 1.18713E+09-7.03851E+09 1.87107E+03
 -1      1339 7.76519E+06-2.24280E+03 2.94993E+06 1.16854E+09-7.55475E+09 1.84689E+03
 -1      1340 8.34874E+06-1.72650E+03 3.17188E+06 1.14463E+09-8.06399E+09 1.82072E+03
 -1      1341 8.93078E+06 2.90517E+03 3.39482E+06 1.12877E+09-8.56571E+09 1.79268E+03
 -1      1342 9.49678E+06-2.85523E+03 3.60771E+06 1.10465E+09-9.05940E+09 1.76279E+03
 -1      1343 1.00560E+07-1.73308E+03 3.82064E+06 1.08153E+09-9.54454E+09 1.73104E+03
 -1      1344 1.05965E+07 1.84161E+03 4.02738E+06 1.05478E+09-1.00206E+10 1.69755E+03
 -1      1345 1.11313E+07-3.60317E+02 4.22976E+06 1.03573E+09-1.04871E+10 1.66228E+03
 -1      1346 1.16485E+07-4.12930E+03 4.42486E+06 1.00146E+09-1.09436E+10 1.62532E+03
 -1      1347 1.21526E+07 6.21726E+02 4.61822E+06 9.77105E+08-1.13897E+10 1.58671E+03
 -1      1348 1.26418E+07-1.70411E+03 4.80325E+06 9.44820E+08-1.18247E+10 1.54646E+03
 -1      1349 1.31154E+07 4.65873E+03 4.98564E+06 9.19330E+08-1.22484E+10 1.50471E+03
 -1      1350 1.35771E+07-7.65631E+03 5.15641E+06 8.88532E+08-1.26603E+10 1.46143E+03
 -1      1351 1.40183E+07 2.20513E+02 5.32704E+06 8.47859E+08-1.30600E+10 1.41663E+03
 -1      1352 1.44431E+07 2.67232E+03 5.48940E+06 8.24169E+08-1.34470E+10 1.37048E+03
 -1      1353 1.48548E+07-4.10909E+03 5.64327E+06 7.85233E+08-1.38210E+10 1.32299E+03
 -1      1354 1.52434E+07 3.78760E+02 5.79263E+06 7.51442E+08-1.41817E+10 1.27418E+03
 -1      1355 1.56186E+07-2.01811E+03 5.93432E+06 7.15196E+08-1.45286E+10 1.22412E+03
 -1      1356 1.59724E+07 5.97056E+01 6.06955E+06 6.77859E+08-1.48614E+10 1.17286E+03
 -1      1357 1.63085E+07-3.41851E+03 6.19595E+06 6.41307E+08-1.51799E+10 1.12048E+03
 -1      1358 1.66245E+07-4.18915E+02 6.31719E+06 5.98825E+08-1.54837E+10 1.06710E+03
 -1      1359 1.69195E+07 4.01016E+03 6.43094E+06 5.66024E+08-1.57725E+10 1.01274E+03
 -1      1360 1.71989E+07-5.19729E+03 6.53362E+06 5.26143E+08-1.60460E+10 9.57369E+02
 -1      1361 1.74552E+07-5.68445E+03 6.63084E+06 4.79121E+08-1.63041E+10 9.01129E+02
 -1      1362 1.76870E+07 4.01855E+03 6.72259E+06 4.38526E+08-1.65465E+10 8.44190E+02
 -1      1363 1.79026E+07 8.67504E+01 6.80304E+06 4.03396E+08-1.67729E+10 7.86498E+02
 -1      1364 1.80966E+07-4.33428E+03 6.87507E+06 3.56496E+08-1.69832E+10 7.28087E+02
 -1      1365 1.82653E+07 3.48990E+02 6.94096E+06 3.14436E+08-1.71773E+10 6.69101E+02
 -1      1366 1.84165E+07-1.91402E+03 6.99754E+06 2.71588E+08-1.73548E+10 6.09611E+02
 -1      1367 1.85431E+07-5.49343E+02 7.04617E+06 2.27079E+08-1.75158E+10 5.49673E+02
 -1      1368 1.86469E+07-3.71527E+03 7.08442E+06 1.83752E+08-1.76601E+10 4.89370E+02
 -1      1369 1.87293E+07-7.11436E+01 7.11712E+06 1.35474E+08-1.77876E+10 4.28760E+02
 -1      1370 1.87867E+07 3.99891E+03 7.14047E+06 9.75626E+07-1.78982E+10 3.67910E+02
 -1      1371 1.88266E+07-5.66097E+03 7.15197E+06 5.24113E+07-1.79919E+10 3.06912E+02
 -1      1372 1.88403E+07-6.06718E+03 7.15702E+06 4.03522E+05-1.80687E+10 2.45857E+02
 -1      1373 1.88274E+07 4.20837E+03 7.15600E+06-4.44071E+07-1.81285E+10 1.84726E+02
 -1      1374 1.87965E+07-6.53755E+01 7.14265E+06-8.29566E+07-1.81713E+10 1.23714E+02
 -1      1375 1.87411E+07-3.99538E+03 7.12008E+06-1.33341E+08-1.81972E+10 6.28766E+01
 -1      1376 1.86620E+07-4.37639E+02 7.09139E+06-1.77527E+08-1.82062E+10 2.22339E+00
 -1      1377 1.85600E+07-1.98317E+03 7.05204E+06-2.24410E+08-1.81984E+10-5.80821E+01
 -1      1378 1.84334E+07 3.30554E+02 7.00481E+06-2.68745E+08-1.81739E+10-1.18049E+02
 -1      1379 1.82863E+07-5.58051E+03 6.94666E+06-3.14980E+08-1.81329E+10-1.77589E+02
 -1      1380 1.81122E+07 4.22411E+03 6.88422E+06-3.63544E+08-1.80753E+10-2.36589E+02
 -1      1381 1.79195E+07-1.79361E+03 6.80873E+06-3.98642E+08-1.80014E+10-2.95004E+02
 -1      1382 1.77020E+07-5.46736E+03 6.72466E+06-4.54586E+08-1.79114E+10-3.52748E+02
 -1      1383 1.74596E+07-1.03177E+02 6.63460E+06-4.94379E+08-1.78055E+10-4.09706E+02
 -1      1384 1.71968E+07-5.06526E+02 6.53458E+06-5.42895E+08-1.76838E+10-4.65872E+02
 -1      1385 1.69103E+07 1.22010E+03 6.42638E+06-5.80657E+08-1.75466E+10-5.21191E+02
 -1      1386 1.66029E+07-4.11009E+03 6.30753E+06-6.28090E+08-1.73942E+10-5.75507E+02
 -1      1387 1.62721E+07-1.93577E+02 6.18332E+06-6.71005E+08-1.72269E+10-6.28786E+02
 -1      1388 1.59199E+07-1.98983E+03 6.04881E+06-7.14026E+08-1.70449E+10-6.80954E+02
 -1      1389 1.55445E+07 1.83731E+02 5.90699E+06-7.56660E+08-1.68486E+10-7.31946E+02
 -1      1390 1.51505E+07-4.65283E+03 5.75539E+06-7.97978E+08-1.66383E+10-7.81711E+02
 -1      1391 1.47311E+07 3.00313E+03 5.59894E+06-8.43353E+08-1.64143E+10-8.30116E+02
 -1      1392 1.42946E+07-3.95470E+02 5.43178E+06-8.74622E+08-1.61771E+10-8.77157E+02
 -1      1393 1.38376E+07-7.83206E+03 5.25530E+06-9.24695E+08-1.59270E+10-9.22759E+02
 -1      1394 1.33555E+07 4.38771E+03 5.07676E+06-9.62172E+08-1.56644E+10-9.66848E+02
 -1      1395 1.28586E+07-1.85669E+03 4.88554E+06-9.97115E+08-1.53898E+10-1.00933E+03
 -1      1396 1.23388E+07-3.49354E+01 4.68872E+06-1.03853E+09-1.51036E+10-1.05015E+03
 -1      1397 1.18026E+07-3.78519E+03 4.48357E+06-1.07245E+09-1.48063E+10-1.08932E+03
 -1      1398 1.12454E+07-1.47278E+03 4.27269E+06-1.11669E+09-1.44984E+10-1.12668E+03
 -1      1399 1.06686E+07 2.61648E+03 4.05507E+06-1.14521E+09-1.41804E+10-1.16220E+03
 -1      1400 1.00773E+07-3.70859E+03 3.82799E+06-1.18353E+09-1.38527E+10-1.19586E+03
 -1      1401 9.46507E+06 5.93245E+01 3.59675E+06-1.21737E+09-1.35160E+10-1.22755E+03
 -1      1402 8.83759E+06-1.37000E+03 3.35777E+06-1.25064E+09-1.31708E+10-1.25725E+03
 -1      1403 8.19242E+06-4.86250E+02 3.11294E+06-1.28356E+09-1.28176E+10-1.28487E+03
 -1      1404 7.53095E+06-1.98384E+03 2.86102E+06-1.31486E+09-1.24570E+10-1.31036E+03
 -1      1405 6.85353E+06 5.14221E+01 2.60436E+06-1.34719E+09-1.20896E+10-1.33369E+03
 -1      1406 6.16084E+06-3.14075E+02 2.34100E+06-1.37436E+09-1.17161E+10-1.35482E+03
 -1      1407 5.45316E+06-9.79929E+02 2.07183E+06-1.40484E+09-1.13370E+10-1.37367E+03
 -1      1408 4.73158E+06-1.56626E+03 1.79741E+06-1.43150E+09-1.09530E+10-1.39017E+03
 -1      1409 3.99530E+06-1.03419E+03 1.51783E+06-1.46104E+09-1.05648E+10-1.40433E+03
 -1      1410 3.24507E+06 7.07993E+02 1.23341E+06-1.48465E+09-1.01729E+10-1.41606E+03
 -1      1411 2.48330E+06-1.94299E+03 9.42928E+05-1.51051E+09-9.77818E+09-1.42536E+03
 -1      1412 1.70781E+06-7.62177E+01 6.48945E+05-1.53490E+09-9.38118E+09-1.43214E+03
 -1      1413 9.20924E+05-6.67484E+02 3.49705E+05-1.55694E+09-8.98264E+09-1.43643E+03
 -1      1414 1.22651E+05-9.27718E+02 4.62634E+04-1.57970E+09-8.58328E+09-1.43815E+03
 -1      1415-6.87093E+05-2.19416E+02-2.61174E+05-1.60035E+09-8.18380E+09-1.43722E+03
 -1      1416-1.50673E+06-5.70528E+02-5.72769E+05-1.62039E+09-7.78495E+09-1.43370E+03
 -1      1417-2.33635E+06-1.35188E+03-8.88322E+05-1.63974E+09-7.38745E+09-1.42747E+03
 -1      1418-3.17588E+06 2.01375E+01-1.20682E+06-1.65827E+09-6.99206E+09-1.41856E+03
 -1      1419-4.02448E+06 7.63535E+02-1.52901E+06-1.67361E+09-6.59953E+09-1.40689E+03
 -1      1420-4.87983E+06-1.64544E+03-1.85496E+06-1.68996E+09-6.21063E+09-1.39244E+03
 -1      1421-5.74518E+06-1.01533E+03-2.18355E+06-1.70674E+09-5.82613E+09-1.37521E+03
 -1      1422-6.61690E+06 7.13885E+02-2.51415E+06-1.71975E+09-5.44679E+09-1.35520E+03
 -1      1423-7.49584E+06-1.03254E+03-2.84880E+06-1.73284E+09-5.07342E+09-1.33233E+03
 -1      1424-8.38124E+06 3.60801E+02-3.18473E+06-1.74555E+09-4.70681E+09-1.30656E+03
 -1      1425-9.27236E+06-1.41222E+03-3.52403E+06-1.75607E+09-4.34774E+09-1.27794E+03
 -1      1426-1.01697E+07 1.99501E+03-3.86371E+06-1.76783E+09-3.99702E+09-1.24643E+03
 -1      1427-1.10716E+07-1.69797E+03-4.20784E+06-1.77365E+09-3.65547E+09-1.21202E+03
 -1      1428-1.19766E+07-2.87465E+03-4.55220E+06-1.78880E+09-3.32389E+09-1.17466E+03
 -1      1429-1.28902E+07 1.51686E+03-4.89771E+06-1.79377E+09-3.00309E+09-1.13434E+03
 -1      1430-1.38048E+07 4.78773E+03-5.24399E+06-1.79979E+09-2.69391E+09-1.09108E+03
 -1      1431-1.47208E+07-5.90655E+03-5.59614E+06-1.80168E+09-2.39716E+09-1.04485E+03
 -1      1432-1.56429E+07 6.12485E+02-5.94406E+06-1.81941E+09-2.11367E+09-9.95602E+02
 -1      1433-1.65677E+07 1.65359E+02-6.29565E+06-1.81175E+09-1.84427E+09-9.43375E+02
 -1      1434-1.74929E+07 1.20104E+03-6.64686E+06-1.82819E+09-1.58979E+09-8.88144E+02
 -1      1435-1.84228E+07-1.88715E+03-7.00138E+06-1.81718E+09-1.35107E+09-8.29910E+02
 -1      1436-1.93513E+07 1.21521E+03-7.35303E+06-1.83867E+09-1.12895E+09-7.68715E+02
 -1      1437-2.02844E+07 1.41620E+03-7.70752E+06-1.81809E+09-9.24247E+08-7.04432E+02
 -1      1438-2.12143E+07-2.74856E+03-8.06246E+06-1.84574E+09-7.37818E+08-6.37119E+02
 -1      1439-2.21494E+07-4.03878E+03-8.41830E+06-1.82144E+09-5.70500E+08-5.66879E+02
 -1      1440-2.30882E+07 1.02014E+04-8.76962E+06-1.85918E+09-4.23131E+08-4.93544E+02
 -1      1441-2.40134E+07 3.50375E+03-9.12375E+06-1.79614E+09-2.96556E+08-4.17125E+02
 -1      1442-2.49652E+07-5.21621E+04-9.50659E+06-1.88990E+09-1.91612E+08-3.37750E+02
 -1      1443-2.58484E+07 1.92710E+05-9.74914E+06-1.77789E+09-1.09147E+08-2.55327E+02
 -1      1444-2.69832E+07-6.87664E+05-1.05149E+07-1.90409E+09-4.99958E+07-1.69873E+02
 -1      1445-2.71745E+07 2.49381E+06-9.37868E+06-1.78284E+09-1.50147E+07-8.12837E+01
 -1      1446-2.66323E+07-9.16650E+06-1.36035E+07-2.24065E+09-3.68382E+06-3.61673E+01
 -1      1447 7.15525E+07 3.79078E+07 4.15949E+07-1.15745E+05 2.36363E+10-6.73838E+07
 -1      1448 2.53282E+08 3.69702E+07 1.10296E+08-4.32017E+07 2.32432E+10-6.73831E+07
 -1      1449 8.10519E+08 3.64067E+07 3.21832E+08-8.48620E+07 2.24570E+10-6.73799E+07
 -1      1450 1.72760E+09 3.42883E+07 6.69519E+08-1.25161E+08 2.16709E+10-6.73720E+07
 -1      1451 2.98905E+09 3.42936E+07 1.14887E+09-1.63734E+08 2.08849E+10-6.73574E+07
 -1      1452 4.58547E+09 2.96569E+07 1.75375E+09-2.01348E+08 2.00992E+10-6.73340E+07
 -1      1453 6.49916E+09 3.49118E+07 2.48295E+09-2.37254E+08 1.93137E+10-6.72999E+07
 -1      1454 8.72512E+09 2.59379E+07 3.32540E+09-2.71447E+08 1.85288E+10-6.72528E+07
 -1      1455 1.12429E+10 3.07860E+07 4.28399E+09-3.04968E+08 1.77445E+10-6.71911E+07
 -1      1456 1.40454E+10 2.65971E+07 5.34734E+09-3.36008E+08 1.69610E+10-6.71130E+07
 -1      1457 1.71207E+10 2.22976E+07 6.51432E+09-3.66568E+08 1.61785E+10-6.70168E+07
 -1      1458 2.04469E+10 3.11590E+07 7.78168E+09-3.96070E+08 1.53972E+10-6.69009E+07
 -1      1459 2.40273E+10 2.05346E+07 9.13818E+09-4.21561E+08 1.46174E+10-6.67635E+07
 -1      1460 2.78366E+10 1.67593E+07 1.05843E+10-4.49911E+08 1.38394E+10-6.66033E+07
 -1      1461 3.18622E+10 2.73384E+07 1.21180E+10-4.72074E+08 1.30633E+10-6.64190E+07
 -1      1462 3.61092E+10 2.28082E+07 1.37302E+10-4.95942E+08 1.22896E+10-6.62091E+07
 -1      1463 4.05380E+10 4.91407E+06 1.54063E+10-5.19789E+08 1.15185E+10-6.59723E+07
 -1      1464 4.51561E+10 3.60590E+07 1.71730E+10-5.36754E+08 1.07503E+10-6.57078E+07
 -1      1465 4.99497E+10 6.46894E+05 1.89811E+10-5.58264E+08 9.98530E+09-6.54140E+07
 -1      1466 5.48940E+10 2.37494E+07 2.08688E+10-5.73376E+08 9.22395E+09-6.50902E+07
 -1      1467 5.99972E+10 9.79686E+06 2.28027E+10-5.90826E+08 8.46655E+09-6.47354E+07
 -1      1468 6.52242E+10 1.96867E+06 2.47859E+10-6.06957E+08 7.71348E+09-6.43487E+07
 -1      1469 7.05754E+10 3.46931E+07 2.68319E+10-6.18171E+08 6.96511E+09-6.39294E+07
 -1      1470 7.60470E+10-1.20605E+07 2.88933E+10-6.30885E+08 6.22183E+09-6.34766E+07
 -1      1471 8.16085E+10 2.08789E+07 3.10192E+10-6.41124E+08 5.48402E+09-6.29897E+07
 -1      1472 8.72629E+10 2.82152E+06 3.31610E+10-6.51477E+08 4.75210E+09-6.24682E+07
 -1      1473 9.29888E+10 6.64064E+06 3.53383E+10-6.59397E+08 4.02647E+09-6.19116E+07
 -1      1474 9.87785E+10 1.32624E+07 3.75409E+10-6.65027E+08 3.30754E+09-6.13194E+07
 -1      1475 1.04629E+11-2.38847E+06 3.97583E+10-6.69760E+08 2.59573E+09-6.06912E+07
 -1      1476 1.10516E+11-4.44233E+06 4.19943E+10-6.76327E+08 1.89147E+09-6.00268E+07
 -1      1477 1.16426E+11 9.63990E+06 4.42455E+10-6.78494E+08 1.19516E+09-5.93260E+07
 -1      1478 1.22365E+11 9.68206E+06 4.65024E+10-6.78718E+08 5.07245E+08-5.85886E+07
 -1      1479 1.28310E+11-1.98303E+07 4.87502E+10-6.79629E+08-1.71855E+08-5.78144E+07
 -1      1480 1.34251E+11 1.19700E+07 5.10198E+10-6.78039E+08-8.41706E+08-5.70036E+07
 -1      1481 1.40177E+11-7.01282E+06 5.32645E+10-6.77438E+08-1.50188E+09-5.61561E+07
 -1      1482 1.46081E+11-2.03033E+05 5.55108E+10-6.72453E+08-2.15196E+09-5.52721E+07
 -1      1483 1.51954E+11-7.91841E+06 5.77394E+10-6.69645E+08-2.79151E+09-5.43517E+07
 -1      1484 1.57771E+11-5.02975E+06 5.99510E+10-6.64041E+08-3.42011E+09-5.33953E+07
 -1      1485 1.63546E+11 5.06597E+06 6.21494E+10-6.53451E+08-4.03734E+09-5.24030E+07
 -1      1486 1.69256E+11-1.79655E+07 6.43105E+10-6.50311E+08-4.64279E+09-5.13752E+07
 -1      1487 1.74883E+11-1.80589E+07 6.64487E+10-6.39357E+08-5.23604E+09-5.03124E+07
 -1      1488 1.80430E+11-1.61072E+05 6.85634E+10-6.30233E+08-5.81669E+09-4.92152E+07
 -1      1489 1.85887E+11 5.27217E+06 7.06389E+10-6.17126E+08-6.38434E+09-4.80839E+07
 -1      1490 1.91243E+11-4.03420E+07 7.26570E+10-6.05886E+08-6.93860E+09-4.69193E+07
 -1      1491 1.96486E+11 3.99383E+06 7.46660E+10-5.91752E+08-7.47907E+09-4.57219E+07
 -1      1492 2.01608E+11-4.17752E+06 7.66096E+10-5.79917E+08-8.00539E+09-4.44925E+07
 -1      1493 2.06604E+11-2.20420E+07 7.85011E+10-5.63542E+08-8.51718E+09-4.32319E+07
 -1      1494 2.11471E+11-2.72571E+07 8.03484E+10-5.47633E+08-9.01408E+09-4.19408E+07
 -1      1495 2.16174E+11-1.59110E+07 8.21402E+10-5.31937E+08-9.49575E+09-4.06202E+07
 -1      1496 2.20748E+11 1.44790E+07 8.38898E+10-5.08008E+08-9.96184E+09-3.92709E+07
 -1      1497 2.25163E+11-4.31599E+07 8.55455E+10-4.98391E+08-1.04120E+10-3.78938E+07
 -1      1498 2.29387E+11-8.26936E+06 8.71638E+10-4.76275E+08-1.08460E+10-3.64901E+07
 -1      1499 2.33460E+11-7.32274E+06 8.87120E+10-4.53624E+08-1.12634E+10-3.50607E+07
 -1      1500 2.37349E+11-2.92153E+07 9.01814E+10-4.33775E+08-1.16640E+10-3.36068E+07
 -1      1501 2.41056E+11-3.36065E+07 9.15885E+10-4.09605E+08-1.20475E+10-3.21294E+07
 -1      1502 2.44562E+11-8.32354E+06 9.29303E+10-3.94292E+08-1.24137E+10-3.06297E+07
 -1      1503 2.47865E+11-3.50898E+06 9.41872E+10-3.65605E+08-1.27622E+10-2.91090E+07
 -1      1504 2.50983E+11-3.56186E+07 9.53601E+10-3.43521E+08-1.30929E+10-2.75685E+07
 -1      1505 2.53885E+11-3.79688E+07 9.64618E+10-3.19120E+08-1.34054E+10-2.60094E+07
 -1      1506 2.56556E+11-6.05928E+06 9.74890E+10-2.96104E+08-1.36997E+10-2.44330E+07
 -1      1507 2.59033E+11-1.64287E+06 9.84319E+10-2.64996E+08-1.39755E+10-2.28408E+07
 -1      1508 2.61286E+11-6.20749E+07 9.92651E+10-2.46564E+08-1.42327E+10-2.12340E+07
 -1      1509 2.63285E+11-1.69683E+07 1.00042E+11-2.18847E+08-1.44710E+10-1.96140E+07
 -1      1510 2.65078E+11 2.49014E+06 1.00731E+11-1.88004E+08-1.46903E+10-1.79823E+07
 -1      1511 2.66631E+11-2.03107E+07 1.01312E+11-1.65299E+08-1.48905E+10-1.63403E+07
 -1      1512 2.67953E+11-6.04062E+07 1.01799E+11-1.33384E+08-1.50716E+10-1.46894E+07
 -1      1513 2.69021E+11-7.42227E+06 1.02225E+11-1.13780E+08-1.52333E+10-1.30311E+07
 -1      1514 2.69843E+11 2.14434E+06 1.02541E+11-7.92210E+07-1.53756E+10-1.13670E+07
 -1      1515 2.70449E+11-7.37850E+07 1.02743E+11-5.29032E+07-1.54985E+10-9.69852E+06
 -1      1516 2.70768E+11 2.91514E+06 1.02893E+11-2.60526E+07-1.56019E+10-8.02715E+06
 -1      1517 2.70867E+11-1.25493E+07 1.02925E+11 8.76208E+06-1.56858E+10-6.35450E+06
 -1      1518 2.70715E+11-4.29438E+07 1.02855E+11 2.95718E+07-1.57502E+10-4.68200E+06
 -1      1519 2.70294E+11-3.73441E+07 1.02697E+11 6.15250E+07-1.57951E+10-3.01128E+06
 -1      1520 2.69632E+11-1.18529E+07 1.02456E+11 8.87392E+07-1.58205E+10-1.34389E+06
 -1      1521 2.68710E+11-9.65026E+06 1.02106E+11 1.20746E+08-1.58265E+10 3.18597E+05
 -1      1522 2.67555E+11-3.60042E+07 1.01657E+11 1.51122E+08-1.58131E+10 1.97467E+06
 -1      1523 2.66137E+11-6.13690E+07 1.01109E+11 1.73861E+08-1.57804E+10 3.62279E+06
 -1      1524 2.64449E+11 5.94681E+06 1.00493E+11 2.05561E+08-1.57286E+10 5.26134E+06
 -1      1525 2.62534E+11 1.20806E+07 9.97674E+10 2.33944E+08-1.56577E+10 6.88875E+06
 -1      1526 2.60371E+11-8.77483E+07 9.89076E+10 2.62965E+08-1.55679E+10 8.50357E+06
 -1      1527 2.57934E+11 6.65964E+06 9.80175E+10 2.89413E+08-1.54593E+10 1.01042E+07
 -1      1528 2.55276E+11-1.67328E+07 9.69986E+10 3.23423E+08-1.53322E+10 1.16891E+07
 -1      1529 2.52370E+11-3.82733E+07 9.58859E+10 3.43945E+08-1.51867E+10 1.32567E+07
 -1      1530 2.49209E+11-3.46712E+07 9.46862E+10 3.74456E+08-1.50229E+10 1.48057E+07
 -1      1531 2.45815E+11-1.61659E+07 9.34037E+10 4.00248E+08-1.48412E+10 1.63344E+07
 -1      1532 2.42179E+11 3.15585E+06 9.20293E+10 4.29923E+08-1.46419E+10 1.78414E+07
 -1      1533 2.38333E+11-6.52168E+07 9.05416E+10 4.57827E+08-1.44250E+10 1.93253E+07
 -1      1534 2.34230E+11-3.60965E+06 8.90060E+10 4.76936E+08-1.41910E+10 2.07847E+07
 -1      1535 2.29901E+11-6.24565E+06 8.73601E+10 5.08195E+08-1.39401E+10 2.22180E+07
 -1      1536 2.25374E+11-3.72171E+07 8.56278E+10 5.31863E+08-1.36727E+10 2.36239E+07
 -1      1537 2.20604E+11-4.46057E+07 8.38125E+10 5.56890E+08-1.33890E+10 2.50012E+07
 -1      1538 2.15634E+11 2.68706E+06 8.19421E+10 5.83143E+08-1.30894E+10 2.63484E+07
 -1      1539 2.10451E+11 2.21206E+06 7.99723E+10 6.01753E+08-1.27743E+10 2.76642E+07
 -1      1540 2.05062E+11-4.55071E+07 7.79062E+10 6.27600E+08-1.24440E+10 2.89473E+07
 -1      1541 1.99484E+11-2.84651E+07 7.57932E+10 6.49673E+08-1.20989E+10 3.01966E+07
 -1      1542 1.93695E+11-6.77061E+06 7.36016E+10 6.70335E+08-1.17395E+10 3.14108E+07
 -1      1543 1.87736E+11-3.49084E+06 7.13385E+10 6.95786E+08-1.13661E+10 3.25887E+07
 -1      1544 1.81599E+11-4.88950E+07 6.89889E+10 7.10795E+08-1.09792E+10 3.37293E+07
 -1      1545 1.75263E+11 1.75190E+06 6.66007E+10 7.31527E+08-1.05792E+10 3.48313E+07
 -1      1546 1.68777E+11-9.11029E+06 6.41319E+10 7.52510E+08-1.01665E+10 3.58938E+07
 -1      1547 1.62131E+11-2.66036E+07 6.15995E+10 7.69550E+08-9.74175E+09 3.69156E+07
 -1      1548 1.55317E+11-2.05381E+07 5.90127E+10 7.86999E+08-9.30528E+09 3.78960E+07
 -1      1549 1.48364E+11-8.24538E+06 5.63754E+10 8.04411E+08-8.85762E+09 3.88338E+07
 -1      1550 1.41266E+11-2.68481E+06 5.36801E+10 8.18374E+08-8.39927E+09 3.97282E+07
 -1      1551 1.34034E+11-2.89909E+07 5.09219E+10 8.34287E+08-7.93074E+09 4.05783E+07
 -1      1552 1.26680E+11-1.27107E+07 4.81336E+10 8.48865E+08-7.45255E+09 4.13835E+07
 -1      1553 1.19197E+11 3.17558E+06 4.52962E+10 8.59992E+08-6.96524E+09 4.21428E+07
 -1      1554 1.11613E+11-9.51044E+06 4.24092E+10 8.75558E+08-6.46934E+09 4.28556E+07
 -1      1555 1.03927E+11-2.58922E+07 3.94825E+10 8.83687E+08-5.96540E+09 4.35211E+07
 -1      1556 9.61333E+10 1.09784E+06 3.65311E+10 8.94784E+08-5.45397E+09 4.41390E+07
 -1      1557 8.82632E+10-4.20173E+06 3.35384E+10 9.05271E+08-4.93561E+09 4.47084E+07
 -1      1558 8.03124E+10-1.22520E+07 3.05140E+10 9.13338E+08-4.41089E+09 4.52290E+07
 -1      1559 7.22915E+10-9.04604E+06 2.74673E+10 9.21624E+08-3.88039E+09 4.57002E+07
 -1      1560 6.42068E+10-3.09507E+06 2.43974E+10 9.26312E+08-3.34468E+09 4.61218E+07
 -1      1561 5.60672E+10 1.41886E+06 2.13061E+10 9.33422E+08-2.80434E+09 4.64932E+07
 -1      1562 4.78893E+10-1.25267E+07 1.81932E+10 9.37584E+08-2.25996E+09 4.68142E+07
 -1      1563 3.96695E+10 2.35384E+06 1.50753E+10 9.41086E+08-1.71213E+09 4.70855E+07
 -1      1564 3.14275E+10-7.58733E+05 1.19422E+10 9.44376E+08-1.16145E+09 4.73068E+07
 -1      1565 2.31652E+10-4.96262E+06 8.80090E+09 9.45138E+08-6.08498E+08 4.74762E+07
 -1      1566 1.48884E+10 1.89125E+06 5.65832E+09 9.46163E+08-5.38774E+07 4.75937E+07
 -1      1567 6.61411E+09 7.43638E+05 2.51364E+09 9.45612E+08 5.01818E+08 4.76601E+07
 -1      1568-1.65427E+09 1.83417E+06-6.27925E+08 9.44200E+08 1.05799E+09 4.76754E+07
 -1      1569-9.90390E+09 1.31750E+06-3.76298E+09 9.41694E+08 1.61404E+09 4.76397E+07
 -1      1570-1.81306E+10 6.14610E+06-6.88731E+09 9.38057E+08 2.16938E+09 4.75531E+07
 -1      1571-2.63196E+10 3.06194E+06-1.00003E+10 9.34337E+08 2.72340E+09 4.74159E+07
 -1      1572-3.44657E+10 1.34123E+06-1.30965E+10 9.28139E+08 3.27554E+09 4.72281E+07
 -1      1573-4.25634E+10 1.40552E+07-1.61687E+10 9.21806E+08 3.82519E+09 4.69902E+07
 -1      1574-5.05930E+10 1.71410E+06-1.92247E+10 9.14693E+08 4.37178E+09 4.67026E+07
 -1      1575-5.85597E+10 5.62867E+06-2.22505E+10 9.04937E+08 4.91472E+09 4.63655E+07
 -1      1576-6.64453E+10 1.15320E+07-2.52448E+10 8.97215E+08 5.45344E+09 4.59795E+07
 -1      1577-7.42436E+10 1.32541E+07-2.82075E+10 8.85962E+08 5.98737E+09 4.55450E+07
 -1      1578-8.19450E+10 1.31426E+07-3.11341E+10 8.75022E+08 6.51596E+09 4.50627E+07
 -1      1579-8.95429E+10-2.91454E+06-3.40274E+10 8.61334E+08 7.03865E+09 4.45332E+07
 -1      1580-9.70358E+10 2.30652E+07-3.68648E+10 8.48435E+08 7.55488E+09 4.39570E+07
 -1      1581-1.04398E+11 1.14134E+07-3.96671E+10 8.36508E+08 8.06413E+09 4.33350E+07
 -1      1582-1.11632E+11 5.20327E+06-4.24183E+10 8.18852E+08 8.56585E+09 4.26679E+07
 -1      1583-1.18739E+11 2.06422E+07-4.51130E+10 8.03412E+08 9.05953E+09 4.19564E+07
 -1      1584-1.25696E+11 2.53986E+07-4.77548E+10 7.86390E+08 9.54466E+09 4.12016E+07
 -1      1585-1.32493E+11 5.20267E+06-5.03455E+10 7.69359E+08 1.00207E+10 4.04044E+07
 -1      1586-1.39144E+11 1.09600E+07-5.28704E+10 7.47569E+08 1.04873E+10 3.95656E+07
 -1      1587-1.45622E+11 2.51486E+07-5.53268E+10 7.32072E+08 1.09438E+10 3.86862E+07
 -1      1588-1.51922E+11 2.57231E+07-5.77208E+10 7.09880E+08 1.13898E+10 3.77674E+07
 -1      1589-1.58042E+11 1.38581E+07-6.00507E+10 6.89785E+08 1.18249E+10 3.68102E+07
 -1      1590-1.63971E+11 2.78855E+06-6.23078E+10 6.65849E+08 1.22485E+10 3.58159E+07
 -1      1591-1.69720E+11 4.56625E+07-6.44761E+10 6.42286E+08 1.26604E+10 3.47854E+07
 -1      1592-1.75247E+11 1.99914E+07-6.65862E+10 6.23586E+08 1.30601E+10 3.37202E+07
 -1      1593-1.80569E+11 7.22956E+04-6.86163E+10 5.94604E+08 1.34471E+10 3.26215E+07
 -1      1594-1.85690E+11 2.37255E+07-7.05533E+10 5.72908E+08 1.38211E+10 3.14904E+07
 -1      1595-1.90576E+11 4.38813E+07-7.24024E+10 5.45697E+08 1.41817E+10 3.03285E+07
 -1      1596-1.95245E+11 1.31600E+07-7.41880E+10 5.19019E+08 1.45287E+10 2.91371E+07
 -1      1597-1.99677E+11 6.44121E+06-7.58748E+10 4.94460E+08 1.48615E+10 2.79176E+07
 -1      1598-2.03877E+11 5.53164E+07-7.74521E+10 4.65394E+08 1.51800E+10 2.66714E+07
 -1      1599-2.07828E+11 1.02792E+07-7.89708E+10 4.39090E+08 1.54837E+10 2.54001E+07
 -1      1600-2.11530E+11 1.03795E+07-8.03774E+10 4.08063E+08 1.57725E+10 2.41052E+07
 -1      1601-2.14998E+11 3.94576E+07-8.16843E+10 3.77704E+08 1.60461E+10 2.27881E+07
 -1      1602-2.18199E+11 4.11542E+07-8.28999E+10 3.53307E+08 1.63042E+10 2.14504E+07
 -1      1603-2.21126E+11 9.14057E+06-8.40242E+10 3.22083E+08 1.65465E+10 2.00938E+07
 -1      1604-2.23808E+11 1.79752E+07-8.50401E+10 2.89060E+08 1.67730E+10 1.87198E+07
 -1      1605-2.26221E+11 3.63445E+07-8.59502E+10 2.59665E+08 1.69833E+10 1.73302E+07
 -1      1606-2.28353E+11 5.41940E+07-8.67536E+10 2.28164E+08 1.71773E+10 1.59264E+07
 -1      1607-2.30220E+11 4.25630E+06-8.74819E+10 1.94568E+08 1.73549E+10 1.45104E+07
 -1      1608-2.31806E+11-3.89729E+06-8.80876E+10 1.68244E+08 1.75158E+10 1.30837E+07
 -1      1609-2.33115E+11 8.05615E+07-8.85533E+10 1.32639E+08 1.76601E+10 1.16480E+07
 -1      1610-2.34138E+11 5.24500E+06-8.89703E+10 1.02325E+08 1.77876E+10 1.02052E+07
 -1      1611-2.34874E+11 1.66695E+07-8.92458E+10 6.67976E+07 1.78982E+10 8.75690E+06
 -1      1612-2.35343E+11 4.18839E+07-8.94146E+10 3.28152E+07 1.79919E+10 7.30489E+06
 -1      1613-2.35514E+11 4.43333E+07-8.94783E+10 5.42623E+06 1.80687E+10 5.85092E+06
 -1      1614-2.35381E+11 1.42957E+07-8.94393E+10-2.90720E+07 1.81284E+10 4.39683E+06
 -1      1615-2.34980E+11 1.06132E+07-8.92884E+10-6.46689E+07 1.81713E+10 2.94439E+06
 -1      1616-2.34285E+11 6.53367E+07-8.90035E+10-9.69731E+07 1.81972E+10 1.49532E+06
 -1      1617-2.33296E+11 9.81300E+06-8.86488E+10-1.30948E+08 1.82062E+10 5.14632E+04
 -1      1618-2.32016E+11 1.95468E+07-8.81586E+10-1.61402E+08 1.81984E+10-1.38538E+06
 -1      1619-2.30448E+11 3.49568E+07-8.75570E+10-1.96437E+08 1.81739E+10-2.81344E+06
 -1      1620-2.28593E+11 6.11550E+07-8.68422E+10-2.29365E+08 1.81328E+10-4.23093E+06
 -1      1621-2.26436E+11 9.90938E+05-8.60455E+10-2.62327E+08 1.80752E+10-5.63604E+06
 -1      1622-2.24007E+11 2.70174E+06-8.51214E+10-2.97356E+08 1.80014E+10-7.02697E+06
 -1      1623-2.21288E+11 6.09422E+07-8.40663E+10-3.25519E+08 1.79113E+10-8.40200E+06
 -1      1624-2.18273E+11 3.32502E+07-8.29311E+10-3.60674E+08 1.78054E+10-9.75933E+06
 -1      1625-2.14979E+11 1.93068E+07-8.16848E+10-3.91497E+08 1.76837E+10-1.10972E+07
 -1      1626-2.11405E+11 1.06888E+07-8.03297E+10-4.26074E+08 1.75465E+10-1.24138E+07
 -1      1627-2.07553E+11 5.93256E+07-7.88476E+10-4.57053E+08 1.73942E+10-1.37075E+07
 -1      1628-2.03420E+11 1.09729E+07-7.72954E+10-4.89382E+08 1.72268E+10-1.49766E+07
 -1      1629-1.99011E+11 1.81717E+07-7.56174E+10-5.18308E+08 1.70448E+10-1.62193E+07
 -1      1630-1.94333E+11 3.66929E+07-7.38325E+10-5.50712E+08 1.68485E+10-1.74339E+07
 -1      1631-1.89389E+11 3.80693E+07-7.19533E+10-5.80988E+08 1.66382E+10-1.86188E+07
 -1      1632-1.84167E+11 1.57721E+07-6.99774E+10-6.10170E+08 1.64142E+10-1.97723E+07
 -1      1633-1.78697E+11 8.76060E+06-6.79016E+10-6.43800E+08 1.61769E+10-2.08928E+07
 -1      1634-1.72972E+11 6.66446E+07-6.57039E+10-6.68337E+08 1.59268E+10-2.19787E+07
 -1      1635-1.66972E+11-2.42768E+06-6.34503E+10-6.98876E+08 1.56643E+10-2.30284E+07
 -1      1636-1.60740E+11 1.03633E+07-6.10773E+10-7.27149E+08 1.53897E+10-2.40403E+07
 -1      1637-1.54257E+11 4.32741E+07-5.86014E+10-7.55265E+08 1.51035E+10-2.50130E+07
 -1      1638-1.47538E+11 2.86860E+07-5.60536E+10-7.83977E+08 1.48062E+10-2.59449E+07
 -1      1639-1.40576E+11 1.75537E+07-5.34122E+10-8.06461E+08 1.44983E+10-2.68346E+07
 -1      1640-1.33381E+11 1.22633E+07-5.06800E+10-8.36011E+08 1.41802E+10-2.76805E+07
 -1      1641-1.25970E+11 3.26997E+07-4.78563E+10-8.60646E+08 1.38526E+10-2.84813E+07
 -1      1642-1.18330E+11 2.55898E+07-4.49555E+10-8.85738E+08 1.35158E+10-2.92357E+07
 -1      1643-1.10476E+11 1.59184E+07-4.19748E+10-9.10546E+08 1.31706E+10-2.99422E+07
 -1      1644-1.02414E+11 1.25998E+07-3.89124E+10-9.32971E+08 1.28174E+10-3.05996E+07
 -1      1645-9.41453E+10 3.42535E+07-3.57622E+10-9.56811E+08 1.24568E+10-3.12065E+07
 -1      1646-8.56778E+10 1.24222E+07-3.25529E+10-9.78518E+08 1.20895E+10-3.17618E+07
 -1      1647-7.70174E+10 1.33908E+07-2.92615E+10-1.00117E+09 1.17159E+10-3.22641E+07
 -1      1648-6.81724E+10 2.72665E+07-2.58951E+10-1.02187E+09 1.13368E+10-3.27124E+07
 -1      1649-5.91459E+10 1.62463E+07-2.24693E+10-1.04304E+09 1.09529E+10-3.31056E+07
 -1      1650-4.99432E+10 1.19432E+07-1.89739E+10-1.06057E+09 1.05646E+10-3.34424E+07
 -1      1651-4.05708E+10 1.60264E+07-1.54108E+10-1.08091E+09 1.01728E+10-3.37219E+07
 -1      1652-3.10407E+10 2.04453E+07-1.17877E+10-1.09868E+09 9.77799E+09-3.39430E+07
 -1      1653-2.13502E+10 1.27208E+07-8.10826E+09-1.11612E+09 9.38099E+09-3.41047E+07
 -1      1654-1.15120E+10 1.34958E+07-4.36942E+09-1.13316E+09 8.98245E+09-3.42062E+07
 -1      1655-1.53127E+09 1.56611E+07-5.75932E+08-1.14891E+09 8.58309E+09-3.42464E+07
 -1      1656 8.58849E+09 1.07962E+07 3.26773E+09-1.16416E+09 8.18362E+09-3.42246E+07
 -1      1657 1.88372E+10 1.36637E+07 7.16333E+09-1.17889E+09 7.78476E+09-3.41399E+07
 -1      1658 2.92094E+10 1.35656E+07 1.11047E+10-1.19241E+09 7.38727E+09-3.39915E+07
 -1      1659 3.97029E+10 1.02163E+07 1.50910E+10-1.20520E+09 6.99188E+09-3.37786E+07
 -1      1660 5.03057E+10 7.05400E+06 1.91189E+10-1.21863E+09 6.59936E+09-3.35007E+07
 -1      1661 6.10110E+10 7.93832E+06 2.31872E+10-1.22999E+09 6.21046E+09-3.31569E+07
 -1      1662 7.18189E+10 2.02508E+07 2.72989E+10-1.24008E+09 5.82595E+09-3.27467E+07
 -1      1663 8.27212E+10-2.06320E+05 3.14340E+10-1.25140E+09 5.44663E+09-3.22695E+07
 -1      1664 9.37056E+10 1.07270E+07 3.56122E+10-1.26001E+09 5.07326E+09-3.17246E+07
 -1      1665 1.04776E+11 1.22294E+07 3.98195E+10-1.27017E+09 4.70665E+09-3.11117E+07
 -1      1666 1.15915E+11 4.71948E+06 4.40495E+10-1.27750E+09 4.34759E+09-3.04302E+07
 -1      1667 1.27134E+11-5.84038E+06 4.83088E+10-1.28518E+09 3.99688E+09-2.96796E+07
 -1      1668 1.38402E+11 1.73546E+07 5.25994E+10-1.29311E+09 3.65533E+09-2.88596E+07
 -1      1669 1.49740E+11 1.01138E+07 5.69049E+10-1.29760E+09 3.32375E+09-2.79698E+07
 -1      1670 1.61127E+11 2.31993E+06 6.12291E+10-1.30249E+09 3.00296E+09-2.70098E+07
 -1      1671 1.72574E+11-1.52954E+07 6.55725E+10-1.31149E+09 2.69379E+09-2.59794E+07
 -1      1672 1.84027E+11 2.47482E+07 6.99397E+10-1.31519E+09 2.39704E+09-2.48782E+07
 -1      1673 1.95569E+11 5.58238E+06 7.43182E+10-1.31705E+09 2.11356E+09-2.37060E+07
 -1      1674 2.07096E+11-9.49130E+06 7.86930E+10-1.32164E+09 1.84417E+09-2.24625E+07
 -1      1675 2.18707E+11-1.46242E+07 8.31030E+10-1.32346E+09 1.58970E+09-2.11477E+07
 -1      1676 2.30270E+11 4.89667E+07 8.75212E+10-1.32849E+09 1.35099E+09-1.97612E+07
 -1      1677 2.41950E+11-2.46328E+07 9.19316E+10-1.33086E+09 1.12888E+09-1.83030E+07
 -1      1678 2.53530E+11 5.33010E+06 9.63435E+10-1.33179E+09 9.24187E+08-1.67729E+07
 -1      1679 2.65269E+11-2.69140E+07 1.00792E+11-1.33415E+09 7.37770E+08-1.51709E+07
 -1      1680 2.76829E+11 7.05687E+07 1.05222E+11-1.33020E+09 5.70462E+08-1.34969E+07
 -1      1681 2.88674E+11-4.71471E+07 1.09678E+11-1.33916E+09 4.23107E+08-1.17506E+07
 -1      1682 3.00152E+11-1.94945E+08 1.13984E+11-1.33327E+09 2.96543E+08-9.93229E+06
 -1      1683 3.12057E+11 1.10882E+09 1.19003E+11-1.35233E+09 1.91614E+08-8.04184E+06
 -1      1684 3.23622E+11-4.35139E+09 1.21323E+11-1.26917E+09 1.09160E+08-6.07884E+06
 -1      1685 3.35034E+11 1.61604E+10 1.33454E+11-1.58485E+09 5.00267E+07-4.04479E+06
 -1      1686 3.48688E+11-5.93169E+10 1.09961E+11-4.18044E+08 1.50575E+07-1.93417E+06
 -1      1687 3.55670E+11 2.17866E+11 2.17944E+11-4.72172E+09 3.71502E+06-8.57992E+05
 -1      1688 7.15522E+07 3.79077E+07 4.15948E+07-1.16080E+05-2.36363E+10 6.73838E+07
 -1      1689 2.53282E+08 3.69702E+07 1.10296E+08-4.32020E+07-2.32432E+10 6.73830E+07
 -1      1690 8.10518E+08 3.64068E+07 3.21832E+08-8.48621E+07-2.24570E+10 6.73798E+07
 -1      1691 1.72760E+09 3.42883E+07 6.69519E+08-1.25160E+08-2.16709E+10 6.73720E+07
 -1      1692 2.98905E+09 3.42936E+07 1.14887E+09-1.63734E+08-2.08849E+10 6.73574E+07
 -1      1693 4.58547E+09 2.96569E+07 1.75375E+09-2.01347E+08-2.00992E+10 6.73340E+07
 -1      1694 6.49917E+09 3.49117E+07 2.48295E+09-2.37254E+08-1.93137E+10 6.72998E+07
 -1      1695 8.72512E+09 2.59378E+07 3.32540E+09-2.71447E+08-1.85288E+10 6.72528E+07
 -1      1696 1.12429E+10 3.07860E+07 4.28399E+09-3.04968E+08-1.77445E+10 6.71911E+07
 -1      1697 1.40454E+10 2.65970E+07 5.34734E+09-3.36008E+08-1.69609E+10 6.71130E+07
 -1      1698 1.71207E+10 2.22975E+07 6.51432E+09-3.66568E+08-1.61785E+10 6.70168E+07
 -1      1699 2.04469E+10 3.11590E+07 7.78168E+09-3.96070E+08-1.53972E+10 6.69009E+07
 -1      1700 2.40273E+10 2.05346E+07 9.13818E+09-4.21561E+08-1.46174E+10 6.67634E+07
 -1      1701 2.78366E+10 1.67594E+07 1.05843E+10-4.49912E+08-1.38394E+10 6.66033E+07
 -1      1702 3.18622E+10 2.73385E+07 1.21180E+10-4.72075E+08-1.30633E+10 6.64190E+07
 -1      1703 3.61092E+10 2.28081E+07 1.37302E+10-4.95942E+08-1.22896E+10 6.62091E+07
 -1      1704 4.05380E+10 4.91402E+06 1.54063E+10-5.19789E+08-1.15185E+10 6.59723E+07
 -1      1705 4.51561E+10 3.60591E+07 1.71730E+10-5.36754E+08-1.07503E+10 6.57078E+07
 -1      1706 4.99497E+10 6.46852E+05 1.89811E+10-5.58264E+08-9.98530E+09 6.54140E+07
 -1      1707 5.48940E+10 2.37494E+07 2.08688E+10-5.73376E+08-9.22395E+09 6.50902E+07
 -1      1708 5.99972E+10 9.79688E+06 2.28027E+10-5.90826E+08-8.46655E+09 6.47354E+07
 -1      1709 6.52242E+10 1.96872E+06 2.47859E+10-6.06957E+08-7.71348E+09 6.43487E+07
 -1      1710 7.05754E+10 3.46931E+07 2.68319E+10-6.18171E+08-6.96511E+09 6.39294E+07
 -1      1711 7.60470E+10-1.20605E+07 2.88933E+10-6.30885E+08-6.22183E+09 6.34766E+07
 -1      1712 8.16085E+10 2.08788E+07 3.10192E+10-6.41124E+08-5.48402E+09 6.29897E+07
 -1      1713 8.72629E+10 2.82158E+06 3.31610E+10-6.51477E+08-4.75210E+09 6.24682E+07
 -1      1714 9.29888E+10 6.64060E+06 3.53383E+10-6.59397E+08-4.02647E+09 6.19116E+07
 -1      1715 9.87785E+10 1.32623E+07 3.75409E+10-6.65027E+08-3.30755E+09 6.13194E+07
 -1      1716 1.04629E+11-2.38843E+06 3.97583E+10-6.69760E+08-2.59574E+09 6.06912E+07
 -1      1717 1.10516E+11-4.44226E+06 4.19943E+10-6.76327E+08-1.89147E+09 6.00268E+07
 -1      1718 1.16426E+11 9.63991E+06 4.42455E+10-6.78494E+08-1.19516E+09 5.93260E+07
 -1      1719 1.22365E+11 9.68206E+06 4.65024E+10-6.78718E+08-5.07248E+08 5.85885E+07
 -1      1720 1.28310E+11-1.98303E+07 4.87502E+10-6.79629E+08 1.71851E+08 5.78144E+07
 -1      1721 1.34251E+11 1.19700E+07 5.10198E+10-6.78039E+08 8.41702E+08 5.70036E+07
 -1      1722 1.40177E+11-7.01279E+06 5.32645E+10-6.77438E+08 1.50188E+09 5.61561E+07
 -1      1723 1.46081E+11-2.03004E+05 5.55108E+10-6.72453E+08 2.15195E+09 5.52721E+07
 -1      1724 1.51954E+11-7.91841E+06 5.77394E+10-6.69645E+08 2.79151E+09 5.43517E+07
 -1      1725 1.57771E+11-5.02976E+06 5.99510E+10-6.64041E+08 3.42011E+09 5.33952E+07
 -1      1726 1.63546E+11 5.06599E+06 6.21494E+10-6.53451E+08 4.03734E+09 5.24029E+07
 -1      1727 1.69256E+11-1.79655E+07 6.43105E+10-6.50310E+08 4.64278E+09 5.13752E+07
 -1      1728 1.74883E+11-1.80589E+07 6.64487E+10-6.39356E+08 5.23603E+09 5.03124E+07
 -1      1729 1.80430E+11-1.61068E+05 6.85634E+10-6.30233E+08 5.81669E+09 4.92152E+07
 -1      1730 1.85887E+11 5.27223E+06 7.06389E+10-6.17126E+08 6.38433E+09 4.80839E+07
 -1      1731 1.91243E+11-4.03420E+07 7.26570E+10-6.05885E+08 6.93859E+09 4.69192E+07
 -1      1732 1.96486E+11 3.99378E+06 7.46660E+10-5.91752E+08 7.47906E+09 4.57219E+07
 -1      1733 2.01608E+11-4.17746E+06 7.66096E+10-5.79917E+08 8.00538E+09 4.44925E+07
 -1      1734 2.06604E+11-2.20420E+07 7.85011E+10-5.63541E+08 8.51717E+09 4.32319E+07
 -1      1735 2.11471E+11-2.72570E+07 8.03484E+10-5.47632E+08 9.01407E+09 4.19408E+07
 -1      1736 2.16174E+11-1.59109E+07 8.21402E+10-5.31937E+08 9.49574E+09 4.06201E+07
 -1      1737 2.20748E+11 1.44790E+07 8.38898E+10-5.08007E+08 9.96183E+09 3.92709E+07
 -1      1738 2.25163E+11-4.31599E+07 8.55455E+10-4.98391E+08 1.04120E+10 3.78938E+07
 -1      1739 2.29387E+11-8.26942E+06 8.71638E+10-4.76274E+08 1.08460E+10 3.64901E+07
 -1      1740 2.33460E+11-7.32274E+06 8.87120E+10-4.53624E+08 1.12634E+10 3.50607E+07
 -1      1741 2.37349E+11-2.92153E+07 9.01814E+10-4.33775E+08 1.16640E+10 3.36068E+07
 -1      1742 2.41056E+11-3.36064E+07 9.15885E+10-4.09605E+08 1.20475E+10 3.21294E+07
 -1      1743 2.44562E+11-8.32356E+06 9.29303E+10-3.94291E+08 1.24137E+10 3.06297E+07
 -1      1744 2.47865E+11-3.50898E+06 9.41872E+10-3.65605E+08 1.27622E+10 2.91090E+07
 -1      1745 2.50983E+11-3.56185E+07 9.53601E+10-3.43521E+08 1.30928E+10 2.75685E+07
 -1      1746 2.53885E+11-3.79688E+07 9.64618E+10-3.19120E+08 1.34054E+10 2.60094E+07
 -1      1747 2.56556E+11-6.05923E+06 9.74890E+10-2.96104E+08 1.36997E+10 2.44330E+07
 -1      1748 2.59033E+11-1.64287E+06 9.84319E+10-2.64996E+08 1.39755E+10 2.28408E+07
 -1      1749 2.61286E+11-6.20750E+07 9.92651E+10-2.46564E+08 1.42326E+10 2.12340E+07
 -1      1750 2.63285E+11-1.69683E+07 1.00042E+11-2.18847E+08 1.44710E+10 1.96140E+07
 -1      1751 2.65078E+11 2.49016E+06 1.00731E+11-1.88004E+08 1.46903E+10 1.79824E+07
 -1      1752 2.66631E+11-2.03108E+07 1.01312E+11-1.65299E+08 1.48905E+10 1.63403E+07
 -1      1753 2.67953E+11-6.04061E+07 1.01799E+11-1.33385E+08 1.50716E+10 1.46894E+07
 -1      1754 2.69021E+11-7.42231E+06 1.02225E+11-1.13781E+08 1.52333E+10 1.30312E+07
 -1      1755 2.69843E+11 2.14429E+06 1.02541E+11-7.92215E+07 1.53756E+10 1.13671E+07
 -1      1756 2.70449E+11-7.37851E+07 1.02743E+11-5.29040E+07 1.54985E+10 9.69858E+06
 -1      1757 2.70768E+11 2.91510E+06 1.02893E+11-2.60534E+07 1.56019E+10 8.02721E+06
 -1      1758 2.70867E+11-1.25492E+07 1.02925E+11 8.76130E+06 1.56858E+10 6.35456E+06
 -1      1759 2.70715E+11-4.29438E+07 1.02855E+11 2.95711E+07 1.57502E+10 4.68206E+06
 -1      1760 2.70294E+11-3.73441E+07 1.02697E+11 6.15242E+07 1.57951E+10 3.01134E+06
 -1      1761 2.69632E+11-1.18528E+07 1.02456E+11 8.87385E+07 1.58205E+10 1.34396E+06
 -1      1762 2.68710E+11-9.65022E+06 1.02106E+11 1.20746E+08 1.58265E+10-3.18536E+05
 -1      1763 2.67555E+11-3.60041E+07 1.01657E+11 1.51122E+08 1.58131E+10-1.97461E+06
 -1      1764 2.66137E+11-6.13690E+07 1.01109E+11 1.73861E+08 1.57804E+10-3.62274E+06
 -1      1765 2.64449E+11 5.94680E+06 1.00493E+11 2.05561E+08 1.57286E+10-5.26128E+06
 -1      1766 2.62534E+11 1.20806E+07 9.97674E+10 2.33944E+08 1.56577E+10-6.88870E+06
 -1      1767 2.60371E+11-8.77483E+07 9.89076E+10 2.62965E+08 1.55679E+10-8.50352E+06
 -1      1768 2.57934E+11 6.65958E+06 9.80175E+10 2.89413E+08 1.54593E+10-1.01041E+07
 -1      1769 2.55276E+11-1.67328E+07 9.69986E+10 3.23423E+08 1.53322E+10-1.16890E+07
 -1      1770 2.52370E+11-3.82732E+07 9.58859E+10 3.43945E+08 1.51867E+10-1.32567E+07
 -1      1771 2.49209E+11-3.46712E+07 9.46862E+10 3.74456E+08 1.50229E+10-1.48056E+07
 -1      1772 2.45815E+11-1.61659E+07 9.34037E+10 4.00248E+08 1.48412E+10-1.63344E+07
 -1      1773 2.42179E+11 3.15591E+06 9.20293E+10 4.29923E+08 1.46419E+10-1.78414E+07
 -1      1774 2.38333E+11-6.52167E+07 9.05416E+10 4.57827E+08 1.44250E+10-1.93253E+07
 -1      1775 2.34230E+11-3.60970E+06 8.90060E+10 4.76937E+08 1.41910E+10-2.07846E+07
 -1      1776 2.29901E+11-6.24563E+06 8.73601E+10 5.08195E+08 1.39401E+10-2.22179E+07
 -1      1777 2.25374E+11-3.72171E+07 8.56278E+10 5.31863E+08 1.36727E+10-2.36239E+07
 -1      1778 2.20604E+11-4.46057E+07 8.38125E+10 5.56891E+08 1.33890E+10-2.50011E+07
 -1      1779 2.15634E+11 2.68715E+06 8.19421E+10 5.83143E+08 1.30894E+10-2.63483E+07
 -1      1780 2.10451E+11 2.21199E+06 7.99723E+10 6.01754E+08 1.27743E+10-2.76642E+07
 -1      1781 2.05062E+11-4.55070E+07 7.79062E+10 6.27600E+08 1.24440E+10-2.89473E+07
 -1      1782 1.99484E+11-2.84651E+07 7.57932E+10 6.49673E+08 1.20989E+10-3.01966E+07
 -1      1783 1.93695E+11-6.77059E+06 7.36016E+10 6.70336E+08 1.17395E+10-3.14108E+07
 -1      1784 1.87736E+11-3.49086E+06 7.13385E+10 6.95787E+08 1.13661E+10-3.25887E+07
 -1      1785 1.81599E+11-4.88949E+07 6.89889E+10 7.10796E+08 1.09792E+10-3.37293E+07
 -1      1786 1.75263E+11 1.75186E+06 6.66007E+10 7.31527E+08 1.05792E+10-3.48313E+07
 -1      1787 1.68777E+11-9.11031E+06 6.41319E+10 7.52510E+08 1.01665E+10-3.58938E+07
 -1      1788 1.62131E+11-2.66036E+07 6.15995E+10 7.69550E+08 9.74175E+09-3.69156E+07
 -1      1789 1.55317E+11-2.05381E+07 5.90127E+10 7.86998E+08 9.30528E+09-3.78960E+07
 -1      1790 1.48364E+11-8.24537E+06 5.63754E+10 8.04411E+08 8.85762E+09-3.88338E+07
 -1      1791 1.41266E+11-2.68480E+06 5.36801E+10 8.18374E+08 8.39927E+09-3.97282E+07
 -1      1792 1.34034E+11-2.89909E+07 5.09219E+10 8.34287E+08 7.93074E+09-4.05783E+07
 -1      1793 1.26680E+11-1.27108E+07 4.81336E+10 8.48865E+08 7.45256E+09-4.13835E+07
 -1      1794 1.19197E+11 3.17559E+06 4.52962E+10 8.59992E+08 6.96524E+09-4.21428E+07
 -1      1795 1.11613E+11-9.51043E+06 4.24092E+10 8.75558E+08 6.46934E+09-4.28556E+07
 -1      1796 1.03927E+11-2.58922E+07 3.94825E+10 8.83686E+08 5.96540E+09-4.35211E+07
 -1      1797 9.61333E+10 1.09787E+06 3.65311E+10 8.94783E+08 5.45397E+09-4.41390E+07
 -1      1798 8.82632E+10-4.20173E+06 3.35384E+10 9.05271E+08 4.93561E+09-4.47084E+07
 -1      1799 8.03124E+10-1.22520E+07 3.05140E+10 9.13338E+08 4.41089E+09-4.52290E+07
 -1      1800 7.22915E+10-9.04605E+06 2.74673E+10 9.21624E+08 3.88039E+09-4.57002E+07
 -1      1801 6.42068E+10-3.09507E+06 2.43974E+10 9.26312E+08 3.34468E+09-4.61218E+07
 -1      1802 5.60672E+10 1.41888E+06 2.13061E+10 9.33422E+08 2.80434E+09-4.64932E+07
 -1      1803 4.78893E+10-1.25266E+07 1.81932E+10 9.37584E+08 2.25996E+09-4.68142E+07
 -1      1804 3.96695E+10 2.35385E+06 1.50753E+10 9.41086E+08 1.71213E+09-4.70855E+07
 -1      1805 3.14275E+10-7.58748E+05 1.19422E+10 9.44376E+08 1.16145E+09-4.73068E+07
 -1      1806 2.31652E+10-4.96261E+06 8.80090E+09 9.45138E+08 6.08498E+08-4.74762E+07
 -1      1807 1.48884E+10 1.89125E+06 5.65832E+09 9.46163E+08 5.38770E+07-4.75937E+07
 -1      1808 6.61411E+09 7.43649E+05 2.51364E+09 9.45612E+08-5.01818E+08-4.76602E+07
 -1      1809-1.65427E+09 1.83417E+06-6.27925E+08 9.44200E+08-1.05799E+09-4.76754E+07
 -1      1810-9.90389E+09 1.31750E+06-3.76298E+09 9.41694E+08-1.61404E+09-4.76397E+07
 -1      1811-1.81306E+10 6.14609E+06-6.88731E+09 9.38057E+08-2.16938E+09-4.75531E+07
 -1      1812-2.63196E+10 3.06195E+06-1.00003E+10 9.34337E+08-2.72340E+09-4.74159E+07
 -1      1813-3.44657E+10 1.34124E+06-1.30965E+10 9.28139E+08-3.27554E+09-4.72281E+07
 -1      1814-4.25634E+10 1.40552E+07-1.61687E+10 9.21806E+08-3.82519E+09-4.69902E+07
 -1      1815-5.05930E+10 1.71406E+06-1.92247E+10 9.14693E+08-4.37178E+09-4.67026E+07
 -1      1816-5.85597E+10 5.62863E+06-2.22505E+10 9.04937E+08-4.91472E+09-4.63655E+07
 -1      1817-6.64453E+10 1.15320E+07-2.52448E+10 8.97214E+08-5.45344E+09-4.59795E+07
 -1      1818-7.42436E+10 1.32541E+07-2.82075E+10 8.85962E+08-5.98737E+09-4.55450E+07
 -1      1819-8.19450E+10 1.31426E+07-3.11341E+10 8.75022E+08-6.51596E+09-4.50627E+07
 -1      1820-8.95429E+10-2.91453E+06-3.40274E+10 8.61334E+08-7.03865E+09-4.45332E+07
 -1      1821-9.70358E+10 2.30652E+07-3.68648E+10 8.48435E+08-7.55488E+09-4.39570E+07
 -1      1822-1.04398E+11 1.14134E+07-3.96671E+10 8.36508E+08-8.06413E+09-4.33350E+07
 -1      1823-1.11632E+11 5.20326E+06-4.24183E+10 8.18852E+08-8.56585E+09-4.26679E+07
 -1      1824-1.18739E+11 2.06423E+07-4.51130E+10 8.03413E+08-9.05953E+09-4.19564E+07
 -1      1825-1.25696E+11 2.53986E+07-4.77548E+10 7.86390E+08-9.54466E+09-4.12016E+07
 -1      1826-1.32493E+11 5.20272E+06-5.03455E+10 7.69359E+08-1.00207E+10-4.04044E+07
 -1      1827-1.39144E+11 1.09601E+07-5.28704E+10 7.47570E+08-1.04873E+10-3.95655E+07
 -1      1828-1.45622E+11 2.51485E+07-5.53268E+10 7.32072E+08-1.09438E+10-3.86862E+07
 -1      1829-1.51922E+11 2.57231E+07-5.77208E+10 7.09881E+08-1.13898E+10-3.77674E+07
 -1      1830-1.58042E+11 1.38581E+07-6.00507E+10 6.89785E+08-1.18249E+10-3.68102E+07
 -1      1831-1.63971E+11 2.78853E+06-6.23078E+10 6.65849E+08-1.22485E+10-3.58158E+07
 -1      1832-1.69720E+11 4.56625E+07-6.44761E+10 6.42285E+08-1.26604E+10-3.47854E+07
 -1      1833-1.75247E+11 1.99914E+07-6.65862E+10 6.23586E+08-1.30601E+10-3.37202E+07
 -1      1834-1.80569E+11 7.22779E+04-6.86163E+10 5.94604E+08-1.34471E+10-3.26214E+07
 -1      1835-1.85690E+11 2.37256E+07-7.05533E+10 5.72908E+08-1.38211E+10-3.14904E+07
 -1      1836-1.90576E+11 4.38813E+07-7.24024E+10 5.45697E+08-1.41817E+10-3.03285E+07
 -1      1837-1.95245E+11 1.31599E+07-7.41880E+10 5.19019E+08-1.45287E+10-2.91371E+07
 -1      1838-1.99677E+11 6.44121E+06-7.58748E+10 4.94460E+08-1.48615E+10-2.79176E+07
 -1      1839-2.03877E+11 5.53163E+07-7.74521E+10 4.65394E+08-1.51800E+10-2.66714E+07
 -1      1840-2.07828E+11 1.02793E+07-7.89708E+10 4.39089E+08-1.54837E+10-2.54001E+07
 -1      1841-2.11530E+11 1.03794E+07-8.03774E+10 4.08063E+08-1.57725E+10-2.41051E+07
 -1      1842-2.14998E+11 3.94576E+07-8.16843E+10 3.77704E+08-1.60461E+10-2.27880E+07
 -1      1843-2.18199E+11 4.11543E+07-8.28999E+10 3.53307E+08-1.63042E+10-2.14504E+07
 -1      1844-2.21126E+11 9.14051E+06-8.40242E+10 3.22083E+08-1.65465E+10-2.00937E+07
 -1      1845-2.23808E+11 1.79752E+07-8.50401E+10 2.89060E+08-1.67730E+10-1.87198E+07
 -1      1846-2.26221E+11 3.63445E+07-8.59502E+10 2.59665E+08-1.69833E+10-1.73301E+07
 -1      1847-2.28353E+11 5.41940E+07-8.67536E+10 2.28163E+08-1.71773E+10-1.59264E+07
 -1      1848-2.30220E+11 4.25637E+06-8.74819E+10 1.94568E+08-1.73549E+10-1.45104E+07
 -1      1849-2.31806E+11-3.89725E+06-8.80876E+10 1.68244E+08-1.75158E+10-1.30837E+07
 -1      1850-2.33115E+11 8.05616E+07-8.85533E+10 1.32639E+08-1.76601E+10-1.16480E+07
 -1      1851-2.34138E+11 5.24505E+06-8.89703E+10 1.02325E+08-1.77876E+10-1.02052E+07
 -1      1852-2.34874E+11 1.66696E+07-8.92458E+10 6.67980E+07-1.78982E+10-8.75689E+06
 -1      1853-2.35343E+11 4.18838E+07-8.94146E+10 3.28156E+07-1.79919E+10-7.30488E+06
 -1      1854-2.35514E+11 4.43333E+07-8.94783E+10 5.42635E+06-1.80687E+10-5.85091E+06
 -1      1855-2.35381E+11 1.42956E+07-8.94393E+10-2.90721E+07-1.81284E+10-4.39682E+06
 -1      1856-2.34980E+11 1.06131E+07-8.92884E+10-6.46692E+07-1.81713E+10-2.94438E+06
 -1      1857-2.34285E+11 6.53368E+07-8.90035E+10-9.69731E+07-1.81972E+10-1.49531E+06
 -1      1858-2.33296E+11 9.81296E+06-8.86488E+10-1.30948E+08-1.82062E+10-5.14539E+04
 -1      1859-2.32016E+11 1.95467E+07-8.81586E+10-1.61402E+08-1.81984E+10 1.38539E+06
 -1      1860-2.30448E+11 3.49569E+07-8.75570E+10-1.96437E+08-1.81739E+10 2.81344E+06
 -1      1861-2.28593E+11 6.11550E+07-8.68422E+10-2.29365E+08-1.81328E+10 4.23093E+06
 -1      1862-2.26436E+11 9.90756E+05-8.60455E+10-2.62328E+08-1.80752E+10 5.63604E+06
 -1      1863-2.24007E+11 2.70175E+06-8.51214E+10-2.97357E+08-1.80014E+10 7.02698E+06
 -1      1864-2.21288E+11 6.09422E+07-8.40663E+10-3.25520E+08-1.79113E+10 8.40200E+06
 -1      1865-2.18273E+11 3.32501E+07-8.29311E+10-3.60675E+08-1.78054E+10 9.75933E+06
 -1      1866-2.14979E+11 1.93068E+07-8.16848E+10-3.91497E+08-1.76837E+10 1.10972E+07
 -1      1867-2.11405E+11 1.06888E+07-8.03297E+10-4.26074E+08-1.75465E+10 1.24138E+07
 -1      1868-2.07553E+11 5.93256E+07-7.88476E+10-4.57053E+08-1.73941E+10 1.37075E+07
 -1      1869-2.03420E+11 1.09730E+07-7.72954E+10-4.89382E+08-1.72268E+10 1.49766E+07
 -1      1870-1.99011E+11 1.81717E+07-7.56174E+10-5.18307E+08-1.70448E+10 1.62192E+07
 -1      1871-1.94333E+11 3.66929E+07-7.38325E+10-5.50711E+08-1.68485E+10 1.74338E+07
 -1      1872-1.89389E+11 3.80693E+07-7.19533E+10-5.80988E+08-1.66381E+10 1.86187E+07
 -1      1873-1.84167E+11 1.57721E+07-6.99774E+10-6.10170E+08-1.64142E+10 1.97722E+07
 -1      1874-1.78697E+11 8.76054E+06-6.79016E+10-6.43800E+08-1.61769E+10 2.08927E+07
 -1      1875-1.72972E+11 6.66448E+07-6.57039E+10-6.68337E+08-1.59268E+10 2.19786E+07
 -1      1876-1.66972E+11-2.42764E+06-6.34503E+10-6.98875E+08-1.56642E+10 2.30284E+07
 -1      1877-1.60740E+11 1.03634E+07-6.10773E+10-7.27148E+08-1.53896E+10 2.40403E+07
 -1      1878-1.54257E+11 4.32742E+07-5.86014E+10-7.55264E+08-1.51035E+10 2.50130E+07
 -1      1879-1.47538E+11 2.86860E+07-5.60536E+10-7.83976E+08-1.48062E+10 2.59449E+07
 -1      1880-1.40576E+11 1.75537E+07-5.34122E+10-8.06460E+08-1.44983E+10 2.68345E+07
 -1      1881-1.33381E+11 1.22633E+07-5.06800E+10-8.36010E+08-1.41802E+10 2.76805E+07
 -1      1882-1.25970E+11 3.26996E+07-4.78563E+10-8.60646E+08-1.38526E+10 2.84813E+07
 -1      1883-1.18330E+11 2.55897E+07-4.49555E+10-8.85738E+08-1.35158E+10 2.92357E+07
 -1      1884-1.10476E+11 1.59183E+07-4.19748E+10-9.10547E+08-1.31706E+10 2.99422E+07
 -1      1885-1.02414E+11 1.25998E+07-3.89124E+10-9.32971E+08-1.28174E+10 3.05996E+07
 -1      1886-9.41453E+10 3.42534E+07-3.57622E+10-9.56811E+08-1.24568E+10 3.12065E+07
 -1      1887-8.56778E+10 1.24223E+07-3.25529E+10-9.78518E+08-1.20895E+10 3.17618E+07
 -1      1888-7.70174E+10 1.33908E+07-2.92615E+10-1.00117E+09-1.17159E+10 3.22641E+07
 -1      1889-6.81724E+10 2.72664E+07-2.58951E+10-1.02187E+09-1.13368E+10 3.27124E+07
 -1      1890-5.91459E+10 1.62462E+07-2.24693E+10-1.04304E+09-1.09529E+10 3.31056E+07
 -1      1891-4.99432E+10 1.19432E+07-1.89739E+10-1.06057E+09-1.05646E+10 3.34424E+07
 -1      1892-4.05708E+10 1.60265E+07-1.54108E+10-1.08091E+09-1.01728E+10 3.37219E+07
 -1      1893-3.10407E+10 2.04452E+07-1.17877E+10-1.09868E+09-9.77799E+09 3.39430E+07
 -1      1894-2.13502E+10 1.27207E+07-8.10826E+09-1.11612E+09-9.38099E+09 3.41047E+07
 -1      1895-1.15120E+10 1.34958E+07-4.36942E+09-1.13316E+09-8.98245E+09 3.42062E+07
 -1      1896-1.53127E+09 1.56611E+07-5.75932E+08-1.14891E+09-8.58309E+09 3.42464E+07
 -1      1897 8.58849E+09 1.07962E+07 3.26773E+09-1.16416E+09-8.18362E+09 3.42246E+07
 -1      1898 1.88372E+10 1.36637E+07 7.16333E+09-1.17889E+09-7.78476E+09 3.41399E+07
 -1      1899 2.92094E+10 1.35657E+07 1.11047E+10-1.19241E+09-7.38727E+09 3.39915E+07
 -1      1900 3.97029E+10 1.02163E+07 1.50910E+10-1.20520E+09-6.99188E+09 3.37786E+07
 -1      1901 5.03057E+10 7.05403E+06 1.91189E+10-1.21863E+09-6.59936E+09 3.35007E+07
 -1      1902 6.10110E+10 7.93832E+06 2.31872E+10-1.22999E+09-6.21046E+09 3.31569E+07
 -1      1903 7.18189E+10 2.02508E+07 2.72989E+10-1.24008E+09-5.82595E+09 3.27467E+07
 -1      1904 8.27212E+10-2.06285E+05 3.14340E+10-1.25140E+09-5.44662E+09 3.22695E+07
 -1      1905 9.37056E+10 1.07270E+07 3.56122E+10-1.26001E+09-5.07326E+09 3.17246E+07
 -1      1906 1.04776E+11 1.22293E+07 3.98195E+10-1.27017E+09-4.70665E+09 3.11117E+07
 -1      1907 1.15915E+11 4.71945E+06 4.40495E+10-1.27750E+09-4.34759E+09 3.04302E+07
 -1      1908 1.27134E+11-5.84037E+06 4.83088E+10-1.28518E+09-3.99687E+09 2.96796E+07
 -1      1909 1.38402E+11 1.73546E+07 5.25994E+10-1.29311E+09-3.65532E+09 2.88596E+07
 -1      1910 1.49740E+11 1.01138E+07 5.69049E+10-1.29760E+09-3.32375E+09 2.79698E+07
 -1      1911 1.61127E+11 2.31994E+06 6.12291E+10-1.30249E+09-3.00296E+09 2.70098E+07
 -1      1912 1.72574E+11-1.52954E+07 6.55725E+10-1.31149E+09-2.69379E+09 2.59794E+07
 -1      1913 1.84027E+11 2.47483E+07 6.99397E+10-1.31519E+09-2.39704E+09 2.48782E+07
 -1      1914 1.95569E+11 5.58238E+06 7.43182E+10-1.31705E+09-2.11356E+09 2.37060E+07
 -1      1915 2.07096E+11-9.49131E+06 7.86930E+10-1.32164E+09-1.84417E+09 2.24625E+07
 -1      1916 2.18707E+11-1.46242E+07 8.31030E+10-1.32346E+09-1.58970E+09 2.11477E+07
 -1      1917 2.30270E+11 4.89667E+07 8.75212E+10-1.32849E+09-1.35099E+09 1.97612E+07
 -1      1918 2.41950E+11-2.46328E+07 9.19316E+10-1.33086E+09-1.12887E+09 1.83030E+07
 -1      1919 2.53530E+11 5.33011E+06 9.63435E+10-1.33179E+09-9.24187E+08 1.67729E+07
 -1      1920 2.65269E+11-2.69140E+07 1.00792E+11-1.33415E+09-7.37769E+08 1.51709E+07
 -1      1921 2.76829E+11 7.05687E+07 1.05222E+11-1.33020E+09-5.70462E+08 1.34969E+07
 -1      1922 2.88674E+11-4.71471E+07 1.09678E+11-1.33916E+09-4.23107E+08 1.17506E+07
 -1      1923 3.00152E+11-1.94945E+08 1.13984E+11-1.33327E+09-2.96543E+08 9.93229E+06
 -1      1924 3.12057E+11 1.10882E+09 1.19003E+11-1.35233E+09-1.91614E+08 8.04183E+06
 -1      1925 3.23622E+11-4.35139E+09 1.21323E+11-1.26917E+09-1.09160E+08 6.07884E+06
 -1      1926 3.35034E+11 1.61604E+10 1.33454E+11-1.58485E+09-5.00267E+07 4.04478E+06
 -1      1927 3.48688E+11-5.93169E+10 1.09961E+11-4.18044E+08-1.50575E+07 1.93417E+06
 -1      1928 3.55670E+11 2.17866E+11 2.17944E+11-4.72172E+09-3.71502E+06 8.57992E+05
 -1      1929 1.21257E+08 6.04947E+07 6.90654E+07 5.59660E+06 2.36363E+10-1.01079E+08
 -1      1930 5.04882E+08 5.64974E+07 2.13324E+08-2.73715E+07 2.32432E+10-1.01077E+08
 -1      1931 1.62276E+09 5.77886E+07 6.38608E+08-5.29561E+07 2.24570E+10-1.01073E+08
 -1      1932 3.45480E+09 5.23862E+07 1.33273E+09-7.84432E+07 2.16709E+10-1.01061E+08
 -1      1933 5.97990E+09 5.19334E+07 2.29210E+09-1.02463E+08 2.08849E+10-1.01039E+08
 -1      1934 9.16908E+09 5.22518E+07 3.50411E+09-1.25994E+08 2.00991E+10-1.01004E+08
 -1      1935 1.30030E+10 4.62960E+07 4.95873E+09-1.48384E+08 1.93137E+10-1.00952E+08
 -1      1936 1.74484E+10 4.63652E+07 6.64801E+09-1.69693E+08 1.85288E+10-1.00882E+08
 -1      1937 2.24894E+10 4.67427E+07 8.56372E+09-1.90864E+08 1.77444E+10-1.00790E+08
 -1      1938 2.80935E+10 3.24624E+07 1.06879E+10-2.10061E+08 1.69609E+10-1.00672E+08
 -1      1939 3.42381E+10 5.69922E+07 1.30322E+10-2.29795E+08 1.61784E+10-1.00528E+08
 -1      1940 4.09040E+10 2.43400E+07 1.55528E+10-2.46669E+08 1.53972E+10-1.00354E+08
 -1      1941 4.80539E+10 4.30547E+07 1.82768E+10-2.64645E+08 1.46174E+10-1.00148E+08
 -1      1942 5.56739E+10 3.80098E+07 2.11705E+10-2.79998E+08 1.38394E+10-9.99078E+07
 -1      1943 6.37389E+10 2.84396E+06 2.42219E+10-2.96977E+08 1.30633E+10-9.96312E+07
 -1      1944 7.22118E+10 8.17991E+07 2.74715E+10-3.10333E+08 1.22896E+10-9.93166E+07
 -1      1945 8.10837E+10-7.29377E+06 3.08090E+10-3.22953E+08 1.15184E+10-9.89613E+07
 -1      1946 9.03245E+10 3.91513E+07 3.43382E+10-3.37638E+08 1.07502E+10-9.85643E+07
 -1      1947 9.98997E+10 2.49323E+07 3.79714E+10-3.46638E+08 9.98528E+09-9.81238E+07
 -1      1948 1.09803E+11 1.48395E+06 4.17258E+10-3.61714E+08 9.22392E+09-9.76381E+07
 -1      1949 1.19992E+11 5.93642E+07 4.56194E+10-3.67645E+08 8.46653E+09-9.71060E+07
 -1      1950 1.30457E+11-6.16443E+06 4.95711E+10-3.79645E+08 7.71346E+09-9.65259E+07
 -1      1951 1.41172E+11 2.61762E+07 5.36552E+10-3.86073E+08 6.96509E+09-9.58968E+07
 -1      1952 1.52095E+11 3.18331E+06 5.77973E+10-3.94723E+08 6.22180E+09-9.52175E+07
 -1      1953 1.63230E+11 2.25244E+07 6.20361E+10-4.02198E+08 5.48400E+09-9.44873E+07
 -1      1954 1.74533E+11 2.15235E+07 6.63307E+10-4.05815E+08 4.75208E+09-9.37050E+07
 -1      1955 1.85991E+11 1.44765E+06 7.06771E+10-4.12414E+08 4.02645E+09-9.28700E+07
 -1      1956 1.97579E+11-4.70209E+06 7.50782E+10-4.15754E+08 3.30752E+09-9.19816E+07
 -1      1957 2.09264E+11 1.80065E+07 7.95271E+10-4.20610E+08 2.59571E+09-9.10394E+07
 -1      1958 2.21037E+11 1.96965E+07 8.40017E+10-4.21098E+08 1.89144E+09-9.00428E+07
 -1      1959 2.32877E+11-1.68961E+07 8.84868E+10-4.24078E+08 1.19513E+09-8.89915E+07
 -1      1960 2.44747E+11 1.23670E+07 9.30085E+10-4.24047E+08 5.07218E+08-8.78853E+07
 -1      1961 2.56632E+11-2.30326E+07 9.75113E+10-4.25390E+08-1.71881E+08-8.67240E+07
 -1      1962 2.68517E+11 1.88833E+07 1.02044E+11-4.25554E+08-8.41732E+08-8.55078E+07
 -1      1963 2.80373E+11-7.11284E+06 1.06539E+11-4.22016E+08-1.50191E+09-8.42366E+07
 -1      1964 2.92180E+11-1.49049E+07 1.11023E+11-4.22234E+08-2.15198E+09-8.29105E+07
 -1      1965 3.03919E+11 2.96979E+07 1.15500E+11-4.16605E+08-2.79154E+09-8.15299E+07
 -1      1966 3.15573E+11-6.27875E+07 1.19894E+11-4.15056E+08-3.42014E+09-8.00951E+07
 -1      1967 3.27113E+11 1.68494E+07 1.24309E+11-4.11075E+08-4.03737E+09-7.86066E+07
 -1      1968 3.38520E+11 9.61438E+06 1.28641E+11-4.04545E+08-4.64282E+09-7.70650E+07
 -1      1969 3.49788E+11-4.09104E+07 1.32904E+11-3.98894E+08-5.23607E+09-7.54708E+07
 -1      1970 3.60889E+11-7.99577E+06 1.37135E+11-3.94062E+08-5.81672E+09-7.38248E+07
 -1      1971 3.71800E+11-1.09630E+07 1.41280E+11-3.85744E+08-6.38437E+09-7.21278E+07
 -1      1972 3.82503E+11-4.42008E+07 1.45334E+11-3.78922E+08-6.93862E+09-7.03808E+07
 -1      1973 3.92993E+11 1.17812E+06 1.49338E+11-3.72917E+08-7.47909E+09-6.85848E+07
 -1      1974 4.03244E+11 8.51121E+06 1.53236E+11-3.59626E+08-8.00541E+09-6.67407E+07
 -1      1975 4.13234E+11-6.11456E+07 1.57006E+11-3.52375E+08-8.51719E+09-6.48496E+07
 -1      1976 4.22952E+11 1.02655E+07 1.60726E+11-3.41458E+08-9.01410E+09-6.29129E+07
 -1      1977 4.32395E+11-9.66158E+07 1.64273E+11-3.33556E+08-9.49576E+09-6.09319E+07
 -1      1978 4.41522E+11 2.45487E+07 1.67788E+11-3.23285E+08-9.96185E+09-5.89079E+07
 -1      1979 4.50326E+11 3.66824E+07 1.71138E+11-3.06304E+08-1.04120E+10-5.68423E+07
 -1      1980 4.58819E+11-1.05237E+08 1.74311E+11-2.96283E+08-1.08460E+10-5.47366E+07
 -1      1981 4.66954E+11 5.92525E+06 1.77445E+11-2.83679E+08-1.12634E+10-5.25924E+07
 -1      1982 4.74724E+11-7.68450E+07 1.80366E+11-2.72000E+08-1.16640E+10-5.04114E+07
 -1      1983 4.82125E+11 6.34918E+06 1.83210E+11-2.59025E+08-1.20475E+10-4.81953E+07
 -1      1984 4.89149E+11-4.97669E+06 1.85875E+11-2.43115E+08-1.24137E+10-4.59458E+07
 -1      1985 4.95779E+11-6.88765E+07 1.88370E+11-2.27898E+08-1.27622E+10-4.36646E+07
 -1      1986 5.01985E+11-2.50952E+07 1.90745E+11-2.14926E+08-1.30929E+10-4.13537E+07
 -1      1987 5.07782E+11-2.48120E+07 1.92948E+11-1.99224E+08-1.34054E+10-3.90150E+07
 -1      1988 5.13167E+11-7.02230E+07 1.94977E+11-1.85354E+08-1.36997E+10-3.66504E+07
 -1      1989 5.18093E+11-1.44170E+07 1.96870E+11-1.69210E+08-1.39755E+10-3.42620E+07
 -1      1990 5.22572E+11 1.89345E+07 1.98585E+11-1.50612E+08-1.42326E+10-3.18517E+07
 -1      1991 5.26619E+11-1.30191E+08 2.00066E+11-1.36158E+08-1.44710E+10-2.94217E+07
 -1      1992 5.30193E+11 2.51125E+07 2.01483E+11-1.20842E+08-1.46903E+10-2.69740E+07
 -1      1993 5.33293E+11-5.59281E+07 2.02630E+11-1.01180E+08-1.48905E+10-2.45109E+07
 -1      1994 5.35913E+11-4.07902E+07 2.03632E+11-8.56918E+07-1.50716E+10-2.20345E+07
 -1      1995 5.38072E+11 8.46250E+06 2.04471E+11-6.81280E+07-1.52333E+10-1.95471E+07
 -1      1996 5.39740E+11-9.76071E+07 2.05064E+11-4.82110E+07-1.53756E+10-1.70508E+07
 -1      1997 5.40894E+11 2.71659E+06 2.05541E+11-3.31844E+07-1.54985E+10-1.45480E+07
 -1      1998 5.41590E+11-9.76242E+07 2.05767E+11-1.66318E+07-1.56019E+10-1.20409E+07
 -1      1999 5.41764E+11-2.31269E+06 2.05870E+11 2.06073E+06-1.56858E+10-9.53173E+06
 -1      2000 5.41435E+11-2.33525E+06 2.05744E+11 2.12625E+07-1.57502E+10-7.02299E+06
 -1      2001 5.40619E+11-8.96628E+07 2.05401E+11 4.02764E+07-1.57951E+10-4.51686E+06
 -1      2002 5.39296E+11-8.57286E+06 2.04929E+11 5.52660E+07-1.58205E+10-2.01569E+06
 -1      2003 5.37467E+11-9.52960E+07 2.04201E+11 7.54551E+07-1.58264E+10 4.78184E+05
 -1      2004 5.35122E+11 9.50710E+06 2.03350E+11 9.00381E+07-1.58131E+10 2.96238E+06
 -1      2005 5.32275E+11-4.77760E+07 2.02246E+11 1.13068E+08-1.57804E+10 5.43453E+06
 -1      2006 5.28951E+11-4.71962E+07 2.00983E+11 1.25243E+08-1.57286E+10 7.89242E+06
 -1      2007 5.25100E+11-4.65798E+06 1.99536E+11 1.50384E+08-1.56577E+10 1.03337E+07
 -1      2008 5.20739E+11-6.30713E+07 1.97857E+11 1.64449E+08-1.55679E+10 1.27559E+07
 -1      2009 5.15917E+11-7.01732E+07 1.96022E+11 1.80744E+08-1.54593E+10 1.51569E+07
 -1      2010 5.10574E+11-1.38863E+07 1.94013E+11 1.98995E+08-1.53321E+10 1.75344E+07
 -1      2011 5.04746E+11 9.21886E+05 1.91804E+11 2.17562E+08-1.51866E+10 1.98859E+07
 -1      2012 4.98441E+11-8.57460E+07 1.89375E+11 2.35944E+08-1.50229E+10 2.22094E+07
 -1      2013 4.91658E+11-9.84786E+06 1.86826E+11 2.49842E+08-1.48412E+10 2.45025E+07
 -1      2014 4.84400E+11-8.31051E+07 1.84040E+11 2.68611E+08-1.46418E+10 2.67632E+07
 -1      2015 4.76656E+11 2.08904E+05 1.81130E+11 2.83214E+08-1.44249E+10 2.89891E+07
 -1      2016 4.68479E+11-9.17057E+06 1.78019E+11 3.01049E+08-1.41909E+10 3.11780E+07
 -1      2017 4.59845E+11-7.76799E+07 1.74712E+11 3.18986E+08-1.39400E+10 3.33281E+07
 -1      2018 4.50747E+11-2.22420E+06 1.71283E+11 3.31965E+08-1.36726E+10 3.54371E+07
 -1      2019 4.41230E+11-1.05251E+08 1.67627E+11 3.48103E+08-1.33889E+10 3.75030E+07
 -1      2020 4.31284E+11 2.25074E+07 1.63896E+11 3.58882E+08-1.30893E+10 3.95239E+07
 -1      2021 4.20918E+11 1.91117E+07 1.59956E+11 3.81981E+08-1.27742E+10 4.14977E+07
 -1      2022 4.10141E+11-1.02859E+08 1.55814E+11 3.93196E+08-1.24439E+10 4.34224E+07
 -1      2023 3.98968E+11 2.45763E+06 1.51609E+11 4.06198E+08-1.20988E+10 4.52964E+07
 -1      2024 3.87421E+11-6.52172E+07 1.47195E+11 4.19007E+08-1.17394E+10 4.71178E+07
 -1      2025 3.75486E+11-9.18691E+06 1.42681E+11 4.32541E+08-1.13660E+10 4.88848E+07
 -1      2026 3.63183E+11 2.51229E+06 1.38011E+11 4.46771E+08-1.09791E+10 5.05956E+07
 -1      2027 3.50553E+11-6.04693E+07 1.33187E+11 4.57996E+08-1.05791E+10 5.22486E+07
 -1      2028 3.37569E+11-1.77905E+07 1.28270E+11 4.70565E+08-1.01664E+10 5.38424E+07
 -1      2029 3.24258E+11-1.79460E+07 1.23211E+11 4.80650E+08-9.74163E+09 5.53753E+07
 -1      2030 3.10647E+11-4.66623E+07 1.18028E+11 4.92342E+08-9.30516E+09 5.68458E+07
 -1      2031 2.96732E+11-6.62068E+06 1.12756E+11 5.00787E+08-8.85749E+09 5.82526E+07
 -1      2032 2.82539E+11 3.90426E+06 1.07366E+11 5.13691E+08-8.39914E+09 5.95942E+07
 -1      2033 2.68072E+11-6.43671E+07 1.01843E+11 5.21864E+08-7.93061E+09 6.08694E+07
 -1      2034 2.53356E+11 9.49178E+06 9.62788E+10 5.29177E+08-7.45242E+09 6.20772E+07
 -1      2035 2.38407E+11-2.24774E+07 9.05861E+10 5.39149E+08-6.96510E+09 6.32162E+07
 -1      2036 2.23227E+11-2.28636E+07 8.48176E+10 5.46267E+08-6.46920E+09 6.42854E+07
 -1      2037 2.07840E+11 7.11332E+06 7.89819E+10 5.53762E+08-5.96526E+09 6.52838E+07
 -1      2038 1.92274E+11-3.60863E+07 7.30505E+10 5.59759E+08-5.45383E+09 6.62104E+07
 -1      2039 1.76526E+11-2.22889E+06 6.70791E+10 5.65992E+08-4.93547E+09 6.70646E+07
 -1      2040 1.60620E+11-2.39582E+07 6.10264E+10 5.70527E+08-4.41075E+09 6.78455E+07
 -1      2041 1.44575E+11 4.93561E+04 5.49385E+10 5.75608E+08-3.88024E+09 6.85524E+07
 -1      2042 1.28407E+11-4.70909E+05 4.87946E+10 5.79934E+08-3.34453E+09 6.91847E+07
 -1      2043 1.12134E+11-1.92795E+07 4.26035E+10 5.83797E+08-2.80419E+09 6.97418E+07
 -1      2044 9.57653E+10 8.06601E+05 3.63911E+10 5.85993E+08-2.25981E+09 7.02233E+07
 -1      2045 7.93288E+10-1.23994E+07 3.01402E+10 5.88096E+08-1.71199E+09 7.06298E+07
 -1      2046 6.28420E+10 3.11835E+06 2.38811E+10 5.90129E+08-1.16130E+09 7.09610E+07
 -1      2047 4.63090E+10 5.94565E+04 1.75975E+10 5.91060E+08-6.08349E+08 7.12147E+07
 -1      2048 2.97633E+10-3.59942E+06 1.13087E+10 5.91546E+08-5.37286E+07 7.13909E+07
 -1      2049 1.32124E+10 4.61759E+06 5.02246E+09 5.91226E+08 5.01968E+08 7.14905E+07
 -1      2050-3.32077E+09-9.41367E+05-1.26225E+09 5.90154E+08 1.05814E+09 7.15134E+07
 -1      2051-1.98214E+10 8.68667E+06-7.52882E+09 5.88632E+08 1.61419E+09 7.14598E+07
 -1      2052-3.62680E+10 2.23087E+06-1.37810E+10 5.86648E+08 2.16952E+09 7.13300E+07
 -1      2053-5.26486E+10 3.43154E+06-2.00052E+10 5.83876E+08 2.72355E+09 7.11240E+07
 -1      2054-6.89412E+10 1.42268E+07-2.61923E+10 5.79905E+08 3.27569E+09 7.08424E+07
 -1      2055-8.51261E+10 3.24612E+06-3.23467E+10 5.76130E+08 3.82534E+09 7.04856E+07
 -1      2056-1.01196E+11 2.26777E+07-3.84457E+10 5.71729E+08 4.37192E+09 7.00540E+07
 -1      2057-1.17119E+11 4.51050E+06-4.45037E+10 5.66453E+08 4.91486E+09 6.95484E+07
 -1      2058-1.32889E+11 5.24244E+06-5.04957E+10 5.60359E+08 5.45358E+09 6.89694E+07
 -1      2059-1.48483E+11 2.40937E+07-5.64145E+10 5.53022E+08 5.98751E+09 6.83177E+07
 -1      2060-1.63890E+11 2.03706E+07-6.22705E+10 5.47116E+08 6.51610E+09 6.75942E+07
 -1      2061-1.79088E+11 2.67218E+07-6.80433E+10 5.39543E+08 7.03879E+09 6.67998E+07
 -1      2062-1.94055E+11-8.04722E+06-7.37439E+10 5.30903E+08 7.55502E+09 6.59356E+07
 -1      2063-2.08789E+11 2.41860E+07-7.93305E+10 5.21212E+08 8.06426E+09 6.50026E+07
 -1      2064-2.23266E+11 3.17379E+07-8.48292E+10 5.11495E+08 8.56598E+09 6.40018E+07
 -1      2065-2.37461E+11 2.13389E+07-9.02271E+10 5.02024E+08 9.05966E+09 6.29347E+07
 -1      2066-2.51372E+11 1.76247E+07-9.55148E+10 4.91323E+08 9.54479E+09 6.18025E+07
 -1      2067-2.64986E+11 4.75568E+07-1.00677E+11 4.80750E+08 1.00209E+10 6.06065E+07
 -1      2068-2.78269E+11 1.06205E+07-1.05738E+11 4.69227E+08 1.04874E+10 5.93483E+07
 -1      2069-2.91220E+11 6.24003E+06-1.10661E+11 4.56130E+08 1.09439E+10 5.80293E+07
 -1      2070-3.03824E+11 5.53515E+07-1.15432E+11 4.42466E+08 1.13899E+10 5.66511E+07
 -1      2071-3.16069E+11 1.27527E+07-1.20101E+11 4.31162E+08 1.18250E+10 5.52153E+07
 -1      2072-3.27933E+11 6.50734E+07-1.24590E+11 4.16175E+08 1.22486E+10 5.37237E+07
 -1      2073-3.39395E+11-2.22002E+06-1.28971E+11 4.03620E+08 1.26605E+10 5.21781E+07
 -1      2074-3.50471E+11 4.20576E+07-1.33163E+11 3.87742E+08 1.30602E+10 5.05802E+07
 -1      2075-3.61128E+11 4.12812E+07-1.37213E+11 3.73107E+08 1.34472E+10 4.89321E+07
 -1      2076-3.71343E+11-6.02421E+06-1.41113E+11 3.56258E+08 1.38212E+10 4.72355E+07
 -1      2077-3.81126E+11 9.81893E+07-1.44791E+11 3.40186E+08 1.41818E+10 4.54926E+07
 -1      2078-3.90458E+11 2.19186E+06-1.48373E+11 3.27248E+08 1.45287E+10 4.37055E+07
 -1      2079-3.99326E+11 1.73946E+07-1.51737E+11 3.06399E+08 1.48616E+10 4.18763E+07
 -1      2080-4.07711E+11 6.89553E+07-1.54904E+11 2.89733E+08 1.51800E+10 4.00070E+07
 -1      2081-4.15626E+11 1.89809E+07-1.57931E+11 2.74551E+08 1.54838E+10 3.81000E+07
 -1      2082-4.23044E+11 7.73947E+07-1.60727E+11 2.54526E+08 1.57726E+10 3.61575E+07
 -1      2083-4.29944E+11 1.45113E+07-1.63373E+11 2.39595E+08 1.60462E+10 3.41818E+07
 -1      2084-4.36343E+11 1.08200E+07-1.65806E+11 2.17546E+08 1.63042E+10 3.21754E+07
 -1      2085-4.42234E+11 7.52925E+07-1.68020E+11 2.00129E+08 1.65466E+10 3.01404E+07
 -1      2086-4.47580E+11 4.10859E+07-1.70065E+11 1.80250E+08 1.67730E+10 2.80794E+07
 -1      2087-4.52392E+11 1.94355E+07-1.71901E+11 1.62835E+08 1.69833E+10 2.59949E+07
 -1      2088-4.56667E+11 1.16156E+08-1.73489E+11 1.41466E+08 1.71773E+10 2.38894E+07
 -1      2089-4.60397E+11-1.19348E+07-1.74955E+11 1.28577E+08 1.73549E+10 2.17653E+07
 -1      2090-4.63572E+11-1.21904E+07-1.76162E+11 9.88027E+07 1.75159E+10 1.96252E+07
 -1      2091-4.66175E+11 1.16923E+08-1.77102E+11 8.12381E+07 1.76601E+10 1.74717E+07
 -1      2092-4.68237E+11 1.22172E+07-1.77925E+11 6.39418E+07 1.77876E+10 1.53074E+07
 -1      2093-4.69722E+11 9.10062E+07-1.78460E+11 4.12704E+07 1.78982E+10 1.31349E+07
 -1      2094-4.70624E+11 1.36859E+07-1.78832E+11 2.43158E+07 1.79919E+10 1.09569E+07
 -1      2095-4.70962E+11 1.28462E+07-1.78960E+11-3.54962E+05 1.80686E+10 8.77605E+06
 -1      2096-4.70736E+11 8.79532E+07-1.78846E+11-1.94252E+07 1.81284E+10 6.59489E+06
 -1      2097-4.69915E+11 2.45044E+07-1.78559E+11-4.08387E+07 1.81712E+10 4.41614E+06
 -1      2098-4.68513E+11 8.25336E+07-1.78004E+11-6.04594E+07 1.81971E+10 2.24255E+06
 -1      2099-4.66542E+11 1.75687E+07-1.77279E+11-7.90273E+07 1.82062E+10 7.67700E+04
 -1      2100-4.63987E+11 1.77753E+07-1.76308E+11-1.04162E+08 1.81984E+10-2.07850E+06
 -1      2101-4.60845E+11 7.80624E+07-1.75091E+11-1.23699E+08 1.81739E+10-4.22060E+06
 -1      2102-4.57125E+11 5.32132E+07-1.73687E+11-1.44032E+08 1.81327E+10-6.34682E+06
 -1      2103-4.52839E+11 6.22744E+07-1.72055E+11-1.60832E+08 1.80752E+10-8.45451E+06
 -1      2104-4.47964E+11-1.38252E+07-1.70232E+11-1.85984E+08 1.80013E+10-1.05410E+07
 -1      2105-4.42508E+11 5.37735E+07-1.68133E+11-2.06796E+08 1.79113E+10-1.26035E+07
 -1      2106-4.36497E+11 6.97588E+07-1.65842E+11-2.26697E+08 1.78053E+10-1.46394E+07
 -1      2107-4.29914E+11 3.58431E+07-1.63354E+11-2.45129E+08 1.76836E+10-1.66462E+07
 -1      2108-4.22763E+11 4.16753E+07-1.60634E+11-2.66602E+08 1.75465E+10-1.86212E+07
 -1      2109-4.15048E+11 6.87490E+07-1.57692E+11-2.86013E+08 1.73941E+10-2.05618E+07
 -1      2110-4.06787E+11 2.34160E+07-1.54570E+11-3.03135E+08 1.72267E+10-2.24654E+07
 -1      2111-3.97976E+11 1.42205E+07-1.51225E+11-3.27200E+08 1.70447E+10-2.43294E+07
 -1      2112-3.88614E+11 7.95959E+07-1.47643E+11-3.44759E+08 1.68484E+10-2.61513E+07
 -1      2113-3.78718E+11 1.90941E+07-1.43905E+11-3.63879E+08 1.66380E+10-2.79286E+07
 -1      2114-3.68299E+11 7.44377E+07-1.39925E+11-3.81385E+08 1.64141E+10-2.96589E+07
 -1      2115-3.57347E+11 1.61552E+07-1.35786E+11-4.00624E+08 1.61768E+10-3.13397E+07
 -1      2116-3.45871E+11 3.47075E+07-1.31418E+11-4.19922E+08 1.59267E+10-3.29685E+07
 -1      2117-3.33912E+11 5.58743E+07-1.26865E+11-4.35891E+08 1.56641E+10-3.45430E+07
 -1      2118-3.21435E+11 5.05765E+05-1.22145E+11-4.56785E+08 1.53895E+10-3.60610E+07
 -1      2119-3.08466E+11 8.91520E+07-1.17183E+11-4.72381E+08 1.51033E+10-3.75200E+07
 -1      2120-2.95020E+11 1.15214E+07-1.12103E+11-4.88501E+08 1.48060E+10-3.89179E+07
 -1      2121-2.81105E+11 1.85873E+07-1.06813E+11-5.06155E+08 1.44981E+10-4.02523E+07
 -1      2122-2.66727E+11 6.21077E+07-1.01333E+11-5.23677E+08 1.41801E+10-4.15212E+07
 -1      2123-2.51889E+11 1.96810E+07-9.57102E+10-5.37760E+08 1.38524E+10-4.27224E+07
 -1      2124-2.36615E+11 5.50623E+07-8.98928E+10-5.54097E+08 1.35157E+10-4.38540E+07
 -1      2125-2.20911E+11 1.69240E+07-8.39399E+10-5.67929E+08 1.31704E+10-4.49138E+07
 -1      2126-2.04784E+11 2.12569E+07-7.78097E+10-5.84935E+08 1.28172E+10-4.58998E+07
 -1      2127-1.88247E+11 4.58127E+07-7.15166E+10-5.98690E+08 1.24566E+10-4.68101E+07
 -1      2128-1.71317E+11 2.74884E+07-6.50900E+10-6.11779E+08 1.20893E+10-4.76430E+07
 -1      2129-1.54000E+11 2.58047E+07-5.85102E+10-6.26074E+08 1.17157E+10-4.83966E+07
 -1      2130-1.36305E+11 4.41227E+07-5.17793E+10-6.38807E+08 1.13367E+10-4.90690E+07
 -1      2131-1.18253E+11 1.45229E+07-4.49305E+10-6.50934E+08 1.09527E+10-4.96588E+07
 -1      2132-9.98507E+10 1.29790E+07-3.79383E+10-6.64783E+08 1.05644E+10-5.01640E+07
 -1      2133-8.11113E+10 4.28566E+07-3.08060E+10-6.76157E+08 1.01726E+10-5.05831E+07
 -1      2134-6.20452E+10 1.82391E+07-2.35702E+10-6.86901E+08 9.77780E+09-5.09147E+07
 -1      2135-4.26705E+10 2.66844E+07-1.62046E+10-6.97684E+08 9.38080E+09-5.11573E+07
 -1      2136-2.29951E+10 2.06481E+07-8.73031E+09-7.08695E+08 8.98227E+09-5.13095E+07
 -1      2137-3.03207E+09 2.07846E+07-1.14429E+09-7.18376E+08 8.58290E+09-5.13699E+07
 -1      2138 1.72023E+10 2.10902E+07 6.54491E+09-7.27964E+08 8.18343E+09-5.13371E+07
 -1      2139 3.76998E+10 2.09134E+07 1.43339E+10-7.36866E+08 7.78458E+09-5.12100E+07
 -1      2140 5.84459E+10 1.18696E+07 2.22140E+10-7.45601E+08 7.38709E+09-5.09874E+07
 -1      2141 7.94245E+10 2.08835E+07 3.01892E+10-7.54184E+08 6.99170E+09-5.06681E+07
 -1      2142 1.00628E+11 2.72179E+07 3.82492E+10-7.61622E+08 6.59918E+09-5.02512E+07
 -1      2143 1.22044E+11-5.89454E+06 4.63745E+10-7.68351E+08 6.21029E+09-4.97355E+07
 -1      2144 1.43658E+11 3.01099E+07 5.46015E+10-7.76851E+08 5.82578E+09-4.91202E+07
 -1      2145 1.65453E+11 7.94301E+06 6.28751E+10-7.81163E+08 5.44646E+09-4.84043E+07
 -1      2146 1.87428E+11 1.11605E+07 7.12269E+10-7.89497E+08 5.07309E+09-4.75870E+07
 -1      2147 2.09560E+11 2.77903E+07 7.96434E+10-7.92562E+08 4.70649E+09-4.66676E+07
 -1      2148 2.31847E+11-4.72528E+06 8.81000E+10-7.98934E+08 4.34743E+09-4.56452E+07
 -1      2149 2.54263E+11 1.19310E+07 9.66243E+10-8.02355E+08 3.99673E+09-4.45194E+07
 -1      2150 2.76823E+11 1.75158E+07 1.05199E+11-8.09370E+08 3.65518E+09-4.32894E+07
 -1      2151 2.99484E+11-2.14777E+07 1.13796E+11-8.09611E+08 3.32361E+09-4.19546E+07
 -1      2152 3.22260E+11 2.96821E+07 1.22470E+11-8.19030E+08 3.00283E+09-4.05146E+07
 -1      2153 3.45114E+11 2.83730E+07 1.31154E+11-8.15394E+08 2.69366E+09-3.89690E+07
 -1      2154 3.68096E+11-2.21103E+07 1.39868E+11-8.24127E+08 2.39693E+09-3.73171E+07
 -1      2155 3.91101E+11 1.44039E+07 1.48624E+11-8.19550E+08 2.11346E+09-3.55587E+07
 -1      2156 4.14224E+11-1.19965E+07 1.57401E+11-8.31275E+08 1.84407E+09-3.36935E+07
 -1      2157 4.37346E+11-1.61921E+07 1.66185E+11-8.23978E+08 1.58961E+09-3.17212E+07
 -1      2158 4.60608E+11 7.23164E+07 1.75059E+11-8.39766E+08 1.35091E+09-2.96415E+07
 -1      2159 4.83792E+11-2.54169E+07 1.83831E+11-8.17902E+08 1.12880E+09-2.74542E+07
 -1      2160 5.07158E+11 1.25809E+07 1.92725E+11-8.45169E+08 9.24126E+08-2.51590E+07
 -1      2161 5.30378E+11-5.67866E+07 2.01522E+11-8.16512E+08 7.37721E+08-2.27559E+07
 -1      2162 5.53854E+11 2.98473E+07 2.10476E+11-8.58316E+08 5.70424E+08-2.02448E+07
 -1      2163 5.77026E+11 1.34753E+08 2.19321E+11-8.05751E+08 4.23083E+08-1.76255E+07
 -1      2164 6.00605E+11-4.91732E+08 2.28043E+11-8.63790E+08 2.96529E+08-1.48979E+07
 -1      2165 6.23878E+11 1.76560E+09 2.37745E+11-8.21566E+08 1.91616E+08-1.20622E+07
 -1      2166 6.46896E+11-6.58082E+09 2.43320E+11-7.60037E+08 1.09173E+08-9.11768E+06
 -1      2167 6.72538E+11 2.42330E+10 2.64773E+11-1.27014E+09 5.00576E+07-6.06637E+06
 -1      2168 6.86570E+11-8.88957E+10 2.27116E+11 9.50679E+08 1.51003E+07-2.90111E+06
 -1      2169 6.87590E+11 3.26887E+11 3.85501E+11-7.20263E+09 3.74623E+06-1.28756E+06
 -1      2170 1.21256E+08 6.04945E+07 6.90652E+07 5.59623E+06-2.36363E+10 1.01078E+08
 -1      2171 5.04880E+08 5.64971E+07 2.13324E+08-2.73718E+07-2.32432E+10 1.01077E+08
 -1      2172 1.62276E+09 5.77883E+07 6.38608E+08-5.29562E+07-2.24570E+10 1.01073E+08
 -1      2173 3.45480E+09 5.23857E+07 1.33273E+09-7.84430E+07-2.16709E+10 1.01061E+08
 -1      2174 5.97990E+09 5.19334E+07 2.29210E+09-1.02463E+08-2.08849E+10 1.01039E+08
 -1      2175 9.16908E+09 5.22521E+07 3.50411E+09-1.25993E+08-2.00991E+10 1.01004E+08
 -1      2176 1.30030E+10 4.62965E+07 4.95873E+09-1.48383E+08-1.93137E+10 1.00952E+08
 -1      2177 1.74484E+10 4.63659E+07 6.64801E+09-1.69693E+08-1.85288E+10 1.00882E+08
 -1      2178 2.24894E+10 4.67436E+07 8.56372E+09-1.90864E+08-1.77444E+10 1.00789E+08
 -1      2179 2.80935E+10 3.24632E+07 1.06879E+10-2.10061E+08-1.69609E+10 1.00672E+08
 -1      2180 3.42382E+10 5.69930E+07 1.30322E+10-2.29796E+08-1.61784E+10 1.00528E+08
 -1      2181 4.09040E+10 2.43407E+07 1.55528E+10-2.46669E+08-1.53972E+10 1.00354E+08
 -1      2182 4.80539E+10 4.30548E+07 1.82768E+10-2.64646E+08-1.46174E+10 1.00148E+08
 -1      2183 5.56739E+10 3.80098E+07 2.11705E+10-2.79998E+08-1.38394E+10 9.99077E+07
 -1      2184 6.37389E+10 2.84368E+06 2.42219E+10-2.96977E+08-1.30633E+10 9.96312E+07
 -1      2185 7.22118E+10 8.17984E+07 2.74715E+10-3.10333E+08-1.22896E+10 9.93166E+07
 -1      2186 8.10836E+10-7.29450E+06 3.08090E+10-3.22953E+08-1.15184E+10 9.89613E+07
 -1      2187 9.03245E+10 3.91508E+07 3.43382E+10-3.37638E+08-1.07502E+10 9.85643E+07
 -1      2188 9.98997E+10 2.49317E+07 3.79714E+10-3.46638E+08-9.98528E+09 9.81237E+07
 -1      2189 1.09803E+11 1.48352E+06 4.17258E+10-3.61714E+08-9.22392E+09 9.76380E+07
 -1      2190 1.19992E+11 5.93638E+07 4.56194E+10-3.67645E+08-8.46653E+09 9.71060E+07
 -1      2191 1.30457E+11-6.16483E+06 4.95711E+10-3.79645E+08-7.71346E+09 9.65258E+07
 -1      2192 1.41172E+11 2.61758E+07 5.36552E+10-3.86073E+08-6.96509E+09 9.58967E+07
 -1      2193 1.52095E+11 3.18304E+06 5.77973E+10-3.94723E+08-6.22180E+09 9.52175E+07
 -1      2194 1.63230E+11 2.25241E+07 6.20361E+10-4.02198E+08-5.48400E+09 9.44872E+07
 -1      2195 1.74533E+11 2.15231E+07 6.63307E+10-4.05815E+08-4.75208E+09 9.37050E+07
 -1      2196 1.85991E+11 1.44707E+06 7.06771E+10-4.12415E+08-4.02645E+09 9.28699E+07
 -1      2197 1.97579E+11-4.70290E+06 7.50782E+10-4.15754E+08-3.30752E+09 9.19816E+07
 -1      2198 2.09264E+11 1.80057E+07 7.95271E+10-4.20610E+08-2.59571E+09 9.10393E+07
 -1      2199 2.21037E+11 1.96956E+07 8.40017E+10-4.21099E+08-1.89144E+09 9.00428E+07
 -1      2200 2.32877E+11-1.68972E+07 8.84868E+10-4.24078E+08-1.19514E+09 8.89914E+07
 -1      2201 2.44747E+11 1.23659E+07 9.30085E+10-4.24047E+08-5.07221E+08 8.78852E+07
 -1      2202 2.56632E+11-2.30338E+07 9.75113E+10-4.25390E+08 1.71878E+08 8.67240E+07
 -1      2203 2.68517E+11 1.88821E+07 1.02044E+11-4.25554E+08 8.41728E+08 8.55078E+07
 -1      2204 2.80373E+11-7.11398E+06 1.06539E+11-4.22016E+08 1.50190E+09 8.42365E+07
 -1      2205 2.92180E+11-1.49061E+07 1.11023E+11-4.22234E+08 2.15198E+09 8.29104E+07
 -1      2206 3.03919E+11 2.96967E+07 1.15500E+11-4.16605E+08 2.79153E+09 8.15298E+07
 -1      2207 3.15573E+11-6.27886E+07 1.19894E+11-4.15056E+08 3.42014E+09 8.00950E+07
 -1      2208 3.27113E+11 1.68484E+07 1.24309E+11-4.11075E+08 4.03737E+09 7.86065E+07
 -1      2209 3.38520E+11 9.61354E+06 1.28641E+11-4.04545E+08 4.64281E+09 7.70649E+07
 -1      2210 3.49788E+11-4.09111E+07 1.32904E+11-3.98894E+08 5.23606E+09 7.54707E+07
 -1      2211 3.60889E+11-7.99615E+06 1.37135E+11-3.94061E+08 5.81671E+09 7.38247E+07
 -1      2212 3.71800E+11-1.09630E+07 1.41280E+11-3.85744E+08 6.38436E+09 7.21278E+07
 -1      2213 3.82503E+11-4.42005E+07 1.45334E+11-3.78922E+08 6.93861E+09 7.03807E+07
 -1      2214 3.92993E+11 1.17888E+06 1.49338E+11-3.72916E+08 7.47908E+09 6.85847E+07
 -1      2215 4.03244E+11 8.51243E+06 1.53236E+11-3.59626E+08 8.00540E+09 6.67406E+07
 -1      2216 4.13234E+11-6.11441E+07 1.57006E+11-3.52374E+08 8.51718E+09 6.48495E+07
 -1      2217 4.22952E+11 1.02674E+07 1.60726E+11-3.41457E+08 9.01409E+09 6.29129E+07
 -1      2218 4.32395E+11-9.66135E+07 1.64273E+11-3.33555E+08 9.49575E+09 6.09318E+07
 -1      2219 4.41522E+11 2.45514E+07 1.67788E+11-3.23284E+08 9.96184E+09 5.89078E+07
 -1      2220 4.50326E+11 3.66855E+07 1.71138E+11-3.06303E+08 1.04120E+10 5.68423E+07
 -1      2221 4.58819E+11-1.05233E+08 1.74311E+11-2.96283E+08 1.08460E+10 5.47366E+07
 -1      2222 4.66954E+11 5.92872E+06 1.77445E+11-2.83679E+08 1.12634E+10 5.25924E+07
 -1      2223 4.74724E+11-7.68415E+07 1.80366E+11-2.72000E+08 1.16640E+10 5.04114E+07
 -1      2224 4.82125E+11 6.35288E+06 1.83210E+11-2.59025E+08 1.20475E+10 4.81953E+07
 -1      2225 4.89149E+11-4.97297E+06 1.85875E+11-2.43115E+08 1.24137E+10 4.59458E+07
 -1      2226 4.95779E+11-6.88726E+07 1.88370E+11-2.27898E+08 1.27622E+10 4.36646E+07
 -1      2227 5.01985E+11-2.50911E+07 1.90745E+11-2.14926E+08 1.30928E+10 4.13537E+07
 -1      2228 5.07782E+11-2.48078E+07 1.92948E+11-1.99223E+08 1.34054E+10 3.90150E+07
 -1      2229 5.13167E+11-7.02186E+07 1.94977E+11-1.85353E+08 1.36997E+10 3.66504E+07
 -1      2230 5.18093E+11-1.44124E+07 1.96870E+11-1.69209E+08 1.39755E+10 3.42620E+07
 -1      2231 5.22572E+11 1.89393E+07 1.98585E+11-1.50612E+08 1.42326E+10 3.18518E+07
 -1      2232 5.26619E+11-1.30186E+08 2.00066E+11-1.36158E+08 1.44709E+10 2.94218E+07
 -1      2233 5.30193E+11 2.51172E+07 2.01483E+11-1.20842E+08 1.46903E+10 2.69741E+07
 -1      2234 5.33293E+11-5.59237E+07 2.02630E+11-1.01180E+08 1.48905E+10 2.45110E+07
 -1      2235 5.35913E+11-4.07859E+07 2.03632E+11-8.56920E+07 1.50715E+10 2.20346E+07
 -1      2236 5.38072E+11 8.46651E+06 2.04471E+11-6.81283E+07 1.52333E+10 1.95472E+07
 -1      2237 5.39740E+11-9.76034E+07 2.05064E+11-4.82115E+07 1.53756E+10 1.70509E+07
 -1      2238 5.40894E+11 2.71961E+06 2.05541E+11-3.31852E+07 1.54985E+10 1.45481E+07
 -1      2239 5.41590E+11-9.76219E+07 2.05767E+11-1.66327E+07 1.56019E+10 1.20410E+07
 -1      2240 5.41764E+11-2.31112E+06 2.05870E+11 2.05989E+06 1.56858E+10 9.53185E+06
 -1      2241 5.41435E+11-2.33443E+06 2.05744E+11 2.12617E+07 1.57502E+10 7.02311E+06
 -1      2242 5.40619E+11-8.96628E+07 2.05401E+11 4.02755E+07 1.57951E+10 4.51698E+06
 -1      2243 5.39296E+11-8.57349E+06 2.04929E+11 5.52652E+07 1.58205E+10 2.01581E+06
 -1      2244 5.37467E+11-9.52972E+07 2.04201E+11 7.54545E+07 1.58264E+10-4.78066E+05
 -1      2245 5.35122E+11 9.50540E+06 2.03350E+11 9.00378E+07 1.58131E+10-2.96227E+06
 -1      2246 5.32275E+11-4.77781E+07 2.02246E+11 1.13067E+08 1.57804E+10-5.43442E+06
 -1      2247 5.28951E+11-4.71985E+07 2.00983E+11 1.25243E+08 1.57285E+10-7.89232E+06
 -1      2248 5.25100E+11-4.66038E+06 1.99536E+11 1.50384E+08 1.56577E+10-1.03336E+07
 -1      2249 5.20739E+11-6.30738E+07 1.97857E+11 1.64448E+08 1.55678E+10-1.27558E+07
 -1      2250 5.15917E+11-7.01760E+07 1.96022E+11 1.80744E+08 1.54593E+10-1.51568E+07
 -1      2251 5.10574E+11-1.38892E+07 1.94013E+11 1.98994E+08 1.53321E+10-1.75343E+07
 -1      2252 5.04746E+11 9.18808E+05 1.91804E+11 2.17562E+08 1.51866E+10-1.98858E+07
 -1      2253 4.98441E+11-8.57492E+07 1.89375E+11 2.35944E+08 1.50229E+10-2.22093E+07
 -1      2254 4.91658E+11-9.85117E+06 1.86826E+11 2.49842E+08 1.48412E+10-2.45025E+07
 -1      2255 4.84400E+11-8.31084E+07 1.84040E+11 2.68611E+08 1.46418E+10-2.67631E+07
 -1      2256 4.76656E+11 2.05784E+05 1.81130E+11 2.83214E+08 1.44249E+10-2.89890E+07
 -1      2257 4.68479E+11-9.17355E+06 1.78019E+11 3.01049E+08 1.41909E+10-3.11780E+07
 -1      2258 4.59845E+11-7.76826E+07 1.74712E+11 3.18986E+08 1.39400E+10-3.33281E+07
 -1      2259 4.50747E+11-2.22680E+06 1.71283E+11 3.31965E+08 1.36726E+10-3.54371E+07
 -1      2260 4.41230E+11-1.05254E+08 1.67627E+11 3.48103E+08 1.33889E+10-3.75030E+07
 -1      2261 4.31284E+11 2.25053E+07 1.63896E+11 3.58883E+08 1.30893E+10-3.95239E+07
 -1      2262 4.20918E+11 1.91098E+07 1.59956E+11 3.81982E+08 1.27742E+10-4.14977E+07
 -1      2263 4.10141E+11-1.02860E+08 1.55814E+11 3.93197E+08 1.24439E+10-4.34224E+07
 -1      2264 3.98968E+11 2.45674E+06 1.51609E+11 4.06199E+08 1.20988E+10-4.52964E+07
 -1      2265 3.87421E+11-6.52177E+07 1.47195E+11 4.19008E+08 1.17394E+10-4.71178E+07
 -1      2266 3.75486E+11-9.18718E+06 1.42681E+11 4.32541E+08 1.13660E+10-4.88848E+07
 -1      2267 3.63183E+11 2.51238E+06 1.38011E+11 4.46771E+08 1.09791E+10-5.05956E+07
 -1      2268 3.50553E+11-6.04691E+07 1.33187E+11 4.57996E+08 1.05791E+10-5.22486E+07
 -1      2269 3.37569E+11-1.77902E+07 1.28270E+11 4.70565E+08 1.01664E+10-5.38424E+07
 -1      2270 3.24258E+11-1.79458E+07 1.23211E+11 4.80650E+08 9.74163E+09-5.53753E+07
 -1      2271 3.10647E+11-4.66623E+07 1.18028E+11 4.92342E+08 9.30516E+09-5.68458E+07
 -1      2272 2.96732E+11-6.62076E+06 1.12756E+11 5.00787E+08 8.85749E+09-5.82526E+07
 -1      2273 2.82539E+11 3.90420E+06 1.07366E+11 5.13691E+08 8.39914E+09-5.95942E+07
 -1      2274 2.68072E+11-6.43671E+07 1.01843E+11 5.21864E+08 7.93061E+09-6.08694E+07
 -1      2275 2.53356E+11 9.49162E+06 9.62788E+10 5.29177E+08 7.45242E+09-6.20772E+07
 -1      2276 2.38407E+11-2.24777E+07 9.05861E+10 5.39149E+08 6.96510E+09-6.32162E+07
 -1      2277 2.23227E+11-2.28640E+07 8.48176E+10 5.46267E+08 6.46920E+09-6.42854E+07
 -1      2278 2.07840E+11 7.11295E+06 7.89819E+10 5.53762E+08 5.96526E+09-6.52838E+07
 -1      2279 1.92274E+11-3.60868E+07 7.30505E+10 5.59759E+08 5.45383E+09-6.62104E+07
 -1      2280 1.76526E+11-2.22946E+06 6.70791E+10 5.65992E+08 4.93547E+09-6.70646E+07
 -1      2281 1.60620E+11-2.39586E+07 6.10264E+10 5.70527E+08 4.41075E+09-6.78455E+07
 -1      2282 1.44575E+11 4.89461E+04 5.49385E+10 5.75608E+08 3.88024E+09-6.85525E+07
 -1      2283 1.28407E+11-4.71188E+05 4.87946E+10 5.79934E+08 3.34453E+09-6.91847E+07
 -1      2284 1.12134E+11-1.92797E+07 4.26035E+10 5.83797E+08 2.80419E+09-6.97418E+07
 -1      2285 9.57653E+10 8.06528E+05 3.63911E+10 5.85993E+08 2.25981E+09-7.02233E+07
 -1      2286 7.93288E+10-1.23995E+07 3.01402E+10 5.88096E+08 1.71199E+09-7.06298E+07
 -1      2287 6.28420E+10 3.11842E+06 2.38811E+10 5.90129E+08 1.16130E+09-7.09610E+07
 -1      2288 4.63090E+10 5.96513E+04 1.75975E+10 5.91060E+08 6.08349E+08-7.12147E+07
 -1      2289 2.97633E+10-3.59919E+06 1.13087E+10 5.91546E+08 5.37283E+07-7.13909E+07
 -1      2290 1.32124E+10 4.61787E+06 5.02246E+09 5.91226E+08-5.01969E+08-7.14905E+07
 -1      2291-3.32077E+09-9.41047E+05-1.26225E+09 5.90155E+08-1.05814E+09-7.15134E+07
 -1      2292-1.98214E+10 8.68714E+06-7.52882E+09 5.88632E+08-1.61419E+09-7.14598E+07
 -1      2293-3.62680E+10 2.23143E+06-1.37810E+10 5.86648E+08-2.16953E+09-7.13300E+07
 -1      2294-5.26486E+10 3.43219E+06-2.00052E+10 5.83876E+08-2.72355E+09-7.11240E+07
 -1      2295-6.89412E+10 1.42275E+07-2.61922E+10 5.79905E+08-3.27569E+09-7.08424E+07
 -1      2296-8.51261E+10 3.24689E+06-3.23467E+10 5.76131E+08-3.82534E+09-7.04856E+07
 -1      2297-1.01196E+11 2.26785E+07-3.84457E+10 5.71729E+08-4.37192E+09-7.00540E+07
 -1      2298-1.17119E+11 4.51122E+06-4.45037E+10 5.66452E+08-4.91486E+09-6.95484E+07
 -1      2299-1.32889E+11 5.24308E+06-5.04957E+10 5.60359E+08-5.45358E+09-6.89694E+07
 -1      2300-1.48483E+11 2.40941E+07-5.64145E+10 5.53022E+08-5.98751E+09-6.83177E+07
 -1      2301-1.63890E+11 2.03710E+07-6.22705E+10 5.47116E+08-6.51610E+09-6.75942E+07
 -1      2302-1.79088E+11 2.67222E+07-6.80433E+10 5.39543E+08-7.03879E+09-6.67998E+07
 -1      2303-1.94055E+11-8.04686E+06-7.37439E+10 5.30904E+08-7.55502E+09-6.59356E+07
 -1      2304-2.08789E+11 2.41863E+07-7.93305E+10 5.21212E+08-8.06426E+09-6.50026E+07
 -1      2305-2.23266E+11 3.17383E+07-8.48292E+10 5.11495E+08-8.56598E+09-6.40018E+07
 -1      2306-2.37461E+11 2.13393E+07-9.02271E+10 5.02024E+08-9.05966E+09-6.29347E+07
 -1      2307-2.51372E+11 1.76253E+07-9.55148E+10 4.91323E+08-9.54479E+09-6.18025E+07
 -1      2308-2.64986E+11 4.75574E+07-1.00677E+11 4.80750E+08-1.00209E+10-6.06065E+07
 -1      2309-2.78269E+11 1.06214E+07-1.05738E+11 4.69227E+08-1.04874E+10-5.93483E+07
 -1      2310-2.91220E+11 6.24113E+06-1.10661E+11 4.56130E+08-1.09439E+10-5.80293E+07
 -1      2311-3.03824E+11 5.53529E+07-1.15432E+11 4.42466E+08-1.13899E+10-5.66510E+07
 -1      2312-3.16069E+11 1.27541E+07-1.20101E+11 4.31162E+08-1.18250E+10-5.52153E+07
 -1      2313-3.27933E+11 6.50749E+07-1.24590E+11 4.16175E+08-1.22486E+10-5.37236E+07
 -1      2314-3.39395E+11-2.21875E+06-1.28971E+11 4.03619E+08-1.26605E+10-5.21780E+07
 -1      2315-3.50471E+11 4.20587E+07-1.33163E+11 3.87742E+08-1.30602E+10-5.05802E+07
 -1      2316-3.61128E+11 4.12821E+07-1.37213E+11 3.73107E+08-1.34472E+10-4.89320E+07
 -1      2317-3.71343E+11-6.02344E+06-1.41113E+11 3.56258E+08-1.38212E+10-4.72355E+07
 -1      2318-3.81126E+11 9.81900E+07-1.44791E+11 3.40186E+08-1.41818E+10-4.54926E+07
 -1      2319-3.90458E+11 2.19235E+06-1.48373E+11 3.27248E+08-1.45287E+10-4.37055E+07
 -1      2320-3.99326E+11 1.73951E+07-1.51737E+11 3.06399E+08-1.48616E+10-4.18762E+07
 -1      2321-4.07711E+11 6.89556E+07-1.54904E+11 2.89733E+08-1.51800E+10-4.00070E+07
 -1      2322-4.15626E+11 1.89811E+07-1.57931E+11 2.74551E+08-1.54838E+10-3.81000E+07
 -1      2323-4.23044E+11 7.73948E+07-1.60727E+11 2.54526E+08-1.57726E+10-3.61575E+07
 -1      2324-4.29944E+11 1.45113E+07-1.63373E+11 2.39594E+08-1.60462E+10-3.41818E+07
 -1      2325-4.36343E+11 1.08200E+07-1.65806E+11 2.17546E+08-1.63042E+10-3.21754E+07
 -1      2326-4.42234E+11 7.52923E+07-1.68020E+11 2.00129E+08-1.65466E+10-3.01404E+07
 -1      2327-4.47580E+11 4.10857E+07-1.70065E+11 1.80250E+08-1.67730E+10-2.80794E+07
 -1      2328-4.52392E+11 1.94350E+07-1.71901E+11 1.62834E+08-1.69833E+10-2.59949E+07
 -1      2329-4.56667E+11 1.16155E+08-1.73489E+11 1.41465E+08-1.71773E+10-2.38893E+07
 -1      2330-4.60397E+11-1.19360E+07-1.74955E+11 1.28577E+08-1.73549E+10-2.17653E+07
 -1      2331-4.63572E+11-1.21918E+07-1.76162E+11 9.88026E+07-1.75158E+10-1.96252E+07
 -1      2332-4.66175E+11 1.16922E+08-1.77102E+11 8.12382E+07-1.76601E+10-1.74717E+07
 -1      2333-4.68237E+11 1.22160E+07-1.77925E+11 6.39421E+07-1.77876E+10-1.53074E+07
 -1      2334-4.69722E+11 9.10054E+07-1.78460E+11 4.12708E+07-1.78982E+10-1.31349E+07
 -1      2335-4.70624E+11 1.36853E+07-1.78832E+11 2.43162E+07-1.79919E+10-1.09569E+07
 -1      2336-4.70962E+11 1.28459E+07-1.78960E+11-3.54834E+05-1.80686E+10-8.77603E+06
 -1      2337-4.70736E+11 8.79528E+07-1.78846E+11-1.94253E+07-1.81284E+10-6.59487E+06
 -1      2338-4.69915E+11 2.45040E+07-1.78559E+11-4.08390E+07-1.81712E+10-4.41612E+06
 -1      2339-4.68513E+11 8.25330E+07-1.78004E+11-6.04594E+07-1.81971E+10-2.24253E+06
 -1      2340-4.66542E+11 1.75679E+07-1.77279E+11-7.90273E+07-1.82061E+10-7.67516E+04
 -1      2341-4.63987E+11 1.77745E+07-1.76308E+11-1.04162E+08-1.81984E+10 2.07851E+06
 -1      2342-4.60845E+11 7.80615E+07-1.75091E+11-1.23699E+08-1.81738E+10 4.22061E+06
 -1      2343-4.57125E+11 5.32121E+07-1.73687E+11-1.44032E+08-1.81327E+10 6.34684E+06
 -1      2344-4.52839E+11 6.22729E+07-1.72055E+11-1.60832E+08-1.80752E+10 8.45452E+06
 -1      2345-4.47964E+11-1.38269E+07-1.70232E+11-1.85984E+08-1.80013E+10 1.05410E+07
 -1      2346-4.42508E+11 5.37714E+07-1.68133E+11-2.06797E+08-1.79113E+10 1.26035E+07
 -1      2347-4.36497E+11 6.97562E+07-1.65842E+11-2.26698E+08-1.78053E+10 1.46394E+07
 -1      2348-4.29914E+11 3.58400E+07-1.63354E+11-2.45130E+08-1.76836E+10 1.66462E+07
 -1      2349-4.22763E+11 4.16719E+07-1.60634E+11-2.66602E+08-1.75465E+10 1.86212E+07
 -1      2350-4.15048E+11 6.87455E+07-1.57692E+11-2.86013E+08-1.73941E+10 2.05618E+07
 -1      2351-4.06787E+11 2.34127E+07-1.54570E+11-3.03135E+08-1.72267E+10 2.24653E+07
 -1      2352-3.97976E+11 1.42175E+07-1.51225E+11-3.27200E+08-1.70447E+10 2.43293E+07
 -1      2353-3.88614E+11 7.95934E+07-1.47643E+11-3.44758E+08-1.68484E+10 2.61512E+07
 -1      2354-3.78718E+11 1.90921E+07-1.43905E+11-3.63878E+08-1.66380E+10 2.79286E+07
 -1      2355-3.68299E+11 7.44362E+07-1.39925E+11-3.81385E+08-1.64140E+10 2.96588E+07
 -1      2356-3.57347E+11 1.61539E+07-1.35786E+11-4.00623E+08-1.61768E+10 3.13396E+07
 -1      2357-3.45871E+11 3.47067E+07-1.31418E+11-4.19922E+08-1.59267E+10 3.29684E+07
 -1      2358-3.33912E+11 5.58739E+07-1.26865E+11-4.35891E+08-1.56641E+10 3.45430E+07
 -1      2359-3.21435E+11 5.06022E+05-1.22145E+11-4.56784E+08-1.53895E+10 3.60609E+07
 -1      2360-3.08466E+11 8.91530E+07-1.17183E+11-4.72380E+08-1.51033E+10 3.75199E+07
 -1      2361-2.95020E+11 1.15232E+07-1.12103E+11-4.88501E+08-1.48060E+10 3.89178E+07
 -1      2362-2.81105E+11 1.85899E+07-1.06813E+11-5.06154E+08-1.44981E+10 4.02522E+07
 -1      2363-2.66727E+11 6.21107E+07-1.01333E+11-5.23677E+08-1.41801E+10 4.15211E+07
 -1      2364-2.51889E+11 1.96842E+07-9.57102E+10-5.37760E+08-1.38524E+10 4.27224E+07
 -1      2365-2.36615E+11 5.50654E+07-8.98928E+10-5.54097E+08-1.35157E+10 4.38539E+07
 -1      2366-2.20911E+11 1.69270E+07-8.39399E+10-5.67930E+08-1.31704E+10 4.49137E+07
 -1      2367-2.04784E+11 2.12597E+07-7.78097E+10-5.84935E+08-1.28172E+10 4.58998E+07
 -1      2368-1.88247E+11 4.58152E+07-7.15166E+10-5.98690E+08-1.24566E+10 4.68101E+07
 -1      2369-1.71317E+11 2.74908E+07-6.50900E+10-6.11779E+08-1.20893E+10 4.76430E+07
 -1      2370-1.54000E+11 2.58069E+07-5.85102E+10-6.26074E+08-1.17157E+10 4.83966E+07
 -1      2371-1.36305E+11 4.41247E+07-5.17793E+10-6.38807E+08-1.13367E+10 4.90690E+07
 -1      2372-1.18253E+11 1.45244E+07-4.49305E+10-6.50935E+08-1.09527E+10 4.96588E+07
 -1      2373-9.98507E+10 1.29801E+07-3.79383E+10-6.64783E+08-1.05644E+10 5.01640E+07
 -1      2374-8.11113E+10 4.28573E+07-3.08060E+10-6.76158E+08-1.01726E+10 5.05831E+07
 -1      2375-6.20452E+10 1.82393E+07-2.35702E+10-6.86902E+08-9.77780E+09 5.09148E+07
 -1      2376-4.26705E+10 2.66843E+07-1.62046E+10-6.97685E+08-9.38080E+09 5.11574E+07
 -1      2377-2.29952E+10 2.06478E+07-8.73031E+09-7.08695E+08-8.98227E+09 5.13096E+07
 -1      2378-3.03208E+09 2.07842E+07-1.14429E+09-7.18376E+08-8.58290E+09 5.13699E+07
 -1      2379 1.72023E+10 2.10897E+07 6.54490E+09-7.27964E+08-8.18343E+09 5.13371E+07
 -1      2380 3.76998E+10 2.09128E+07 1.43339E+10-7.36866E+08-7.78458E+09 5.12100E+07
 -1      2381 5.84459E+10 1.18689E+07 2.22140E+10-7.45601E+08-7.38709E+09 5.09874E+07
 -1      2382 7.94245E+10 2.08827E+07 3.01892E+10-7.54184E+08-6.99170E+09 5.06682E+07
 -1      2383 1.00628E+11 2.72173E+07 3.82492E+10-7.61622E+08-6.59918E+09 5.02512E+07
 -1      2384 1.22044E+11-5.89523E+06 4.63745E+10-7.68351E+08-6.21028E+09 4.97355E+07
 -1      2385 1.43658E+11 3.01092E+07 5.46015E+10-7.76851E+08-5.82578E+09 4.91202E+07
 -1      2386 1.65453E+11 7.94234E+06 6.28751E+10-7.81163E+08-5.44646E+09 4.84043E+07
 -1      2387 1.87428E+11 1.11598E+07 7.12269E+10-7.89497E+08-5.07309E+09 4.75870E+07
 -1      2388 2.09560E+11 2.77897E+07 7.96434E+10-7.92562E+08-4.70649E+09 4.66676E+07
 -1      2389 2.31847E+11-4.72590E+06 8.81000E+10-7.98934E+08-4.34743E+09 4.56452E+07
 -1      2390 2.54263E+11 1.19305E+07 9.66243E+10-8.02355E+08-3.99672E+09 4.45194E+07
 -1      2391 2.76823E+11 1.75154E+07 1.05199E+11-8.09370E+08-3.65518E+09 4.32894E+07
 -1      2392 2.99484E+11-2.14782E+07 1.13796E+11-8.09611E+08-3.32361E+09 4.19546E+07
 -1      2393 3.22260E+11 2.96817E+07 1.22470E+11-8.19030E+08-3.00283E+09 4.05146E+07
 -1      2394 3.45114E+11 2.83727E+07 1.31154E+11-8.15394E+08-2.69366E+09 3.89690E+07
 -1      2395 3.68096E+11-2.21105E+07 1.39868E+11-8.24127E+08-2.39693E+09 3.73171E+07
 -1      2396 3.91101E+11 1.44037E+07 1.48624E+11-8.19550E+08-2.11345E+09 3.55587E+07
 -1      2397 4.14224E+11-1.19966E+07 1.57401E+11-8.31275E+08-1.84407E+09 3.36935E+07
 -1      2398 4.37346E+11-1.61921E+07 1.66185E+11-8.23978E+08-1.58961E+09 3.17212E+07
 -1      2399 4.60608E+11 7.23164E+07 1.75059E+11-8.39766E+08-1.35091E+09 2.96415E+07
 -1      2400 4.83792E+11-2.54168E+07 1.83831E+11-8.17902E+08-1.12880E+09 2.74541E+07
 -1      2401 5.07158E+11 1.25811E+07 1.92725E+11-8.45169E+08-9.24126E+08 2.51590E+07
 -1      2402 5.30378E+11-5.67863E+07 2.01522E+11-8.16512E+08-7.37721E+08 2.27559E+07
 -1      2403 5.53854E+11 2.98477E+07 2.10476E+11-8.58316E+08-5.70424E+08 2.02447E+07
 -1      2404 5.77026E+11 1.34754E+08 2.19321E+11-8.05751E+08-4.23083E+08 1.76255E+07
 -1      2405 6.00605E+11-4.91731E+08 2.28043E+11-8.63790E+08-2.96529E+08 1.48979E+07
 -1      2406 6.23878E+11 1.76560E+09 2.37745E+11-8.21566E+08-1.91616E+08 1.20621E+07
 -1      2407 6.46896E+11-6.58082E+09 2.43320E+11-7.60037E+08-1.09173E+08 9.11767E+06
 -1      2408 6.72538E+11 2.42330E+10 2.64773E+11-1.27014E+09-5.00576E+07 6.06636E+06
 -1      2409 6.86570E+11-8.88957E+10 2.27116E+11 9.50679E+08-1.51003E+07 2.90111E+06
 -1      2410 6.87590E+11 3.26887E+11 3.85501E+11-7.20263E+09-3.74623E+06 1.28756E+06
 -3
    1PSTEP                        11           1           1          
    1PGM                1.000000E+00                                  
    1PGK                2.131057E+06                                  
    1PHID                         -1                                  
    1PSUBC                         0                                  
    1PMODE                         3                                  
  100CL  103 232.3366394        2410                     2    3MODAL      1
 -4  TOSTRAIN    6    1
 -5  EXX         1    4    1    1
 -5  EYY         1    4    2    2
 -5  EZZ         1    4    3    3
 -5  EXY         1    4    1    2
 -5  EYZ         1    4    2    3
 -5  EZX         1    4    3    1
 -1         1-1.49886E-02 2.46073E-03 1.39854E-08 1.60770E-03 6.78836E+00 2.90314E-02
 -1         2-8.37351E-02 4.50402E-02 3.25743E-08-7.86012E-03 6.67546E+00 2.90311E-02
 -1         3-2.82649E-01 1.66811E-01 5.21083E-08-1.52071E-02 6.44967E+00 2.90297E-02
 -1         4-6.09460E-01 3.67715E-01 4.52842E-08-2.25261E-02 6.22390E+00 2.90263E-02
 -1         5-1.05914E+00 6.43377E-01 1.93937E-08-2.94238E-02 5.99816E+00 2.90200E-02
 -1         6-1.62699E+00 9.91375E-01-2.08502E-08-3.61809E-02 5.77249E+00 2.90100E-02
 -1         7-2.31032E+00 1.41085E+00-5.91237E-08-4.26105E-02 5.54692E+00 2.89952E-02
 -1         8-3.10188E+00 1.89600E+00-8.22188E-08-4.87297E-02 5.32148E+00 2.89749E-02
 -1         9-3.99945E+00 2.44608E+00-9.75968E-08-5.48094E-02 5.09622E+00 2.89484E-02
 -1        10-4.99891E+00 3.06024E+00-1.04297E-07-6.03220E-02 4.87120E+00 2.89147E-02
 -1        11-6.09038E+00 3.72648E+00-8.87459E-08-6.59890E-02 4.64646E+00 2.88733E-02
 -1        12-7.28089E+00 4.45978E+00-5.56094E-08-7.08345E-02 4.42209E+00 2.88233E-02
 -1        13-8.55199E+00 5.23676E+00-2.18803E-08-7.59966E-02 4.19813E+00 2.87641E-02
 -1        14-9.90939E+00 6.06927E+00 6.06669E-09-8.04054E-02 3.97468E+00 2.86951E-02
 -1        15-1.13493E+01 6.95572E+00 3.60553E-08-8.52811E-02 3.75180E+00 2.86157E-02
 -1        16-1.28494E+01 7.86636E+00 6.17078E-08-8.91166E-02 3.52958E+00 2.85253E-02
 -1        17-1.44389E+01 8.85047E+00 7.36482E-08-9.27406E-02 3.30811E+00 2.84233E-02
 -1        18-1.60793E+01 9.85071E+00 6.66057E-08-9.69576E-02 3.08748E+00 2.83093E-02
 -1        19-1.77859E+01 1.08982E+01 5.04061E-08-9.95420E-02 2.86778E+00 2.81827E-02
 -1        20-1.95519E+01 1.19833E+01 4.27010E-08-1.03871E-01 2.64912E+00 2.80432E-02
 -1        21-2.13598E+01 1.30849E+01 3.92987E-08-1.05575E-01 2.43159E+00 2.78904E-02
 -1        22-2.32304E+01 1.42386E+01 3.92910E-08-1.09020E-01 2.21531E+00 2.77238E-02
 -1        23-2.51348E+01 1.54023E+01 3.87182E-08-1.10866E-01 2.00038E+00 2.75431E-02
 -1        24-2.70824E+01 1.65985E+01 3.29282E-08-1.13350E-01 1.78691E+00 2.73480E-02
 -1        25-2.90631E+01 1.78103E+01 2.95419E-08-1.15497E-01 1.57501E+00 2.71383E-02
 -1        26-3.10758E+01 1.90440E+01 3.80993E-08-1.16536E-01 1.36480E+00 2.69136E-02
 -1        27-3.31182E+01 2.02981E+01 5.50429E-08-1.18431E-01 1.15640E+00 2.66738E-02
 -1        28-3.51823E+01 2.15639E+01 7.35291E-08-1.19390E-01 9.49921E-01 2.64186E-02
 -1        29-3.72605E+01 2.28351E+01 8.87220E-08-1.20784E-01 7.45489E-01 2.61480E-02
 -1        30-3.93568E+01 2.41197E+01 9.93395E-08-1.20924E-01 5.43223E-01 2.58618E-02
 -1        31-4.14690E+01 2.54183E+01 1.08917E-07-1.21780E-01 3.43244E-01 2.55598E-02
 -1        32-4.35794E+01 2.67086E+01 1.14085E-07-1.21771E-01 1.45673E-01 2.52421E-02
 -1        33-4.56995E+01 2.80119E+01 1.18186E-07-1.22157E-01-4.93645E-02 2.49085E-02
 -1        34-4.78113E+01 2.93016E+01 1.21447E-07-1.22204E-01-2.41746E-01 2.45592E-02
 -1        35-4.99253E+01 3.06002E+01 1.23045E-07-1.21188E-01-4.31349E-01 2.41941E-02
 -1        36-5.20286E+01 3.18901E+01 1.21983E-07-1.21250E-01-6.18051E-01 2.38132E-02
 -1        37-5.41139E+01 3.31633E+01 1.19016E-07-1.19634E-01-8.01732E-01 2.34167E-02
 -1        38-5.61992E+01 3.44517E+01 1.13074E-07-1.19189E-01-9.82267E-01 2.30046E-02
 -1        39-5.82454E+01 3.56969E+01 1.03194E-07-1.18046E-01-1.15954E+00 2.25771E-02
 -1        40-6.02774E+01 3.69432E+01 8.86982E-08-1.16171E-01-1.33342E+00 2.21343E-02
 -1        41-6.22893E+01 3.81818E+01 6.92948E-08-1.14548E-01-1.50380E+00 2.16764E-02
 -1        42-6.42624E+01 3.93875E+01 4.34917E-08-1.13160E-01-1.67057E+00 2.12037E-02
 -1        43-6.62055E+01 4.05788E+01 8.45435E-09-1.10772E-01-1.83359E+00 2.07163E-02
 -1        44-6.81150E+01 4.17528E+01-3.49972E-08-1.08813E-01-1.99278E+00 2.02145E-02
 -1        45-6.99781E+01 4.28896E+01-7.95936E-08-1.07088E-01-2.14800E+00 1.96987E-02
 -1        46-7.18024E+01 4.40070E+01-1.18929E-07-1.03272E-01-2.29916E+00 1.91690E-02
 -1        47-7.35889E+01 4.51097E+01-1.59555E-07-1.01189E-01-2.44615E+00 1.86259E-02
 -1        48-7.53116E+01 4.61576E+01-1.99615E-07-9.80543E-02-2.58886E+00 1.80696E-02
 -1        49-7.70047E+01 4.72072E+01-2.36644E-07-9.57853E-02-2.72719E+00 1.75006E-02
 -1        50-7.86168E+01 4.81817E+01-2.70033E-07-9.28357E-02-2.86105E+00 1.69193E-02
 -1        51-8.01831E+01 4.91404E+01-3.12364E-07-8.79595E-02-2.99035E+00 1.63260E-02
 -1        52-8.17109E+01 5.00925E+01-3.52108E-07-8.50817E-02-3.11498E+00 1.57212E-02
 -1        53-8.31472E+01 5.09605E+01-3.64132E-07-8.14626E-02-3.23487E+00 1.51054E-02
 -1        54-8.45398E+01 5.18233E+01-3.66781E-07-7.81087E-02-3.34992E+00 1.44790E-02
 -1        55-8.58487E+01 5.26163E+01-3.71217E-07-7.43825E-02-3.46007E+00 1.38425E-02
 -1        56-8.71006E+01 5.33848E+01-3.83825E-07-6.98141E-02-3.56522E+00 1.31964E-02
 -1        57-8.82881E+01 5.41197E+01-4.03176E-07-6.54440E-02-3.66532E+00 1.25412E-02
 -1        58-8.93885E+01 5.47893E+01-4.12921E-07-6.17190E-02-3.76028E+00 1.18775E-02
 -1        59-9.04206E+01 5.54218E+01-4.21394E-07-5.72098E-02-3.85005E+00 1.12057E-02
 -1        60-9.13845E+01 5.60177E+01-4.43898E-07-5.32270E-02-3.93457E+00 1.05266E-02
 -1        61-9.22555E+01 5.65453E+01-4.79956E-07-4.85909E-02-4.01378E+00 9.84059E-03
 -1        62-9.30495E+01 5.70282E+01-5.05396E-07-4.32504E-02-4.08763E+00 9.14834E-03
 -1        63-9.37864E+01 5.74965E+01-5.03263E-07-3.90996E-02-4.15607E+00 8.45039E-03
 -1        64-9.44058E+01 5.78588E+01-4.86863E-07-3.47014E-02-4.21906E+00 7.74738E-03
 -1        65-9.49666E+01 5.82116E+01-4.66709E-07-2.90554E-02-4.27657E+00 7.03993E-03
 -1        66-9.54316E+01 5.84949E+01-4.44140E-07-2.46074E-02-4.32856E+00 6.32868E-03
 -1        67-9.58107E+01 5.87217E+01-4.21947E-07-1.95640E-02-4.37501E+00 5.61425E-03
 -1        68-9.61191E+01 5.89226E+01-3.88350E-07-1.38443E-02-4.41589E+00 4.89727E-03
 -1        69-9.63137E+01 5.90307E+01-3.26329E-07-9.52936E-03-4.45118E+00 4.17842E-03
 -1        70-9.64486E+01 5.91245E+01-2.43776E-07-4.77611E-03-4.48088E+00 3.45833E-03
 -1        71-9.64692E+01 5.91266E+01-1.59957E-07 5.91873E-04-4.50498E+00 2.73767E-03
 -1        72-9.64106E+01 5.90906E+01-8.45784E-08 6.10568E-03-4.52347E+00 2.01712E-03
 -1        73-9.62748E+01 5.90171E+01-1.00735E-08 1.15662E-02-4.53636E+00 1.29732E-03
 -1        74-9.60304E+01 5.88583E+01 7.02965E-08 1.58703E-02-4.54365E+00 5.78940E-04
 -1        75-9.57141E+01 5.86741E+01 1.37829E-07 2.16681E-02-4.54537E+00-1.37341E-04
 -1        76-9.52851E+01 5.83995E+01 1.81433E-07 2.58557E-02-4.54152E+00-8.50843E-04
 -1        77-9.47845E+01 5.80990E+01 2.11607E-07 3.24690E-02-4.53214E+00-1.56088E-03
 -1        78-9.41925E+01 5.77362E+01 2.34871E-07 3.59654E-02-4.51725E+00-2.26683E-03
 -1        79-9.35021E+01 5.73083E+01 2.49877E-07 4.31850E-02-4.49689E+00-2.96800E-03
 -1        80-9.27321E+01 5.68428E+01 2.60804E-07 4.72238E-02-4.47110E+00-3.66371E-03
 -1        81-9.18742E+01 5.63178E+01 2.77680E-07 5.19031E-02-4.43992E+00-4.35332E-03
 -1        82-9.09167E+01 5.57247E+01 3.01767E-07 5.71441E-02-4.40340E+00-5.03616E-03
 -1        83-8.98772E+01 5.50859E+01 3.25361E-07 6.24760E-02-4.36160E+00-5.71156E-03
 -1        84-8.87640E+01 5.44133E+01 3.36437E-07 6.77547E-02-4.31458E+00-6.37889E-03
 -1        85-8.75479E+01 5.36595E+01 3.36316E-07 7.17456E-02-4.26240E+00-7.03752E-03
 -1        86-8.62635E+01 5.28804E+01 3.42542E-07 7.71353E-02-4.20513E+00-7.68681E-03
 -1        87-8.48756E+01 5.20205E+01 3.36042E-07 8.13289E-02-4.14285E+00-8.32613E-03
 -1        88-8.34205E+01 5.11297E+01 3.04394E-07 8.64503E-02-4.07564E+00-8.95484E-03
 -1        89-8.18905E+01 5.01996E+01 2.83447E-07 9.16014E-02-4.00359E+00-9.57237E-03
 -1        90-8.02622E+01 4.91932E+01 2.77841E-07 9.53285E-02-3.92677E+00-1.01781E-02
 -1        91-7.85789E+01 4.81730E+01 2.66235E-07 9.99627E-02-3.84529E+00-1.07715E-02
 -1        92-7.67939E+01 4.70647E+01 2.36382E-07 1.03058E-01-3.75925E+00-1.13519E-02
 -1        93-7.49485E+01 4.59341E+01 1.89748E-07 1.09691E-01-3.66875E+00-1.19188E-02
 -1        94-7.30428E+01 4.47796E+01 1.40387E-07 1.12912E-01-3.57389E+00-1.24716E-02
 -1        95-7.10418E+01 4.35415E+01 9.35678E-08 1.16646E-01-3.47479E+00-1.30099E-02
 -1        96-6.89931E+01 4.22933E+01 5.34715E-08 1.20324E-01-3.37155E+00-1.35330E-02
 -1        97-6.68617E+01 4.09808E+01 2.14749E-08 1.24210E-01-3.26432E+00-1.40405E-02
 -1        98-6.46698E+01 3.96361E+01-8.04619E-09 1.28297E-01-3.15319E+00-1.45319E-02
 -1        99-6.24277E+01 3.82688E+01-2.89071E-08 1.31520E-01-3.03831E+00-1.50066E-02
 -1       100-6.01111E+01 3.68442E+01-2.99762E-08 1.35130E-01-2.91980E+00-1.54644E-02
 -1       101-5.77407E+01 3.53915E+01-1.72777E-08 1.38025E-01-2.79780E+00-1.59047E-02
 -1       102-5.53202E+01 3.39111E+01-1.20997E-09 1.41383E-01-2.67245E+00-1.63270E-02
 -1       103-5.28382E+01 3.23854E+01 9.29470E-09 1.43807E-01-2.54388E+00-1.67311E-02
 -1       104-5.03097E+01 3.08345E+01 7.20927E-09 1.47514E-01-2.41224E+00-1.71164E-02
 -1       105-4.77412E+01 2.92679E+01 5.52596E-09 1.49860E-01-2.27768E+00-1.74827E-02
 -1       106-4.51126E+01 2.76486E+01 1.38054E-08 1.51961E-01-2.14034E+00-1.78296E-02
 -1       107-4.24543E+01 2.60229E+01 2.39094E-08 1.54823E-01-2.00038E+00-1.81567E-02
 -1       108-3.97513E+01 2.43663E+01 3.15460E-08 1.56869E-01-1.85796E+00-1.84638E-02
 -1       109-3.70082E+01 2.26816E+01 3.96118E-08 1.59019E-01-1.71323E+00-1.87506E-02
 -1       110-3.42412E+01 2.09905E+01 4.78035E-08 1.60744E-01-1.56634E+00-1.90167E-02
 -1       111-3.14333E+01 1.92658E+01 5.09241E-08 1.62531E-01-1.41747E+00-1.92620E-02
 -1       112-2.86033E+01 1.75337E+01 4.72638E-08 1.63837E-01-1.26677E+00-1.94863E-02
 -1       113-2.57437E+01 1.57784E+01 3.87927E-08 1.65292E-01-1.11441E+00-1.96894E-02
 -1       114-2.28648E+01 1.40140E+01 2.68011E-08 1.66539E-01-9.60552E-01-1.98710E-02
 -1       115-1.99691E+01 1.22413E+01 1.59749E-08 1.67642E-01-8.05367E-01-2.00310E-02
 -1       116-1.70523E+01 1.04513E+01 7.58260E-09 1.68282E-01-6.49020E-01-2.01693E-02
 -1       117-1.41274E+01 8.65998E+00-1.21269E-09 1.68897E-01-4.91683E-01-2.02858E-02
 -1       118-1.11892E+01 6.85767E+00-9.16034E-09 1.69491E-01-3.33526E-01-2.03804E-02
 -1       119-8.24602E+00 5.05401E+00-1.61072E-08 1.69761E-01-1.74718E-01-2.04530E-02
 -1       120-5.30017E+00 3.24889E+00-2.53523E-08 1.69885E-01-1.54309E-02-2.05036E-02
 -1       121-2.35216E+00 1.44113E+00-3.36652E-08 1.69804E-01 1.44166E-01-2.05322E-02
 -1       122 5.91213E-01-3.62248E-01-4.18082E-08 1.69488E-01 3.03899E-01-2.05388E-02
 -1       123 3.53043E+00-2.16478E+00-5.11019E-08 1.69057E-01 4.63597E-01-2.05234E-02
 -1       124 6.45828E+00-3.95855E+00-6.01099E-08 1.68482E-01 6.23089E-01-2.04861E-02
 -1       125 9.37522E+00-5.74649E+00-6.98234E-08 1.67691E-01 7.82206E-01-2.04269E-02
 -1       126 1.22775E+01-7.52652E+00-7.63357E-08 1.66546E-01 9.40780E-01-2.03460E-02
 -1       127 1.51583E+01-9.29093E+00-8.42944E-08 1.65466E-01 1.09864E+00-2.02436E-02
 -1       128 1.80218E+01-1.10481E+01-8.93075E-08 1.64199E-01 1.25562E+00-2.01196E-02
 -1       129 2.08553E+01-1.27828E+01-8.29863E-08 1.62686E-01 1.41155E+00-1.99744E-02
 -1       130 2.36633E+01-1.45039E+01-6.76283E-08 1.60934E-01 1.56627E+00-1.98081E-02
 -1       131 2.64423E+01-1.62092E+01-4.68629E-08 1.58828E-01 1.71962E+00-1.96209E-02
 -1       132 2.91852E+01-1.78900E+01-3.56269E-08 1.57130E-01 1.87143E+00-1.94132E-02
 -1       133 3.18921E+01-1.95498E+01-3.71250E-08 1.54957E-01 2.02155E+00-1.91850E-02
 -1       134 3.45534E+01-2.11770E+01-3.94544E-08 1.52475E-01 2.16981E+00-1.89368E-02
 -1       135 3.71805E+01-2.27907E+01-4.14465E-08 1.49692E-01 2.31606E+00-1.86688E-02
 -1       136 3.97593E+01-2.43721E+01-4.67404E-08 1.46901E-01 2.46016E+00-1.83814E-02
 -1       137 4.22857E+01-2.59194E+01-5.10104E-08 1.44181E-01 2.60194E+00-1.80750E-02
 -1       138 4.47624E+01-2.74370E+01-5.42638E-08 1.41107E-01 2.74127E+00-1.77498E-02
 -1       139 4.71898E+01-2.89281E+01-6.37343E-08 1.38071E-01 2.87800E+00-1.74063E-02
 -1       140 4.95509E+01-3.03711E+01-8.33541E-08 1.34761E-01 3.01199E+00-1.70449E-02
 -1       141 5.18567E+01-3.17838E+01-1.15461E-07 1.31000E-01 3.14309E+00-1.66661E-02
 -1       142 5.41063E+01-3.31681E+01-1.45734E-07 1.27076E-01 3.27119E+00-1.62703E-02
 -1       143 5.62820E+01-3.44968E+01-1.59314E-07 1.23829E-01 3.39614E+00-1.58579E-02
 -1       144 5.84004E+01-3.58010E+01-1.56556E-07 1.19525E-01 3.51782E+00-1.54295E-02
 -1       145 6.04340E+01-3.70399E+01-1.37919E-07 1.15919E-01 3.63611E+00-1.49856E-02
 -1       146 6.24109E+01-3.82565E+01-1.16526E-07 1.11359E-01 3.75089E+00-1.45267E-02
 -1       147 6.43085E+01-3.94195E+01-9.92574E-08 1.07156E-01 3.86204E+00-1.40534E-02
 -1       148 6.61224E+01-4.05260E+01-7.93525E-08 1.02317E-01 3.96946E+00-1.35661E-02
 -1       149 6.78758E+01-4.16122E+01-6.24418E-08 9.77012E-02 4.07303E+00-1.30656E-02
 -1       150 6.95270E+01-4.26136E+01-5.61277E-08 9.39852E-02 4.17267E+00-1.25523E-02
 -1       151 7.11077E+01-4.35841E+01-5.59165E-08 8.79975E-02 4.26826E+00-1.20269E-02
 -1       152 7.26065E+01-4.45084E+01-4.46498E-08 8.32109E-02 4.35972E+00-1.14901E-02
 -1       153 7.40103E+01-4.53633E+01-2.24183E-08 7.88509E-02 4.44696E+00-1.09424E-02
 -1       154 7.53376E+01-4.61833E+01-1.10067E-08 7.30995E-02 4.52990E+00-1.03845E-02
 -1       155 7.65594E+01-4.69251E+01-3.61704E-09 6.88113E-02 4.60847E+00-9.81708E-03
 -1       156 7.76983E+01-4.76228E+01 1.26987E-08 6.24789E-02 4.68259E+00-9.24082E-03
 -1       157 7.87544E+01-4.82772E+01 1.66052E-08 5.74768E-02 4.75219E+00-8.65638E-03
 -1       158 7.97026E+01-4.88545E+01 1.23293E-08 5.17675E-02 4.81722E+00-8.06446E-03
 -1       159 8.05570E+01-4.93758E+01 3.61479E-08 4.67660E-02 4.87762E+00-7.46579E-03
 -1       160 8.13288E+01-4.98596E+01 8.77072E-08 4.06289E-02 4.93334E+00-6.86107E-03
 -1       161 8.19791E+01-5.02439E+01 1.31415E-07 3.69273E-02 4.98434E+00-6.25103E-03
 -1       162 8.25443E+01-5.05903E+01 1.51819E-07 2.83760E-02 5.03057E+00-5.63640E-03
 -1       163 8.30220E+01-5.08975E+01 1.52491E-07 2.33315E-02 5.07200E+00-5.01791E-03
 -1       164 8.33777E+01-5.11038E+01 1.30386E-07 1.83640E-02 5.10861E+00-4.39632E-03
 -1       165 8.36508E+01-5.12799E+01 9.21532E-08 1.18528E-02 5.14038E+00-3.77238E-03
 -1       166 8.38029E+01-5.13646E+01 5.17384E-08 6.98347E-03 5.16729E+00-3.14685E-03
 -1       167 8.38629E+01-5.14013E+01 2.52275E-08-1.01947E-04 5.18933E+00-2.52050E-03
 -1       168 8.38310E+01-5.13901E+01 2.56165E-08-5.57889E-03 5.20650E+00-1.89406E-03
 -1       169 8.36779E+01-5.12892E+01 4.79424E-08-1.17288E-02 5.21880E+00-1.26832E-03
 -1       170 8.34345E+01-5.11465E+01 6.40299E-08-1.73639E-02 5.22623E+00-6.44063E-04
 -1       171 8.30764E+01-5.09198E+01 6.58351E-08-2.26966E-02 5.22882E+00-2.20484E-05
 -1       172 8.26215E+01-5.06410E+01 8.23511E-08-2.99151E-02 5.22658E+00 5.96948E-04
 -1       173 8.20687E+01-5.03088E+01 1.05153E-07-3.55263E-02 5.21955E+00 1.21216E-03
 -1       174 8.14035E+01-4.98984E+01 1.11662E-07-4.13657E-02 5.20774E+00 1.82282E-03
 -1       175 8.06414E+01-4.94323E+01 1.27625E-07-4.61908E-02 5.19121E+00 2.42815E-03
 -1       176 7.97650E+01-4.88867E+01 1.65981E-07-5.34144E-02 5.16999E+00 3.02738E-03
 -1       177 7.88008E+01-4.83033E+01 2.14060E-07-5.93916E-02 5.14413E+00 3.61974E-03
 -1       178 7.77322E+01-4.76501E+01 2.70043E-07-6.51072E-02 5.11370E+00 4.20447E-03
 -1       179 7.65563E+01-4.69256E+01 3.24632E-07-7.04009E-02 5.07875E+00 4.78083E-03
 -1       180 7.52837E+01-4.61463E+01 3.56630E-07-7.65679E-02 5.03936E+00 5.34805E-03
 -1       181 7.39128E+01-4.53091E+01 3.64349E-07-8.21426E-02 4.99559E+00 5.90538E-03
 -1       182 7.24369E+01-4.43994E+01 3.58449E-07-8.70600E-02 4.94753E+00 6.45209E-03
 -1       183 7.08669E+01-4.34361E+01 3.27561E-07-9.39716E-02 4.89525E+00 6.98744E-03
 -1       184 6.92070E+01-4.24261E+01 2.73664E-07-9.90144E-02 4.83887E+00 7.51069E-03
 -1       185 6.74382E+01-4.13352E+01 2.18341E-07-1.04506E-01 4.77846E+00 8.02114E-03
 -1       186 6.55891E+01-4.02080E+01 1.70812E-07-1.09533E-01 4.71413E+00 8.51808E-03
 -1       187 6.36325E+01-3.90024E+01 1.34183E-07-1.15059E-01 4.64599E+00 9.00081E-03
 -1       188 6.15912E+01-3.77533E+01 9.67082E-08-1.20601E-01 4.57416E+00 9.46860E-03
 -1       189 5.94639E+01-3.64518E+01 4.62927E-08-1.25188E-01 4.49875E+00 9.92082E-03
 -1       190 5.72363E+01-3.50803E+01-1.30780E-08-1.31188E-01 4.41988E+00 1.03568E-02
 -1       191 5.49366E+01-3.36807E+01-8.50397E-08-1.35667E-01 4.33769E+00 1.07758E-02
 -1       192 5.25339E+01-3.21995E+01-1.68448E-07-1.40297E-01 4.25230E+00 1.11773E-02
 -1       193 5.00568E+01-3.06821E+01-2.52331E-07-1.45367E-01 4.16387E+00 1.15605E-02
 -1       194 4.75014E+01-2.91207E+01-3.19021E-07-1.50400E-01 4.07253E+00 1.19250E-02
 -1       195 4.48546E+01-2.74937E+01-3.46626E-07-1.54444E-01 3.97842E+00 1.22700E-02
 -1       196 4.21388E+01-2.58331E+01-3.37068E-07-1.59136E-01 3.88171E+00 1.25949E-02
 -1       197 3.93383E+01-2.41125E+01-3.13183E-07-1.63109E-01 3.78256E+00 1.28993E-02
 -1       198 3.64670E+01-2.23531E+01-2.90362E-07-1.67993E-01 3.68112E+00 1.31825E-02
 -1       199 3.35252E+01-2.05528E+01-2.68169E-07-1.71943E-01 3.57756E+00 1.34439E-02
 -1       200 3.05085E+01-1.87018E+01-2.48717E-07-1.75702E-01 3.47205E+00 1.36831E-02
 -1       201 2.74247E+01-1.68116E+01-2.30172E-07-1.79808E-01 3.36477E+00 1.38996E-02
 -1       202 2.42760E+01-1.48837E+01-2.05647E-07-1.83465E-01 3.25590E+00 1.40927E-02
 -1       203 2.10582E+01-1.29083E+01-1.67893E-07-1.86948E-01 3.14562E+00 1.42621E-02
 -1       204 1.77813E+01-1.08996E+01-1.20452E-07-1.90925E-01 3.03411E+00 1.44072E-02
 -1       205 1.44477E+01-8.85982E+00-7.17545E-08-1.94192E-01 2.92157E+00 1.45275E-02
 -1       206 1.10500E+01-6.77463E+00-2.15107E-08-1.97277E-01 2.80819E+00 1.46228E-02
 -1       207 7.60101E+00-4.66165E+00 1.52872E-08-2.00374E-01 2.69417E+00 1.46925E-02
 -1       208 4.09687E+00-2.51328E+00 3.17958E-08-2.03537E-01 2.57971E+00 1.47362E-02
 -1       209 5.42173E-01-3.34610E-01 4.16387E-08-2.06317E-01 2.46502E+00 1.47535E-02
 -1       210-3.06083E+00 1.87365E+00 5.21909E-08-2.09071E-01 2.35029E+00 1.47441E-02
 -1       211-6.71071E+00 4.11069E+00 6.34137E-08-2.11627E-01 2.23574E+00 1.47076E-02
 -1       212-1.04058E+01 6.37646E+00 7.32791E-08-2.14136E-01 2.12158E+00 1.46437E-02
 -1       213-1.41404E+01 8.66438E+00 7.79509E-08-2.16601E-01 2.00802E+00 1.45520E-02
 -1       214-1.79154E+01 1.09774E+01 7.47957E-08-2.18737E-01 1.89529E+00 1.44322E-02
 -1       215-2.17324E+01 1.33205E+01 6.96406E-08-2.20670E-01 1.78360E+00 1.42841E-02
 -1       216-2.55771E+01 1.56729E+01 6.97574E-08-2.23111E-01 1.67317E+00 1.41074E-02
 -1       217-2.94604E+01 1.80555E+01 7.09002E-08-2.24349E-01 1.56423E+00 1.39018E-02
 -1       218-3.33731E+01 2.04532E+01 7.12285E-08-2.26743E-01 1.45700E+00 1.36671E-02
 -1       219-3.73122E+01 2.28657E+01 7.02869E-08-2.27623E-01 1.35171E+00 1.34030E-02
 -1       220-4.12842E+01 2.53037E+01 6.37982E-08-2.29453E-01 1.24859E+00 1.31094E-02
 -1       221-4.52738E+01 2.77472E+01 5.70851E-08-2.30436E-01 1.14786E+00 1.27860E-02
 -1       222-4.92904E+01 3.02083E+01 5.29302E-08-2.32450E-01 1.04977E+00 1.24328E-02
 -1       223-5.33298E+01 3.26884E+01 4.61180E-08-2.32519E-01 9.54544E-01 1.20494E-02
 -1       224-5.73798E+01 3.51650E+01 3.71946E-08-2.35225E-01 8.62416E-01 1.16359E-02
 -1       225-6.14495E+01 3.76595E+01 2.89831E-08-2.34180E-01 7.73623E-01 1.11920E-02
 -1       226-6.55473E+01 4.01766E+01 2.14912E-08-2.36689E-01 6.88400E-01 1.07175E-02
 -1       227-6.96396E+01 4.26807E+01 1.52326E-08-2.35374E-01 6.06986E-01 1.02125E-02
 -1       228-7.37600E+01 4.52091E+01 1.01632E-08-2.38742E-01 5.29619E-01 9.67683E-03
 -1       229-7.78775E+01 4.77332E+01 5.31144E-09-2.36646E-01 4.56538E-01 9.11038E-03
 -1       230-8.20101E+01 5.02562E+01 9.83651E-10-2.41180E-01 3.87983E-01 8.51309E-03
 -1       231-8.61489E+01 5.28038E+01-4.84995E-09-2.34901E-01 3.24194E-01 7.88488E-03
 -1       232-9.03054E+01 5.53471E+01-1.38434E-08-2.42732E-01 2.65410E-01 7.22570E-03
 -1       233-9.44477E+01 5.78936E+01-2.40984E-08-2.34501E-01 2.11874E-01 6.53553E-03
 -1       234-9.86185E+01 6.04403E+01-3.60658E-08-2.46507E-01 1.63826E-01 5.81433E-03
 -1       235-1.02733E+02 6.29505E+01-4.84754E-08-2.31411E-01 1.21510E-01 5.06207E-03
 -1       236-1.07000E+02 6.56354E+01-6.03379E-08-2.48079E-01 8.51635E-02 4.27871E-03
 -1       237-1.10898E+02 6.77734E+01-7.25464E-08-2.35954E-01 5.50322E-02 3.46427E-03
 -1       238-1.15907E+02 7.17717E+01-8.49099E-08-2.18279E-01 3.13546E-02 2.61861E-03
 -1       239-1.17111E+02 6.90833E+01-9.48578E-08-3.64788E-01 1.43766E-02 1.74227E-03
 -1       240-1.31956E+02 9.07590E+01-1.20957E-07 2.73043E-01 4.33682E-03 8.33203E-04
 -1       241-8.67600E+01 1.68339E+01-1.43423E-07-2.06861E+00 1.07592E-03 3.69790E-04
 -1       242-1.49885E-02 2.46071E-03-1.39854E-08 1.60759E-03-6.78836E+00-2.90314E-02
 -1       243-8.37349E-02 4.50401E-02-3.25743E-08-7.86021E-03-6.67546E+00-2.90310E-02
 -1       244-2.82648E-01 1.66811E-01-5.21083E-08-1.52071E-02-6.44967E+00-2.90297E-02
 -1       245-6.09459E-01 3.67715E-01-4.52842E-08-2.25260E-02-6.22390E+00-2.90263E-02
 -1       246-1.05914E+00 6.43377E-01-1.93937E-08-2.94237E-02-5.99816E+00-2.90200E-02
 -1       247-1.62699E+00 9.91375E-01 2.08502E-08-3.61808E-02-5.77249E+00-2.90100E-02
 -1       248-2.31032E+00 1.41085E+00 5.91237E-08-4.26104E-02-5.54692E+00-2.89952E-02
 -1       249-3.10188E+00 1.89600E+00 8.22188E-08-4.87297E-02-5.32148E+00-2.89749E-02
 -1       250-3.99945E+00 2.44608E+00 9.75968E-08-5.48093E-02-5.09622E+00-2.89484E-02
 -1       251-4.99891E+00 3.06024E+00 1.04297E-07-6.03220E-02-4.87119E+00-2.89147E-02
 -1       252-6.09038E+00 3.72648E+00 8.87459E-08-6.59891E-02-4.64646E+00-2.88733E-02
 -1       253-7.28090E+00 4.45978E+00 5.56094E-08-7.08346E-02-4.42209E+00-2.88233E-02
 -1       254-8.55199E+00 5.23676E+00 2.18803E-08-7.59967E-02-4.19813E+00-2.87641E-02
 -1       255-9.90939E+00 6.06927E+00-6.06669E-09-8.04054E-02-3.97468E+00-2.86951E-02
 -1       256-1.13493E+01 6.95572E+00-3.60553E-08-8.52812E-02-3.75180E+00-2.86157E-02
 -1       257-1.28494E+01 7.86636E+00-6.17078E-08-8.91166E-02-3.52958E+00-2.85253E-02
 -1       258-1.44389E+01 8.85047E+00-7.36482E-08-9.27406E-02-3.30811E+00-2.84233E-02
 -1       259-1.60793E+01 9.85071E+00-6.66057E-08-9.69576E-02-3.08748E+00-2.83093E-02
 -1       260-1.77859E+01 1.08982E+01-5.04061E-08-9.95420E-02-2.86778E+00-2.81827E-02
 -1       261-1.95519E+01 1.19833E+01-4.27010E-08-1.03871E-01-2.64912E+00-2.80432E-02
 -1       262-2.13598E+01 1.30849E+01-3.92987E-08-1.05574E-01-2.43159E+00-2.78904E-02
 -1       263-2.32304E+01 1.42386E+01-3.92910E-08-1.09020E-01-2.21531E+00-2.77238E-02
 -1       264-2.51348E+01 1.54023E+01-3.87182E-08-1.10866E-01-2.00038E+00-2.75431E-02
 -1       265-2.70824E+01 1.65985E+01-3.29282E-08-1.13350E-01-1.78691E+00-2.73480E-02
 -1       266-2.90631E+01 1.78103E+01-2.95419E-08-1.15497E-01-1.57501E+00-2.71383E-02
 -1       267-3.10758E+01 1.90440E+01-3.80993E-08-1.16536E-01-1.36480E+00-2.69136E-02
 -1       268-3.31182E+01 2.02981E+01-5.50429E-08-1.18431E-01-1.15640E+00-2.66737E-02
 -1       269-3.51823E+01 2.15639E+01-7.35291E-08-1.19390E-01-9.49922E-01-2.64186E-02
 -1       270-3.72605E+01 2.28351E+01-8.87220E-08-1.20784E-01-7.45490E-01-2.61480E-02
 -1       271-3.93568E+01 2.41197E+01-9.93395E-08-1.20924E-01-5.43224E-01-2.58617E-02
 -1       272-4.14690E+01 2.54183E+01-1.08917E-07-1.21780E-01-3.43244E-01-2.55598E-02
 -1       273-4.35794E+01 2.67086E+01-1.14085E-07-1.21771E-01-1.45674E-01-2.52420E-02
 -1       274-4.56995E+01 2.80119E+01-1.18186E-07-1.22157E-01 4.93635E-02-2.49085E-02
 -1       275-4.78113E+01 2.93016E+01-1.21447E-07-1.22204E-01 2.41745E-01-2.45592E-02
 -1       276-4.99253E+01 3.06002E+01-1.23045E-07-1.21188E-01 4.31347E-01-2.41941E-02
 -1       277-5.20286E+01 3.18901E+01-1.21983E-07-1.21250E-01 6.18050E-01-2.38132E-02
 -1       278-5.41139E+01 3.31633E+01-1.19016E-07-1.19634E-01 8.01731E-01-2.34167E-02
 -1       279-5.61992E+01 3.44517E+01-1.13074E-07-1.19189E-01 9.82266E-01-2.30046E-02
 -1       280-5.82454E+01 3.56969E+01-1.03194E-07-1.18046E-01 1.15953E+00-2.25771E-02
 -1       281-6.02774E+01 3.69432E+01-8.86982E-08-1.16171E-01 1.33342E+00-2.21343E-02
 -1       282-6.22893E+01 3.81818E+01-6.92948E-08-1.14548E-01 1.50380E+00-2.16764E-02
 -1       283-6.42624E+01 3.93875E+01-4.34917E-08-1.13160E-01 1.67056E+00-2.12036E-02
 -1       284-6.62055E+01 4.05788E+01-8.45435E-09-1.10772E-01 1.83359E+00-2.07163E-02
 -1       285-6.81150E+01 4.17528E+01 3.49972E-08-1.08813E-01 1.99277E+00-2.02145E-02
 -1       286-6.99781E+01 4.28896E+01 7.95936E-08-1.07088E-01 2.14800E+00-1.96986E-02
 -1       287-7.18024E+01 4.40070E+01 1.18929E-07-1.03272E-01 2.29916E+00-1.91690E-02
 -1       288-7.35889E+01 4.51097E+01 1.59555E-07-1.01189E-01 2.44614E+00-1.86258E-02
 -1       289-7.53116E+01 4.61576E+01 1.99615E-07-9.80542E-02 2.58885E+00-1.80696E-02
 -1       290-7.70047E+01 4.72072E+01 2.36644E-07-9.57852E-02 2.72719E+00-1.75006E-02
 -1       291-7.86168E+01 4.81817E+01 2.70033E-07-9.28356E-02 2.86105E+00-1.69193E-02
 -1       292-8.01831E+01 4.91404E+01 3.12364E-07-8.79594E-02 2.99034E+00-1.63260E-02
 -1       293-8.17109E+01 5.00925E+01 3.52108E-07-8.50816E-02 3.11498E+00-1.57212E-02
 -1       294-8.31472E+01 5.09605E+01 3.64132E-07-8.14625E-02 3.23486E+00-1.51054E-02
 -1       295-8.45398E+01 5.18233E+01 3.66781E-07-7.81087E-02 3.34992E+00-1.44790E-02
 -1       296-8.58487E+01 5.26163E+01 3.71217E-07-7.43825E-02 3.46006E+00-1.38425E-02
 -1       297-8.71006E+01 5.33848E+01 3.83825E-07-6.98140E-02 3.56522E+00-1.31964E-02
 -1       298-8.82881E+01 5.41197E+01 4.03176E-07-6.54439E-02 3.66531E+00-1.25412E-02
 -1       299-8.93885E+01 5.47893E+01 4.12921E-07-6.17190E-02 3.76028E+00-1.18775E-02
 -1       300-9.04206E+01 5.54218E+01 4.21394E-07-5.72098E-02 3.85005E+00-1.12057E-02
 -1       301-9.13845E+01 5.60177E+01 4.43898E-07-5.32269E-02 3.93457E+00-1.05266E-02
 -1       302-9.22555E+01 5.65453E+01 4.79956E-07-4.85908E-02 4.01378E+00-9.84060E-03
 -1       303-9.30495E+01 5.70282E+01 5.05396E-07-4.32504E-02 4.08762E+00-9.14835E-03
 -1       304-9.37864E+01 5.74965E+01 5.03263E-07-3.90996E-02 4.15607E+00-8.45040E-03
 -1       305-9.44058E+01 5.78588E+01 4.86863E-07-3.47015E-02 4.21906E+00-7.74740E-03
 -1       306-9.49666E+01 5.82116E+01 4.66709E-07-2.90555E-02 4.27657E+00-7.03995E-03
 -1       307-9.54316E+01 5.84949E+01 4.44140E-07-2.46075E-02 4.32856E+00-6.32870E-03
 -1       308-9.58107E+01 5.87217E+01 4.21947E-07-1.95641E-02 4.37501E+00-5.61428E-03
 -1       309-9.61192E+01 5.89226E+01 3.88350E-07-1.38445E-02 4.41588E+00-4.89730E-03
 -1       310-9.63137E+01 5.90307E+01 3.26329E-07-9.52959E-03 4.45118E+00-4.17845E-03
 -1       311-9.64486E+01 5.91245E+01 2.43776E-07-4.77638E-03 4.48088E+00-3.45836E-03
 -1       312-9.64692E+01 5.91266E+01 1.59957E-07 5.91629E-04 4.50497E+00-2.73770E-03
 -1       313-9.64106E+01 5.90906E+01 8.45784E-08 6.10547E-03 4.52347E+00-2.01715E-03
 -1       314-9.62748E+01 5.90171E+01 1.00735E-08 1.15659E-02 4.53635E+00-1.29735E-03
 -1       315-9.60304E+01 5.88583E+01-7.02965E-08 1.58701E-02 4.54365E+00-5.78973E-04
 -1       316-9.57141E+01 5.86741E+01-1.37829E-07 2.16679E-02 4.54537E+00 1.37309E-04
 -1       317-9.52851E+01 5.83995E+01-1.81433E-07 2.58556E-02 4.54152E+00 8.50812E-04
 -1       318-9.47845E+01 5.80990E+01-2.11607E-07 3.24689E-02 4.53214E+00 1.56085E-03
 -1       319-9.41925E+01 5.77362E+01-2.34871E-07 3.59654E-02 4.51725E+00 2.26680E-03
 -1       320-9.35021E+01 5.73083E+01-2.49877E-07 4.31849E-02 4.49689E+00 2.96798E-03
 -1       321-9.27321E+01 5.68428E+01-2.60804E-07 4.72238E-02 4.47110E+00 3.66369E-03
 -1       322-9.18742E+01 5.63178E+01-2.77680E-07 5.19030E-02 4.43992E+00 4.35329E-03
 -1       323-9.09167E+01 5.57247E+01-3.01767E-07 5.71440E-02 4.40340E+00 5.03614E-03
 -1       324-8.98772E+01 5.50859E+01-3.25361E-07 6.24759E-02 4.36160E+00 5.71154E-03
 -1       325-8.87640E+01 5.44133E+01-3.36437E-07 6.77547E-02 4.31458E+00 6.37887E-03
 -1       326-8.75479E+01 5.36595E+01-3.36316E-07 7.17456E-02 4.26240E+00 7.03750E-03
 -1       327-8.62635E+01 5.28804E+01-3.42542E-07 7.71353E-02 4.20513E+00 7.68680E-03
 -1       328-8.48756E+01 5.20205E+01-3.36042E-07 8.13290E-02 4.14285E+00 8.32612E-03
 -1       329-8.34205E+01 5.11297E+01-3.04394E-07 8.64504E-02 4.07564E+00 8.95483E-03
 -1       330-8.18905E+01 5.01996E+01-2.83447E-07 9.16014E-02 4.00359E+00 9.57236E-03
 -1       331-8.02622E+01 4.91932E+01-2.77841E-07 9.53285E-02 3.92677E+00 1.01781E-02
 -1       332-7.85789E+01 4.81730E+01-2.66235E-07 9.99627E-02 3.84529E+00 1.07715E-02
 -1       333-7.67939E+01 4.70647E+01-2.36382E-07 1.03058E-01 3.75925E+00 1.13519E-02
 -1       334-7.49485E+01 4.59341E+01-1.89748E-07 1.09691E-01 3.66875E+00 1.19188E-02
 -1       335-7.30428E+01 4.47796E+01-1.40387E-07 1.12912E-01 3.57389E+00 1.24716E-02
 -1       336-7.10418E+01 4.35415E+01-9.35678E-08 1.16646E-01 3.47479E+00 1.30099E-02
 -1       337-6.89931E+01 4.22933E+01-5.34715E-08 1.20324E-01 3.37155E+00 1.35330E-02
 -1       338-6.68617E+01 4.09808E+01-2.14749E-08 1.24210E-01 3.26432E+00 1.40405E-02
 -1       339-6.46698E+01 3.96361E+01 8.04619E-09 1.28297E-01 3.15319E+00 1.45319E-02
 -1       340-6.24277E+01 3.82688E+01 2.89071E-08 1.31520E-01 3.03831E+00 1.50066E-02
 -1       341-6.01111E+01 3.68442E+01 2.99762E-08 1.35130E-01 2.91980E+00 1.54644E-02
 -1       342-5.77407E+01 3.53915E+01 1.72777E-08 1.38025E-01 2.79780E+00 1.59047E-02
 -1       343-5.53202E+01 3.39111E+01 1.20997E-09 1.41383E-01 2.67245E+00 1.63270E-02
 -1       344-5.28382E+01 3.23854E+01-9.29470E-09 1.43807E-01 2.54388E+00 1.67311E-02
 -1       345-5.03097E+01 3.08345E+01-7.20927E-09 1.47514E-01 2.41224E+00 1.71164E-02
 -1       346-4.77412E+01 2.92679E+01-5.52596E-09 1.49860E-01 2.27768E+00 1.74827E-02
 -1       347-4.51126E+01 2.76486E+01-1.38054E-08 1.51961E-01 2.14034E+00 1.78296E-02
 -1       348-4.24543E+01 2.60229E+01-2.39094E-08 1.54823E-01 2.00038E+00 1.81567E-02
 -1       349-3.97513E+01 2.43663E+01-3.15460E-08 1.56869E-01 1.85796E+00 1.84638E-02
 -1       350-3.70082E+01 2.26816E+01-3.96118E-08 1.59019E-01 1.71323E+00 1.87506E-02
 -1       351-3.42412E+01 2.09905E+01-4.78035E-08 1.60744E-01 1.56634E+00 1.90167E-02
 -1       352-3.14333E+01 1.92658E+01-5.09241E-08 1.62531E-01 1.41747E+00 1.92620E-02
 -1       353-2.86033E+01 1.75337E+01-4.72638E-08 1.63837E-01 1.26677E+00 1.94863E-02
 -1       354-2.57437E+01 1.57784E+01-3.87927E-08 1.65292E-01 1.11441E+00 1.96894E-02
 -1       355-2.28648E+01 1.40140E+01-2.68011E-08 1.66539E-01 9.60552E-01 1.98710E-02
 -1       356-1.99691E+01 1.22413E+01-1.59749E-08 1.67642E-01 8.05367E-01 2.00310E-02
 -1       357-1.70523E+01 1.04513E+01-7.58260E-09 1.68282E-01 6.49020E-01 2.01693E-02
 -1       358-1.41274E+01 8.65998E+00 1.21269E-09 1.68897E-01 4.91683E-01 2.02858E-02
 -1       359-1.11892E+01 6.85767E+00 9.16034E-09 1.69491E-01 3.33526E-01 2.03804E-02
 -1       360-8.24602E+00 5.05401E+00 1.61072E-08 1.69761E-01 1.74718E-01 2.04530E-02
 -1       361-5.30017E+00 3.24889E+00 2.53523E-08 1.69885E-01 1.54308E-02 2.05036E-02
 -1       362-2.35216E+00 1.44113E+00 3.36652E-08 1.69804E-01-1.44166E-01 2.05322E-02
 -1       363 5.91213E-01-3.62248E-01 4.18082E-08 1.69488E-01-3.03899E-01 2.05388E-02
 -1       364 3.53043E+00-2.16478E+00 5.11019E-08 1.69057E-01-4.63597E-01 2.05234E-02
 -1       365 6.45828E+00-3.95855E+00 6.01099E-08 1.68482E-01-6.23090E-01 2.04861E-02
 -1       366 9.37522E+00-5.74649E+00 6.98234E-08 1.67691E-01-7.82207E-01 2.04269E-02
 -1       367 1.22775E+01-7.52652E+00 7.63357E-08 1.66547E-01-9.40780E-01 2.03460E-02
 -1       368 1.51583E+01-9.29093E+00 8.42944E-08 1.65466E-01-1.09864E+00 2.02436E-02
 -1       369 1.80218E+01-1.10481E+01 8.93075E-08 1.64199E-01-1.25562E+00 2.01196E-02
 -1       370 2.08553E+01-1.27828E+01 8.29863E-08 1.62686E-01-1.41155E+00 1.99744E-02
 -1       371 2.36633E+01-1.45039E+01 6.76283E-08 1.60934E-01-1.56627E+00 1.98081E-02
 -1       372 2.64423E+01-1.62092E+01 4.68629E-08 1.58828E-01-1.71962E+00 1.96209E-02
 -1       373 2.91852E+01-1.78900E+01 3.56269E-08 1.57130E-01-1.87143E+00 1.94132E-02
 -1       374 3.18921E+01-1.95498E+01 3.71250E-08 1.54957E-01-2.02155E+00 1.91850E-02
 -1       375 3.45534E+01-2.11770E+01 3.94544E-08 1.52475E-01-2.16981E+00 1.89368E-02
 -1       376 3.71805E+01-2.27907E+01 4.14465E-08 1.49692E-01-2.31606E+00 1.86688E-02
 -1       377 3.97593E+01-2.43721E+01 4.67404E-08 1.46901E-01-2.46016E+00 1.83814E-02
 -1       378 4.22857E+01-2.59194E+01 5.10104E-08 1.44181E-01-2.60194E+00 1.80749E-02
 -1       379 4.47624E+01-2.74370E+01 5.42638E-08 1.41107E-01-2.74127E+00 1.77498E-02
 -1       380 4.71898E+01-2.89281E+01 6.37343E-08 1.38071E-01-2.87800E+00 1.74063E-02
 -1       381 4.95509E+01-3.03711E+01 8.33541E-08 1.34761E-01-3.01199E+00 1.70449E-02
 -1       382 5.18567E+01-3.17838E+01 1.15461E-07 1.31000E-01-3.14309E+00 1.66661E-02
 -1       383 5.41063E+01-3.31681E+01 1.45734E-07 1.27076E-01-3.27119E+00 1.62703E-02
 -1       384 5.62820E+01-3.44968E+01 1.59314E-07 1.23829E-01-3.39614E+00 1.58579E-02
 -1       385 5.84004E+01-3.58010E+01 1.56556E-07 1.19525E-01-3.51782E+00 1.54295E-02
 -1       386 6.04340E+01-3.70399E+01 1.37919E-07 1.15919E-01-3.63611E+00 1.49856E-02
 -1       387 6.24109E+01-3.82565E+01 1.16526E-07 1.11359E-01-3.75089E+00 1.45267E-02
 -1       388 6.43085E+01-3.94195E+01 9.92574E-08 1.07156E-01-3.86204E+00 1.40534E-02
 -1       389 6.61224E+01-4.05260E+01 7.93525E-08 1.02317E-01-3.96946E+00 1.35661E-02
 -1       390 6.78758E+01-4.16122E+01 6.24418E-08 9.77011E-02-4.07303E+00 1.30655E-02
 -1       391 6.95270E+01-4.26136E+01 5.61277E-08 9.39852E-02-4.17267E+00 1.25523E-02
 -1       392 7.11077E+01-4.35841E+01 5.59165E-08 8.79975E-02-4.26826E+00 1.20269E-02
 -1       393 7.26065E+01-4.45084E+01 4.46498E-08 8.32109E-02-4.35972E+00 1.14901E-02
 -1       394 7.40103E+01-4.53633E+01 2.24183E-08 7.88508E-02-4.44696E+00 1.09424E-02
 -1       395 7.53376E+01-4.61833E+01 1.10067E-08 7.30995E-02-4.52990E+00 1.03845E-02
 -1       396 7.65594E+01-4.69251E+01 3.61704E-09 6.88113E-02-4.60847E+00 9.81707E-03
 -1       397 7.76983E+01-4.76228E+01-1.26987E-08 6.24789E-02-4.68259E+00 9.24081E-03
 -1       398 7.87544E+01-4.82772E+01-1.66052E-08 5.74768E-02-4.75219E+00 8.65637E-03
 -1       399 7.97026E+01-4.88545E+01-1.23293E-08 5.17675E-02-4.81722E+00 8.06445E-03
 -1       400 8.05570E+01-4.93758E+01-3.61479E-08 4.67659E-02-4.87762E+00 7.46578E-03
 -1       401 8.13288E+01-4.98596E+01-8.77072E-08 4.06287E-02-4.93334E+00 6.86106E-03
 -1       402 8.19791E+01-5.02439E+01-1.31415E-07 3.69272E-02-4.98433E+00 6.25102E-03
 -1       403 8.25443E+01-5.05903E+01-1.51819E-07 2.83760E-02-5.03057E+00 5.63639E-03
 -1       404 8.30220E+01-5.08975E+01-1.52491E-07 2.33315E-02-5.07200E+00 5.01790E-03
 -1       405 8.33777E+01-5.11038E+01-1.30386E-07 1.83641E-02-5.10861E+00 4.39631E-03
 -1       406 8.36508E+01-5.12799E+01-9.21532E-08 1.18529E-02-5.14038E+00 3.77237E-03
 -1       407 8.38029E+01-5.13646E+01-5.17384E-08 6.98359E-03-5.16729E+00 3.14684E-03
 -1       408 8.38629E+01-5.14013E+01-2.52275E-08-1.01910E-04-5.18933E+00 2.52049E-03
 -1       409 8.38310E+01-5.13901E+01-2.56165E-08-5.57894E-03-5.20650E+00 1.89406E-03
 -1       410 8.36779E+01-5.12892E+01-4.79424E-08-1.17289E-02-5.21879E+00 1.26832E-03
 -1       411 8.34345E+01-5.11465E+01-6.40299E-08-1.73639E-02-5.22623E+00 6.44058E-04
 -1       412 8.30764E+01-5.09198E+01-6.58351E-08-2.26966E-02-5.22882E+00 2.20432E-05
 -1       413 8.26215E+01-5.06410E+01-8.23511E-08-2.99152E-02-5.22658E+00-5.96953E-04
 -1       414 8.20687E+01-5.03088E+01-1.05153E-07-3.55263E-02-5.21954E+00-1.21217E-03
 -1       415 8.14035E+01-4.98984E+01-1.11662E-07-4.13657E-02-5.20774E+00-1.82282E-03
 -1       416 8.06414E+01-4.94323E+01-1.27625E-07-4.61909E-02-5.19120E+00-2.42815E-03
 -1       417 7.97650E+01-4.88867E+01-1.65981E-07-5.34146E-02-5.16998E+00-3.02739E-03
 -1       418 7.88008E+01-4.83033E+01-2.14060E-07-5.93918E-02-5.14413E+00-3.61974E-03
 -1       419 7.77322E+01-4.76501E+01-2.70043E-07-6.51074E-02-5.11370E+00-4.20447E-03
 -1       420 7.65563E+01-4.69256E+01-3.24632E-07-7.04011E-02-5.07875E+00-4.78083E-03
 -1       421 7.52837E+01-4.61463E+01-3.56630E-07-7.65680E-02-5.03936E+00-5.34804E-03
 -1       422 7.39128E+01-4.53091E+01-3.64349E-07-8.21426E-02-4.99559E+00-5.90538E-03
 -1       423 7.24369E+01-4.43994E+01-3.58449E-07-8.70600E-02-4.94752E+00-6.45208E-03
 -1       424 7.08669E+01-4.34361E+01-3.27561E-07-9.39714E-02-4.89525E+00-6.98742E-03
 -1       425 6.92070E+01-4.24261E+01-2.73664E-07-9.90142E-02-4.83886E+00-7.51068E-03
 -1       426 6.74382E+01-4.13352E+01-2.18341E-07-1.04505E-01-4.77845E+00-8.02113E-03
 -1       427 6.55891E+01-4.02080E+01-1.70812E-07-1.09533E-01-4.71413E+00-8.51806E-03
 -1       428 6.36325E+01-3.90024E+01-1.34183E-07-1.15059E-01-4.64599E+00-9.00079E-03
 -1       429 6.15912E+01-3.77533E+01-9.67082E-08-1.20601E-01-4.57416E+00-9.46858E-03
 -1       430 5.94639E+01-3.64518E+01-4.62927E-08-1.25187E-01-4.49874E+00-9.92080E-03
 -1       431 5.72363E+01-3.50803E+01 1.30780E-08-1.31188E-01-4.41988E+00-1.03568E-02
 -1       432 5.49366E+01-3.36807E+01 8.50397E-08-1.35667E-01-4.33769E+00-1.07758E-02
 -1       433 5.25339E+01-3.21995E+01 1.68448E-07-1.40297E-01-4.25230E+00-1.11773E-02
 -1       434 5.00568E+01-3.06821E+01 2.52331E-07-1.45367E-01-4.16387E+00-1.15605E-02
 -1       435 4.75014E+01-2.91207E+01 3.19021E-07-1.50399E-01-4.07253E+00-1.19249E-02
 -1       436 4.48546E+01-2.74937E+01 3.46626E-07-1.54444E-01-3.97842E+00-1.22699E-02
 -1       437 4.21388E+01-2.58331E+01 3.37068E-07-1.59136E-01-3.88171E+00-1.25949E-02
 -1       438 3.93383E+01-2.41125E+01 3.13183E-07-1.63109E-01-3.78256E+00-1.28993E-02
 -1       439 3.64670E+01-2.23531E+01 2.90362E-07-1.67993E-01-3.68112E+00-1.31825E-02
 -1       440 3.35252E+01-2.05528E+01 2.68169E-07-1.71943E-01-3.57756E+00-1.34439E-02
 -1       441 3.05085E+01-1.87018E+01 2.48717E-07-1.75702E-01-3.47205E+00-1.36831E-02
 -1       442 2.74247E+01-1.68116E+01 2.30172E-07-1.79808E-01-3.36477E+00-1.38996E-02
 -1       443 2.42760E+01-1.48837E+01 2.05647E-07-1.83465E-01-3.25590E+00-1.40927E-02
 -1       444 2.10582E+01-1.29082E+01 1.67893E-07-1.86948E-01-3.14562E+00-1.42621E-02
 -1       445 1.77813E+01-1.08996E+01 1.20452E-07-1.90925E-01-3.03411E+00-1.44072E-02
 -1       446 1.44477E+01-8.85982E+00 7.17545E-08-1.94192E-01-2.92157E+00-1.45276E-02
 -1       447 1.10500E+01-6.77463E+00 2.15107E-08-1.97278E-01-2.80819E+00-1.46228E-02
 -1       448 7.60101E+00-4.66165E+00-1.52872E-08-2.00374E-01-2.69417E+00-1.46925E-02
 -1       449 4.09687E+00-2.51328E+00-3.17958E-08-2.03537E-01-2.57971E+00-1.47362E-02
 -1       450 5.42173E-01-3.34610E-01-4.16387E-08-2.06317E-01-2.46502E+00-1.47535E-02
 -1       451-3.06083E+00 1.87365E+00-5.21909E-08-2.09071E-01-2.35029E+00-1.47441E-02
 -1       452-6.71071E+00 4.11069E+00-6.34137E-08-2.11627E-01-2.23574E+00-1.47076E-02
 -1       453-1.04058E+01 6.37646E+00-7.32791E-08-2.14136E-01-2.12158E+00-1.46437E-02
 -1       454-1.41404E+01 8.66438E+00-7.79509E-08-2.16601E-01-2.00802E+00-1.45520E-02
 -1       455-1.79154E+01 1.09774E+01-7.47957E-08-2.18737E-01-1.89529E+00-1.44322E-02
 -1       456-2.17324E+01 1.33205E+01-6.96406E-08-2.20670E-01-1.78360E+00-1.42841E-02
 -1       457-2.55771E+01 1.56729E+01-6.97574E-08-2.23111E-01-1.67317E+00-1.41074E-02
 -1       458-2.94604E+01 1.80555E+01-7.09002E-08-2.24349E-01-1.56423E+00-1.39018E-02
 -1       459-3.33731E+01 2.04532E+01-7.12285E-08-2.26743E-01-1.45700E+00-1.36671E-02
 -1       460-3.73122E+01 2.28657E+01-7.02869E-08-2.27623E-01-1.35171E+00-1.34030E-02
 -1       461-4.12842E+01 2.53037E+01-6.37982E-08-2.29453E-01-1.24859E+00-1.31094E-02
 -1       462-4.52738E+01 2.77472E+01-5.70851E-08-2.30436E-01-1.14786E+00-1.27860E-02
 -1       463-4.92904E+01 3.02083E+01-5.29302E-08-2.32450E-01-1.04977E+00-1.24328E-02
 -1       464-5.33298E+01 3.26884E+01-4.61180E-08-2.32519E-01-9.54544E-01-1.20494E-02
 -1       465-5.73798E+01 3.51650E+01-3.71946E-08-2.35225E-01-8.62415E-01-1.16359E-02
 -1       466-6.14495E+01 3.76595E+01-2.89831E-08-2.34180E-01-7.73622E-01-1.11919E-02
 -1       467-6.55473E+01 4.01766E+01-2.14912E-08-2.36689E-01-6.88400E-01-1.07175E-02
 -1       468-6.96396E+01 4.26807E+01-1.52326E-08-2.35374E-01-6.06986E-01-1.02125E-02
 -1       469-7.37600E+01 4.52091E+01-1.01632E-08-2.38742E-01-5.29619E-01-9.67683E-03
 -1       470-7.78775E+01 4.77332E+01-5.31144E-09-2.36646E-01-4.56538E-01-9.11038E-03
 -1       471-8.20101E+01 5.02562E+01-9.83651E-10-2.41180E-01-3.87983E-01-8.51309E-03
 -1       472-8.61489E+01 5.28038E+01 4.84995E-09-2.34900E-01-3.24193E-01-7.88487E-03
 -1       473-9.03054E+01 5.53471E+01 1.38434E-08-2.42732E-01-2.65410E-01-7.22570E-03
 -1       474-9.44477E+01 5.78936E+01 2.40984E-08-2.34501E-01-2.11874E-01-6.53553E-03
 -1       475-9.86185E+01 6.04403E+01 3.60658E-08-2.46507E-01-1.63826E-01-5.81432E-03
 -1       476-1.02733E+02 6.29505E+01 4.84754E-08-2.31411E-01-1.21510E-01-5.06207E-03
 -1       477-1.07000E+02 6.56354E+01 6.03379E-08-2.48079E-01-8.51634E-02-4.27871E-03
 -1       478-1.10898E+02 6.77734E+01 7.25464E-08-2.35954E-01-5.50322E-02-3.46427E-03
 -1       479-1.15907E+02 7.17717E+01 8.49099E-08-2.18279E-01-3.13546E-02-2.61861E-03
 -1       480-1.17111E+02 6.90833E+01 9.48578E-08-3.64788E-01-1.43766E-02-1.74227E-03
 -1       481-1.31956E+02 9.07590E+01 1.20957E-07 2.73043E-01-4.33682E-03-8.33202E-04
 -1       482-8.67600E+01 1.68339E+01 1.43423E-07-2.06861E+00-1.07592E-03-3.69790E-04
 -1       483-8.60518E-03 1.05922E-03 8.96163E-09-3.29352E-05 6.78836E+00 1.93550E-02
 -1       484-4.10726E-02 2.10629E-02 2.24408E-08-1.24067E-02 6.67546E+00 1.93548E-02
 -1       485-1.40374E-01 8.19877E-02 3.56629E-08-2.43707E-02 6.44967E+00 1.93539E-02
 -1       486-3.03932E-01 1.82468E-01 2.89432E-08-3.59437E-02 6.22390E+00 1.93516E-02
 -1       487-5.28586E-01 3.20159E-01 1.22083E-08-4.70214E-02 5.99817E+00 1.93474E-02
 -1       488-8.13402E-01 4.95239E-01-1.45011E-08-5.78232E-02 5.77250E+00 1.93407E-02
 -1       489-1.15365E+00 7.03191E-01-4.05262E-08-6.81348E-02 5.54692E+00 1.93309E-02
 -1       490-1.55105E+00 9.47760E-01-5.54567E-08-7.79543E-02 5.32148E+00 1.93174E-02
 -1       491-1.99891E+00 1.22172E+00-6.49192E-08-8.75810E-02 5.09622E+00 1.92997E-02
 -1       492-2.49848E+00 1.52837E+00-6.75734E-08-9.64950E-02 4.87120E+00 1.92772E-02
 -1       493-3.04663E+00 1.86481E+00-5.87659E-08-1.05271E-01 4.64647E+00 1.92496E-02
 -1       494-3.63806E+00 2.22631E+00-3.82050E-08-1.13744E-01 4.42209E+00 1.92163E-02
 -1       495-4.27686E+00 2.61902E+00-1.42010E-08-1.21064E-01 4.19814E+00 1.91768E-02
 -1       496-4.95567E+00 3.03548E+00 5.17339E-09-1.29206E-01 3.97468E+00 1.91308E-02
 -1       497-5.67145E+00 3.47301E+00 2.35855E-08-1.35571E-01 3.75180E+00 1.90779E-02
 -1       498-6.42830E+00 3.93739E+00 4.05222E-08-1.42425E-01 3.52958E+00 1.90176E-02
 -1       499-7.21899E+00 4.42400E+00 4.91813E-08-1.49273E-01 3.30811E+00 1.89496E-02
 -1       500-8.03805E+00 4.92253E+00 4.32010E-08-1.54145E-01 3.08748E+00 1.88736E-02
 -1       501-8.89563E+00 5.45209E+00 3.34163E-08-1.60323E-01 2.86779E+00 1.87892E-02
 -1       502-9.77365E+00 5.98766E+00 2.90584E-08-1.64662E-01 2.64913E+00 1.86962E-02
 -1       503-1.06840E+01 6.54718E+00 2.54094E-08-1.69674E-01 2.43160E+00 1.85943E-02
 -1       504-1.16158E+01 7.11911E+00 2.48249E-08-1.74306E-01 2.21532E+00 1.84832E-02
 -1       505-1.25652E+01 7.69740E+00 2.52324E-08-1.77527E-01 2.00039E+00 1.83628E-02
 -1       506-1.35448E+01 8.30297E+00 2.21819E-08-1.81178E-01 1.78691E+00 1.82327E-02
 -1       507-1.45316E+01 8.90416E+00 2.01861E-08-1.84118E-01 1.57502E+00 1.80929E-02
 -1       508-1.55406E+01 9.52457E+00 2.51395E-08-1.87092E-01 1.36481E+00 1.79431E-02
 -1       509-1.65599E+01 1.01489E+01 3.60674E-08-1.89366E-01 1.15641E+00 1.77832E-02
 -1       510-1.75903E+01 1.07797E+01 4.93725E-08-1.90983E-01 9.49929E-01 1.76131E-02
 -1       511-1.86340E+01 1.14211E+01 5.98078E-08-1.92342E-01 7.45497E-01 1.74327E-02
 -1       512-1.96826E+01 1.20640E+01 6.66289E-08-1.94228E-01 5.43231E-01 1.72418E-02
 -1       513-2.07336E+01 1.27066E+01 7.15270E-08-1.94850E-01 3.43251E-01 1.70405E-02
 -1       514-2.17913E+01 1.33549E+01 7.49015E-08-1.94915E-01 1.45681E-01 1.68287E-02
 -1       515-2.28533E+01 1.40090E+01 7.89092E-08-1.95176E-01-4.93568E-02 1.66063E-02
 -1       516-2.39078E+01 1.46518E+01 8.09774E-08-1.94720E-01-2.41739E-01 1.63735E-02
 -1       517-2.49653E+01 1.53021E+01 8.14981E-08-1.94547E-01-4.31341E-01 1.61300E-02
 -1       518-2.60161E+01 1.59453E+01 8.14680E-08-1.93116E-01-6.18044E-01 1.58761E-02
 -1       519-2.70628E+01 1.65877E+01 7.91058E-08-1.92309E-01-8.01724E-01 1.56117E-02
 -1       520-2.80984E+01 1.72222E+01 7.56084E-08-1.90700E-01-9.82260E-01 1.53370E-02
 -1       521-2.91258E+01 1.78508E+01 6.84758E-08-1.87658E-01-1.15953E+00 1.50520E-02
 -1       522-3.01453E+01 1.84781E+01 5.88186E-08-1.86757E-01-1.33341E+00 1.47568E-02
 -1       523-3.11474E+01 1.90924E+01 4.59699E-08-1.83611E-01-1.50380E+00 1.44515E-02
 -1       524-3.21334E+01 1.96947E+01 2.86641E-08-1.80991E-01-1.67056E+00 1.41363E-02
 -1       525-3.31045E+01 2.02893E+01 5.64656E-09-1.77227E-01-1.83359E+00 1.38114E-02
 -1       526-3.40634E+01 2.08821E+01-2.47464E-08-1.73999E-01-1.99277E+00 1.34769E-02
 -1       527-3.49923E+01 2.14464E+01-5.36274E-08-1.69940E-01-2.14800E+00 1.31330E-02
 -1       528-3.59055E+01 2.20071E+01-7.93805E-08-1.66541E-01-2.29915E+00 1.27798E-02
 -1       529-3.67971E+01 2.25555E+01-1.05557E-07-1.61838E-01-2.44614E+00 1.24177E-02
 -1       530-3.76644E+01 2.30877E+01-1.32690E-07-1.57270E-01-2.58885E+00 1.20469E-02
 -1       531-3.85009E+01 2.35991E+01-1.57426E-07-1.52762E-01-2.72719E+00 1.16676E-02
 -1       532-3.93121E+01 2.40929E+01-1.80075E-07-1.45890E-01-2.86105E+00 1.12800E-02
 -1       533-4.01047E+01 2.45851E+01-2.09591E-07-1.43129E-01-2.99034E+00 1.08844E-02
 -1       534-4.08531E+01 2.50399E+01-2.34700E-07-1.36777E-01-3.11498E+00 1.04812E-02
 -1       535-4.15784E+01 2.54843E+01-2.43076E-07-1.30272E-01-3.23486E+00 1.00707E-02
 -1       536-4.22733E+01 2.59127E+01-2.45389E-07-1.24572E-01-3.34992E+00 9.65306E-03
 -1       537-4.29340E+01 2.63181E+01-2.47927E-07-1.17631E-01-3.46006E+00 9.22870E-03
 -1       538-4.35556E+01 2.66963E+01-2.55505E-07-1.13233E-01-3.56522E+00 8.79794E-03
 -1       539-4.41433E+01 2.70560E+01-2.67556E-07-1.04995E-01-3.66531E+00 8.36114E-03
 -1       540-4.47023E+01 2.74021E+01-2.75155E-07-9.86527E-02-3.76028E+00 7.91864E-03
 -1       541-4.52193E+01 2.77193E+01-2.81281E-07-9.16452E-02-3.85005E+00 7.47081E-03
 -1       542-4.56915E+01 2.80051E+01-2.94925E-07-8.50355E-02-3.93457E+00 7.01803E-03
 -1       543-4.61321E+01 2.82747E+01-3.19015E-07-7.61017E-02-4.01378E+00 6.56069E-03
 -1       544-4.65400E+01 2.85314E+01-3.36779E-07-7.08085E-02-4.08763E+00 6.09915E-03
 -1       545-4.68911E+01 2.87416E+01-3.35778E-07-6.28486E-02-4.15607E+00 5.63384E-03
 -1       546-4.72083E+01 2.89339E+01-3.25710E-07-5.39909E-02-4.21907E+00 5.16516E-03
 -1       547-4.74873E+01 2.91074E+01-3.12071E-07-4.74707E-02-4.27658E+00 4.69351E-03
 -1       548-4.77271E+01 2.92588E+01-2.96494E-07-3.83052E-02-4.32857E+00 4.21932E-03
 -1       549-4.79115E+01 2.93659E+01-2.82016E-07-3.26757E-02-4.37502E+00 3.74301E-03
 -1       550-4.80569E+01 2.94540E+01-2.59427E-07-2.27507E-02-4.41589E+00 3.26502E-03
 -1       551-4.81731E+01 2.95337E+01-2.17999E-07-1.51928E-02-4.45119E+00 2.78576E-03
 -1       552-4.82215E+01 2.95548E+01-1.62358E-07-7.48186E-03-4.48089E+00 2.30568E-03
 -1       553-4.82409E+01 2.95684E+01-1.05990E-07 2.51650E-03-4.50499E+00 1.82524E-03
 -1       554-4.82171E+01 2.95572E+01-5.67657E-08 8.49224E-03-4.52348E+00 1.34484E-03
 -1       555-4.81415E+01 2.95102E+01-7.56419E-09 1.76689E-02-4.53637E+00 8.64946E-04
 -1       556-4.80208E+01 2.94334E+01 4.65752E-08 2.54841E-02-4.54366E+00 3.86015E-04
 -1       557-4.78565E+01 2.93325E+01 9.23569E-08 3.46761E-02-4.54538E+00-9.15113E-05
 -1       558-4.76536E+01 2.92110E+01 1.21031E-07 4.33994E-02-4.54154E+00-5.67194E-04
 -1       559-4.74039E+01 2.90608E+01 1.40363E-07 4.99294E-02-4.53216E+00-1.04059E-03
 -1       560-4.70959E+01 2.88645E+01 1.56100E-07 5.90332E-02-4.51727E+00-1.51124E-03
 -1       561-4.67541E+01 2.86544E+01 1.66630E-07 6.71840E-02-4.49691E+00-1.97869E-03
 -1       562-4.63798E+01 2.84361E+01 1.74013E-07 7.55187E-02-4.47112E+00-2.44252E-03
 -1       563-4.59355E+01 2.81533E+01 1.85052E-07 8.31139E-02-4.43994E+00-2.90228E-03
 -1       564-4.54647E+01 2.78673E+01 2.01666E-07 9.28811E-02-4.40342E+00-3.35751E-03
 -1       565-4.49494E+01 2.75539E+01 2.17885E-07 9.87743E-02-4.36162E+00-3.80780E-03
 -1       566-4.43862E+01 2.72083E+01 2.24834E-07 1.07537E-01-4.31460E+00-4.25271E-03
 -1       567-4.37798E+01 2.68346E+01 2.24640E-07 1.14943E-01-4.26242E+00-4.69182E-03
 -1       568-4.31301E+01 2.64342E+01 2.28102E-07 1.23466E-01-4.20515E+00-5.12468E-03
 -1       569-4.24525E+01 2.60265E+01 2.22932E-07 1.31479E-01-4.14288E+00-5.55091E-03
 -1       570-4.17151E+01 2.55677E+01 2.02551E-07 1.36967E-01-4.07567E+00-5.97008E-03
 -1       571-4.09445E+01 2.50957E+01 1.89220E-07 1.45944E-01-4.00361E+00-6.38178E-03
 -1       572-4.01415E+01 2.46070E+01 1.84507E-07 1.52741E-01-3.92680E+00-6.78562E-03
 -1       573-3.92929E+01 2.40877E+01 1.76591E-07 1.59928E-01-3.84532E+00-7.18121E-03
 -1       574-3.84027E+01 2.35368E+01 1.57493E-07 1.67468E-01-3.75928E+00-7.56818E-03
 -1       575-3.74796E+01 2.29711E+01 1.26215E-07 1.72812E-01-3.66878E+00-7.94612E-03
 -1       576-3.65251E+01 2.23914E+01 9.30101E-08 1.80235E-01-3.57392E+00-8.31469E-03
 -1       577-3.55298E+01 2.17795E+01 6.19542E-08 1.86573E-01-3.47482E+00-8.67353E-03
 -1       578-3.44965E+01 2.11438E+01 3.50073E-08 1.92507E-01-3.37159E+00-9.02230E-03
 -1       579-3.34349E+01 2.04928E+01 1.38841E-08 1.99817E-01-3.26435E+00-9.36063E-03
 -1       580-3.23468E+01 1.98309E+01-5.47137E-09 2.04127E-01-3.15323E+00-9.68824E-03
 -1       581-3.12129E+01 1.91303E+01-1.94796E-08 2.10080E-01-3.03835E+00-1.00048E-02
 -1       582-3.00591E+01 1.84243E+01-2.07420E-08 2.16107E-01-2.91984E+00-1.03100E-02
 -1       583-2.88772E+01 1.77019E+01-1.23067E-08 2.21000E-01-2.79784E+00-1.06035E-02
 -1       584-2.76631E+01 1.69571E+01-1.23790E-09 2.26011E-01-2.67248E+00-1.08851E-02
 -1       585-2.64236E+01 1.61960E+01 5.19614E-09 2.31011E-01-2.54392E+00-1.11544E-02
 -1       586-2.51588E+01 1.54202E+01 4.09347E-09 2.35021E-01-2.41228E+00-1.14113E-02
 -1       587-2.38737E+01 1.46355E+01 3.37201E-09 2.39591E-01-2.27772E+00-1.16555E-02
 -1       588-2.25622E+01 1.38299E+01 8.33786E-09 2.43778E-01-2.14038E+00-1.18868E-02
 -1       589-2.12279E+01 1.30103E+01 1.47769E-08 2.46973E-01-2.00042E+00-1.21049E-02
 -1       590-1.98785E+01 1.21847E+01 2.00765E-08 2.51443E-01-1.85800E+00-1.23096E-02
 -1       591-1.85115E+01 1.13487E+01 2.57644E-08 2.53778E-01-1.71327E+00-1.25008E-02
 -1       592-1.71206E+01 1.04931E+01 3.14840E-08 2.56964E-01-1.56638E+00-1.26783E-02
 -1       593-1.57195E+01 9.63500E+00 3.33263E-08 2.59977E-01-1.41751E+00-1.28418E-02
 -1       594-1.43044E+01 8.76859E+00 3.02863E-08 2.62293E-01-1.26681E+00-1.29914E-02
 -1       595-1.28756E+01 7.89249E+00 2.46705E-08 2.64673E-01-1.11445E+00-1.31267E-02
 -1       596-1.14351E+01 7.00897E+00 1.69802E-08 2.66018E-01-9.60594E-01-1.32478E-02
 -1       597-9.98501E+00 6.11968E+00 9.79369E-09 2.68061E-01-8.05409E-01-1.33545E-02
 -1       598-8.53013E+00 5.22954E+00 3.81359E-09 2.69258E-01-6.49063E-01-1.34467E-02
 -1       599-7.06443E+00 4.32962E+00-1.90327E-09 2.70257E-01-4.91726E-01-1.35243E-02
 -1       600-5.59643E+00 3.43008E+00-6.47613E-09 2.71223E-01-3.33568E-01-1.35874E-02
 -1       601-4.12546E+00 2.52905E+00-1.16249E-08 2.71443E-01-1.74761E-01-1.36358E-02
 -1       602-2.65093E+00 1.62456E+00-1.79980E-08 2.71735E-01-1.54736E-02-1.36696E-02
 -1       603-1.17765E+00 7.21699E-01-2.34439E-08 2.71577E-01 1.44122E-01-1.36886E-02
 -1       604 2.94758E-01-1.80858E-01-2.87062E-08 2.71172E-01 3.03855E-01-1.36930E-02
 -1       605 1.76370E+00-1.08113E+00-3.48008E-08 2.70452E-01 4.63553E-01-1.36828E-02
 -1       606 3.22911E+00-1.97981E+00-4.12198E-08 2.69407E-01 6.23046E-01-1.36579E-02
 -1       607 4.68697E+00-2.87300E+00-4.73147E-08 2.68339E-01 7.82164E-01-1.36185E-02
 -1       608 6.13731E+00-3.76172E+00-5.19954E-08 2.66559E-01 9.40737E-01-1.35646E-02
 -1       609 7.58062E+00-4.64775E+00-5.75399E-08 2.64740E-01 1.09860E+00-1.34962E-02
 -1       610 9.00907E+00-5.52188E+00-6.02223E-08 2.62697E-01 1.25558E+00-1.34136E-02
 -1       611 1.04281E+01-6.39204E+00-5.71947E-08 2.59895E-01 1.41151E+00-1.33168E-02
 -1       612 1.18329E+01-7.25371E+00-4.69193E-08 2.57677E-01 1.56623E+00-1.32059E-02
 -1       613 1.32217E+01-8.10510E+00-3.19056E-08 2.54446E-01 1.71958E+00-1.30811E-02
 -1       614 1.45930E+01-8.94558E+00-2.47472E-08 2.51304E-01 1.87139E+00-1.29426E-02
 -1       615 1.59442E+01-9.77195E+00-2.51745E-08 2.47372E-01 2.02151E+00-1.27905E-02
 -1       616 1.72813E+01-1.05943E+01-2.68118E-08 2.43668E-01 2.16977E+00-1.26250E-02
 -1       617 1.85911E+01-1.13958E+01-2.95780E-08 2.40243E-01 2.31602E+00-1.24464E-02
 -1       618 1.98785E+01-1.21842E+01-3.27608E-08 2.35172E-01 2.46012E+00-1.22548E-02
 -1       619 2.11456E+01-1.29625E+01-3.46745E-08 2.30738E-01 2.60190E+00-1.20505E-02
 -1       620 2.23849E+01-1.37226E+01-3.63393E-08 2.25849E-01 2.74123E+00-1.18337E-02
 -1       621 2.35931E+01-1.44609E+01-4.27138E-08 2.20958E-01 2.87796E+00-1.16047E-02
 -1       622 2.47779E+01-1.51877E+01-5.71820E-08 2.14700E-01 3.01195E+00-1.13638E-02
 -1       623 2.59331E+01-1.58973E+01-7.81766E-08 2.10249E-01 3.14306E+00-1.11112E-02
 -1       624 2.70550E+01-1.65850E+01-9.79277E-08 2.03876E-01 3.27116E+00-1.08473E-02
 -1       625 2.81434E+01-1.72507E+01-1.07670E-07 1.98104E-01 3.39611E+00-1.05724E-02
 -1       626 2.91979E+01-1.78958E+01-1.05105E-07 1.91230E-01 3.51779E+00-1.02868E-02
 -1       627 3.02263E+01-1.85309E+01-9.29377E-08 1.84463E-01 3.63608E+00-9.99084E-03
 -1       628 3.12077E+01-1.91295E+01-7.82927E-08 1.79092E-01 3.75086E+00-9.68489E-03
 -1       629 3.21533E+01-1.97068E+01-6.58311E-08 1.70768E-01 3.86201E+00-9.36932E-03
 -1       630 3.30677E+01-2.02700E+01-5.34374E-08 1.64538E-01 3.96943E+00-9.04447E-03
 -1       631 3.39400E+01-2.08068E+01-4.26807E-08 1.56723E-01 4.07301E+00-8.71076E-03
 -1       632 3.47679E+01-2.13108E+01-3.85244E-08 1.49061E-01 4.17264E+00-8.36857E-03
 -1       633 3.55564E+01-2.17933E+01-3.85161E-08 1.42007E-01 4.26824E+00-8.01832E-03
 -1       634 3.63095E+01-2.22604E+01-3.12788E-08 1.33660E-01 4.35970E+00-7.66040E-03
 -1       635 3.70083E+01-2.26836E+01-1.71973E-08 1.26105E-01 4.44694E+00-7.29526E-03
 -1       636 3.76674E+01-2.30876E+01-9.16341E-09 1.17195E-01 4.52989E+00-6.92333E-03
 -1       637 3.82882E+01-2.34713E+01-3.30560E-09 1.08476E-01 4.60846E+00-6.54504E-03
 -1       638 3.88583E+01-2.38209E+01 7.35798E-09 1.01469E-01 4.68258E+00-6.16084E-03
 -1       639 3.93759E+01-2.41346E+01 9.76523E-09 9.25014E-02 4.75218E+00-5.77120E-03
 -1       640 3.98545E+01-2.44290E+01 6.78124E-09 8.30172E-02 4.81721E+00-5.37659E-03
 -1       641 4.02862E+01-2.46956E+01 2.29448E-08 7.45751E-02 4.87761E+00-4.97745E-03
 -1       642 4.06678E+01-2.49315E+01 5.80651E-08 6.55280E-02 4.93333E+00-4.57429E-03
 -1       643 4.09948E+01-2.51263E+01 8.73387E-08 5.58793E-02 4.98433E+00-4.16759E-03
 -1       644 4.12763E+01-2.52979E+01 1.00508E-07 4.83193E-02 5.03056E+00-3.75782E-03
 -1       645 4.15187E+01-2.54559E+01 1.00988E-07 3.80936E-02 5.07200E+00-3.34547E-03
 -1       646 4.16925E+01-2.55541E+01 8.66939E-08 2.93874E-02 5.10861E+00-2.93107E-03
 -1       647 4.18249E+01-2.56365E+01 6.14370E-08 1.91841E-02 5.14038E+00-2.51510E-03
 -1       648 4.19112E+01-2.56922E+01 3.36606E-08 9.42439E-03 5.16729E+00-2.09806E-03
 -1       649 4.19418E+01-2.57112E+01 1.60027E-08 1.55841E-03 5.18934E+00-1.68046E-03
 -1       650 4.19149E+01-2.56913E+01 1.70244E-08-8.34938E-03 5.20650E+00-1.26283E-03
 -1       651 4.18431E+01-2.56470E+01 3.15052E-08-1.85727E-02 5.21880E+00-8.45667E-04
 -1       652 4.17253E+01-2.55809E+01 4.25919E-08-2.78504E-02 5.22624E+00-4.29476E-04
 -1       653 4.15432E+01-2.54630E+01 4.41323E-08-3.76078E-02 5.22883E+00-1.47809E-05
 -1       654 4.13163E+01-2.53251E+01 5.44812E-08-4.63542E-02 5.22660E+00 3.97901E-04
 -1       655 4.10388E+01-2.51567E+01 7.01234E-08-5.64162E-02 5.21956E+00 8.08057E-04
 -1       656 4.07113E+01-2.49589E+01 7.48172E-08-6.58730E-02 5.20776E+00 1.21518E-03
 -1       657 4.03207E+01-2.47128E+01 8.49508E-08-7.53397E-02 5.19122E+00 1.61875E-03
 -1       658 3.98882E+01-2.44479E+01 1.11121E-07-8.53998E-02 5.17001E+00 2.01824E-03
 -1       659 3.94105E+01-2.41616E+01 1.43562E-07-9.34882E-02 5.14415E+00 2.41317E-03
 -1       660 3.88706E+01-2.38276E+01 1.80957E-07-1.03585E-01 5.11372E+00 2.80301E-03
 -1       661 3.82826E+01-2.34657E+01 2.17657E-07-1.12437E-01 5.07878E+00 3.18726E-03
 -1       662 3.76451E+01-2.30740E+01 2.38702E-07-1.22367E-01 5.03938E+00 3.56542E-03
 -1       663 3.69646E+01-2.26623E+01 2.43304E-07-1.31264E-01 4.99562E+00 3.93699E-03
 -1       664 3.62234E+01-2.22026E+01 2.38975E-07-1.40549E-01 4.94756E+00 4.30148E-03
 -1       665 3.54391E+01-2.17228E+01 2.18061E-07-1.48857E-01 4.89529E+00 4.65839E-03
 -1       666 3.46080E+01-2.12155E+01 1.82064E-07-1.58163E-01 4.83890E+00 5.00724E-03
 -1       667 3.37279E+01-2.06761E+01 1.46189E-07-1.66858E-01 4.77849E+00 5.34756E-03
 -1       668 3.27956E+01-2.01023E+01 1.15274E-07-1.75239E-01 4.71417E+00 5.67886E-03
 -1       669 3.18208E+01-1.95041E+01 8.99471E-08-1.84898E-01 4.64603E+00 6.00068E-03
 -1       670 3.08076E+01-1.88895E+01 6.42125E-08-1.91944E-01 4.57420E+00 6.31257E-03
 -1       671 2.97318E+01-1.82224E+01 3.08434E-08-2.00715E-01 4.49879E+00 6.61406E-03
 -1       672 2.86235E+01-1.75446E+01-8.36562E-09-2.08835E-01 4.41992E+00 6.90471E-03
 -1       673 2.74727E+01-1.68429E+01-5.65941E-08-2.16910E-01 4.33773E+00 7.18407E-03
 -1       674 2.62746E+01-1.61070E+01-1.12541E-07-2.25156E-01 4.25235E+00 7.45172E-03
 -1       675 2.50337E+01-1.53452E+01-1.68855E-07-2.31613E-01 4.16391E+00 7.70725E-03
 -1       676 2.37519E+01-1.45590E+01-2.13342E-07-2.40100E-01 4.07257E+00 7.95021E-03
 -1       677 2.24346E+01-1.37539E+01-2.31150E-07-2.47175E-01 3.97847E+00 8.18022E-03
 -1       678 2.10733E+01-1.29187E+01-2.25267E-07-2.54381E-01 3.88176E+00 8.39688E-03
 -1       679 1.96737E+01-1.20599E+01-2.09897E-07-2.61506E-01 3.78261E+00 8.59981E-03
 -1       680 1.82378E+01-1.11794E+01-1.94449E-07-2.67947E-01 3.68117E+00 8.78861E-03
 -1       681 1.67678E+01-1.02808E+01-1.79459E-07-2.74793E-01 3.57761E+00 8.96292E-03
 -1       682 1.52577E+01-9.35285E+00-1.65654E-07-2.81028E-01 3.47210E+00 9.12241E-03
 -1       683 1.37156E+01-8.40785E+00-1.52760E-07-2.87533E-01 3.36482E+00 9.26669E-03
 -1       684 1.21422E+01-7.44500E+00-1.36817E-07-2.93477E-01 3.25595E+00 9.39545E-03
 -1       685 1.05336E+01-6.45791E+00-1.11987E-07-2.99558E-01 3.14567E+00 9.50836E-03
 -1       686 8.89448E+00-5.45279E+00-8.05043E-08-3.04594E-01 3.03416E+00 9.60511E-03
 -1       687 7.22602E+00-4.43063E+00-4.90145E-08-3.10435E-01 2.92162E+00 9.68538E-03
 -1       688 5.52953E+00-3.39134E+00-1.61277E-08-3.15539E-01 2.80825E+00 9.74887E-03
 -1       689 3.80314E+00-2.33237E+00 9.15973E-09-3.20545E-01 2.69423E+00 9.79534E-03
 -1       690 2.05136E+00-1.25879E+00 2.04054E-08-3.25441E-01 2.57977E+00 9.82447E-03
 -1       691 2.74376E-01-1.69907E-01 2.70932E-08-3.29963E-01 2.46507E+00 9.83603E-03
 -1       692-1.52814E+00 9.35402E-01 3.42638E-08-3.34343E-01 2.35034E+00 9.82976E-03
 -1       693-3.35277E+00 2.05341E+00 4.15317E-08-3.38574E-01 2.23579E+00 9.80543E-03
 -1       694-5.19971E+00 3.18541E+00 4.84959E-08-3.42456E-01 2.12163E+00 9.76281E-03
 -1       695-7.06861E+00 4.33124E+00 5.17727E-08-3.46131E-01 2.00807E+00 9.70168E-03
 -1       696-8.95697E+00 5.48897E+00 4.94940E-08-3.49988E-01 1.89534E+00 9.62184E-03
 -1       697-1.08631E+01 6.65716E+00 4.63102E-08-3.53249E-01 1.78365E+00 9.52311E-03
 -1       698-1.27863E+01 7.83451E+00 4.61781E-08-3.56147E-01 1.67322E+00 9.40530E-03
 -1       699-1.47298E+01 9.02800E+00 4.71520E-08-3.59399E-01 1.56428E+00 9.26822E-03
 -1       700-1.66846E+01 1.02249E+01 4.73387E-08-3.61871E-01 1.45704E+00 9.11174E-03
 -1       701-1.86557E+01 1.14328E+01 4.63322E-08-3.64789E-01 1.35175E+00 8.93570E-03
 -1       702-2.06400E+01 1.26498E+01 4.23837E-08-3.66895E-01 1.24863E+00 8.73995E-03
 -1       703-2.26389E+01 1.38761E+01 3.78027E-08-3.69099E-01 1.14791E+00 8.52439E-03
 -1       704-2.46428E+01 1.51017E+01 3.46684E-08-3.71378E-01 1.04981E+00 8.28888E-03
 -1       705-2.66624E+01 1.63404E+01 3.04416E-08-3.72666E-01 9.54584E-01 8.03331E-03
 -1       706-2.86910E+01 1.75845E+01 2.44234E-08-3.74073E-01 8.62453E-01 7.75759E-03
 -1       707-3.07313E+01 1.88370E+01 1.88947E-08-3.76657E-01 7.73658E-01 7.46163E-03
 -1       708-3.27663E+01 2.00798E+01 1.42736E-08-3.77719E-01 6.88433E-01 7.14535E-03
 -1       709-3.48235E+01 2.13428E+01 1.00543E-08-3.78254E-01 6.07017E-01 6.80868E-03
 -1       710-3.68778E+01 2.26036E+01 6.47829E-09-3.79572E-01 5.29648E-01 6.45154E-03
 -1       711-3.89458E+01 2.38716E+01 3.38215E-09-3.80093E-01 4.56564E-01 6.07389E-03
 -1       712-4.09979E+01 2.51223E+01 5.90860E-10-3.81538E-01 3.88006E-01 5.67569E-03
 -1       713-4.30857E+01 2.64101E+01-3.54563E-09-3.82219E-01 3.24214E-01 5.25687E-03
 -1       714-4.51445E+01 2.76686E+01-9.28928E-09-3.82487E-01 2.65427E-01 4.81741E-03
 -1       715-4.72382E+01 2.89555E+01-1.60167E-08-3.83164E-01 2.11888E-01 4.35728E-03
 -1       716-4.92861E+01 3.01998E+01-2.41949E-08-3.82028E-01 1.63837E-01 3.87648E-03
 -1       717-5.14081E+01 3.15134E+01-3.23940E-08-3.84604E-01 1.21517E-01 3.37494E-03
 -1       718-5.34681E+01 3.27925E+01-4.02899E-08-3.82912E-01 8.51673E-02 2.85269E-03
 -1       719-5.54456E+01 3.38595E+01-4.84822E-08-3.88386E-01 5.50316E-02 2.30972E-03
 -1       720-5.81010E+01 3.60941E+01-5.67534E-08-3.64501E-01 3.13509E-02 1.74592E-03
 -1       721-5.78944E+01 3.36869E+01-6.33815E-08-4.55166E-01 1.43677E-02 1.16172E-03
 -1       722-6.85635E+01 4.86176E+01-8.07665E-08-1.20063E-01 4.32453E-03 5.55519E-04
 -1       723-3.95548E+01 2.10410E-02-9.57375E-08-1.35615E+00 1.06696E-03 2.46427E-04
 -1       724-8.60512E-03 1.05922E-03-8.96163E-09-3.30322E-05-6.78836E+00-1.93550E-02
 -1       725-4.10725E-02 2.10628E-02-2.24408E-08-1.24068E-02-6.67546E+00-1.93548E-02
 -1       726-1.40374E-01 8.19876E-02-3.56629E-08-2.43707E-02-6.44967E+00-1.93539E-02
 -1       727-3.03931E-01 1.82468E-01-2.89432E-08-3.59437E-02-6.22390E+00-1.93516E-02
 -1       728-5.28586E-01 3.20159E-01-1.22083E-08-4.70213E-02-5.99816E+00-1.93474E-02
 -1       729-8.13402E-01 4.95239E-01 1.45011E-08-5.78231E-02-5.77249E+00-1.93407E-02
 -1       730-1.15365E+00 7.03191E-01 4.05262E-08-6.81347E-02-5.54692E+00-1.93309E-02
 -1       731-1.55105E+00 9.47761E-01 5.54567E-08-7.79543E-02-5.32148E+00-1.93174E-02
 -1       732-1.99891E+00 1.22172E+00 6.49192E-08-8.75810E-02-5.09622E+00-1.92997E-02
 -1       733-2.49848E+00 1.52837E+00 6.75734E-08-9.64950E-02-4.87120E+00-1.92772E-02
 -1       734-3.04663E+00 1.86481E+00 5.87659E-08-1.05271E-01-4.64647E+00-1.92496E-02
 -1       735-3.63806E+00 2.22631E+00 3.82050E-08-1.13744E-01-4.42209E+00-1.92163E-02
 -1       736-4.27686E+00 2.61902E+00 1.42010E-08-1.21064E-01-4.19814E+00-1.91768E-02
 -1       737-4.95567E+00 3.03548E+00-5.17339E-09-1.29206E-01-3.97468E+00-1.91308E-02
 -1       738-5.67145E+00 3.47301E+00-2.35855E-08-1.35571E-01-3.75180E+00-1.90779E-02
 -1       739-6.42830E+00 3.93739E+00-4.05222E-08-1.42425E-01-3.52958E+00-1.90176E-02
 -1       740-7.21899E+00 4.42400E+00-4.91813E-08-1.49273E-01-3.30811E+00-1.89496E-02
 -1       741-8.03805E+00 4.92253E+00-4.32010E-08-1.54145E-01-3.08748E+00-1.88736E-02
 -1       742-8.89563E+00 5.45209E+00-3.34163E-08-1.60323E-01-2.86779E+00-1.87892E-02
 -1       743-9.77365E+00 5.98766E+00-2.90584E-08-1.64662E-01-2.64912E+00-1.86962E-02
 -1       744-1.06840E+01 6.54718E+00-2.54094E-08-1.69674E-01-2.43160E+00-1.85943E-02
 -1       745-1.16158E+01 7.11911E+00-2.48249E-08-1.74306E-01-2.21532E+00-1.84832E-02
 -1       746-1.25652E+01 7.69740E+00-2.52324E-08-1.77527E-01-2.00039E+00-1.83628E-02
 -1       747-1.35448E+01 8.30297E+00-2.21819E-08-1.81178E-01-1.78691E+00-1.82327E-02
 -1       748-1.45316E+01 8.90416E+00-2.01861E-08-1.84118E-01-1.57502E+00-1.80929E-02
 -1       749-1.55406E+01 9.52457E+00-2.51395E-08-1.87092E-01-1.36481E+00-1.79431E-02
 -1       750-1.65599E+01 1.01489E+01-3.60674E-08-1.89366E-01-1.15641E+00-1.77832E-02
 -1       751-1.75903E+01 1.07797E+01-4.93725E-08-1.90983E-01-9.49930E-01-1.76131E-02
 -1       752-1.86340E+01 1.14211E+01-5.98078E-08-1.92342E-01-7.45498E-01-1.74326E-02
 -1       753-1.96826E+01 1.20640E+01-6.66289E-08-1.94228E-01-5.43231E-01-1.72418E-02
 -1       754-2.07336E+01 1.27066E+01-7.15270E-08-1.94850E-01-3.43252E-01-1.70405E-02
 -1       755-2.17913E+01 1.33549E+01-7.49015E-08-1.94915E-01-1.45682E-01-1.68287E-02
 -1       756-2.28533E+01 1.40090E+01-7.89092E-08-1.95176E-01 4.93558E-02-1.66063E-02
 -1       757-2.39078E+01 1.46518E+01-8.09774E-08-1.94720E-01 2.41738E-01-1.63734E-02
 -1       758-2.49653E+01 1.53021E+01-8.14981E-08-1.94547E-01 4.31340E-01-1.61300E-02
 -1       759-2.60161E+01 1.59453E+01-8.14680E-08-1.93116E-01 6.18042E-01-1.58761E-02
 -1       760-2.70628E+01 1.65877E+01-7.91058E-08-1.92309E-01 8.01723E-01-1.56117E-02
 -1       761-2.80984E+01 1.72222E+01-7.56084E-08-1.90700E-01 9.82258E-01-1.53370E-02
 -1       762-2.91258E+01 1.78508E+01-6.84758E-08-1.87658E-01 1.15953E+00-1.50520E-02
 -1       763-3.01453E+01 1.84781E+01-5.88186E-08-1.86757E-01 1.33341E+00-1.47568E-02
 -1       764-3.11474E+01 1.90924E+01-4.59699E-08-1.83611E-01 1.50379E+00-1.44515E-02
 -1       765-3.21334E+01 1.96947E+01-2.86641E-08-1.80991E-01 1.67056E+00-1.41363E-02
 -1       766-3.31045E+01 2.02893E+01-5.64656E-09-1.77227E-01 1.83359E+00-1.38114E-02
 -1       767-3.40634E+01 2.08821E+01 2.47464E-08-1.73999E-01 1.99277E+00-1.34769E-02
 -1       768-3.49923E+01 2.14464E+01 5.36274E-08-1.69940E-01 2.14799E+00-1.31329E-02
 -1       769-3.59055E+01 2.20071E+01 7.93805E-08-1.66541E-01 2.29915E+00-1.27798E-02
 -1       770-3.67971E+01 2.25555E+01 1.05557E-07-1.61838E-01 2.44614E+00-1.24177E-02
 -1       771-3.76644E+01 2.30877E+01 1.32690E-07-1.57269E-01 2.58885E+00-1.20469E-02
 -1       772-3.85009E+01 2.35991E+01 1.57426E-07-1.52762E-01 2.72718E+00-1.16675E-02
 -1       773-3.93121E+01 2.40929E+01 1.80075E-07-1.45890E-01 2.86105E+00-1.12800E-02
 -1       774-4.01047E+01 2.45851E+01 2.09591E-07-1.43128E-01 2.99034E+00-1.08844E-02
 -1       775-4.08531E+01 2.50399E+01 2.34700E-07-1.36777E-01 3.11497E+00-1.04812E-02
 -1       776-4.15784E+01 2.54843E+01 2.43076E-07-1.30272E-01 3.23486E+00-1.00707E-02
 -1       777-4.22733E+01 2.59127E+01 2.45389E-07-1.24572E-01 3.34992E+00-9.65305E-03
 -1       778-4.29340E+01 2.63181E+01 2.47927E-07-1.17631E-01 3.46006E+00-9.22869E-03
 -1       779-4.35556E+01 2.66963E+01 2.55505E-07-1.13233E-01 3.56522E+00-8.79794E-03
 -1       780-4.41434E+01 2.70560E+01 2.67556E-07-1.04995E-01 3.66531E+00-8.36114E-03
 -1       781-4.47023E+01 2.74021E+01 2.75155E-07-9.86527E-02 3.76028E+00-7.91864E-03
 -1       782-4.52193E+01 2.77193E+01 2.81281E-07-9.16451E-02 3.85005E+00-7.47081E-03
 -1       783-4.56915E+01 2.80051E+01 2.94925E-07-8.50355E-02 3.93457E+00-7.01803E-03
 -1       784-4.61321E+01 2.82747E+01 3.19015E-07-7.61016E-02 4.01378E+00-6.56069E-03
 -1       785-4.65400E+01 2.85314E+01 3.36779E-07-7.08085E-02 4.08763E+00-6.09915E-03
 -1       786-4.68911E+01 2.87416E+01 3.35778E-07-6.28486E-02 4.15607E+00-5.63384E-03
 -1       787-4.72083E+01 2.89339E+01 3.25710E-07-5.39909E-02 4.21906E+00-5.16517E-03
 -1       788-4.74873E+01 2.91074E+01 3.12071E-07-4.74708E-02 4.27657E+00-4.69352E-03
 -1       789-4.77271E+01 2.92588E+01 2.96494E-07-3.83053E-02 4.32857E+00-4.21933E-03
 -1       790-4.79115E+01 2.93659E+01 2.82016E-07-3.26758E-02 4.37501E+00-3.74302E-03
 -1       791-4.80569E+01 2.94540E+01 2.59427E-07-2.27508E-02 4.41589E+00-3.26503E-03
 -1       792-4.81731E+01 2.95337E+01 2.17999E-07-1.51930E-02 4.45119E+00-2.78577E-03
 -1       793-4.82215E+01 2.95548E+01 1.62358E-07-7.48210E-03 4.48089E+00-2.30570E-03
 -1       794-4.82409E+01 2.95684E+01 1.05990E-07 2.51627E-03 4.50498E+00-1.82525E-03
 -1       795-4.82171E+01 2.95572E+01 5.67657E-08 8.49205E-03 4.52348E+00-1.34485E-03
 -1       796-4.81415E+01 2.95102E+01 7.56419E-09 1.76687E-02 4.53637E+00-8.64962E-04
 -1       797-4.80208E+01 2.94334E+01-4.65752E-08 2.54839E-02 4.54366E+00-3.86031E-04
 -1       798-4.78565E+01 2.93325E+01-9.23569E-08 3.46759E-02 4.54538E+00 9.14956E-05
 -1       799-4.76536E+01 2.92110E+01-1.21031E-07 4.33993E-02 4.54153E+00 5.67179E-04
 -1       800-4.74039E+01 2.90608E+01-1.40363E-07 4.99293E-02 4.53216E+00 1.04058E-03
 -1       801-4.70959E+01 2.88645E+01-1.56100E-07 5.90332E-02 4.51727E+00 1.51123E-03
 -1       802-4.67541E+01 2.86544E+01-1.66630E-07 6.71840E-02 4.49691E+00 1.97868E-03
 -1       803-4.63798E+01 2.84361E+01-1.74013E-07 7.55186E-02 4.47112E+00 2.44251E-03
 -1       804-4.59355E+01 2.81533E+01-1.85052E-07 8.31138E-02 4.43994E+00 2.90227E-03
 -1       805-4.54647E+01 2.78673E+01-2.01666E-07 9.28810E-02 4.40342E+00 3.35750E-03
 -1       806-4.49494E+01 2.75539E+01-2.17885E-07 9.87743E-02 4.36162E+00 3.80779E-03
 -1       807-4.43862E+01 2.72083E+01-2.24834E-07 1.07537E-01 4.31460E+00 4.25271E-03
 -1       808-4.37798E+01 2.68345E+01-2.24640E-07 1.14943E-01 4.26242E+00 4.69181E-03
 -1       809-4.31301E+01 2.64342E+01-2.28102E-07 1.23465E-01 4.20515E+00 5.12468E-03
 -1       810-4.24525E+01 2.60265E+01-2.22932E-07 1.31479E-01 4.14288E+00 5.55090E-03
 -1       811-4.17151E+01 2.55677E+01-2.02551E-07 1.36967E-01 4.07567E+00 5.97008E-03
 -1       812-4.09445E+01 2.50957E+01-1.89220E-07 1.45944E-01 4.00361E+00 6.38178E-03
 -1       813-4.01415E+01 2.46070E+01-1.84507E-07 1.52741E-01 3.92680E+00 6.78562E-03
 -1       814-3.92929E+01 2.40877E+01-1.76591E-07 1.59928E-01 3.84532E+00 7.18121E-03
 -1       815-3.84027E+01 2.35368E+01-1.57493E-07 1.67468E-01 3.75928E+00 7.56817E-03
 -1       816-3.74796E+01 2.29711E+01-1.26215E-07 1.72812E-01 3.66878E+00 7.94612E-03
 -1       817-3.65251E+01 2.23914E+01-9.30101E-08 1.80235E-01 3.57392E+00 8.31469E-03
 -1       818-3.55298E+01 2.17795E+01-6.19542E-08 1.86574E-01 3.47482E+00 8.67353E-03
 -1       819-3.44965E+01 2.11438E+01-3.50073E-08 1.92508E-01 3.37159E+00 9.02230E-03
 -1       820-3.34349E+01 2.04928E+01-1.38841E-08 1.99817E-01 3.26435E+00 9.36063E-03
 -1       821-3.23468E+01 1.98309E+01 5.47137E-09 2.04127E-01 3.15323E+00 9.68824E-03
 -1       822-3.12130E+01 1.91303E+01 1.94796E-08 2.10081E-01 3.03835E+00 1.00048E-02
 -1       823-3.00591E+01 1.84243E+01 2.07420E-08 2.16106E-01 2.91984E+00 1.03100E-02
 -1       824-2.88772E+01 1.77019E+01 1.23067E-08 2.21000E-01 2.79784E+00 1.06035E-02
 -1       825-2.76631E+01 1.69571E+01 1.23790E-09 2.26011E-01 2.67248E+00 1.08851E-02
 -1       826-2.64236E+01 1.61960E+01-5.19614E-09 2.31011E-01 2.54392E+00 1.11544E-02
 -1       827-2.51588E+01 1.54202E+01-4.09347E-09 2.35021E-01 2.41228E+00 1.14113E-02
 -1       828-2.38737E+01 1.46355E+01-3.37201E-09 2.39591E-01 2.27772E+00 1.16555E-02
 -1       829-2.25622E+01 1.38299E+01-8.33786E-09 2.43778E-01 2.14038E+00 1.18868E-02
 -1       830-2.12279E+01 1.30103E+01-1.47769E-08 2.46973E-01 2.00042E+00 1.21049E-02
 -1       831-1.98785E+01 1.21847E+01-2.00765E-08 2.51443E-01 1.85800E+00 1.23096E-02
 -1       832-1.85115E+01 1.13487E+01-2.57644E-08 2.53778E-01 1.71327E+00 1.25008E-02
 -1       833-1.71206E+01 1.04931E+01-3.14840E-08 2.56964E-01 1.56638E+00 1.26783E-02
 -1       834-1.57195E+01 9.63500E+00-3.33263E-08 2.59977E-01 1.41751E+00 1.28418E-02
 -1       835-1.43044E+01 8.76859E+00-3.02863E-08 2.62293E-01 1.26681E+00 1.29914E-02
 -1       836-1.28756E+01 7.89249E+00-2.46705E-08 2.64673E-01 1.11445E+00 1.31267E-02
 -1       837-1.14351E+01 7.00897E+00-1.69802E-08 2.66018E-01 9.60594E-01 1.32478E-02
 -1       838-9.98501E+00 6.11968E+00-9.79369E-09 2.68061E-01 8.05409E-01 1.33545E-02
 -1       839-8.53013E+00 5.22954E+00-3.81359E-09 2.69258E-01 6.49063E-01 1.34467E-02
 -1       840-7.06443E+00 4.32962E+00 1.90327E-09 2.70257E-01 4.91726E-01 1.35243E-02
 -1       841-5.59643E+00 3.43008E+00 6.47613E-09 2.71223E-01 3.33568E-01 1.35874E-02
 -1       842-4.12546E+00 2.52905E+00 1.16249E-08 2.71443E-01 1.74761E-01 1.36358E-02
 -1       843-2.65093E+00 1.62456E+00 1.79980E-08 2.71735E-01 1.54735E-02 1.36696E-02
 -1       844-1.17765E+00 7.21699E-01 2.34439E-08 2.71577E-01-1.44123E-01 1.36886E-02
 -1       845 2.94758E-01-1.80858E-01 2.87062E-08 2.71172E-01-3.03855E-01 1.36930E-02
 -1       846 1.76370E+00-1.08113E+00 3.48008E-08 2.70452E-01-4.63553E-01 1.36828E-02
 -1       847 3.22911E+00-1.97981E+00 4.12198E-08 2.69407E-01-6.23047E-01 1.36579E-02
 -1       848 4.68697E+00-2.87300E+00 4.73147E-08 2.68339E-01-7.82164E-01 1.36185E-02
 -1       849 6.13731E+00-3.76172E+00 5.19954E-08 2.66559E-01-9.40737E-01 1.35646E-02
 -1       850 7.58062E+00-4.64775E+00 5.75399E-08 2.64740E-01-1.09860E+00 1.34962E-02
 -1       851 9.00907E+00-5.52188E+00 6.02223E-08 2.62697E-01-1.25558E+00 1.34136E-02
 -1       852 1.04281E+01-6.39204E+00 5.71947E-08 2.59895E-01-1.41151E+00 1.33168E-02
 -1       853 1.18329E+01-7.25371E+00 4.69193E-08 2.57677E-01-1.56623E+00 1.32059E-02
 -1       854 1.32217E+01-8.10510E+00 3.19056E-08 2.54446E-01-1.71958E+00 1.30811E-02
 -1       855 1.45930E+01-8.94558E+00 2.47472E-08 2.51304E-01-1.87139E+00 1.29426E-02
 -1       856 1.59442E+01-9.77195E+00 2.51745E-08 2.47372E-01-2.02151E+00 1.27905E-02
 -1       857 1.72813E+01-1.05943E+01 2.68118E-08 2.43668E-01-2.16977E+00 1.26250E-02
 -1       858 1.85911E+01-1.13958E+01 2.95780E-08 2.40243E-01-2.31602E+00 1.24464E-02
 -1       859 1.98785E+01-1.21842E+01 3.27608E-08 2.35172E-01-2.46012E+00 1.22548E-02
 -1       860 2.11456E+01-1.29625E+01 3.46745E-08 2.30738E-01-2.60191E+00 1.20505E-02
 -1       861 2.23849E+01-1.37226E+01 3.63393E-08 2.25849E-01-2.74123E+00 1.18337E-02
 -1       862 2.35931E+01-1.44609E+01 4.27138E-08 2.20958E-01-2.87796E+00 1.16047E-02
 -1       863 2.47779E+01-1.51877E+01 5.71820E-08 2.14700E-01-3.01195E+00 1.13638E-02
 -1       864 2.59331E+01-1.58973E+01 7.81766E-08 2.10249E-01-3.14306E+00 1.11112E-02
 -1       865 2.70550E+01-1.65850E+01 9.79277E-08 2.03876E-01-3.27116E+00 1.08473E-02
 -1       866 2.81434E+01-1.72507E+01 1.07670E-07 1.98104E-01-3.39611E+00 1.05724E-02
 -1       867 2.91979E+01-1.78958E+01 1.05105E-07 1.91230E-01-3.51779E+00 1.02868E-02
 -1       868 3.02263E+01-1.85309E+01 9.29377E-08 1.84462E-01-3.63608E+00 9.99083E-03
 -1       869 3.12077E+01-1.91295E+01 7.82927E-08 1.79092E-01-3.75086E+00 9.68489E-03
 -1       870 3.21533E+01-1.97068E+01 6.58311E-08 1.70768E-01-3.86201E+00 9.36932E-03
 -1       871 3.30677E+01-2.02700E+01 5.34374E-08 1.64538E-01-3.96943E+00 9.04447E-03
 -1       872 3.39400E+01-2.08068E+01 4.26807E-08 1.56722E-01-4.07301E+00 8.71075E-03
 -1       873 3.47679E+01-2.13108E+01 3.85244E-08 1.49061E-01-4.17264E+00 8.36857E-03
 -1       874 3.55564E+01-2.17933E+01 3.85161E-08 1.42007E-01-4.26823E+00 8.01831E-03
 -1       875 3.63095E+01-2.22604E+01 3.12788E-08 1.33660E-01-4.35970E+00 7.66039E-03
 -1       876 3.70083E+01-2.26836E+01 1.71973E-08 1.26105E-01-4.44694E+00 7.29525E-03
 -1       877 3.76674E+01-2.30876E+01 9.16341E-09 1.17195E-01-4.52989E+00 6.92332E-03
 -1       878 3.82882E+01-2.34713E+01 3.30560E-09 1.08475E-01-4.60845E+00 6.54503E-03
 -1       879 3.88583E+01-2.38209E+01-7.35798E-09 1.01469E-01-4.68257E+00 6.16083E-03
 -1       880 3.93759E+01-2.41346E+01-9.76523E-09 9.25014E-02-4.75218E+00 5.77120E-03
 -1       881 3.98545E+01-2.44290E+01-6.78124E-09 8.30172E-02-4.81721E+00 5.37658E-03
 -1       882 4.02862E+01-2.46956E+01-2.29448E-08 7.45749E-02-4.87761E+00 4.97745E-03
 -1       883 4.06678E+01-2.49315E+01-5.80651E-08 6.55278E-02-4.93333E+00 4.57428E-03
 -1       884 4.09948E+01-2.51263E+01-8.73387E-08 5.58793E-02-4.98433E+00 4.16758E-03
 -1       885 4.12763E+01-2.52979E+01-1.00508E-07 4.83192E-02-5.03056E+00 3.75781E-03
 -1       886 4.15187E+01-2.54559E+01-1.00988E-07 3.80936E-02-5.07200E+00 3.34547E-03
 -1       887 4.16925E+01-2.55541E+01-8.66939E-08 2.93875E-02-5.10861E+00 2.93106E-03
 -1       888 4.18249E+01-2.56365E+01-6.14370E-08 1.91842E-02-5.14038E+00 2.51510E-03
 -1       889 4.19112E+01-2.56922E+01-3.36606E-08 9.42449E-03-5.16729E+00 2.09806E-03
 -1       890 4.19418E+01-2.57112E+01-1.60027E-08 1.55844E-03-5.18933E+00 1.68046E-03
 -1       891 4.19149E+01-2.56913E+01-1.70244E-08-8.34942E-03-5.20650E+00 1.26283E-03
 -1       892 4.18431E+01-2.56470E+01-3.15052E-08-1.85728E-02-5.21880E+00 8.45664E-04
 -1       893 4.17253E+01-2.55809E+01-4.25919E-08-2.78504E-02-5.22624E+00 4.29473E-04
 -1       894 4.15432E+01-2.54630E+01-4.41323E-08-3.76078E-02-5.22883E+00 1.47783E-05
 -1       895 4.13163E+01-2.53251E+01-5.44812E-08-4.63543E-02-5.22659E+00-3.97903E-04
 -1       896 4.10388E+01-2.51567E+01-7.01234E-08-5.64162E-02-5.21956E+00-8.08059E-04
 -1       897 4.07113E+01-2.49589E+01-7.48172E-08-6.58730E-02-5.20776E+00-1.21518E-03
 -1       898 4.03207E+01-2.47128E+01-8.49508E-08-7.53397E-02-5.19122E+00-1.61875E-03
 -1       899 3.98882E+01-2.44479E+01-1.11121E-07-8.54000E-02-5.17000E+00-2.01824E-03
 -1       900 3.94105E+01-2.41616E+01-1.43562E-07-9.34883E-02-5.14415E+00-2.41317E-03
 -1       901 3.88706E+01-2.38276E+01-1.80957E-07-1.03585E-01-5.11372E+00-2.80301E-03
 -1       902 3.82826E+01-2.34657E+01-2.17657E-07-1.12437E-01-5.07878E+00-3.18726E-03
 -1       903 3.76451E+01-2.30740E+01-2.38702E-07-1.22367E-01-5.03938E+00-3.56542E-03
 -1       904 3.69646E+01-2.26623E+01-2.43304E-07-1.31264E-01-4.99561E+00-3.93698E-03
 -1       905 3.62234E+01-2.22026E+01-2.38975E-07-1.40549E-01-4.94755E+00-4.30147E-03
 -1       906 3.54391E+01-2.17228E+01-2.18061E-07-1.48856E-01-4.89528E+00-4.65838E-03
 -1       907 3.46080E+01-2.12155E+01-1.82064E-07-1.58163E-01-4.83890E+00-5.00723E-03
 -1       908 3.37279E+01-2.06761E+01-1.46189E-07-1.66858E-01-4.77849E+00-5.34755E-03
 -1       909 3.27956E+01-2.01023E+01-1.15274E-07-1.75239E-01-4.71416E+00-5.67885E-03
 -1       910 3.18208E+01-1.95041E+01-8.99471E-08-1.84898E-01-4.64603E+00-6.00067E-03
 -1       911 3.08076E+01-1.88895E+01-6.42125E-08-1.91944E-01-4.57420E+00-6.31256E-03
 -1       912 2.97318E+01-1.82224E+01-3.08434E-08-2.00715E-01-4.49879E+00-6.61405E-03
 -1       913 2.86235E+01-1.75446E+01 8.36562E-09-2.08835E-01-4.41992E+00-6.90470E-03
 -1       914 2.74727E+01-1.68429E+01 5.65941E-08-2.16910E-01-4.33773E+00-7.18406E-03
 -1       915 2.62746E+01-1.61070E+01 1.12541E-07-2.25156E-01-4.25235E+00-7.45171E-03
 -1       916 2.50337E+01-1.53452E+01 1.68855E-07-2.31613E-01-4.16391E+00-7.70724E-03
 -1       917 2.37519E+01-1.45590E+01 2.13342E-07-2.40100E-01-4.07257E+00-7.95020E-03
 -1       918 2.24346E+01-1.37539E+01 2.31150E-07-2.47175E-01-3.97847E+00-8.18021E-03
 -1       919 2.10733E+01-1.29187E+01 2.25267E-07-2.54381E-01-3.88176E+00-8.39688E-03
 -1       920 1.96737E+01-1.20599E+01 2.09897E-07-2.61506E-01-3.78261E+00-8.59980E-03
 -1       921 1.82378E+01-1.11794E+01 1.94449E-07-2.67947E-01-3.68117E+00-8.78861E-03
 -1       922 1.67678E+01-1.02808E+01 1.79459E-07-2.74793E-01-3.57761E+00-8.96292E-03
 -1       923 1.52577E+01-9.35285E+00 1.65654E-07-2.81028E-01-3.47210E+00-9.12241E-03
 -1       924 1.37156E+01-8.40785E+00 1.52760E-07-2.87533E-01-3.36482E+00-9.26669E-03
 -1       925 1.21422E+01-7.44500E+00 1.36817E-07-2.93477E-01-3.25595E+00-9.39545E-03
 -1       926 1.05336E+01-6.45791E+00 1.11987E-07-2.99558E-01-3.14567E+00-9.50836E-03
 -1       927 8.89448E+00-5.45279E+00 8.05043E-08-3.04594E-01-3.03416E+00-9.60511E-03
 -1       928 7.22602E+00-4.43063E+00 4.90145E-08-3.10435E-01-2.92162E+00-9.68538E-03
 -1       929 5.52953E+00-3.39134E+00 1.61277E-08-3.15539E-01-2.80825E+00-9.74888E-03
 -1       930 3.80314E+00-2.33237E+00-9.15973E-09-3.20545E-01-2.69423E+00-9.79534E-03
 -1       931 2.05136E+00-1.25879E+00-2.04054E-08-3.25441E-01-2.57977E+00-9.82448E-03
 -1       932 2.74376E-01-1.69907E-01-2.70932E-08-3.29963E-01-2.46507E+00-9.83603E-03
 -1       933-1.52814E+00 9.35402E-01-3.42638E-08-3.34343E-01-2.35034E+00-9.82976E-03
 -1       934-3.35277E+00 2.05341E+00-4.15317E-08-3.38574E-01-2.23579E+00-9.80543E-03
 -1       935-5.19971E+00 3.18541E+00-4.84959E-08-3.42456E-01-2.12163E+00-9.76281E-03
 -1       936-7.06861E+00 4.33124E+00-5.17727E-08-3.46131E-01-2.00807E+00-9.70168E-03
 -1       937-8.95697E+00 5.48897E+00-4.94940E-08-3.49988E-01-1.89534E+00-9.62184E-03
 -1       938-1.08631E+01 6.65716E+00-4.63102E-08-3.53249E-01-1.78365E+00-9.52311E-03
 -1       939-1.27863E+01 7.83451E+00-4.61781E-08-3.56147E-01-1.67322E+00-9.40530E-03
 -1       940-1.47298E+01 9.02800E+00-4.71520E-08-3.59399E-01-1.56428E+00-9.26822E-03
 -1       941-1.66846E+01 1.02249E+01-4.73387E-08-3.61871E-01-1.45704E+00-9.11174E-03
 -1       942-1.86557E+01 1.14328E+01-4.63322E-08-3.64789E-01-1.35175E+00-8.93570E-03
 -1       943-2.06400E+01 1.26498E+01-4.23837E-08-3.66895E-01-1.24863E+00-8.73995E-03
 -1       944-2.26389E+01 1.38761E+01-3.78027E-08-3.69099E-01-1.14791E+00-8.52438E-03
 -1       945-2.46428E+01 1.51017E+01-3.46684E-08-3.71378E-01-1.04981E+00-8.28887E-03
 -1       946-2.66624E+01 1.63404E+01-3.04416E-08-3.72666E-01-9.54583E-01-8.03331E-03
 -1       947-2.86910E+01 1.75845E+01-2.44234E-08-3.74073E-01-8.62453E-01-7.75759E-03
 -1       948-3.07313E+01 1.88370E+01-1.88947E-08-3.76657E-01-7.73658E-01-7.46162E-03
 -1       949-3.27663E+01 2.00798E+01-1.42736E-08-3.77719E-01-6.88433E-01-7.14535E-03
 -1       950-3.48235E+01 2.13428E+01-1.00543E-08-3.78254E-01-6.07017E-01-6.80868E-03
 -1       951-3.68778E+01 2.26036E+01-6.47829E-09-3.79572E-01-5.29647E-01-6.45154E-03
 -1       952-3.89458E+01 2.38716E+01-3.38215E-09-3.80093E-01-4.56564E-01-6.07389E-03
 -1       953-4.09979E+01 2.51223E+01-5.90860E-10-3.81538E-01-3.88006E-01-5.67569E-03
 -1       954-4.30857E+01 2.64101E+01 3.54563E-09-3.82219E-01-3.24214E-01-5.25686E-03
 -1       955-4.51445E+01 2.76686E+01 9.28928E-09-3.82487E-01-2.65427E-01-4.81740E-03
 -1       956-4.72382E+01 2.89555E+01 1.60167E-08-3.83164E-01-2.11888E-01-4.35728E-03
 -1       957-4.92861E+01 3.01998E+01 2.41949E-08-3.82028E-01-1.63837E-01-3.87648E-03
 -1       958-5.14081E+01 3.15134E+01 3.23940E-08-3.84604E-01-1.21517E-01-3.37494E-03
 -1       959-5.34681E+01 3.27925E+01 4.02899E-08-3.82911E-01-8.51673E-02-2.85269E-03
 -1       960-5.54456E+01 3.38595E+01 4.84822E-08-3.88386E-01-5.50316E-02-2.30972E-03
 -1       961-5.81010E+01 3.60941E+01 5.67534E-08-3.64501E-01-3.13508E-02-1.74592E-03
 -1       962-5.78944E+01 3.36869E+01 6.33815E-08-4.55166E-01-1.43677E-02-1.16172E-03
 -1       963-6.85635E+01 4.86176E+01 8.07665E-08-1.20063E-01-4.32452E-03-5.55518E-04
 -1       964-3.95548E+01 2.10411E-02 9.57375E-08-1.35615E+00-1.06696E-03-2.46427E-04
 -1       965-6.73472E-07 7.32067E-08-8.84165E-10-1.67672E-03 6.78836E+00 1.54887E-06
 -1       966-3.28931E-06 1.69414E-06 1.85362E-09-1.69567E-02 6.67546E+00 1.54885E-06
 -1       967-1.12273E-05 6.55070E-06 1.42177E-09-3.35531E-02 6.44967E+00 1.54878E-06
 -1       968-2.43379E-05 1.46272E-05-2.20842E-09-4.92914E-02 6.22390E+00 1.54861E-06
 -1       969-4.22771E-05 2.56062E-05-2.38115E-10-6.47815E-02 5.99817E+00 1.54826E-06
 -1       970-6.50640E-05 3.96065E-05-4.06624E-10-7.93692E-02 5.77250E+00 1.54772E-06
 -1       971-9.23224E-05 5.63023E-05-2.60770E-09-9.35672E-02 5.54693E+00 1.54693E-06
 -1       972-1.24043E-04 7.57813E-05-8.27382E-10-1.07414E-01 5.32149E+00 1.54585E-06
 -1       973-1.59931E-04 9.77634E-05-6.52939E-10-1.20058E-01 5.09623E+00 1.54444E-06
 -1       974-1.99845E-04 1.22242E-04 4.04334E-10-1.33054E-01 4.87120E+00 1.54265E-06
 -1       975-2.43689E-04 1.49148E-04 1.99887E-09-1.44591E-01 4.64647E+00 1.54044E-06
 -1       976-2.91074E-04 1.78168E-04-1.88829E-10-1.55824E-01 4.42210E+00 1.53777E-06
 -1       977-3.42116E-04 2.09495E-04-7.30979E-10-1.67422E-01 4.19814E+00 1.53461E-06
 -1       978-3.96316E-04 2.42694E-04 3.46840E-10-1.76526E-01 3.97469E+00 1.53092E-06
 -1       979-4.53778E-04 2.77941E-04-3.99139E-10-1.87121E-01 3.75181E+00 1.52669E-06
 -1       980-5.14246E-04 3.15016E-04-1.00147E-09-1.96294E-01 3.52959E+00 1.52186E-06
 -1       981-5.77311E-04 3.53677E-04 5.93473E-10-2.03663E-01 3.30812E+00 1.51642E-06
 -1       982-6.43197E-04 3.94055E-04-5.30324E-10-2.13108E-01 3.08749E+00 1.51034E-06
 -1       983-7.11418E-04 4.35905E-04-1.53273E-09-2.19804E-01 2.86779E+00 1.50359E-06
 -1       984-7.81902E-04 4.79085E-04 7.59527E-11-2.26909E-01 2.64913E+00 1.49615E-06
 -1       985-8.54607E-04 5.23682E-04-1.70652E-09-2.33819E-01 2.43161E+00 1.48800E-06
 -1       986-9.29057E-04 5.69313E-04-2.87991E-09-2.37905E-01 2.21533E+00 1.47912E-06
 -1       987-1.00538E-03 6.16089E-04 1.13996E-10-2.45084E-01 2.00039E+00 1.46949E-06
 -1       988-1.08325E-03 6.63864E-04 1.14650E-09-2.49000E-01 1.78692E+00 1.45908E-06
 -1       989-1.16251E-03 7.12405E-04-1.26305E-10-2.53332E-01 1.57502E+00 1.44788E-06
 -1       990-1.24313E-03 7.61879E-04-1.19686E-09-2.57051E-01 1.36482E+00 1.43590E-06
 -1       991-1.32463E-03 8.11790E-04-6.82286E-10-2.59731E-01 1.15641E+00 1.42310E-06
 -1       992-1.40719E-03 8.62434E-04 5.70075E-10-2.63220E-01 9.49938E-01 1.40949E-06
 -1       993-1.49050E-03 9.13507E-04-6.14796E-11-2.65303E-01 7.45505E-01 1.39506E-06
 -1       994-1.57434E-03 9.64885E-04-6.29315E-10-2.66098E-01 5.43238E-01 1.37978E-06
 -1       995-1.65865E-03 1.01658E-03-1.29261E-09-2.67166E-01 3.43259E-01 1.36368E-06
 -1       996-1.74322E-03 1.06841E-03-1.46578E-09-2.68857E-01 1.45689E-01 1.34673E-06
 -1       997-1.82784E-03 1.12029E-03 4.45446E-11-2.68204E-01-4.93492E-02 1.32894E-06
 -1       998-1.91259E-03 1.17225E-03-1.59372E-10-2.68147E-01-2.41731E-01 1.31032E-06
 -1       999-1.99699E-03 1.22398E-03-1.29674E-09-2.67009E-01-4.31334E-01 1.29085E-06
 -1      1000-2.08109E-03 1.27553E-03-7.00213E-10-2.65969E-01-6.18036E-01 1.27054E-06
 -1      1001-2.16481E-03 1.32688E-03-2.73353E-10-2.64064E-01-8.01717E-01 1.24938E-06
 -1      1002-2.24762E-03 1.37760E-03 3.30945E-11-2.61051E-01-9.82252E-01 1.22740E-06
 -1      1003-2.32999E-03 1.42812E-03-6.10047E-10-2.60616E-01-1.15952E+00 1.20461E-06
 -1      1004-2.41130E-03 1.47798E-03-1.22110E-09-2.55153E-01-1.33341E+00 1.18099E-06
 -1      1005-2.49135E-03 1.52699E-03-1.00783E-09-2.52588E-01-1.50379E+00 1.15656E-06
 -1      1006-2.57059E-03 1.57563E-03-6.13337E-10-2.47721E-01-1.67055E+00 1.13135E-06
 -1      1007-2.64828E-03 1.62323E-03-1.38196E-09-2.44867E-01-1.83358E+00 1.10536E-06
 -1      1008-2.72440E-03 1.66987E-03-1.20185E-09-2.39192E-01-1.99276E+00 1.07861E-06
 -1      1009-2.79933E-03 1.71584E-03 2.28430E-10-2.34109E-01-2.14799E+00 1.05109E-06
 -1      1010-2.87229E-03 1.76055E-03-5.28019E-11-2.28504E-01-2.29915E+00 1.02283E-06
 -1      1011-2.94335E-03 1.80409E-03 4.23091E-10-2.22494E-01-2.44614E+00 9.93859E-07
 -1      1012-3.01269E-03 1.84663E-03-6.90412E-10-2.16491E-01-2.58885E+00 9.64202E-07
 -1      1013-3.07974E-03 1.88768E-03-2.05054E-10-2.08270E-01-2.72718E+00 9.33851E-07
 -1      1014-3.14506E-03 1.92777E-03 1.41259E-09-2.04875E-01-2.86104E+00 9.02835E-07
 -1      1015-3.20779E-03 1.96624E-03-4.04378E-10-1.93891E-01-2.99034E+00 8.71199E-07
 -1      1016-3.26794E-03 2.00304E-03-1.06054E-09-1.86914E-01-3.11497E+00 8.38947E-07
 -1      1017-3.32615E-03 2.03881E-03-1.54424E-09-1.80573E-01-3.23486E+00 8.06098E-07
 -1      1018-3.38135E-03 2.07258E-03-2.01429E-09-1.71125E-01-3.34992E+00 7.72691E-07
 -1      1019-3.43420E-03 2.10500E-03-1.12116E-09-1.64039E-01-3.46006E+00 7.38743E-07
 -1      1020-3.48431E-03 2.13575E-03-2.98218E-11-1.51832E-01-3.56522E+00 7.04283E-07
 -1      1021-3.53129E-03 2.16449E-03 9.17195E-10-1.46174E-01-3.66531E+00 6.69343E-07
 -1      1022-3.57566E-03 2.19172E-03 1.84372E-10-1.35501E-01-3.76028E+00 6.33945E-07
 -1      1023-3.61697E-03 2.21705E-03-4.66466E-10-1.26265E-01-3.85005E+00 5.98109E-07
 -1      1024-3.65515E-03 2.24041E-03 1.14284E-09-1.15059E-01-3.93457E+00 5.61890E-07
 -1      1025-3.69050E-03 2.26214E-03 9.77357E-10-1.08697E-01-4.01378E+00 5.25316E-07
 -1      1026-3.72237E-03 2.28166E-03 3.93481E-11-9.50315E-02-4.08763E+00 4.88393E-07
 -1      1027-3.75090E-03 2.29910E-03 3.97834E-10-8.48137E-02-4.15608E+00 4.51170E-07
 -1      1028-3.77673E-03 2.31503E-03-5.03111E-10-7.67295E-02-4.21907E+00 4.13673E-07
 -1      1029-3.79863E-03 2.32840E-03-1.79838E-09-6.42303E-02-4.27658E+00 3.75949E-07
 -1      1030-3.81729E-03 2.33981E-03-1.38134E-09-5.55433E-02-4.32857E+00 3.38024E-07
 -1      1031-3.83285E-03 2.34943E-03-6.87938E-10-4.03298E-02-4.37502E+00 2.99905E-07
 -1      1032-3.84445E-03 2.35645E-03-8.24293E-10-3.36266E-02-4.41590E+00 2.61661E-07
 -1      1033-3.85291E-03 2.36171E-03-1.06725E-09-2.07608E-02-4.45120E+00 2.23333E-07
 -1      1034-3.85762E-03 2.36452E-03-4.69266E-10-8.30691E-03-4.48090E+00 1.84926E-07
 -1      1035-3.85915E-03 2.36555E-03-4.07733E-10-1.05843E-03-4.50500E+00 1.46501E-07
 -1      1036-3.85672E-03 2.36400E-03-1.47028E-09 1.44483E-02-4.52349E+00 1.08069E-07
 -1      1037-3.85079E-03 2.36038E-03-1.31990E-09 2.38683E-02-4.53638E+00 6.96759E-08
 -1      1038-3.84147E-03 2.35467E-03-8.46817E-12 3.68253E-02-4.54368E+00 3.13780E-08
 -1      1039-3.82835E-03 2.34663E-03 1.84190E-09 4.59594E-02-4.54539E+00-6.83068E-09
 -1      1040-3.81179E-03 2.33648E-03 1.61367E-09 5.73304E-02-4.54155E+00-4.48903E-08
 -1      1041-3.79145E-03 2.32401E-03-8.72414E-10 7.09081E-02-4.53217E+00-8.27600E-08
 -1      1042-3.76774E-03 2.30949E-03-1.12434E-09 8.21037E-02-4.51728E+00-1.20413E-07
 -1      1043-3.74044E-03 2.29276E-03 7.04089E-10 9.13264E-02-4.49693E+00-1.57805E-07
 -1      1044-3.70924E-03 2.27362E-03 1.15603E-09 1.03677E-01-4.47113E+00-1.94905E-07
 -1      1045-3.67480E-03 2.25246E-03 5.28521E-10 1.16112E-01-4.43996E+00-2.31688E-07
 -1      1046-3.63704E-03 2.22942E-03 1.16804E-09 1.23538E-01-4.40344E+00-2.68112E-07
 -1      1047-3.59539E-03 2.20381E-03 1.38102E-09 1.38375E-01-4.36164E+00-3.04129E-07
 -1      1048-3.55038E-03 2.17624E-03 1.08246E-11 1.47411E-01-4.31462E+00-3.39720E-07
 -1      1049-3.50221E-03 2.14674E-03-3.94027E-10 1.59668E-01-4.26244E+00-3.74844E-07
 -1      1050-3.45034E-03 2.11491E-03-8.18041E-10 1.68238E-01-4.20518E+00-4.09468E-07
 -1      1051-3.39540E-03 2.08126E-03-1.71702E-09 1.78474E-01-4.14290E+00-4.43572E-07
 -1      1052-3.33709E-03 2.04553E-03-8.49621E-10 1.92215E-01-4.07569E+00-4.77113E-07
 -1      1053-3.27549E-03 2.00773E-03-1.75005E-10 1.98723E-01-4.00364E+00-5.10038E-07
 -1      1054-3.21079E-03 1.96815E-03-1.73649E-09 2.10199E-01-3.92682E+00-5.42328E-07
 -1      1055-3.14280E-03 1.92634E-03-1.46507E-09 2.19821E-01-3.84535E+00-5.73987E-07
 -1      1056-3.07225E-03 1.88324E-03-3.49688E-10 2.29073E-01-3.75931E+00-6.04961E-07
 -1      1057-2.99845E-03 1.83792E-03-1.12795E-09 2.38819E-01-3.66881E+00-6.35192E-07
 -1      1058-2.92130E-03 1.79067E-03-1.01962E-09 2.47527E-01-3.57395E+00-6.64680E-07
 -1      1059-2.84204E-03 1.74201E-03-1.04229E-09 2.56473E-01-3.47485E+00-6.93395E-07
 -1      1060-2.75960E-03 1.69162E-03-1.88623E-09 2.66062E-01-3.37162E+00-7.21293E-07
 -1      1061-2.67475E-03 1.63941E-03-1.49430E-09 2.71637E-01-3.26438E+00-7.48358E-07
 -1      1062-2.58708E-03 1.58593E-03-7.77656E-10 2.82394E-01-3.15326E+00-7.74568E-07
 -1      1063-2.49707E-03 1.53044E-03-7.63196E-10 2.89879E-01-3.03838E+00-7.99904E-07
 -1      1064-2.40452E-03 1.47406E-03-1.09938E-09 2.95841E-01-2.91987E+00-8.24323E-07
 -1      1065-2.30997E-03 1.41574E-03-1.11905E-09 3.04042E-01-2.79787E+00-8.47796E-07
 -1      1066-2.21255E-03 1.35640E-03-1.58861E-09 3.10674E-01-2.67252E+00-8.70316E-07
 -1      1067-2.11404E-03 1.29559E-03-2.34368E-09 3.17215E-01-2.54395E+00-8.91864E-07
 -1      1068-2.01237E-03 1.23381E-03-2.00646E-09 3.23515E-01-2.41231E+00-9.12430E-07
 -1      1069-1.90985E-03 1.17030E-03-1.86272E-09 3.29331E-01-2.27775E+00-9.31981E-07
 -1      1070-1.80435E-03 1.10641E-03-1.78787E-09 3.34792E-01-2.14042E+00-9.50477E-07
 -1      1071-1.69886E-03 1.04088E-03-2.29489E-09 3.40726E-01-2.00046E+00-9.67928E-07
 -1      1072-1.58938E-03 9.74749E-04-2.75572E-09 3.43824E-01-1.85804E+00-9.84322E-07
 -1      1073-1.48157E-03 9.07558E-04-2.37217E-09 3.49941E-01-1.71331E+00-9.99617E-07
 -1      1074-1.36837E-03 8.39405E-04-2.62813E-09 3.53842E-01-1.56642E+00-1.01381E-06
 -1      1075-1.25910E-03 7.71029E-04-2.50336E-09 3.56812E-01-1.41755E+00-1.02691E-06
 -1      1076-1.14225E-03 7.01075E-04-2.17772E-09 3.60733E-01-1.26685E+00-1.03887E-06
 -1      1077-1.03195E-03 6.31201E-04-2.77072E-09 3.63184E-01-1.11449E+00-1.04970E-06
 -1      1078-9.13590E-04 5.62467E-04-3.05528E-09 3.66825E-01-9.60636E-01-1.05939E-06
 -1      1079-7.96267E-04 4.82511E-04-2.52894E-09 3.68057E-01-8.05451E-01-1.06793E-06
 -1      1080-6.96076E-04 4.40213E-04-3.69042E-09 3.70279E-01-6.49105E-01-1.07532E-06
 -1      1081-5.43635E-04 3.03808E-04-3.54132E-09 3.71857E-01-4.91768E-01-9.52404E-07
 -1      1082-4.61529E-04 3.06333E-04-1.66439E-09 3.72368E-01-3.33611E-01-6.98804E-07
 -1      1083-3.20752E-04 1.85526E-04-2.25498E-09 3.73497E-01-1.74804E-01-5.72374E-07
 -1      1084-2.14494E-04 1.37375E-04-3.18220E-09 3.73505E-01-1.55163E-02-5.73782E-07
 -1      1085-9.43868E-05 5.42810E-05-3.62068E-09 3.73449E-01 1.44079E-01-5.74599E-07
 -1      1086 2.45863E-05-1.26801E-05-3.22985E-09 3.72846E-01 3.03811E-01-5.74776E-07
 -1      1087 1.39792E-04-8.74308E-05-2.43255E-09 3.71854E-01 4.63510E-01-5.74356E-07
 -1      1088 2.59448E-04-1.57677E-04-2.73298E-09 3.70630E-01 6.23004E-01-5.73327E-07
 -1      1089 3.73933E-04-2.30378E-04-3.17949E-09 3.68479E-01 7.82121E-01-5.71674E-07
 -1      1090 4.91604E-04-3.00252E-04-3.56094E-09 3.66791E-01 9.40694E-01-5.69415E-07
 -1      1091 6.05804E-04-3.72312E-04-3.13821E-09 3.64037E-01 1.09856E+00-5.66567E-07
 -1      1092 7.20987E-04-4.41071E-04-2.63429E-09 3.60809E-01 1.25554E+00-5.63103E-07
 -1      1093 8.33673E-04-5.11581E-04-4.00442E-09 3.58323E-01 1.41147E+00-5.59032E-07
 -1      1094 9.47033E-04-5.80133E-04-3.92671E-09 3.53596E-01 1.56619E+00-5.54376E-07
 -1      1095 1.05715E-03-6.48351E-04-2.93496E-09 3.50028E-01 1.71954E+00-5.49143E-07
 -1      1096 1.16753E-03-7.15319E-04-2.82007E-09 3.44964E-01 1.87135E+00-5.43333E-07
 -1      1097 1.27481E-03-7.81341E-04-1.79103E-09 3.40944E-01 2.02147E+00-5.36959E-07
 -1      1098 1.38296E-03-8.47870E-04-2.01499E-09 3.35605E-01 2.16973E+00-5.30028E-07
 -1      1099 1.48682E-03-9.11462E-04-3.70159E-09 3.28739E-01 2.31598E+00-5.22524E-07
 -1      1100 1.58995E-03-9.74162E-04-4.39690E-09 3.24184E-01 2.46008E+00-5.14485E-07
 -1      1101 1.69136E-03-1.03696E-03-3.44349E-09 3.17257E-01 2.60187E+00-5.05913E-07
 -1      1102 1.79083E-03-1.09779E-03-1.41220E-09 3.10617E-01 2.74120E+00-4.96808E-07
 -1      1103 1.88668E-03-1.15615E-03-1.39610E-09 3.02933E-01 2.87793E+00-4.87204E-07
 -1      1104 1.98213E-03-1.21490E-03-3.08077E-09 2.97462E-01 3.01192E+00-4.77089E-07
 -1      1105 2.07464E-03-1.27200E-03-2.60333E-09 2.87621E-01 3.14303E+00-4.66485E-07
 -1      1106 2.16389E-03-1.32619E-03-2.23365E-09 2.80625E-01 3.27112E+00-4.55408E-07
 -1      1107 2.25126E-03-1.37999E-03-2.83719E-09 2.71353E-01 3.39608E+00-4.43861E-07
 -1      1108 2.33489E-03-1.43054E-03-2.32826E-09 2.64032E-01 3.51776E+00-4.31882E-07
 -1      1109 2.41845E-03-1.48313E-03-2.71237E-09 2.55187E-01 3.63605E+00-4.19463E-07
 -1      1110 2.49615E-03-1.52987E-03-2.25923E-09 2.43506E-01 3.75083E+00-4.06611E-07
 -1      1111 2.57152E-03-1.57580E-03-1.28476E-09 2.36702E-01 3.86199E+00-3.93368E-07
 -1      1112 2.64557E-03-1.62194E-03-2.00994E-09 2.25520E-01 3.96941E+00-3.79738E-07
 -1      1113 2.71427E-03-1.66353E-03-2.13445E-09 2.15815E-01 4.07298E+00-3.65727E-07
 -1      1114 2.78135E-03-1.70492E-03-2.21708E-09 2.05405E-01 4.17262E+00-3.51362E-07
 -1      1115 2.84413E-03-1.74317E-03-2.91499E-09 1.94682E-01 4.26821E+00-3.36652E-07
 -1      1116 2.90435E-03-1.78046E-03-3.34723E-09 1.84184E-01 4.35968E+00-3.21623E-07
 -1      1117 2.96030E-03-1.81442E-03-4.32669E-09 1.71983E-01 4.44692E+00-3.06303E-07
 -1      1118 3.01233E-03-1.84580E-03-4.44974E-09 1.62563E-01 4.52987E+00-2.90702E-07
 -1      1119 3.06309E-03-1.87796E-03-3.42839E-09 1.51109E-01 4.60844E+00-2.74809E-07
 -1      1120 3.10879E-03-1.90602E-03-2.65267E-09 1.37604E-01 4.68256E+00-2.58668E-07
 -1      1121 3.14899E-03-1.92958E-03-2.38224E-09 1.25945E-01 4.75217E+00-2.42324E-07
 -1      1122 3.18782E-03-1.95381E-03-3.27054E-09 1.15856E-01 4.81720E+00-2.25764E-07
 -1      1123 3.22284E-03-1.97578E-03-2.71201E-09 1.02386E-01 4.87760E+00-2.08997E-07
 -1      1124 3.25238E-03-1.99335E-03-1.26592E-09 9.03064E-02 4.93333E+00-1.92066E-07
 -1      1125 3.27954E-03-2.01026E-03-1.24939E-09 7.80003E-02 4.98432E+00-1.74991E-07
 -1      1126 3.30194E-03-2.02382E-03-1.73486E-09 6.52174E-02 5.03056E+00-1.57789E-07
 -1      1127 3.32077E-03-2.03573E-03-1.19815E-09 5.27736E-02 5.07200E+00-1.40481E-07
 -1      1128 3.33504E-03-2.04407E-03-9.26402E-10 3.89082E-02 5.10861E+00-1.23083E-07
 -1      1129 3.34482E-03-2.04960E-03-6.68729E-10 2.80200E-02 5.14038E+00-1.05616E-07
 -1      1130 3.35297E-03-2.05568E-03-1.37009E-09 1.50525E-02 5.16730E+00-8.81029E-08
 -1      1131 3.35546E-03-2.05724E-03-1.92103E-09 1.15860E-04 5.18934E+00-7.05720E-08
 -1      1132 3.35203E-03-2.05400E-03-8.37743E-10-1.27537E-02 5.20651E+00-5.30177E-08
 -1      1133 3.34700E-03-2.05139E-03-9.60838E-10-2.38251E-02 5.21881E+00-3.54970E-08
 -1      1134 3.33756E-03-2.04605E-03 3.08160E-10-3.82955E-02 5.22625E+00-1.80264E-08
 -1      1135 3.32309E-03-2.03678E-03 1.31933E-09-5.09860E-02 5.22884E+00-6.07287E-10
 -1      1136 3.30509E-03-2.02592E-03 2.38227E-10-6.44506E-02 5.22661E+00 1.67138E-08
 -1      1137 3.28229E-03-2.01169E-03 5.89880E-10-7.71836E-02 5.21957E+00 3.39391E-08
 -1      1138 3.25674E-03-1.99669E-03 1.13196E-09-9.04625E-02 5.20777E+00 5.10437E-08
 -1      1139 3.22466E-03-1.97593E-03 9.32742E-10-1.04410E-01 5.19124E+00 6.79959E-08
 -1      1140 3.19102E-03-1.95599E-03 2.43945E-09-1.14490E-01 5.17003E+00 8.47817E-08
 -1      1141 3.15268E-03-1.93290E-03 2.97652E-09-1.30557E-01 5.14418E+00 1.01375E-07
 -1      1142 3.10894E-03-1.90548E-03 2.24789E-09-1.41986E-01 5.11375E+00 1.17742E-07
 -1      1143 3.06219E-03-1.87689E-03 2.65607E-09-1.55920E-01 5.07880E+00 1.33882E-07
 -1      1144 3.01099E-03-1.84530E-03 1.98713E-09-1.66765E-01 5.03941E+00 1.49779E-07
 -1      1145 2.95683E-03-1.81271E-03 1.86280E-09-1.80388E-01 4.99564E+00 1.65388E-07
 -1      1146 2.89750E-03-1.77591E-03 1.62865E-09-1.92713E-01 4.94758E+00 1.80699E-07
 -1      1147 2.83498E-03-1.73778E-03-3.71491E-10-2.05069E-01 4.89532E+00 1.95691E-07
 -1      1148 2.76790E-03-1.69643E-03 1.39790E-11-2.17314E-01 4.83893E+00 2.10348E-07
 -1      1149 2.69826E-03-1.65428E-03 2.40665E-09-2.29180E-01 4.77852E+00 2.24651E-07
 -1      1150 2.62275E-03-1.60717E-03 2.92361E-09-2.42212E-01 4.71420E+00 2.38562E-07
 -1      1151 2.54539E-03-1.56011E-03 8.99705E-10-2.51192E-01 4.64607E+00 2.52081E-07
 -1      1152 2.46483E-03-1.51157E-03-4.50465E-10-2.65573E-01 4.57424E+00 2.65186E-07
 -1      1153 2.37766E-03-1.45679E-03 2.23993E-10-2.76337E-01 4.49883E+00 2.77853E-07
 -1      1154 2.28985E-03-1.40366E-03 6.98386E-10-2.86372E-01 4.41996E+00 2.90055E-07
 -1      1155 2.19710E-03-1.34662E-03-8.53700E-11-2.98266E-01 4.33777E+00 3.01781E-07
 -1      1156 2.10205E-03-1.28877E-03-1.85262E-10-3.08009E-01 4.25239E+00 3.13031E-07
 -1      1157 2.00257E-03-1.22754E-03-6.27292E-10-3.20714E-01 4.16396E+00 3.23760E-07
 -1      1158 1.89942E-03-1.16386E-03-1.50900E-09-3.28905E-01 4.07262E+00 3.33958E-07
 -1      1159 1.79483E-03-1.10047E-03-7.18826E-10-3.39910E-01 3.97852E+00 3.43620E-07
 -1      1160 1.68539E-03-1.03297E-03-4.31852E-10-3.49631E-01 3.88181E+00 3.52717E-07
 -1      1161 1.57382E-03-9.64750E-04-1.21576E-09-3.59185E-01 3.78266E+00 3.61239E-07
 -1      1162 1.45884E-03-8.94185E-04-1.92948E-09-3.68641E-01 3.68122E+00 3.69165E-07
 -1      1163 1.34122E-03-8.22246E-04-1.75313E-09-3.77630E-01 3.57766E+00 3.76479E-07
 -1      1164 1.22037E-03-7.47976E-04-5.72103E-10-3.86913E-01 3.47215E+00 3.83175E-07
 -1      1165 1.09707E-03-6.72426E-04 7.82227E-10-3.94718E-01 3.36487E+00 3.89237E-07
 -1      1166 9.71127E-04-5.95319E-04 4.56145E-10-4.03471E-01 3.25600E+00 3.94645E-07
 -1      1167 8.42700E-04-5.16664E-04-1.13235E-09-4.11127E-01 3.14572E+00 3.99380E-07
 -1      1168 7.11537E-04-4.36216E-04-1.38484E-09-4.19613E-01 3.03422E+00 4.03442E-07
 -1      1169 5.77757E-04-3.54035E-04-2.43706E-09-4.26392E-01 2.92168E+00 4.06807E-07
 -1      1170 4.42401E-04-2.71358E-04-2.97578E-09-4.33820E-01 2.80830E+00 4.09477E-07
 -1      1171 3.04112E-04-1.86388E-04-1.62992E-09-4.40823E-01 2.69428E+00 4.11419E-07
 -1      1172 1.64063E-04-1.00628E-04-1.59548E-09-4.47154E-01 2.57982E+00 4.12645E-07
 -1      1173 2.19472E-05-1.35517E-05-1.80354E-09-4.53692E-01 2.46512E+00 4.13135E-07
 -1      1174-1.22316E-04 7.49429E-05-1.00941E-09-4.59621E-01 2.35039E+00 4.12862E-07
 -1      1175-2.68226E-04 1.64333E-04-7.70085E-10-4.65378E-01 2.23584E+00 4.11843E-07
 -1      1176-4.15867E-04 2.54734E-04-9.90893E-10-4.70936E-01 2.12168E+00 4.10049E-07
 -1      1177-5.65507E-04 3.46604E-04-1.02726E-09-4.76256E-01 2.00813E+00 4.07483E-07
 -1      1178-7.16695E-04 4.39350E-04-9.55113E-10-4.80662E-01 1.89539E+00 4.04128E-07
 -1      1179-8.68740E-04 5.32273E-04-8.17705E-10-4.85358E-01 1.78370E+00 3.99971E-07
 -1      1180-1.02290E-03 6.26826E-04-8.90513E-10-4.90176E-01 1.67327E+00 3.95018E-07
 -1      1181-1.17831E-03 7.22265E-04-9.90546E-10-4.93913E-01 1.56432E+00 3.89270E-07
 -1      1182-1.33463E-03 8.17882E-04-1.36344E-09-4.97672E-01 1.45709E+00 3.82698E-07
 -1      1183-1.49244E-03 9.14763E-04-9.13259E-10-5.01324E-01 1.35180E+00 3.75295E-07
 -1      1184-1.65092E-03 1.01170E-03-3.87392E-10-5.04344E-01 1.24868E+00 3.67071E-07
 -1      1185-1.81107E-03 1.11024E-03-8.57264E-10-5.07723E-01 1.14795E+00 3.58018E-07
 -1      1186-1.97127E-03 1.20801E-03-9.54655E-10-5.09393E-01 1.04985E+00 3.48132E-07
 -1      1187-2.13229E-03 1.30657E-03-8.28341E-10-5.13746E-01 9.54623E-01 3.37399E-07
 -1      1188-2.29545E-03 1.40706E-03-9.18551E-10-5.15173E-01 8.62491E-01 3.25816E-07
 -1      1189-2.45866E-03 1.50745E-03-8.87676E-10-5.16900E-01 7.73693E-01 3.13387E-07
 -1      1190-2.62060E-03 1.60552E-03-7.79700E-10-5.17444E-01 6.88466E-01 3.00109E-07
 -1      1191-2.78551E-03 1.70731E-03-4.47711E-10-5.22536E-01 6.07048E-01 2.85962E-07
 -1      1192-2.95013E-03 1.80816E-03-2.73524E-10-5.20336E-01 5.29676E-01 2.70960E-07
 -1      1193-3.11500E-03 1.90933E-03-6.08318E-10-5.25059E-01 4.56590E-01 2.55095E-07
 -1      1194-3.28024E-03 2.01026E-03-4.89539E-10-5.21895E-01 3.88030E-01 2.38369E-07
 -1      1195-3.44591E-03 2.11215E-03-3.52660E-10-5.28067E-01 3.24234E-01 2.20792E-07
 -1      1196-3.61208E-03 2.21401E-03-2.35110E-10-5.22157E-01 2.65445E-01 2.02328E-07
 -1      1197-3.77720E-03 2.31476E-03-1.70113E-10-5.30097E-01 2.11902E-01 1.82994E-07
 -1      1198-3.94358E-03 2.41658E-03-5.34504E-10-5.23120E-01 1.63848E-01 1.62819E-07
 -1      1199-4.11229E-03 2.52157E-03-3.29103E-10-5.33958E-01 1.21524E-01 1.41756E-07
 -1      1200-4.27631E-03 2.62136E-03-1.73642E-10-5.15852E-01 8.51712E-02 1.19807E-07
 -1      1201-4.43972E-03 2.71532E-03-3.62437E-10-5.42781E-01 5.50310E-02 9.70085E-08
 -1      1202-4.62371E-03 2.85531E-03-3.86325E-10-5.10611E-01 3.13471E-02 7.33348E-08
 -1      1203-4.72970E-03 2.82240E-03-3.51401E-10-5.46855E-01 1.43589E-02 4.87907E-08
 -1      1204-5.11099E-03 3.40979E-03-3.73033E-10-5.12033E-01 4.31223E-03 2.33463E-08
 -1      1205-3.74187E-03 1.27432E-03-4.24239E-10-6.43515E-01 1.05800E-03 1.03880E-08
 -1      1206-6.73337E-07 8.97439E-08 8.84165E-10-1.67681E-03-6.78836E+00-1.54779E-06
 -1      1207-3.29635E-06 1.68672E-06-1.85362E-09-1.69568E-02-6.67546E+00-1.54777E-06
 -1      1208-1.12315E-05 6.56364E-06-1.42177E-09-3.35532E-02-6.44967E+00-1.54770E-06
 -1      1209-2.43326E-05 1.46205E-05 2.20842E-09-4.92914E-02-6.22390E+00-1.54753E-06
 -1      1210-4.22772E-05 2.56010E-05 2.38115E-10-6.47814E-02-5.99817E+00-1.54718E-06
 -1      1211-6.50660E-05 3.96162E-05 4.06624E-10-7.93691E-02-5.77250E+00-1.54664E-06
 -1      1212-9.23212E-05 5.62974E-05 2.60770E-09-9.35671E-02-5.54692E+00-1.54585E-06
 -1      1213-1.24044E-04 7.57693E-05 8.27382E-10-1.07414E-01-5.32149E+00-1.54477E-06
 -1      1214-1.59931E-04 9.77740E-05 6.52939E-10-1.20058E-01-5.09623E+00-1.54336E-06
 -1      1215-1.99847E-04 1.22245E-04-4.04334E-10-1.33054E-01-4.87120E+00-1.54158E-06
 -1      1216-2.43694E-04 1.49145E-04-1.99887E-09-1.44591E-01-4.64647E+00-1.53936E-06
 -1      1217-2.91077E-04 1.78164E-04 1.88829E-10-1.55825E-01-4.42209E+00-1.53670E-06
 -1      1218-3.42120E-04 2.09509E-04 7.30979E-10-1.67422E-01-4.19814E+00-1.53354E-06
 -1      1219-3.96319E-04 2.42692E-04-3.46840E-10-1.76527E-01-3.97468E+00-1.52986E-06
 -1      1220-4.53783E-04 2.77949E-04 3.99139E-10-1.87121E-01-3.75181E+00-1.52563E-06
 -1      1221-5.14252E-04 3.15017E-04 1.00147E-09-1.96294E-01-3.52959E+00-1.52080E-06
 -1      1222-5.77316E-04 3.53667E-04-5.93473E-10-2.03663E-01-3.30812E+00-1.51537E-06
 -1      1223-6.43198E-04 3.94070E-04 5.30324E-10-2.13108E-01-3.08749E+00-1.50929E-06
 -1      1224-7.11418E-04 4.35896E-04 1.53273E-09-2.19804E-01-2.86779E+00-1.50255E-06
 -1      1225-7.81906E-04 4.79091E-04-7.59527E-11-2.26909E-01-2.64913E+00-1.49511E-06
 -1      1226-8.54609E-04 5.23683E-04 1.70652E-09-2.33819E-01-2.43161E+00-1.48696E-06
 -1      1227-9.29059E-04 5.69320E-04 2.87991E-09-2.37905E-01-2.21533E+00-1.47808E-06
 -1      1228-1.00538E-03 6.16086E-04-1.13996E-10-2.45084E-01-2.00039E+00-1.46845E-06
 -1      1229-1.08325E-03 6.63859E-04-1.14650E-09-2.49000E-01-1.78692E+00-1.45804E-06
 -1      1230-1.16252E-03 7.12402E-04 1.26305E-10-2.53332E-01-1.57502E+00-1.44685E-06
 -1      1231-1.24313E-03 7.61884E-04 1.19686E-09-2.57051E-01-1.36482E+00-1.43487E-06
 -1      1232-1.32463E-03 8.11793E-04 6.82286E-10-2.59731E-01-1.15641E+00-1.42208E-06
 -1      1233-1.40720E-03 8.62433E-04-5.70075E-10-2.63220E-01-9.49938E-01-1.40847E-06
 -1      1234-1.49051E-03 9.13505E-04 6.14796E-11-2.65303E-01-7.45506E-01-1.39404E-06
 -1      1235-1.57434E-03 9.64885E-04 6.29315E-10-2.66098E-01-5.43239E-01-1.37877E-06
 -1      1236-1.65866E-03 1.01659E-03 1.29261E-09-2.67166E-01-3.43260E-01-1.36267E-06
 -1      1237-1.74322E-03 1.06842E-03 1.46578E-09-2.68857E-01-1.45690E-01-1.34572E-06
 -1      1238-1.82784E-03 1.12029E-03-4.45446E-11-2.68204E-01 4.93482E-02-1.32793E-06
 -1      1239-1.91260E-03 1.17225E-03 1.59372E-10-2.68147E-01 2.41730E-01-1.30932E-06
 -1      1240-1.99700E-03 1.22399E-03 1.29674E-09-2.67009E-01 4.31332E-01-1.28985E-06
 -1      1241-2.08109E-03 1.27553E-03 7.00213E-10-2.65969E-01 6.18035E-01-1.26954E-06
 -1      1242-2.16481E-03 1.32688E-03 2.73353E-10-2.64064E-01 8.01715E-01-1.24839E-06
 -1      1243-2.24763E-03 1.37760E-03-3.30945E-11-2.61051E-01 9.82250E-01-1.22641E-06
 -1      1244-2.32999E-03 1.42812E-03 6.10047E-10-2.60616E-01 1.15952E+00-1.20362E-06
 -1      1245-2.41130E-03 1.47799E-03 1.22110E-09-2.55153E-01 1.33340E+00-1.18000E-06
 -1      1246-2.49135E-03 1.52698E-03 1.00783E-09-2.52588E-01 1.50379E+00-1.15558E-06
 -1      1247-2.57060E-03 1.57563E-03 6.13337E-10-2.47721E-01 1.67055E+00-1.13036E-06
 -1      1248-2.64829E-03 1.62323E-03 1.38196E-09-2.44867E-01 1.83358E+00-1.10438E-06
 -1      1249-2.72441E-03 1.66987E-03 1.20185E-09-2.39192E-01 1.99276E+00-1.07763E-06
 -1      1250-2.79933E-03 1.71584E-03-2.28430E-10-2.34109E-01 2.14799E+00-1.05012E-06
 -1      1251-2.87229E-03 1.76055E-03 5.28019E-11-2.28504E-01 2.29915E+00-1.02186E-06
 -1      1252-2.94335E-03 1.80409E-03-4.23091E-10-2.22494E-01 2.44613E+00-9.92895E-07
 -1      1253-3.01269E-03 1.84663E-03 6.90412E-10-2.16491E-01 2.58884E+00-9.63240E-07
 -1      1254-3.07974E-03 1.88769E-03 2.05054E-10-2.08270E-01 2.72718E+00-9.32890E-07
 -1      1255-3.14506E-03 1.92777E-03-1.41259E-09-2.04875E-01 2.86104E+00-9.01876E-07
 -1      1256-3.20779E-03 1.96624E-03 4.04378E-10-1.93891E-01 2.99033E+00-8.70243E-07
 -1      1257-3.26795E-03 2.00303E-03 1.06054E-09-1.86914E-01 3.11497E+00-8.37994E-07
 -1      1258-3.32616E-03 2.03881E-03 1.54424E-09-1.80573E-01 3.23486E+00-8.05147E-07
 -1      1259-3.38135E-03 2.07258E-03 2.01429E-09-1.71125E-01 3.34991E+00-7.71742E-07
 -1      1260-3.43420E-03 2.10499E-03 1.12116E-09-1.64039E-01 3.46006E+00-7.37796E-07
 -1      1261-3.48431E-03 2.13575E-03 2.98218E-11-1.51832E-01 3.56521E+00-7.03338E-07
 -1      1262-3.53130E-03 2.16450E-03-9.17195E-10-1.46174E-01 3.66531E+00-6.68400E-07
 -1      1263-3.57566E-03 2.19173E-03-1.84372E-10-1.35501E-01 3.76028E+00-6.33005E-07
 -1      1264-3.61697E-03 2.21705E-03 4.66466E-10-1.26265E-01 3.85005E+00-5.97172E-07
 -1      1265-3.65515E-03 2.24042E-03-1.14284E-09-1.15059E-01 3.93457E+00-5.60956E-07
 -1      1266-3.69050E-03 2.26215E-03-9.77357E-10-1.08697E-01 4.01378E+00-5.24383E-07
 -1      1267-3.72237E-03 2.28166E-03-3.93481E-11-9.50315E-02 4.08763E+00-4.87464E-07
 -1      1268-3.75091E-03 2.29910E-03-3.97834E-10-8.48137E-02 4.15607E+00-4.50245E-07
 -1      1269-3.77673E-03 2.31503E-03 5.03111E-10-7.67296E-02 4.21907E+00-4.12751E-07
 -1      1270-3.79863E-03 2.32838E-03 1.79838E-09-6.42303E-02 4.27658E+00-3.75028E-07
 -1      1271-3.81729E-03 2.33982E-03 1.38134E-09-5.55434E-02 4.32857E+00-3.37103E-07
 -1      1272-3.83285E-03 2.34943E-03 6.87938E-10-4.03299E-02 4.37502E+00-2.98984E-07
 -1      1273-3.84445E-03 2.35645E-03 8.24293E-10-3.36267E-02 4.41590E+00-2.60742E-07
 -1      1274-3.85291E-03 2.36172E-03 1.06725E-09-2.07610E-02 4.45120E+00-2.22415E-07
 -1      1275-3.85762E-03 2.36451E-03 4.69266E-10-8.30714E-03 4.48090E+00-1.84010E-07
 -1      1276-3.85915E-03 2.36555E-03 4.07733E-10-1.05863E-03 4.50499E+00-1.45586E-07
 -1      1277-3.85673E-03 2.36400E-03 1.47028E-09 1.44481E-02 4.52349E+00-1.07158E-07
 -1      1278-3.85079E-03 2.36038E-03 1.31990E-09 2.38681E-02 4.53638E+00-6.87661E-08
 -1      1279-3.84147E-03 2.35467E-03 8.46817E-12 3.68251E-02 4.54367E+00-3.04686E-08
 -1      1280-3.82835E-03 2.34663E-03-1.84190E-09 4.59592E-02 4.54539E+00 7.74089E-09
 -1      1281-3.81179E-03 2.33649E-03-1.61367E-09 5.73303E-02 4.54155E+00 4.58014E-08
 -1      1282-3.79145E-03 2.32400E-03 8.72414E-10 7.09080E-02 4.53217E+00 8.36716E-08
 -1      1283-3.76774E-03 2.30948E-03 1.12434E-09 8.21036E-02 4.51728E+00 1.21326E-07
 -1      1284-3.74044E-03 2.29276E-03-7.04089E-10 9.13263E-02 4.49692E+00 1.58719E-07
 -1      1285-3.70924E-03 2.27363E-03-1.15603E-09 1.03677E-01 4.47113E+00 1.95819E-07
 -1      1286-3.67480E-03 2.25247E-03-5.28521E-10 1.16112E-01 4.43995E+00 2.32599E-07
 -1      1287-3.63704E-03 2.22943E-03-1.16804E-09 1.23538E-01 4.40344E+00 2.69022E-07
 -1      1288-3.59539E-03 2.20381E-03-1.38102E-09 1.38375E-01 4.36164E+00 3.05038E-07
 -1      1289-3.55038E-03 2.17625E-03-1.08246E-11 1.47411E-01 4.31462E+00 3.40627E-07
 -1      1290-3.50221E-03 2.14674E-03 3.94027E-10 1.59668E-01 4.26244E+00 3.75749E-07
 -1      1291-3.45034E-03 2.11492E-03 8.18041E-10 1.68238E-01 4.20518E+00 4.10369E-07
 -1      1292-3.39540E-03 2.08125E-03 1.71702E-09 1.78474E-01 4.14290E+00 4.44470E-07
 -1      1293-3.33709E-03 2.04553E-03 8.49621E-10 1.92215E-01 4.07569E+00 4.78006E-07
 -1      1294-3.27550E-03 2.00773E-03 1.75005E-10 1.98723E-01 4.00364E+00 5.10927E-07
 -1      1295-3.21080E-03 1.96815E-03 1.73649E-09 2.10199E-01 3.92683E+00 5.43212E-07
 -1      1296-3.14280E-03 1.92634E-03 1.46507E-09 2.19821E-01 3.84535E+00 5.74868E-07
 -1      1297-3.07225E-03 1.88325E-03 3.49688E-10 2.29073E-01 3.75931E+00 6.05838E-07
 -1      1298-2.99846E-03 1.83791E-03 1.12795E-09 2.38819E-01 3.66881E+00 6.36065E-07
 -1      1299-2.92131E-03 1.79068E-03 1.01962E-09 2.47527E-01 3.57395E+00 6.65549E-07
 -1      1300-2.84205E-03 1.74201E-03 1.04229E-09 2.56473E-01 3.47485E+00 6.94256E-07
 -1      1301-2.75960E-03 1.69163E-03 1.88623E-09 2.66062E-01 3.37162E+00 7.22148E-07
 -1      1302-2.67476E-03 1.63941E-03 1.49430E-09 2.71637E-01 3.26438E+00 7.49206E-07
 -1      1303-2.58708E-03 1.58593E-03 7.77656E-10 2.82395E-01 3.15326E+00 7.75410E-07
 -1      1304-2.49708E-03 1.53044E-03 7.63196E-10 2.89880E-01 3.03838E+00 8.00740E-07
 -1      1305-2.40452E-03 1.47406E-03 1.09938E-09 2.95841E-01 2.91987E+00 8.25153E-07
 -1      1306-2.30997E-03 1.41574E-03 1.11905E-09 3.04042E-01 2.79787E+00 8.48620E-07
 -1      1307-2.21255E-03 1.35640E-03 1.58861E-09 3.10674E-01 2.67252E+00 8.71133E-07
 -1      1308-2.11405E-03 1.29560E-03 2.34368E-09 3.17215E-01 2.54395E+00 8.92674E-07
 -1      1309-2.01237E-03 1.23381E-03 2.00646E-09 3.23515E-01 2.41231E+00 9.13231E-07
 -1      1310-1.90986E-03 1.17030E-03 1.86272E-09 3.29331E-01 2.27775E+00 9.32774E-07
 -1      1311-1.80436E-03 1.10641E-03 1.78787E-09 3.34791E-01 2.14042E+00 9.51261E-07
 -1      1312-1.69888E-03 1.04088E-03 2.29489E-09 3.40726E-01 2.00046E+00 9.68700E-07
 -1      1313-1.58939E-03 9.74755E-04 2.75572E-09 3.43824E-01 1.85804E+00 9.85082E-07
 -1      1314-1.48158E-03 9.07568E-04 2.37217E-09 3.49941E-01 1.71331E+00 1.00037E-06
 -1      1315-1.36838E-03 8.39407E-04 2.62813E-09 3.53842E-01 1.56642E+00 1.01455E-06
 -1      1316-1.25912E-03 7.71037E-04 2.50336E-09 3.56812E-01 1.41755E+00 1.02763E-06
 -1      1317-1.14226E-03 7.01078E-04 2.17772E-09 3.60733E-01 1.26685E+00 1.03958E-06
 -1      1318-1.03196E-03 6.31206E-04 2.77072E-09 3.63184E-01 1.11449E+00 1.05040E-06
 -1      1319-9.13606E-04 5.62473E-04 3.05528E-09 3.66825E-01 9.60636E-01 1.06008E-06
 -1      1320-7.96283E-04 4.82518E-04 2.52894E-09 3.68057E-01 8.05451E-01 1.06860E-06
 -1      1321-6.96091E-04 4.40223E-04 3.69042E-09 3.70279E-01 6.49105E-01 1.07598E-06
 -1      1322-5.43650E-04 3.03816E-04 3.54132E-09 3.71857E-01 4.91768E-01 9.53046E-07
 -1      1323-4.61545E-04 3.06334E-04 1.66439E-09 3.72369E-01 3.33611E-01 6.99432E-07
 -1      1324-3.20768E-04 1.85530E-04 2.25498E-09 3.73497E-01 1.74804E-01 5.72988E-07
 -1      1325-2.14509E-04 1.37381E-04 3.18220E-09 3.73505E-01 1.55163E-02 5.74381E-07
 -1      1326-9.44020E-05 5.42885E-05 3.62068E-09 3.73449E-01-1.44079E-01 5.75184E-07
 -1      1327 2.45701E-05-1.26730E-05 3.22985E-09 3.72846E-01-3.03812E-01 5.75347E-07
 -1      1328 1.39776E-04-8.74249E-05 2.43255E-09 3.71854E-01-4.63510E-01 5.74912E-07
 -1      1329 2.59432E-04-1.57671E-04 2.73298E-09 3.70630E-01-6.23004E-01 5.73868E-07
 -1      1330 3.73918E-04-2.30373E-04 3.17949E-09 3.68479E-01-7.82121E-01 5.72201E-07
 -1      1331 4.91589E-04-3.00247E-04 3.56094E-09 3.66791E-01-9.40694E-01 5.69928E-07
 -1      1332 6.05788E-04-3.72307E-04 3.13821E-09 3.64037E-01-1.09856E+00 5.67067E-07
 -1      1333 7.20970E-04-4.41068E-04 2.63429E-09 3.60809E-01-1.25554E+00 5.63588E-07
 -1      1334 8.33658E-04-5.11575E-04 4.00442E-09 3.58323E-01-1.41147E+00 5.59502E-07
 -1      1335 9.47019E-04-5.80125E-04 3.92671E-09 3.53596E-01-1.56619E+00 5.54832E-07
 -1      1336 1.05713E-03-6.48346E-04 2.93496E-09 3.50028E-01-1.71954E+00 5.49585E-07
 -1      1337 1.16752E-03-7.15313E-04 2.82007E-09 3.44964E-01-1.87135E+00 5.43761E-07
 -1      1338 1.27479E-03-7.81338E-04 1.79103E-09 3.40944E-01-2.02147E+00 5.37374E-07
 -1      1339 1.38295E-03-8.47864E-04 2.01499E-09 3.35605E-01-2.16973E+00 5.30429E-07
 -1      1340 1.48680E-03-9.11460E-04 3.70159E-09 3.28739E-01-2.31598E+00 5.22912E-07
 -1      1341 1.58994E-03-9.74157E-04 4.39690E-09 3.24184E-01-2.46008E+00 5.14860E-07
 -1      1342 1.69135E-03-1.03695E-03 3.44349E-09 3.17257E-01-2.60187E+00 5.06274E-07
 -1      1343 1.79081E-03-1.09779E-03 1.41220E-09 3.10617E-01-2.74120E+00 4.97156E-07
 -1      1344 1.88666E-03-1.15614E-03 1.39610E-09 3.02934E-01-2.87793E+00 4.87537E-07
 -1      1345 1.98212E-03-1.21489E-03 3.08077E-09 2.97462E-01-3.01192E+00 4.77409E-07
 -1      1346 2.07463E-03-1.27201E-03 2.60333E-09 2.87621E-01-3.14303E+00 4.66794E-07
 -1      1347 2.16387E-03-1.32618E-03 2.23365E-09 2.80625E-01-3.27112E+00 4.55704E-07
 -1      1348 2.25124E-03-1.37999E-03 2.83719E-09 2.71353E-01-3.39608E+00 4.44145E-07
 -1      1349 2.33488E-03-1.43054E-03 2.32826E-09 2.64032E-01-3.51776E+00 4.32154E-07
 -1      1350 2.41844E-03-1.48312E-03 2.71237E-09 2.55187E-01-3.63605E+00 4.19723E-07
 -1      1351 2.49613E-03-1.52987E-03 2.25923E-09 2.43506E-01-3.75083E+00 4.06858E-07
 -1      1352 2.57151E-03-1.57579E-03 1.28476E-09 2.36702E-01-3.86199E+00 3.93603E-07
 -1      1353 2.64556E-03-1.62193E-03 2.00994E-09 2.25520E-01-3.96941E+00 3.79964E-07
 -1      1354 2.71426E-03-1.66354E-03 2.13445E-09 2.15815E-01-4.07298E+00 3.65945E-07
 -1      1355 2.78134E-03-1.70492E-03 2.21708E-09 2.05405E-01-4.17262E+00 3.51569E-07
 -1      1356 2.84411E-03-1.74316E-03 2.91499E-09 1.94682E-01-4.26821E+00 3.36846E-07
 -1      1357 2.90434E-03-1.78046E-03 3.34723E-09 1.84184E-01-4.35968E+00 3.21804E-07
 -1      1358 2.96028E-03-1.81442E-03 4.32669E-09 1.71983E-01-4.44692E+00 3.06471E-07
 -1      1359 3.01232E-03-1.84582E-03 4.44974E-09 1.62563E-01-4.52987E+00 2.90860E-07
 -1      1360 3.06308E-03-1.87795E-03 3.42839E-09 1.51109E-01-4.60844E+00 2.74957E-07
 -1      1361 3.10878E-03-1.90601E-03 2.65267E-09 1.37604E-01-4.68256E+00 2.58805E-07
 -1      1362 3.14898E-03-1.92958E-03 2.38224E-09 1.25945E-01-4.75217E+00 2.42452E-07
 -1      1363 3.18781E-03-1.95381E-03 3.27054E-09 1.15856E-01-4.81720E+00 2.25883E-07
 -1      1364 3.22283E-03-1.97577E-03 2.71201E-09 1.02386E-01-4.87760E+00 2.09107E-07
 -1      1365 3.25236E-03-1.99335E-03 1.26592E-09 9.03062E-02-4.93332E+00 1.92166E-07
 -1      1366 3.27953E-03-2.01025E-03 1.24939E-09 7.80003E-02-4.98432E+00 1.75081E-07
 -1      1367 3.30192E-03-2.02382E-03 1.73486E-09 6.52173E-02-5.03056E+00 1.57866E-07
 -1      1368 3.32076E-03-2.03572E-03 1.19815E-09 5.27736E-02-5.07199E+00 1.40548E-07
 -1      1369 3.33503E-03-2.04406E-03 9.26402E-10 3.89083E-02-5.10861E+00 1.23140E-07
 -1      1370 3.34481E-03-2.04960E-03 6.68729E-10 2.80201E-02-5.14038E+00 1.05664E-07
 -1      1371 3.35297E-03-2.05568E-03 1.37009E-09 1.50526E-02-5.16729E+00 8.81454E-08
 -1      1372 3.35545E-03-2.05724E-03 1.92103E-09 1.15892E-04-5.18934E+00 7.06104E-08
 -1      1373 3.35203E-03-2.05400E-03 8.37743E-10-1.27538E-02-5.20651E+00 5.30534E-08
 -1      1374 3.34700E-03-2.05139E-03 9.60838E-10-2.38252E-02-5.21881E+00 3.55307E-08
 -1      1375 3.33755E-03-2.04604E-03-3.08160E-10-3.82955E-02-5.22625E+00 1.80582E-08
 -1      1376 3.32309E-03-2.03678E-03-1.31933E-09-5.09860E-02-5.22884E+00 6.38559E-10
 -1      1377 3.30509E-03-2.02592E-03-2.38227E-10-6.44506E-02-5.22661E+00-1.66812E-08
 -1      1378 3.28230E-03-2.01169E-03-5.89880E-10-7.71837E-02-5.21957E+00-3.39036E-08
 -1      1379 3.25675E-03-1.99669E-03-1.13196E-09-9.04625E-02-5.20777E+00-5.10036E-08
 -1      1380 3.22467E-03-1.97594E-03-9.32742E-10-1.04410E-01-5.19124E+00-6.79486E-08
 -1      1381 3.19103E-03-1.95599E-03-2.43945E-09-1.14490E-01-5.17002E+00-8.47255E-08
 -1      1382 3.15269E-03-1.93290E-03-2.97652E-09-1.30558E-01-5.14417E+00-1.01309E-07
 -1      1383 3.10895E-03-1.90550E-03-2.24789E-09-1.41986E-01-5.11374E+00-1.17668E-07
 -1      1384 3.06220E-03-1.87688E-03-2.65607E-09-1.55920E-01-5.07880E+00-1.33799E-07
 -1      1385 3.01100E-03-1.84531E-03-1.98713E-09-1.66765E-01-5.03941E+00-1.49687E-07
 -1      1386 2.95684E-03-1.81271E-03-1.86280E-09-1.80388E-01-4.99564E+00-1.65286E-07
 -1      1387 2.89751E-03-1.77591E-03-1.62865E-09-1.92713E-01-4.94758E+00-1.80588E-07
 -1      1388 2.83499E-03-1.73780E-03 3.71491E-10-2.05069E-01-4.89532E+00-1.95571E-07
 -1      1389 2.76791E-03-1.69644E-03-1.39790E-11-2.17314E-01-4.83893E+00-2.10215E-07
 -1      1390 2.69827E-03-1.65429E-03-2.40665E-09-2.29180E-01-4.77852E+00-2.24508E-07
 -1      1391 2.62276E-03-1.60716E-03-2.92361E-09-2.42212E-01-4.71420E+00-2.38410E-07
 -1      1392 2.54540E-03-1.56013E-03-8.99705E-10-2.51192E-01-4.64607E+00-2.51920E-07
 -1      1393 2.46483E-03-1.51157E-03 4.50465E-10-2.65573E-01-4.57423E+00-2.65017E-07
 -1      1394 2.37766E-03-1.45679E-03-2.23993E-10-2.76336E-01-4.49883E+00-2.77680E-07
 -1      1395 2.28986E-03-1.40367E-03-6.98386E-10-2.86372E-01-4.41996E+00-2.89879E-07
 -1      1396 2.19710E-03-1.34661E-03 8.53700E-11-2.98265E-01-4.33777E+00-3.01604E-07
 -1      1397 2.10205E-03-1.28877E-03 1.85262E-10-3.08009E-01-4.25239E+00-3.12853E-07
 -1      1398 2.00256E-03-1.22754E-03 6.27292E-10-3.20714E-01-4.16396E+00-3.23584E-07
 -1      1399 1.89941E-03-1.16387E-03 1.50900E-09-3.28905E-01-4.07262E+00-3.33784E-07
 -1      1400 1.79482E-03-1.10046E-03 7.18826E-10-3.39910E-01-3.97852E+00-3.43451E-07
 -1      1401 1.68539E-03-1.03297E-03 4.31852E-10-3.49631E-01-3.88181E+00-3.52554E-07
 -1      1402 1.57381E-03-9.64746E-04 1.21576E-09-3.59185E-01-3.78266E+00-3.61084E-07
 -1      1403 1.45883E-03-8.94178E-04 1.92948E-09-3.68641E-01-3.68122E+00-3.69016E-07
 -1      1404 1.34121E-03-8.22254E-04 1.75313E-09-3.77630E-01-3.57766E+00-3.76336E-07
 -1      1405 1.22036E-03-7.47960E-04 5.72103E-10-3.86913E-01-3.47215E+00-3.83038E-07
 -1      1406 1.09706E-03-6.72427E-04-7.82227E-10-3.94718E-01-3.36487E+00-3.89106E-07
 -1      1407 9.71122E-04-5.95312E-04-4.56145E-10-4.03471E-01-3.25600E+00-3.94520E-07
 -1      1408 8.42697E-04-5.16666E-04 1.13235E-09-4.11127E-01-3.14572E+00-3.99259E-07
 -1      1409 7.11533E-04-4.36217E-04 1.38484E-09-4.19613E-01-3.03422E+00-4.03324E-07
 -1      1410 5.77753E-04-3.54029E-04 2.43706E-09-4.26392E-01-2.92168E+00-4.06692E-07
 -1      1411 4.42398E-04-2.71365E-04 2.97578E-09-4.33821E-01-2.80830E+00-4.09366E-07
 -1      1412 3.04107E-04-1.86398E-04 1.62992E-09-4.40823E-01-2.69428E+00-4.11311E-07
 -1      1413 1.64056E-04-1.00626E-04 1.59548E-09-4.47154E-01-2.57982E+00-4.12543E-07
 -1      1414 2.19403E-05-1.35515E-05 1.80354E-09-4.53692E-01-2.46512E+00-4.13039E-07
 -1      1415-1.22323E-04 7.49474E-05 1.00941E-09-4.59621E-01-2.35039E+00-4.12772E-07
 -1      1416-2.68233E-04 1.64337E-04 7.70085E-10-4.65378E-01-2.23584E+00-4.11759E-07
 -1      1417-4.15874E-04 2.54739E-04 9.90893E-10-4.70936E-01-2.12168E+00-4.09971E-07
 -1      1418-5.65513E-04 3.46607E-04 1.02726E-09-4.76256E-01-2.00813E+00-4.07411E-07
 -1      1419-7.16700E-04 4.39352E-04 9.55113E-10-4.80662E-01-1.89539E+00-4.04061E-07
 -1      1420-8.68745E-04 5.32273E-04 8.17705E-10-4.85358E-01-1.78370E+00-3.99909E-07
 -1      1421-1.02290E-03 6.26826E-04 8.90513E-10-4.90176E-01-1.67327E+00-3.94960E-07
 -1      1422-1.17831E-03 7.22271E-04 9.90546E-10-4.93913E-01-1.56432E+00-3.89216E-07
 -1      1423-1.33463E-03 8.17884E-04 1.36344E-09-4.97672E-01-1.45709E+00-3.82646E-07
 -1      1424-1.49244E-03 9.14762E-04 9.13259E-10-5.01324E-01-1.35180E+00-3.75247E-07
 -1      1425-1.65092E-03 1.01170E-03 3.87392E-10-5.04344E-01-1.24867E+00-3.67027E-07
 -1      1426-1.81108E-03 1.11024E-03 8.57264E-10-5.07723E-01-1.14795E+00-3.57977E-07
 -1      1427-1.97127E-03 1.20801E-03 9.54655E-10-5.09393E-01-1.04985E+00-3.48093E-07
 -1      1428-2.13230E-03 1.30657E-03 8.28341E-10-5.13746E-01-9.54623E-01-3.37363E-07
 -1      1429-2.29546E-03 1.40706E-03 9.18551E-10-5.15173E-01-8.62491E-01-3.25783E-07
 -1      1430-2.45866E-03 1.50745E-03 8.87676E-10-5.16900E-01-7.73693E-01-3.13358E-07
 -1      1431-2.62061E-03 1.60552E-03 7.79700E-10-5.17444E-01-6.88466E-01-3.00082E-07
 -1      1432-2.78551E-03 1.70731E-03 4.47711E-10-5.22536E-01-6.07048E-01-2.85938E-07
 -1      1433-2.95013E-03 1.80816E-03 2.73524E-10-5.20336E-01-5.29676E-01-2.70938E-07
 -1      1434-3.11500E-03 1.90933E-03 6.08318E-10-5.25059E-01-4.56590E-01-2.55076E-07
 -1      1435-3.28024E-03 2.01026E-03 4.89539E-10-5.21895E-01-3.88029E-01-2.38351E-07
 -1      1436-3.44591E-03 2.11215E-03 3.52660E-10-5.28067E-01-3.24234E-01-2.20776E-07
 -1      1437-3.61208E-03 2.21401E-03 2.35110E-10-5.22157E-01-2.65445E-01-2.02314E-07
 -1      1438-3.77721E-03 2.31476E-03 1.70113E-10-5.30097E-01-2.11902E-01-1.82981E-07
 -1      1439-3.94358E-03 2.41658E-03 5.34504E-10-5.23120E-01-1.63848E-01-1.62808E-07
 -1      1440-4.11230E-03 2.52157E-03 3.29103E-10-5.33958E-01-1.21524E-01-1.41746E-07
 -1      1441-4.27631E-03 2.62136E-03 1.73642E-10-5.15852E-01-8.51711E-02-1.19799E-07
 -1      1442-4.43972E-03 2.71532E-03 3.62437E-10-5.42781E-01-5.50310E-02-9.70021E-08
 -1      1443-4.62371E-03 2.85531E-03 3.86325E-10-5.10611E-01-3.13471E-02-7.33301E-08
 -1      1444-4.72971E-03 2.82240E-03 3.51401E-10-5.46855E-01-1.43588E-02-4.87876E-08
 -1      1445-5.11099E-03 3.40979E-03 3.73033E-10-5.12033E-01-4.31223E-03-2.33447E-08
 -1      1446-3.74187E-03 1.27432E-03 4.24239E-10-6.43516E-01-1.05800E-03-1.03873E-08
 -1      1447 8.60386E-03-1.05895E-03-1.08237E-08-3.32422E-05 6.78836E+00-1.93527E-02
 -1      1448 4.10658E-02-2.10592E-02-1.95045E-08-1.24076E-02 6.67546E+00-1.93525E-02
 -1      1449 1.40351E-01-8.19743E-02-3.42667E-08-2.43724E-02 6.44967E+00-1.93516E-02
 -1      1450 3.03883E-01-1.82439E-01-3.26551E-08-3.59462E-02 6.22390E+00-1.93493E-02
 -1      1451 5.28501E-01-3.20107E-01-1.18459E-08-4.70247E-02 5.99817E+00-1.93451E-02
 -1      1452 8.13272E-01-4.95160E-01 1.37483E-08-5.78273E-02 5.77250E+00-1.93384E-02
 -1      1453 1.15346E+00-7.03078E-01 3.66234E-08-6.81396E-02 5.54692E+00-1.93286E-02
 -1      1454 1.55080E+00-9.47609E-01 5.47053E-08-7.79598E-02 5.32148E+00-1.93151E-02
 -1      1455 1.99859E+00-1.22152E+00 6.41981E-08-8.75871E-02 5.09622E+00-1.92974E-02
 -1      1456 2.49808E+00-1.52812E+00 6.75316E-08-9.65017E-02 4.87120E+00-1.92749E-02
 -1      1457 3.04615E+00-1.86451E+00 5.97276E-08-1.05279E-01 4.64647E+00-1.92473E-02
 -1      1458 3.63747E+00-2.22596E+00 3.73029E-08-1.13752E-01 4.42209E+00-1.92140E-02
 -1      1459 4.27617E+00-2.61860E+00 1.39444E-08-1.21073E-01 4.19814E+00-1.91745E-02
 -1      1460 4.95488E+00-3.03500E+00-5.82809E-09-1.29215E-01 3.97468E+00-1.91285E-02
 -1      1461 5.67054E+00-3.47245E+00-2.54136E-08-1.35580E-01 3.75180E+00-1.90756E-02
 -1      1462 6.42728E+00-3.93676E+00-4.02662E-08-1.42435E-01 3.52958E+00-1.90153E-02
 -1      1463 7.21784E+00-4.42329E+00-4.69986E-08-1.49284E-01 3.30811E+00-1.89473E-02
 -1      1464 8.03676E+00-4.92175E+00-4.52224E-08-1.54156E-01 3.08748E+00-1.88713E-02
 -1      1465 8.89421E+00-5.45122E+00-3.71346E-08-1.60334E-01 2.86779E+00-1.87870E-02
 -1      1466 9.77209E+00-5.98670E+00-3.00142E-08-1.64674E-01 2.64913E+00-1.86940E-02
 -1      1467 1.06823E+01-6.54613E+00-2.81224E-08-1.69686E-01 2.43160E+00-1.85921E-02
 -1      1468 1.16139E+01-7.11798E+00-2.80795E-08-1.74319E-01 2.21532E+00-1.84810E-02
 -1      1469 1.25632E+01-7.69617E+00-2.55889E-08-1.77539E-01 2.00039E+00-1.83606E-02
 -1      1470 1.35426E+01-8.30164E+00-2.15351E-08-1.81191E-01 1.78691E+00-1.82305E-02
 -1      1471 1.45293E+01-8.90273E+00-2.06853E-08-1.84131E-01 1.57502E+00-1.80907E-02
 -1      1472 1.55381E+01-9.52305E+00-2.79440E-08-1.87105E-01 1.36481E+00-1.79409E-02
 -1      1473 1.65573E+01-1.01473E+01-3.71445E-08-1.89379E-01 1.15641E+00-1.77811E-02
 -1      1474 1.75875E+01-1.07780E+01-4.81880E-08-1.90996E-01 9.49929E-01-1.76110E-02
 -1      1475 1.86310E+01-1.14193E+01-6.15416E-08-1.92356E-01 7.45497E-01-1.74306E-02
 -1      1476 1.96794E+01-1.20621E+01-6.93122E-08-1.94242E-01 5.43231E-01-1.72397E-02
 -1      1477 2.07303E+01-1.27046E+01-7.34603E-08-1.94864E-01 3.43251E-01-1.70385E-02
 -1      1478 2.17878E+01-1.33527E+01-7.70150E-08-1.94928E-01 1.45681E-01-1.68267E-02
 -1      1479 2.28496E+01-1.40068E+01-7.88824E-08-1.95190E-01-4.93568E-02-1.66043E-02
 -1      1480 2.39040E+01-1.46495E+01-8.08780E-08-1.94733E-01-2.41739E-01-1.63715E-02
 -1      1481 2.49613E+01-1.52996E+01-8.32624E-08-1.94561E-01-4.31341E-01-1.61281E-02
 -1      1482 2.60119E+01-1.59428E+01-8.31542E-08-1.93129E-01-6.18044E-01-1.58742E-02
 -1      1483 2.70584E+01-1.65851E+01-8.03184E-08-1.92322E-01-8.01724E-01-1.56099E-02
 -1      1484 2.80939E+01-1.72194E+01-7.59582E-08-1.90713E-01-9.82260E-01-1.53352E-02
 -1      1485 2.91212E+01-1.78479E+01-6.90895E-08-1.87672E-01-1.15953E+00-1.50502E-02
 -1      1486 3.01405E+01-1.84752E+01-6.13002E-08-1.86770E-01-1.33341E+00-1.47550E-02
 -1      1487 3.11424E+01-1.90893E+01-4.77505E-08-1.83624E-01-1.50380E+00-1.44498E-02
 -1      1488 3.21282E+01-1.96915E+01-3.01337E-08-1.81003E-01-1.67056E+00-1.41346E-02
 -1      1489 3.30992E+01-2.02860E+01-8.40387E-09-1.77239E-01-1.83359E+00-1.38097E-02
 -1      1490 3.40580E+01-2.08787E+01 2.37297E-08-1.74011E-01-1.99277E+00-1.34753E-02
 -1      1491 3.49867E+01-2.14430E+01 5.41865E-08-1.69952E-01-2.14800E+00-1.31314E-02
 -1      1492 3.58997E+01-2.20035E+01 7.94945E-08-1.66553E-01-2.29915E+00-1.27783E-02
 -1      1493 3.67912E+01-2.25519E+01 1.05538E-07-1.61850E-01-2.44614E+00-1.24162E-02
 -1      1494 3.76584E+01-2.30840E+01 1.30763E-07-1.57281E-01-2.58885E+00-1.20454E-02
 -1      1495 3.84947E+01-2.35953E+01 1.56611E-07-1.52773E-01-2.72719E+00-1.16661E-02
 -1      1496 3.93058E+01-2.40891E+01 1.82139E-07-1.45900E-01-2.86105E+00-1.12786E-02
 -1      1497 4.00983E+01-2.45811E+01 2.09579E-07-1.43138E-01-2.99034E+00-1.08831E-02
 -1      1498 4.08465E+01-2.50359E+01 2.32465E-07-1.36786E-01-3.11498E+00-1.04800E-02
 -1      1499 4.15717E+01-2.54803E+01 2.40520E-07-1.30281E-01-3.23486E+00-1.00695E-02
 -1      1500 4.22666E+01-2.59086E+01 2.42947E-07-1.24581E-01-3.34992E+00-9.65190E-03
 -1      1501 4.29272E+01-2.63139E+01 2.46279E-07-1.17639E-01-3.46006E+00-9.22759E-03
 -1      1502 4.35487E+01-2.66920E+01 2.55835E-07-1.13241E-01-3.56522E+00-8.79688E-03
 -1      1503 4.41363E+01-2.70517E+01 2.68124E-07-1.05002E-01-3.66531E+00-8.36014E-03
 -1      1504 4.46951E+01-2.73977E+01 2.74098E-07-9.86596E-02-3.76028E+00-7.91769E-03
 -1      1505 4.52120E+01-2.77148E+01 2.80513E-07-9.16516E-02-3.85005E+00-7.46991E-03
 -1      1506 4.56842E+01-2.80007E+01 2.96638E-07-8.50414E-02-3.93457E+00-7.01719E-03
 -1      1507 4.61248E+01-2.82702E+01 3.20190E-07-7.61072E-02-4.01378E+00-6.55990E-03
 -1      1508 4.65326E+01-2.85269E+01 3.36407E-07-7.08133E-02-4.08763E+00-6.09841E-03
 -1      1509 4.68836E+01-2.87370E+01 3.35895E-07-6.28530E-02-4.15607E+00-5.63316E-03
 -1      1510 4.72008E+01-2.89292E+01 3.25118E-07-5.39948E-02-4.21907E+00-5.16454E-03
 -1      1511 4.74797E+01-2.91027E+01 3.09627E-07-4.74739E-02-4.27658E+00-4.69295E-03
 -1      1512 4.77195E+01-2.92541E+01 2.94428E-07-3.83081E-02-4.32857E+00-4.21881E-03
 -1      1513 4.79039E+01-2.93613E+01 2.81595E-07-3.26778E-02-4.37502E+00-3.74256E-03
 -1      1514 4.80492E+01-2.94493E+01 2.58329E-07-2.27523E-02-4.41589E+00-3.26463E-03
 -1      1515 4.81654E+01-2.95289E+01 2.15813E-07-1.51939E-02-4.45119E+00-2.78542E-03
 -1      1516 4.82138E+01-2.95501E+01 1.60413E-07-7.48233E-03-4.48089E+00-2.30540E-03
 -1      1517 4.82332E+01-2.95637E+01 1.04079E-07 2.51648E-03-4.50499E+00-1.82502E-03
 -1      1518 4.82093E+01-2.95524E+01 5.43551E-08 8.49303E-03-4.52348E+00-1.34467E-03
 -1      1519 4.81338E+01-2.95055E+01 5.70204E-09 1.76700E-02-4.53637E+00-8.64842E-04
 -1      1520 4.80131E+01-2.94287E+01-4.61556E-08 2.54860E-02-4.54366E+00-3.85967E-04
 -1      1521 4.78488E+01-2.93278E+01-8.97980E-08 3.46785E-02-4.54538E+00 9.15012E-05
 -1      1522 4.76459E+01-2.92064E+01-1.18894E-07 4.34023E-02-4.54154E+00 5.67127E-04
 -1      1523 4.73963E+01-2.90562E+01-1.40896E-07 4.99330E-02-4.53216E+00 1.04047E-03
 -1      1524 4.70883E+01-2.88599E+01-1.56956E-07 5.90372E-02-4.51727E+00 1.51106E-03
 -1      1525 4.67466E+01-2.86498E+01-1.64975E-07 6.71888E-02-4.49691E+00 1.97846E-03
 -1      1526 4.63724E+01-2.84315E+01-1.72136E-07 7.55239E-02-4.47112E+00 2.44223E-03
 -1      1527 4.59282E+01-2.81488E+01-1.84649E-07 8.31197E-02-4.43994E+00 2.90193E-03
 -1      1528 4.54575E+01-2.78629E+01-2.01140E-07 9.28875E-02-4.40342E+00 3.35711E-03
 -1      1529 4.49422E+01-2.75495E+01-2.17135E-07 9.87813E-02-4.36162E+00 3.80735E-03
 -1      1530 4.43791E+01-2.72039E+01-2.25537E-07 1.07544E-01-4.31460E+00 4.25221E-03
 -1      1531 4.37728E+01-2.68303E+01-2.26227E-07 1.14951E-01-4.26242E+00 4.69126E-03
 -1      1532 4.31232E+01-2.64300E+01-2.30094E-07 1.23474E-01-4.20515E+00 5.12407E-03
 -1      1533 4.24457E+01-2.60224E+01-2.25354E-07 1.31488E-01-4.14288E+00 5.55024E-03
 -1      1534 4.17084E+01-2.55636E+01-2.04279E-07 1.36977E-01-4.07567E+00 5.96937E-03
 -1      1535 4.09379E+01-2.50917E+01-1.90730E-07 1.45954E-01-4.00361E+00 6.38101E-03
 -1      1536 4.01351E+01-2.46031E+01-1.87766E-07 1.52752E-01-3.92680E+00 6.78480E-03
 -1      1537 3.92866E+01-2.40838E+01-1.78795E-07 1.59939E-01-3.84532E+00 7.18035E-03
 -1      1538 3.83965E+01-2.35331E+01-1.58326E-07 1.67479E-01-3.75928E+00 7.56727E-03
 -1      1539 3.74736E+01-2.29675E+01-1.28859E-07 1.72824E-01-3.66878E+00 7.94517E-03
 -1      1540 3.65192E+01-2.23878E+01-9.53631E-08 1.80247E-01-3.57392E+00 8.31369E-03
 -1      1541 3.55242E+01-2.17760E+01-6.41310E-08 1.86586E-01-3.47482E+00 8.67249E-03
 -1      1542 3.44910E+01-2.11404E+01-3.77585E-08 1.92521E-01-3.37159E+00 9.02121E-03
 -1      1543 3.34296E+01-2.04895E+01-1.61765E-08 1.99830E-01-3.26435E+00 9.35951E-03
 -1      1544 3.23416E+01-1.98277E+01 3.27624E-09 2.04141E-01-3.15323E+00 9.68707E-03
 -1      1545 3.12080E+01-1.91273E+01 1.76922E-08 2.10095E-01-3.03835E+00 1.00036E-02
 -1      1546 3.00542E+01-1.84214E+01 1.90634E-08 2.16122E-01-2.91984E+00 1.03087E-02
 -1      1547 2.88726E+01-1.76991E+01 1.01748E-08 2.21016E-01-2.79784E+00 1.06022E-02
 -1      1548 2.76587E+01-1.69544E+01-1.38324E-09 2.26027E-01-2.67248E+00 1.08838E-02
 -1      1549 2.64193E+01-1.61934E+01-8.65470E-09 2.31028E-01-2.54392E+00 1.11531E-02
 -1      1550 2.51548E+01-1.54177E+01-8.40829E-09 2.35038E-01-2.41228E+00 1.14100E-02
 -1      1551 2.38699E+01-1.46331E+01-8.43846E-09 2.39608E-01-2.27772E+00 1.16541E-02
 -1      1552 2.25586E+01-1.38277E+01-1.26102E-08 2.43795E-01-2.14038E+00 1.18854E-02
 -1      1553 2.12245E+01-1.30082E+01-1.88568E-08 2.46991E-01-2.00042E+00 1.21035E-02
 -1      1554 1.98753E+01-1.21827E+01-2.47645E-08 2.51461E-01-1.85800E+00 1.23082E-02
 -1      1555 1.85086E+01-1.13468E+01-3.11006E-08 2.53796E-01-1.71327E+00 1.24993E-02
 -1      1556 1.71178E+01-1.04914E+01-3.74461E-08 2.56983E-01-1.56638E+00 1.26768E-02
 -1      1557 1.57170E+01-9.63347E+00-3.79357E-08 2.59995E-01-1.41751E+00 1.28403E-02
 -1      1558 1.43021E+01-8.76718E+00-3.46150E-08 2.62311E-01-1.26681E+00 1.29898E-02
 -1      1559 1.28735E+01-7.89123E+00-2.98213E-08 2.64691E-01-1.11445E+00 1.31251E-02
 -1      1560 1.14333E+01-7.00784E+00-2.25941E-08 2.66038E-01-9.60594E-01 1.32462E-02
 -1      1561 9.98342E+00-6.11871E+00-1.55361E-08 2.68079E-01-8.05409E-01 1.33529E-02
 -1      1562 8.52875E+00-5.22869E+00-1.06883E-08 2.69275E-01-6.49063E-01 1.34451E-02
 -1      1563 7.06348E+00-4.32897E+00-4.49656E-09 2.70281E-01-4.91726E-01 1.35230E-02
 -1      1564 5.59620E+00-3.43002E+00 1.35874E-09 2.71225E-01-3.33568E-01 1.35865E-02
 -1      1565 4.12544E+00-2.52905E+00 5.98207E-09 2.71444E-01-1.74761E-01 1.36352E-02
 -1      1566 2.65090E+00-1.62453E+00 1.13990E-08 2.71739E-01-1.54736E-02 1.36690E-02
 -1      1567 1.17766E+00-7.21707E-01 1.69646E-08 2.71581E-01 1.44122E-01 1.36880E-02
 -1      1568-2.94767E-01 1.80867E-01 2.32640E-08 2.71175E-01 3.03855E-01 1.36924E-02
 -1      1569-1.76368E+00 1.08111E+00 2.96061E-08 2.70455E-01 4.63553E-01 1.36822E-02
 -1      1570-3.22909E+00 1.97980E+00 3.58770E-08 2.69411E-01 6.23046E-01 1.36573E-02
 -1      1571-4.68692E+00 2.87297E+00 4.06934E-08 2.68342E-01 7.82164E-01 1.36179E-02
 -1      1572-6.13727E+00 3.76170E+00 4.53603E-08 2.66562E-01 9.40737E-01 1.35640E-02
 -1      1573-7.58056E+00 4.64771E+00 5.15105E-08 2.64744E-01 1.09860E+00 1.34956E-02
 -1      1574-9.00900E+00 5.52184E+00 5.44188E-08 2.62700E-01 1.25558E+00 1.34130E-02
 -1      1575-1.04280E+01 6.39199E+00 5.02397E-08 2.59899E-01 1.41151E+00 1.33162E-02
 -1      1576-1.18328E+01 7.25365E+00 3.94513E-08 2.57681E-01 1.56623E+00 1.32053E-02
 -1      1577-1.32216E+01 8.10503E+00 2.64089E-08 2.54449E-01 1.71958E+00 1.30806E-02
 -1      1578-1.45929E+01 8.94551E+00 1.89344E-08 2.51307E-01 1.87139E+00 1.29420E-02
 -1      1579-1.59441E+01 9.77187E+00 1.91936E-08 2.47376E-01 2.02151E+00 1.27900E-02
 -1      1580-1.72811E+01 1.05942E+01 2.24788E-08 2.43671E-01 2.16977E+00 1.26245E-02
 -1      1581-1.85909E+01 1.13957E+01 2.43497E-08 2.40246E-01 2.31602E+00 1.24458E-02
 -1      1582-1.98783E+01 1.21841E+01 2.52838E-08 2.35175E-01 2.46012E+00 1.22542E-02
 -1      1583-2.11455E+01 1.29624E+01 2.72610E-08 2.30741E-01 2.60190E+00 1.20499E-02
 -1      1584-2.23848E+01 1.37225E+01 3.13752E-08 2.25852E-01 2.74123E+00 1.18331E-02
 -1      1585-2.35929E+01 1.44608E+01 3.87775E-08 2.20961E-01 2.87796E+00 1.16042E-02
 -1      1586-2.47777E+01 1.51876E+01 5.28609E-08 2.14703E-01 3.01195E+00 1.13633E-02
 -1      1587-2.59329E+01 1.58971E+01 7.39867E-08 2.10252E-01 3.14306E+00 1.11107E-02
 -1      1588-2.70548E+01 1.65848E+01 9.35962E-08 2.03878E-01 3.27116E+00 1.08468E-02
 -1      1589-2.81432E+01 1.72506E+01 1.03109E-07 1.98107E-01 3.39611E+00 1.05719E-02
 -1      1590-2.91977E+01 1.78956E+01 1.00626E-07 1.91232E-01 3.51779E+00 1.02863E-02
 -1      1591-3.02260E+01 1.85307E+01 8.80523E-08 1.84465E-01 3.63608E+00 9.99040E-03
 -1      1592-3.12074E+01 1.91294E+01 7.40749E-08 1.79094E-01 3.75086E+00 9.68446E-03
 -1      1593-3.21530E+01 1.97067E+01 6.30536E-08 1.70771E-01 3.86201E+00 9.36891E-03
 -1      1594-3.30675E+01 2.02698E+01 4.96375E-08 1.64540E-01 3.96943E+00 9.04408E-03
 -1      1595-3.39397E+01 2.08066E+01 3.84082E-08 1.56725E-01 4.07301E+00 8.71037E-03
 -1      1596-3.47676E+01 2.13106E+01 3.47511E-08 1.49063E-01 4.17264E+00 8.36820E-03
 -1      1597-3.55561E+01 2.17931E+01 3.27505E-08 1.42009E-01 4.26824E+00 8.01796E-03
 -1      1598-3.63092E+01 2.22602E+01 2.45708E-08 1.33662E-01 4.35970E+00 7.66006E-03
 -1      1599-3.70080E+01 2.26834E+01 1.09040E-08 1.26107E-01 4.44694E+00 7.29494E-03
 -1      1600-3.76671E+01 2.30874E+01 2.41063E-09 1.17196E-01 4.52989E+00 6.92303E-03
 -1      1601-3.82878E+01 2.34711E+01-3.21669E-09 1.08477E-01 4.60846E+00 6.54475E-03
 -1      1602-3.88579E+01 2.38207E+01-1.16730E-08 1.01470E-01 4.68258E+00 6.16056E-03
 -1      1603-3.93756E+01 2.41345E+01-1.35102E-08 9.25026E-02 4.75218E+00 5.77095E-03
 -1      1604-3.98542E+01 2.44288E+01-1.21421E-08 8.30183E-02 4.81721E+00 5.37635E-03
 -1      1605-4.02859E+01 2.46954E+01-2.73494E-08 7.45760E-02 4.87761E+00 4.97723E-03
 -1      1606-4.06675E+01 2.49313E+01-6.13755E-08 6.55288E-02 4.93333E+00 4.57409E-03
 -1      1607-4.09944E+01 2.51261E+01-9.10269E-08 5.58801E-02 4.98433E+00 4.16740E-03
 -1      1608-4.12759E+01 2.52977E+01-1.03935E-07 4.83199E-02 5.03056E+00 3.75765E-03
 -1      1609-4.15184E+01 2.54557E+01-1.02778E-07 3.80941E-02 5.07200E+00 3.34532E-03
 -1      1610-4.16922E+01 2.55539E+01-8.89974E-08 2.93878E-02 5.10861E+00 2.93094E-03
 -1      1611-4.18246E+01 2.56363E+01-6.32552E-08 1.91843E-02 5.14038E+00 2.51499E-03
 -1      1612-4.19109E+01 2.56920E+01-3.51500E-08 9.42455E-03 5.16729E+00 2.09797E-03
 -1      1613-4.19415E+01 2.57110E+01-1.86381E-08 1.55842E-03 5.18934E+00 1.68039E-03
 -1      1614-4.19145E+01 2.56911E+01-1.88674E-08-8.34949E-03 5.20650E+00 1.26277E-03
 -1      1615-4.18428E+01 2.56467E+01-3.35966E-08-1.85730E-02 5.21880E+00 8.45630E-04
 -1      1616-4.17250E+01 2.55806E+01-4.29323E-08-2.78508E-02 5.22624E+00 4.29457E-04
 -1      1617-4.15428E+01 2.54628E+01-4.23516E-08-3.76083E-02 5.22883E+00 1.47803E-05
 -1      1618-4.13159E+01 2.53248E+01-5.31615E-08-4.63548E-02 5.22660E+00-3.97883E-04
 -1      1619-4.10384E+01 2.51565E+01-6.76034E-08-5.64169E-02 5.21956E+00-8.08021E-04
 -1      1620-4.07110E+01 2.49587E+01-7.18486E-08-6.58738E-02 5.20776E+00-1.21513E-03
 -1      1621-4.03204E+01 2.47126E+01-8.30966E-08-7.53406E-02 5.19122E+00-1.61867E-03
 -1      1622-3.98879E+01 2.44477E+01-1.07761E-07-8.54009E-02 5.17001E+00-2.01815E-03
 -1      1623-3.94102E+01 2.41614E+01-1.38607E-07-9.34894E-02 5.14415E+00-2.41306E-03
 -1      1624-3.88703E+01 2.38274E+01-1.75896E-07-1.03586E-01 5.11372E+00-2.80289E-03
 -1      1625-3.82823E+01 2.34655E+01-2.13033E-07-1.12438E-01 5.07878E+00-3.18712E-03
 -1      1626-3.76448E+01 2.30738E+01-2.35518E-07-1.22369E-01 5.03938E+00-3.56526E-03
 -1      1627-3.69643E+01 2.26621E+01-2.39454E-07-1.31266E-01 4.99562E+00-3.93681E-03
 -1      1628-3.62231E+01 2.22025E+01-2.34539E-07-1.40551E-01 4.94756E+00-4.30129E-03
 -1      1629-3.54388E+01 2.17226E+01-2.16153E-07-1.48858E-01 4.89529E+00-4.65818E-03
 -1      1630-3.46077E+01 2.12153E+01-1.79435E-07-1.58165E-01 4.83890E+00-5.00702E-03
 -1      1631-3.37276E+01 2.06760E+01-1.40417E-07-1.66860E-01 4.77849E+00-5.34732E-03
 -1      1632-3.27953E+01 2.01021E+01-1.10150E-07-1.75241E-01 4.71417E+00-5.67861E-03
 -1      1633-3.18206E+01 1.95039E+01-8.77584E-08-1.84900E-01 4.64603E+00-6.00042E-03
 -1      1634-3.08074E+01 1.88893E+01-6.36860E-08-1.91947E-01 4.57420E+00-6.31229E-03
 -1      1635-2.97315E+01 1.82223E+01-2.95674E-08-2.00718E-01 4.49879E+00-6.61377E-03
 -1      1636-2.86233E+01 1.75444E+01 1.05131E-08-2.08838E-01 4.41992E+00-6.90440E-03
 -1      1637-2.74725E+01 1.68428E+01 5.73190E-08-2.16913E-01 4.33773E+00-7.18375E-03
 -1      1638-2.62744E+01 1.61069E+01 1.12272E-07-2.25159E-01 4.25235E+00-7.45139E-03
 -1      1639-2.50335E+01 1.53451E+01 1.67536E-07-2.31616E-01 4.16391E+00-7.70691E-03
 -1      1640-2.37517E+01 1.45589E+01 2.10626E-07-2.40103E-01 4.07257E+00-7.94986E-03
 -1      1641-2.24344E+01 1.37538E+01 2.29270E-07-2.47178E-01 3.97847E+00-8.17986E-03
 -1      1642-2.10731E+01 1.29186E+01 2.24330E-07-2.54385E-01 3.88176E+00-8.39651E-03
 -1      1643-1.96736E+01 1.20598E+01 2.08572E-07-2.61510E-01 3.78261E+00-8.59943E-03
 -1      1644-1.82376E+01 1.11793E+01 1.91527E-07-2.67950E-01 3.68117E+00-8.78822E-03
 -1      1645-1.67677E+01 1.02808E+01 1.76928E-07-2.74797E-01 3.57761E+00-8.96253E-03
 -1      1646-1.52575E+01 9.35278E+00 1.64007E-07-2.81031E-01 3.47210E+00-9.12200E-03
 -1      1647-1.37155E+01 8.40779E+00 1.52243E-07-2.87537E-01 3.36482E+00-9.26629E-03
 -1      1648-1.21421E+01 7.44494E+00 1.36878E-07-2.93481E-01 3.25595E+00-9.39503E-03
 -1      1649-1.05336E+01 6.45785E+00 1.10033E-07-2.99562E-01 3.14567E+00-9.50795E-03
 -1      1650-8.89441E+00 5.45274E+00 7.82146E-08-3.04598E-01 3.03416E+00-9.60469E-03
 -1      1651-7.22597E+00 4.43060E+00 4.49482E-08-3.10439E-01 2.92162E+00-9.68495E-03
 -1      1652-5.52948E+00 3.39131E+00 1.17111E-08-3.15543E-01 2.80825E+00-9.74844E-03
 -1      1653-3.80311E+00 2.33235E+00-1.16729E-08-3.20549E-01 2.69423E+00-9.79491E-03
 -1      1654-2.05135E+00 1.25878E+00-2.30687E-08-3.25445E-01 2.57977E+00-9.82404E-03
 -1      1655-2.74374E-01 1.69906E-01-2.99740E-08-3.29967E-01 2.46507E+00-9.83560E-03
 -1      1656 1.52813E+00-9.35394E-01-3.60760E-08-3.34347E-01 2.35034E+00-9.82933E-03
 -1      1657 3.35275E+00-2.05339E+00-4.28552E-08-3.38579E-01 2.23579E+00-9.80500E-03
 -1      1658 5.19967E+00-3.18539E+00-5.01374E-08-3.42461E-01 2.12163E+00-9.76238E-03
 -1      1659 7.06856E+00-4.33121E+00-5.34470E-08-3.46135E-01 2.00807E+00-9.70125E-03
 -1      1660 8.95689E+00-5.48893E+00-5.16211E-08-3.49992E-01 1.89534E+00-9.62142E-03
 -1      1661 1.08630E+01-6.65710E+00-4.84078E-08-3.53253E-01 1.78365E+00-9.52269E-03
 -1      1662 1.27862E+01-7.83445E+00-4.76751E-08-3.56151E-01 1.67322E+00-9.40489E-03
 -1      1663 1.47297E+01-9.02792E+00-4.88422E-08-3.59404E-01 1.56428E+00-9.26782E-03
 -1      1664 1.66845E+01-1.02248E+01-4.95105E-08-3.61876E-01 1.45704E+00-9.11134E-03
 -1      1665 1.86555E+01-1.14327E+01-4.77002E-08-3.64794E-01 1.35175E+00-8.93531E-03
 -1      1666 2.06398E+01-1.26497E+01-4.34703E-08-3.66900E-01 1.24863E+00-8.73957E-03
 -1      1667 2.26387E+01-1.38760E+01-3.95167E-08-3.69104E-01 1.14791E+00-8.52401E-03
 -1      1668 2.46426E+01-1.51016E+01-3.64030E-08-3.71383E-01 1.04981E+00-8.28851E-03
 -1      1669 2.66622E+01-1.63402E+01-3.21854E-08-3.72671E-01 9.54584E-01-8.03296E-03
 -1      1670 2.86907E+01-1.75844E+01-2.60299E-08-3.74078E-01 8.62453E-01-7.75725E-03
 -1      1671 3.07311E+01-1.88369E+01-2.01514E-08-3.76662E-01 7.73658E-01-7.46130E-03
 -1      1672 3.27660E+01-2.00796E+01-1.56523E-08-3.77724E-01 6.88433E-01-7.14504E-03
 -1      1673 3.48232E+01-2.13426E+01-1.11563E-08-3.78259E-01 6.07017E-01-6.80838E-03
 -1      1674 3.68775E+01-2.26034E+01-7.07254E-09-3.79577E-01 5.29648E-01-6.45126E-03
 -1      1675 3.89455E+01-2.38715E+01-4.47422E-09-3.80098E-01 4.56564E-01-6.07363E-03
 -1      1676 4.09976E+01-2.51221E+01-1.66937E-09-3.81543E-01 3.88006E-01-5.67544E-03
 -1      1677 4.30854E+01-2.64099E+01 3.02146E-09-3.82224E-01 3.24214E-01-5.25663E-03
 -1      1678 4.51441E+01-2.76684E+01 8.73124E-09-3.82492E-01 2.65427E-01-4.81719E-03
 -1      1679 4.72378E+01-2.89552E+01 1.55796E-08-3.83169E-01 2.11888E-01-4.35709E-03
 -1      1680 4.92857E+01-3.01995E+01 2.32688E-08-3.82033E-01 1.63837E-01-3.87631E-03
 -1      1681 5.14077E+01-3.15132E+01 3.15510E-08-3.84608E-01 1.21517E-01-3.37479E-03
 -1      1682 5.34677E+01-3.27922E+01 3.98887E-08-3.82917E-01 8.51673E-02-2.85256E-03
 -1      1683 5.54452E+01-3.38593E+01 4.78400E-08-3.88390E-01 5.50316E-02-2.30962E-03
 -1      1684 5.81005E+01-3.60938E+01 5.59641E-08-3.64507E-01 3.13509E-02-1.74585E-03
 -1      1685 5.78940E+01-3.36868E+01 6.26270E-08-4.55171E-01 1.43677E-02-1.16167E-03
 -1      1686 6.85626E+01-4.86168E+01 8.00077E-08-1.20062E-01 4.32453E-03-5.55494E-04
 -1      1687 3.95551E+01-2.22453E-02 9.49025E-08-1.35608E+00 1.06696E-03-2.46416E-04
 -1      1688 8.60380E-03-1.05893E-03 1.08237E-08-3.33383E-05-6.78836E+00 1.93527E-02
 -1      1689 4.10657E-02-2.10592E-02 1.95045E-08-1.24076E-02-6.67546E+00 1.93525E-02
 -1      1690 1.40351E-01-8.19743E-02 3.42667E-08-2.43725E-02-6.44967E+00 1.93515E-02
 -1      1691 3.03883E-01-1.82439E-01 3.26551E-08-3.59462E-02-6.22390E+00 1.93493E-02
 -1      1692 5.28501E-01-3.20107E-01 1.18459E-08-4.70246E-02-5.99816E+00 1.93451E-02
 -1      1693 8.13272E-01-4.95160E-01-1.37483E-08-5.78272E-02-5.77249E+00 1.93384E-02
 -1      1694 1.15346E+00-7.03078E-01-3.66234E-08-6.81395E-02-5.54692E+00 1.93286E-02
 -1      1695 1.55080E+00-9.47609E-01-5.47053E-08-7.79597E-02-5.32148E+00 1.93151E-02
 -1      1696 1.99859E+00-1.22152E+00-6.41981E-08-8.75871E-02-5.09622E+00 1.92973E-02
 -1      1697 2.49808E+00-1.52812E+00-6.75316E-08-9.65017E-02-4.87120E+00 1.92749E-02
 -1      1698 3.04615E+00-1.86451E+00-5.97276E-08-1.05279E-01-4.64647E+00 1.92473E-02
 -1      1699 3.63747E+00-2.22596E+00-3.73029E-08-1.13752E-01-4.42209E+00 1.92140E-02
 -1      1700 4.27617E+00-2.61860E+00-1.39444E-08-1.21073E-01-4.19814E+00 1.91745E-02
 -1      1701 4.95488E+00-3.03500E+00 5.82809E-09-1.29215E-01-3.97468E+00 1.91285E-02
 -1      1702 5.67054E+00-3.47245E+00 2.54136E-08-1.35580E-01-3.75180E+00 1.90756E-02
 -1      1703 6.42728E+00-3.93676E+00 4.02662E-08-1.42435E-01-3.52958E+00 1.90153E-02
 -1      1704 7.21784E+00-4.42329E+00 4.69986E-08-1.49284E-01-3.30811E+00 1.89473E-02
 -1      1705 8.03676E+00-4.92175E+00 4.52224E-08-1.54156E-01-3.08748E+00 1.88713E-02
 -1      1706 8.89421E+00-5.45122E+00 3.71346E-08-1.60334E-01-2.86779E+00 1.87870E-02
 -1      1707 9.77209E+00-5.98670E+00 3.00142E-08-1.64674E-01-2.64912E+00 1.86940E-02
 -1      1708 1.06823E+01-6.54613E+00 2.81224E-08-1.69686E-01-2.43160E+00 1.85921E-02
 -1      1709 1.16139E+01-7.11798E+00 2.80795E-08-1.74319E-01-2.21532E+00 1.84810E-02
 -1      1710 1.25632E+01-7.69617E+00 2.55889E-08-1.77539E-01-2.00039E+00 1.83606E-02
 -1      1711 1.35426E+01-8.30164E+00 2.15351E-08-1.81191E-01-1.78691E+00 1.82305E-02
 -1      1712 1.45293E+01-8.90273E+00 2.06853E-08-1.84131E-01-1.57502E+00 1.80907E-02
 -1      1713 1.55381E+01-9.52305E+00 2.79440E-08-1.87105E-01-1.36481E+00 1.79409E-02
 -1      1714 1.65573E+01-1.01473E+01 3.71445E-08-1.89379E-01-1.15641E+00 1.77811E-02
 -1      1715 1.75875E+01-1.07780E+01 4.81880E-08-1.90996E-01-9.49930E-01 1.76110E-02
 -1      1716 1.86310E+01-1.14193E+01 6.15416E-08-1.92356E-01-7.45498E-01 1.74306E-02
 -1      1717 1.96794E+01-1.20621E+01 6.93122E-08-1.94242E-01-5.43231E-01 1.72397E-02
 -1      1718 2.07303E+01-1.27046E+01 7.34603E-08-1.94864E-01-3.43252E-01 1.70385E-02
 -1      1719 2.17878E+01-1.33527E+01 7.70150E-08-1.94928E-01-1.45682E-01 1.68267E-02
 -1      1720 2.28496E+01-1.40068E+01 7.88824E-08-1.95190E-01 4.93558E-02 1.66043E-02
 -1      1721 2.39040E+01-1.46495E+01 8.08780E-08-1.94733E-01 2.41738E-01 1.63715E-02
 -1      1722 2.49613E+01-1.52996E+01 8.32624E-08-1.94561E-01 4.31340E-01 1.61281E-02
 -1      1723 2.60119E+01-1.59428E+01 8.31542E-08-1.93129E-01 6.18042E-01 1.58742E-02
 -1      1724 2.70584E+01-1.65851E+01 8.03184E-08-1.92322E-01 8.01723E-01 1.56099E-02
 -1      1725 2.80939E+01-1.72194E+01 7.59582E-08-1.90713E-01 9.82258E-01 1.53351E-02
 -1      1726 2.91212E+01-1.78479E+01 6.90895E-08-1.87672E-01 1.15953E+00 1.50502E-02
 -1      1727 3.01405E+01-1.84752E+01 6.13002E-08-1.86770E-01 1.33341E+00 1.47550E-02
 -1      1728 3.11424E+01-1.90893E+01 4.77505E-08-1.83624E-01 1.50379E+00 1.44498E-02
 -1      1729 3.21282E+01-1.96915E+01 3.01337E-08-1.81003E-01 1.67056E+00 1.41346E-02
 -1      1730 3.30992E+01-2.02860E+01 8.40387E-09-1.77239E-01 1.83359E+00 1.38097E-02
 -1      1731 3.40580E+01-2.08787E+01-2.37297E-08-1.74011E-01 1.99277E+00 1.34752E-02
 -1      1732 3.49867E+01-2.14430E+01-5.41865E-08-1.69952E-01 2.14799E+00 1.31314E-02
 -1      1733 3.58997E+01-2.20035E+01-7.94945E-08-1.66553E-01 2.29915E+00 1.27783E-02
 -1      1734 3.67912E+01-2.25519E+01-1.05538E-07-1.61850E-01 2.44614E+00 1.24162E-02
 -1      1735 3.76584E+01-2.30840E+01-1.30763E-07-1.57280E-01 2.58885E+00 1.20454E-02
 -1      1736 3.84947E+01-2.35953E+01-1.56611E-07-1.52773E-01 2.72718E+00 1.16661E-02
 -1      1737 3.93058E+01-2.40891E+01-1.82139E-07-1.45900E-01 2.86105E+00 1.12786E-02
 -1      1738 4.00983E+01-2.45811E+01-2.09579E-07-1.43138E-01 2.99034E+00 1.08831E-02
 -1      1739 4.08465E+01-2.50359E+01-2.32465E-07-1.36786E-01 3.11497E+00 1.04800E-02
 -1      1740 4.15717E+01-2.54803E+01-2.40520E-07-1.30281E-01 3.23486E+00 1.00695E-02
 -1      1741 4.22666E+01-2.59086E+01-2.42947E-07-1.24581E-01 3.34992E+00 9.65189E-03
 -1      1742 4.29272E+01-2.63139E+01-2.46279E-07-1.17639E-01 3.46006E+00 9.22758E-03
 -1      1743 4.35487E+01-2.66920E+01-2.55835E-07-1.13241E-01 3.56522E+00 8.79688E-03
 -1      1744 4.41363E+01-2.70517E+01-2.68124E-07-1.05002E-01 3.66531E+00 8.36014E-03
 -1      1745 4.46951E+01-2.73977E+01-2.74098E-07-9.86596E-02 3.76028E+00 7.91769E-03
 -1      1746 4.52120E+01-2.77148E+01-2.80513E-07-9.16516E-02 3.85005E+00 7.46991E-03
 -1      1747 4.56842E+01-2.80007E+01-2.96638E-07-8.50414E-02 3.93457E+00 7.01719E-03
 -1      1748 4.61248E+01-2.82702E+01-3.20190E-07-7.61071E-02 4.01378E+00 6.55990E-03
 -1      1749 4.65326E+01-2.85269E+01-3.36407E-07-7.08133E-02 4.08763E+00 6.09842E-03
 -1      1750 4.68836E+01-2.87370E+01-3.35895E-07-6.28530E-02 4.15607E+00 5.63317E-03
 -1      1751 4.72008E+01-2.89292E+01-3.25118E-07-5.39948E-02 4.21906E+00 5.16455E-03
 -1      1752 4.74797E+01-2.91027E+01-3.09627E-07-4.74739E-02 4.27657E+00 4.69296E-03
 -1      1753 4.77195E+01-2.92541E+01-2.94428E-07-3.83082E-02 4.32857E+00 4.21882E-03
 -1      1754 4.79039E+01-2.93613E+01-2.81595E-07-3.26779E-02 4.37501E+00 3.74257E-03
 -1      1755 4.80492E+01-2.94493E+01-2.58329E-07-2.27525E-02 4.41589E+00 3.26464E-03
 -1      1756 4.81654E+01-2.95289E+01-2.15813E-07-1.51941E-02 4.45119E+00 2.78544E-03
 -1      1757 4.82138E+01-2.95501E+01-1.60413E-07-7.48257E-03 4.48089E+00 2.30542E-03
 -1      1758 4.82332E+01-2.95637E+01-1.04079E-07 2.51625E-03 4.50498E+00 1.82503E-03
 -1      1759 4.82093E+01-2.95524E+01-5.43551E-08 8.49283E-03 4.52348E+00 1.34469E-03
 -1      1760 4.81338E+01-2.95055E+01-5.70204E-09 1.76698E-02 4.53637E+00 8.64859E-04
 -1      1761 4.80131E+01-2.94287E+01 4.61556E-08 2.54858E-02 4.54366E+00 3.85985E-04
 -1      1762 4.78488E+01-2.93278E+01 8.97980E-08 3.46783E-02 4.54538E+00-9.14837E-05
 -1      1763 4.76459E+01-2.92064E+01 1.18894E-07 4.34022E-02 4.54153E+00-5.67110E-04
 -1      1764 4.73963E+01-2.90562E+01 1.40896E-07 4.99330E-02 4.53216E+00-1.04045E-03
 -1      1765 4.70883E+01-2.88599E+01 1.56956E-07 5.90372E-02 4.51727E+00-1.51104E-03
 -1      1766 4.67466E+01-2.86498E+01 1.64975E-07 6.71888E-02 4.49691E+00-1.97844E-03
 -1      1767 4.63724E+01-2.84315E+01 1.72136E-07 7.55239E-02 4.47112E+00-2.44222E-03
 -1      1768 4.59282E+01-2.81488E+01 1.84649E-07 8.31196E-02 4.43994E+00-2.90192E-03
 -1      1769 4.54575E+01-2.78629E+01 2.01140E-07 9.28874E-02 4.40342E+00-3.35709E-03
 -1      1770 4.49422E+01-2.75495E+01 2.17135E-07 9.87813E-02 4.36162E+00-3.80733E-03
 -1      1771 4.43790E+01-2.72039E+01 2.25537E-07 1.07544E-01 4.31460E+00-4.25219E-03
 -1      1772 4.37728E+01-2.68303E+01 2.26227E-07 1.14951E-01 4.26242E+00-4.69125E-03
 -1      1773 4.31232E+01-2.64300E+01 2.30094E-07 1.23474E-01 4.20515E+00-5.12406E-03
 -1      1774 4.24457E+01-2.60224E+01 2.25354E-07 1.31488E-01 4.14288E+00-5.55023E-03
 -1      1775 4.17084E+01-2.55636E+01 2.04279E-07 1.36977E-01 4.07567E+00-5.96936E-03
 -1      1776 4.09379E+01-2.50917E+01 1.90730E-07 1.45954E-01 4.00361E+00-6.38101E-03
 -1      1777 4.01351E+01-2.46031E+01 1.87766E-07 1.52752E-01 3.92680E+00-6.78480E-03
 -1      1778 3.92866E+01-2.40838E+01 1.78795E-07 1.59939E-01 3.84532E+00-7.18035E-03
 -1      1779 3.83965E+01-2.35331E+01 1.58326E-07 1.67479E-01 3.75928E+00-7.56727E-03
 -1      1780 3.74736E+01-2.29675E+01 1.28859E-07 1.72824E-01 3.66878E+00-7.94517E-03
 -1      1781 3.65192E+01-2.23878E+01 9.53631E-08 1.80247E-01 3.57392E+00-8.31369E-03
 -1      1782 3.55242E+01-2.17760E+01 6.41310E-08 1.86587E-01 3.47482E+00-8.67249E-03
 -1      1783 3.44910E+01-2.11404E+01 3.77585E-08 1.92521E-01 3.37159E+00-9.02121E-03
 -1      1784 3.34296E+01-2.04895E+01 1.61765E-08 1.99830E-01 3.26435E+00-9.35951E-03
 -1      1785 3.23416E+01-1.98277E+01-3.27624E-09 2.04141E-01 3.15323E+00-9.68707E-03
 -1      1786 3.12080E+01-1.91273E+01-1.76922E-08 2.10095E-01 3.03835E+00-1.00036E-02
 -1      1787 3.00542E+01-1.84214E+01-1.90634E-08 2.16122E-01 2.91984E+00-1.03087E-02
 -1      1788 2.88726E+01-1.76991E+01-1.01748E-08 2.21015E-01 2.79784E+00-1.06022E-02
 -1      1789 2.76587E+01-1.69544E+01 1.38324E-09 2.26027E-01 2.67248E+00-1.08838E-02
 -1      1790 2.64193E+01-1.61934E+01 8.65470E-09 2.31028E-01 2.54392E+00-1.11531E-02
 -1      1791 2.51548E+01-1.54177E+01 8.40829E-09 2.35038E-01 2.41228E+00-1.14100E-02
 -1      1792 2.38699E+01-1.46331E+01 8.43846E-09 2.39608E-01 2.27772E+00-1.16541E-02
 -1      1793 2.25586E+01-1.38277E+01 1.26102E-08 2.43795E-01 2.14038E+00-1.18854E-02
 -1      1794 2.12245E+01-1.30082E+01 1.88568E-08 2.46990E-01 2.00042E+00-1.21035E-02
 -1      1795 1.98753E+01-1.21827E+01 2.47645E-08 2.51461E-01 1.85800E+00-1.23082E-02
 -1      1796 1.85086E+01-1.13468E+01 3.11006E-08 2.53795E-01 1.71327E+00-1.24993E-02
 -1      1797 1.71178E+01-1.04914E+01 3.74461E-08 2.56983E-01 1.56638E+00-1.26768E-02
 -1      1798 1.57170E+01-9.63347E+00 3.79357E-08 2.59995E-01 1.41751E+00-1.28403E-02
 -1      1799 1.43021E+01-8.76718E+00 3.46150E-08 2.62312E-01 1.26681E+00-1.29898E-02
 -1      1800 1.28735E+01-7.89123E+00 2.98213E-08 2.64691E-01 1.11445E+00-1.31251E-02
 -1      1801 1.14333E+01-7.00784E+00 2.25941E-08 2.66038E-01 9.60594E-01-1.32462E-02
 -1      1802 9.98342E+00-6.11871E+00 1.55361E-08 2.68080E-01 8.05409E-01-1.33529E-02
 -1      1803 8.52875E+00-5.22869E+00 1.06883E-08 2.69275E-01 6.49063E-01-1.34451E-02
 -1      1804 7.06348E+00-4.32897E+00 4.49656E-09 2.70281E-01 4.91726E-01-1.35230E-02
 -1      1805 5.59620E+00-3.43002E+00-1.35874E-09 2.71226E-01 3.33568E-01-1.35865E-02
 -1      1806 4.12544E+00-2.52905E+00-5.98207E-09 2.71444E-01 1.74761E-01-1.36352E-02
 -1      1807 2.65090E+00-1.62453E+00-1.13990E-08 2.71739E-01 1.54735E-02-1.36690E-02
 -1      1808 1.17766E+00-7.21707E-01-1.69646E-08 2.71581E-01-1.44123E-01-1.36880E-02
 -1      1809-2.94767E-01 1.80867E-01-2.32640E-08 2.71175E-01-3.03855E-01-1.36924E-02
 -1      1810-1.76368E+00 1.08111E+00-2.96061E-08 2.70455E-01-4.63553E-01-1.36822E-02
 -1      1811-3.22909E+00 1.97980E+00-3.58770E-08 2.69411E-01-6.23047E-01-1.36573E-02
 -1      1812-4.68692E+00 2.87297E+00-4.06934E-08 2.68342E-01-7.82164E-01-1.36179E-02
 -1      1813-6.13727E+00 3.76170E+00-4.53603E-08 2.66562E-01-9.40737E-01-1.35640E-02
 -1      1814-7.58056E+00 4.64771E+00-5.15105E-08 2.64744E-01-1.09860E+00-1.34956E-02
 -1      1815-9.00900E+00 5.52184E+00-5.44188E-08 2.62700E-01-1.25558E+00-1.34130E-02
 -1      1816-1.04280E+01 6.39199E+00-5.02397E-08 2.59899E-01-1.41151E+00-1.33162E-02
 -1      1817-1.18328E+01 7.25365E+00-3.94513E-08 2.57681E-01-1.56623E+00-1.32053E-02
 -1      1818-1.32216E+01 8.10503E+00-2.64089E-08 2.54449E-01-1.71958E+00-1.30806E-02
 -1      1819-1.45929E+01 8.94551E+00-1.89344E-08 2.51307E-01-1.87139E+00-1.29420E-02
 -1      1820-1.59441E+01 9.77187E+00-1.91936E-08 2.47376E-01-2.02151E+00-1.27900E-02
 -1      1821-1.72811E+01 1.05942E+01-2.24788E-08 2.43671E-01-2.16977E+00-1.26245E-02
 -1      1822-1.85909E+01 1.13957E+01-2.43497E-08 2.40246E-01-2.31602E+00-1.24458E-02
 -1      1823-1.98783E+01 1.21841E+01-2.52838E-08 2.35175E-01-2.46012E+00-1.22542E-02
 -1      1824-2.11455E+01 1.29624E+01-2.72610E-08 2.30741E-01-2.60191E+00-1.20499E-02
 -1      1825-2.23848E+01 1.37225E+01-3.13752E-08 2.25852E-01-2.74123E+00-1.18331E-02
 -1      1826-2.35929E+01 1.44608E+01-3.87775E-08 2.20961E-01-2.87796E+00-1.16042E-02
 -1      1827-2.47777E+01 1.51876E+01-5.28609E-08 2.14703E-01-3.01195E+00-1.13633E-02
 -1      1828-2.59329E+01 1.58971E+01-7.39867E-08 2.10252E-01-3.14306E+00-1.11107E-02
 -1      1829-2.70548E+01 1.65848E+01-9.35962E-08 2.03878E-01-3.27116E+00-1.08468E-02
 -1      1830-2.81432E+01 1.72506E+01-1.03109E-07 1.98107E-01-3.39611E+00-1.05719E-02
 -1      1831-2.91977E+01 1.78956E+01-1.00626E-07 1.91232E-01-3.51779E+00-1.02863E-02
 -1      1832-3.02260E+01 1.85307E+01-8.80523E-08 1.84465E-01-3.63608E+00-9.99039E-03
 -1      1833-3.12074E+01 1.91294E+01-7.40749E-08 1.79094E-01-3.75086E+00-9.68446E-03
 -1      1834-3.21530E+01 1.97067E+01-6.30536E-08 1.70771E-01-3.86201E+00-9.36890E-03
 -1      1835-3.30675E+01 2.02698E+01-4.96375E-08 1.64540E-01-3.96943E+00-9.04407E-03
 -1      1836-3.39397E+01 2.08066E+01-3.84082E-08 1.56725E-01-4.07301E+00-8.71037E-03
 -1      1837-3.47676E+01 2.13106E+01-3.47511E-08 1.49063E-01-4.17264E+00-8.36820E-03
 -1      1838-3.55561E+01 2.17931E+01-3.27505E-08 1.42009E-01-4.26823E+00-8.01796E-03
 -1      1839-3.63092E+01 2.22602E+01-2.45708E-08 1.33661E-01-4.35970E+00-7.66006E-03
 -1      1840-3.70080E+01 2.26834E+01-1.09040E-08 1.26107E-01-4.44694E+00-7.29493E-03
 -1      1841-3.76671E+01 2.30874E+01-2.41063E-09 1.17196E-01-4.52989E+00-6.92302E-03
 -1      1842-3.82878E+01 2.34711E+01 3.21669E-09 1.08477E-01-4.60845E+00-6.54474E-03
 -1      1843-3.88579E+01 2.38207E+01 1.16730E-08 1.01470E-01-4.68257E+00-6.16056E-03
 -1      1844-3.93756E+01 2.41345E+01 1.35102E-08 9.25026E-02-4.75218E+00-5.77094E-03
 -1      1845-3.98542E+01 2.44288E+01 1.21421E-08 8.30183E-02-4.81721E+00-5.37635E-03
 -1      1846-4.02859E+01 2.46954E+01 2.73494E-08 7.45759E-02-4.87761E+00-4.97723E-03
 -1      1847-4.06675E+01 2.49313E+01 6.13755E-08 6.55286E-02-4.93333E+00-4.57408E-03
 -1      1848-4.09944E+01 2.51261E+01 9.10269E-08 5.58800E-02-4.98433E+00-4.16740E-03
 -1      1849-4.12759E+01 2.52977E+01 1.03935E-07 4.83198E-02-5.03056E+00-3.75764E-03
 -1      1850-4.15184E+01 2.54557E+01 1.02778E-07 3.80941E-02-5.07200E+00-3.34532E-03
 -1      1851-4.16922E+01 2.55539E+01 8.89974E-08 2.93879E-02-5.10861E+00-2.93093E-03
 -1      1852-4.18246E+01 2.56363E+01 6.32552E-08 1.91844E-02-5.14038E+00-2.51499E-03
 -1      1853-4.19109E+01 2.56920E+01 3.51500E-08 9.42466E-03-5.16729E+00-2.09797E-03
 -1      1854-4.19415E+01 2.57110E+01 1.86381E-08 1.55845E-03-5.18933E+00-1.68039E-03
 -1      1855-4.19145E+01 2.56911E+01 1.88674E-08-8.34953E-03-5.20650E+00-1.26277E-03
 -1      1856-4.18428E+01 2.56467E+01 3.35966E-08-1.85730E-02-5.21880E+00-8.45627E-04
 -1      1857-4.17250E+01 2.55806E+01 4.29323E-08-2.78508E-02-5.22624E+00-4.29454E-04
 -1      1858-4.15428E+01 2.54628E+01 4.23516E-08-3.76083E-02-5.22883E+00-1.47776E-05
 -1      1859-4.13159E+01 2.53248E+01 5.31615E-08-4.63549E-02-5.22659E+00 3.97885E-04
 -1      1860-4.10384E+01 2.51565E+01 6.76034E-08-5.64169E-02-5.21956E+00 8.08023E-04
 -1      1861-4.07110E+01 2.49587E+01 7.18486E-08-6.58738E-02-5.20776E+00 1.21513E-03
 -1      1862-4.03204E+01 2.47126E+01 8.30966E-08-7.53407E-02-5.19122E+00 1.61868E-03
 -1      1863-3.98879E+01 2.44477E+01 1.07761E-07-8.54011E-02-5.17000E+00 2.01815E-03
 -1      1864-3.94102E+01 2.41614E+01 1.38607E-07-9.34895E-02-5.14415E+00 2.41306E-03
 -1      1865-3.88703E+01 2.38274E+01 1.75896E-07-1.03586E-01-5.11372E+00 2.80289E-03
 -1      1866-3.82823E+01 2.34655E+01 2.13033E-07-1.12438E-01-5.07878E+00 3.18712E-03
 -1      1867-3.76448E+01 2.30738E+01 2.35518E-07-1.22369E-01-5.03938E+00 3.56526E-03
 -1      1868-3.69643E+01 2.26621E+01 2.39454E-07-1.31266E-01-4.99561E+00 3.93681E-03
 -1      1869-3.62231E+01 2.22025E+01 2.34539E-07-1.40551E-01-4.94755E+00 4.30128E-03
 -1      1870-3.54388E+01 2.17226E+01 2.16153E-07-1.48858E-01-4.89528E+00 4.65818E-03
 -1      1871-3.46077E+01 2.12153E+01 1.79435E-07-1.58165E-01-4.83890E+00 5.00701E-03
 -1      1872-3.37276E+01 2.06760E+01 1.40417E-07-1.66860E-01-4.77849E+00 5.34731E-03
 -1      1873-3.27953E+01 2.01021E+01 1.10150E-07-1.75241E-01-4.71416E+00 5.67860E-03
 -1      1874-3.18206E+01 1.95039E+01 8.77584E-08-1.84900E-01-4.64603E+00 6.00041E-03
 -1      1875-3.08074E+01 1.88893E+01 6.36860E-08-1.91947E-01-4.57420E+00 6.31228E-03
 -1      1876-2.97315E+01 1.82223E+01 2.95674E-08-2.00718E-01-4.49879E+00 6.61376E-03
 -1      1877-2.86233E+01 1.75444E+01-1.05131E-08-2.08838E-01-4.41992E+00 6.90439E-03
 -1      1878-2.74725E+01 1.68428E+01-5.73190E-08-2.16912E-01-4.33773E+00 7.18374E-03
 -1      1879-2.62744E+01 1.61069E+01-1.12272E-07-2.25159E-01-4.25235E+00 7.45139E-03
 -1      1880-2.50335E+01 1.53451E+01-1.67536E-07-2.31616E-01-4.16391E+00 7.70690E-03
 -1      1881-2.37517E+01 1.45589E+01-2.10626E-07-2.40103E-01-4.07257E+00 7.94985E-03
 -1      1882-2.24344E+01 1.37538E+01-2.29270E-07-2.47178E-01-3.97847E+00 8.17985E-03
 -1      1883-2.10731E+01 1.29186E+01-2.24330E-07-2.54385E-01-3.88176E+00 8.39651E-03
 -1      1884-1.96736E+01 1.20598E+01-2.08572E-07-2.61510E-01-3.78261E+00 8.59942E-03
 -1      1885-1.82376E+01 1.11793E+01-1.91527E-07-2.67950E-01-3.68117E+00 8.78822E-03
 -1      1886-1.67677E+01 1.02808E+01-1.76928E-07-2.74797E-01-3.57761E+00 8.96253E-03
 -1      1887-1.52575E+01 9.35278E+00-1.64007E-07-2.81031E-01-3.47210E+00 9.12200E-03
 -1      1888-1.37155E+01 8.40778E+00-1.52243E-07-2.87537E-01-3.36482E+00 9.26628E-03
 -1      1889-1.21421E+01 7.44494E+00-1.36878E-07-2.93481E-01-3.25595E+00 9.39504E-03
 -1      1890-1.05336E+01 6.45785E+00-1.10033E-07-2.99562E-01-3.14567E+00 9.50795E-03
 -1      1891-8.89441E+00 5.45274E+00-7.82146E-08-3.04598E-01-3.03416E+00 9.60469E-03
 -1      1892-7.22597E+00 4.43060E+00-4.49482E-08-3.10439E-01-2.92162E+00 9.68495E-03
 -1      1893-5.52948E+00 3.39131E+00-1.17111E-08-3.15543E-01-2.80825E+00 9.74845E-03
 -1      1894-3.80311E+00 2.33235E+00 1.16729E-08-3.20549E-01-2.69423E+00 9.79491E-03
 -1      1895-2.05135E+00 1.25878E+00 2.30687E-08-3.25445E-01-2.57977E+00 9.82404E-03
 -1      1896-2.74374E-01 1.69906E-01 2.99740E-08-3.29967E-01-2.46507E+00 9.83560E-03
 -1      1897 1.52813E+00-9.35394E-01 3.60760E-08-3.34347E-01-2.35034E+00 9.82933E-03
 -1      1898 3.35275E+00-2.05339E+00 4.28552E-08-3.38579E-01-2.23579E+00 9.80500E-03
 -1      1899 5.19967E+00-3.18539E+00 5.01374E-08-3.42461E-01-2.12163E+00 9.76238E-03
 -1      1900 7.06856E+00-4.33120E+00 5.34470E-08-3.46135E-01-2.00807E+00 9.70125E-03
 -1      1901 8.95689E+00-5.48893E+00 5.16211E-08-3.49992E-01-1.89534E+00 9.62142E-03
 -1      1902 1.08630E+01-6.65710E+00 4.84078E-08-3.53253E-01-1.78365E+00 9.52269E-03
 -1      1903 1.27862E+01-7.83445E+00 4.76751E-08-3.56151E-01-1.67322E+00 9.40489E-03
 -1      1904 1.47297E+01-9.02792E+00 4.88422E-08-3.59404E-01-1.56428E+00 9.26782E-03
 -1      1905 1.66845E+01-1.02248E+01 4.95105E-08-3.61876E-01-1.45704E+00 9.11134E-03
 -1      1906 1.86555E+01-1.14327E+01 4.77002E-08-3.64794E-01-1.35175E+00 8.93531E-03
 -1      1907 2.06398E+01-1.26497E+01 4.34703E-08-3.66900E-01-1.24863E+00 8.73957E-03
 -1      1908 2.26387E+01-1.38760E+01 3.95167E-08-3.69104E-01-1.14791E+00 8.52401E-03
 -1      1909 2.46426E+01-1.51016E+01 3.64030E-08-3.71383E-01-1.04981E+00 8.28851E-03
 -1      1910 2.66622E+01-1.63402E+01 3.21854E-08-3.72671E-01-9.54583E-01 8.03296E-03
 -1      1911 2.86907E+01-1.75844E+01 2.60299E-08-3.74078E-01-8.62453E-01 7.75725E-03
 -1      1912 3.07311E+01-1.88369E+01 2.01514E-08-3.76662E-01-7.73658E-01 7.46130E-03
 -1      1913 3.27660E+01-2.00796E+01 1.56523E-08-3.77724E-01-6.88433E-01 7.14503E-03
 -1      1914 3.48232E+01-2.13426E+01 1.11563E-08-3.78259E-01-6.07017E-01 6.80838E-03
 -1      1915 3.68775E+01-2.26034E+01 7.07254E-09-3.79577E-01-5.29647E-01 6.45125E-03
 -1      1916 3.89455E+01-2.38715E+01 4.47422E-09-3.80098E-01-4.56564E-01 6.07362E-03
 -1      1917 4.09976E+01-2.51221E+01 1.66937E-09-3.81543E-01-3.88006E-01 5.67544E-03
 -1      1918 4.30854E+01-2.64099E+01-3.02146E-09-3.82224E-01-3.24214E-01 5.25663E-03
 -1      1919 4.51441E+01-2.76684E+01-8.73124E-09-3.82492E-01-2.65427E-01 4.81719E-03
 -1      1920 4.72378E+01-2.89552E+01-1.55796E-08-3.83169E-01-2.11888E-01 4.35709E-03
 -1      1921 4.92857E+01-3.01995E+01-2.32688E-08-3.82033E-01-1.63837E-01 3.87631E-03
 -1      1922 5.14077E+01-3.15132E+01-3.15510E-08-3.84608E-01-1.21517E-01 3.37479E-03
 -1      1923 5.34677E+01-3.27922E+01-3.98887E-08-3.82917E-01-8.51673E-02 2.85256E-03
 -1      1924 5.54452E+01-3.38593E+01-4.78400E-08-3.88390E-01-5.50316E-02 2.30962E-03
 -1      1925 5.81005E+01-3.60938E+01-5.59641E-08-3.64507E-01-3.13508E-02 1.74585E-03
 -1      1926 5.78940E+01-3.36868E+01-6.26270E-08-4.55171E-01-1.43677E-02 1.16167E-03
 -1      1927 6.85626E+01-4.86168E+01-8.00077E-08-1.20062E-01-4.32452E-03 5.55494E-04
 -1      1928 3.95551E+01-2.22453E-02-9.49025E-08-1.35608E+00-1.06696E-03 2.46416E-04
 -1      1929 1.49893E-02-2.46152E-03-1.59411E-08 1.60735E-03 6.78836E+00-2.90298E-02
 -1      1930 8.37356E-02-4.50407E-02-3.04089E-08-7.86110E-03 6.67546E+00-2.90295E-02
 -1      1931 2.82649E-01-1.66812E-01-5.21595E-08-1.52090E-02 6.44967E+00-2.90281E-02
 -1      1932 6.09460E-01-3.67716E-01-4.82911E-08-2.25290E-02 6.22390E+00-2.90247E-02
 -1      1933 1.05914E+00-6.43377E-01-1.81926E-08-2.94276E-02 5.99816E+00-2.90185E-02
 -1      1934 1.62699E+00-9.91376E-01 2.01579E-08-3.61855E-02 5.77249E+00-2.90084E-02
 -1      1935 2.31032E+00-1.41086E+00 5.65334E-08-4.26159E-02 5.54692E+00-2.89936E-02
 -1      1936 3.10188E+00-1.89600E+00 8.23709E-08-4.87360E-02 5.32148E+00-2.89734E-02
 -1      1937 3.99945E+00-2.44608E+00 9.74604E-08-5.48164E-02 5.09622E+00-2.89468E-02
 -1      1938 4.99891E+00-3.06024E+00 1.03405E-07-6.03297E-02 4.87120E+00-2.89132E-02
 -1      1939 6.09038E+00-3.72648E+00 8.66715E-08-6.59975E-02 4.64646E+00-2.88718E-02
 -1      1940 7.28089E+00-4.45978E+00 5.41828E-08-7.08435E-02 4.42209E+00-2.88218E-02
 -1      1941 8.55199E+00-5.23676E+00 2.28290E-08-7.60064E-02 4.19813E+00-2.87626E-02
 -1      1942 9.90939E+00-6.06927E+00-8.06976E-09-8.04156E-02 3.97468E+00-2.86936E-02
 -1      1943 1.13493E+01-6.95572E+00-3.89132E-08-8.52920E-02 3.75180E+00-2.86142E-02
 -1      1944 1.28494E+01-7.86636E+00-5.91928E-08-8.91279E-02 3.52958E+00-2.85238E-02
 -1      1945 1.44389E+01-8.85047E+00-7.04696E-08-9.27524E-02 3.30811E+00-2.84218E-02
 -1      1946 1.60793E+01-9.85071E+00-6.95877E-08-9.69700E-02 3.08748E+00-2.83078E-02
 -1      1947 1.77859E+01-1.08982E+01-5.47772E-08-9.95547E-02 2.86778E+00-2.81812E-02
 -1      1948 1.95519E+01-1.19833E+01-4.47646E-08-1.03885E-01 2.64912E+00-2.80417E-02
 -1      1949 2.13598E+01-1.30849E+01-4.13115E-08-1.05588E-01 2.43159E+00-2.78889E-02
 -1      1950 2.32304E+01-1.42386E+01-4.00404E-08-1.09034E-01 2.21531E+00-2.77223E-02
 -1      1951 2.51348E+01-1.54023E+01-3.96591E-08-1.10880E-01 2.00038E+00-2.75416E-02
 -1      1952 2.70824E+01-1.65985E+01-3.39274E-08-1.13365E-01 1.78691E+00-2.73466E-02
 -1      1953 2.90631E+01-1.78103E+01-3.02878E-08-1.15512E-01 1.57501E+00-2.71368E-02
 -1      1954 3.10758E+01-1.90440E+01-4.13146E-08-1.16550E-01 1.36480E+00-2.69122E-02
 -1      1955 3.31182E+01-2.02981E+01-5.58326E-08-1.18446E-01 1.15640E+00-2.66723E-02
 -1      1956 3.51823E+01-2.15639E+01-7.23003E-08-1.19405E-01 9.49921E-01-2.64172E-02
 -1      1957 3.72605E+01-2.28351E+01-9.20667E-08-1.20799E-01 7.45489E-01-2.61466E-02
 -1      1958 3.93568E+01-2.41197E+01-1.03447E-07-1.20940E-01 5.43223E-01-2.58604E-02
 -1      1959 4.14690E+01-2.54183E+01-1.10198E-07-1.21795E-01 3.43244E-01-2.55584E-02
 -1      1960 4.35794E+01-2.67086E+01-1.15381E-07-1.21787E-01 1.45673E-01-2.52407E-02
 -1      1961 4.56995E+01-2.80119E+01-1.18222E-07-1.22172E-01-4.93645E-02-2.49072E-02
 -1      1962 4.78113E+01-2.93016E+01-1.20929E-07-1.22219E-01-2.41746E-01-2.45579E-02
 -1      1963 4.99253E+01-3.06002E+01-1.23980E-07-1.21203E-01-4.31349E-01-2.41928E-02
 -1      1964 5.20286E+01-3.18901E+01-1.23955E-07-1.21266E-01-6.18051E-01-2.38120E-02
 -1      1965 5.41139E+01-3.31633E+01-1.20894E-07-1.19649E-01-8.01732E-01-2.34155E-02
 -1      1966 5.61992E+01-3.44517E+01-1.13840E-07-1.19205E-01-9.82267E-01-2.30034E-02
 -1      1967 5.82454E+01-3.56969E+01-1.03201E-07-1.18061E-01-1.15954E+00-2.25759E-02
 -1      1968 6.02774E+01-3.69432E+01-9.12192E-08-1.16186E-01-1.33342E+00-2.21331E-02
 -1      1969 6.22893E+01-3.81818E+01-7.08403E-08-1.14563E-01-1.50380E+00-2.16753E-02
 -1      1970 6.42624E+01-3.93875E+01-4.52042E-08-1.13175E-01-1.67057E+00-2.12025E-02
 -1      1971 6.62055E+01-4.05788E+01-1.12051E-08-1.10786E-01-1.83359E+00-2.07152E-02
 -1      1972 6.81150E+01-4.17528E+01 3.53676E-08-1.08827E-01-1.99278E+00-2.02134E-02
 -1      1973 6.99781E+01-4.28896E+01 8.02549E-08-1.07102E-01-2.14800E+00-1.96976E-02
 -1      1974 7.18024E+01-4.40070E+01 1.19262E-07-1.03285E-01-2.29916E+00-1.91680E-02
 -1      1975 7.35889E+01-4.51097E+01 1.58672E-07-1.01202E-01-2.44615E+00-1.86249E-02
 -1      1976 7.53116E+01-4.61576E+01 1.97142E-07-9.80669E-02-2.58886E+00-1.80686E-02
 -1      1977 7.70047E+01-4.72072E+01 2.35423E-07-9.57975E-02-2.72719E+00-1.74997E-02
 -1      1978 7.86168E+01-4.81817E+01 2.71337E-07-9.28476E-02-2.86105E+00-1.69184E-02
 -1      1979 8.01831E+01-4.91404E+01 3.13148E-07-8.79706E-02-2.99035E+00-1.63252E-02
 -1      1980 8.17109E+01-5.00925E+01 3.49760E-07-8.50927E-02-3.11498E+00-1.57204E-02
 -1      1981 8.31472E+01-5.09605E+01 3.62108E-07-8.14730E-02-3.23487E+00-1.51046E-02
 -1      1982 8.45398E+01-5.18233E+01 3.65925E-07-7.81186E-02-3.34992E+00-1.44782E-02
 -1      1983 8.58487E+01-5.26163E+01 3.70161E-07-7.43921E-02-3.46007E+00-1.38417E-02
 -1      1984 8.71006E+01-5.33848E+01 3.84545E-07-6.98230E-02-3.56522E+00-1.31957E-02
 -1      1985 8.82881E+01-5.41197E+01 4.02479E-07-6.54525E-02-3.66532E+00-1.25405E-02
 -1      1986 8.93885E+01-5.47893E+01 4.10437E-07-6.17269E-02-3.76028E+00-1.18768E-02
 -1      1987 9.04206E+01-5.54218E+01 4.20790E-07-5.72172E-02-3.85005E+00-1.12051E-02
 -1      1988 9.13845E+01-5.60177E+01 4.45038E-07-5.32338E-02-3.93457E+00-1.05260E-02
 -1      1989 9.22555E+01-5.65453E+01 4.80350E-07-4.85972E-02-4.01378E+00-9.84007E-03
 -1      1990 9.30495E+01-5.70282E+01 5.04572E-07-4.32559E-02-4.08763E+00-9.14785E-03
 -1      1991 9.37864E+01-5.74965E+01 5.02703E-07-3.91046E-02-4.15607E+00-8.44994E-03
 -1      1992 9.44058E+01-5.78589E+01 4.86686E-07-3.47059E-02-4.21906E+00-7.74697E-03
 -1      1993 9.49666E+01-5.82116E+01 4.65417E-07-2.90590E-02-4.27657E+00-7.03956E-03
 -1      1994 9.54316E+01-5.84949E+01 4.42770E-07-2.46108E-02-4.32856E+00-6.32834E-03
 -1      1995 9.58107E+01-5.87217E+01 4.22481E-07-1.95664E-02-4.37501E+00-5.61395E-03
 -1      1996 9.61191E+01-5.89226E+01 3.87805E-07-1.38462E-02-4.41589E+00-4.89701E-03
 -1      1997 9.63137E+01-5.90307E+01 3.24093E-07-9.53059E-03-4.45118E+00-4.17819E-03
 -1      1998 9.64486E+01-5.91245E+01 2.40823E-07-4.77667E-03-4.48088E+00-3.45814E-03
 -1      1999 9.64692E+01-5.91266E+01 1.56950E-07 5.91845E-04-4.50498E+00-2.73752E-03
 -1      2000 9.64106E+01-5.90906E+01 8.26978E-08 6.10660E-03-4.52347E+00-2.01701E-03
 -1      2001 9.62748E+01-5.90171E+01 8.98900E-09 1.15674E-02-4.53636E+00-1.29725E-03
 -1      2002 9.60304E+01-5.88583E+01-6.94404E-08 1.58724E-02-4.54365E+00-5.78908E-04
 -1      2003 9.57141E+01-5.86741E+01-1.36395E-07 2.16708E-02-4.54537E+00 1.37335E-04
 -1      2004 9.52851E+01-5.83995E+01-1.80386E-07 2.58590E-02-4.54152E+00 8.50799E-04
 -1      2005 9.47845E+01-5.80990E+01-2.10929E-07 3.24732E-02-4.53214E+00 1.56080E-03
 -1      2006 9.41925E+01-5.77362E+01-2.34335E-07 3.59700E-02-4.51725E+00 2.26671E-03
 -1      2007 9.35021E+01-5.73083E+01-2.47975E-07 4.31905E-02-4.49689E+00 2.96785E-03
 -1      2008 9.27321E+01-5.68428E+01-2.59362E-07 4.72298E-02-4.47110E+00 3.66352E-03
 -1      2009 9.18742E+01-5.63178E+01-2.77930E-07 5.19098E-02-4.43992E+00 4.35309E-03
 -1      2010 9.09167E+01-5.57247E+01-3.03051E-07 5.71514E-02-4.40340E+00 5.03589E-03
 -1      2011 8.98772E+01-5.50859E+01-3.26624E-07 6.24840E-02-4.36160E+00 5.71125E-03
 -1      2012 8.87640E+01-5.44133E+01-3.37865E-07 6.77632E-02-4.31458E+00 6.37855E-03
 -1      2013 8.75479E+01-5.36595E+01-3.38704E-07 7.17548E-02-4.26240E+00 7.03714E-03
 -1      2014 8.62635E+01-5.28804E+01-3.44889E-07 7.71452E-02-4.20513E+00 7.68640E-03
 -1      2015 8.48756E+01-5.20205E+01-3.37452E-07 8.13393E-02-4.14285E+00 8.32568E-03
 -1      2016 8.34205E+01-5.11297E+01-3.06151E-07 8.64614E-02-4.07564E+00 8.95436E-03
 -1      2017 8.18905E+01-5.01996E+01-2.86118E-07 9.16130E-02-4.00359E+00 9.57186E-03
 -1      2018 8.02622E+01-4.91932E+01-2.80885E-07 9.53407E-02-3.92677E+00 1.01776E-02
 -1      2019 7.85789E+01-4.81730E+01-2.67714E-07 9.99755E-02-3.84529E+00 1.07709E-02
 -1      2020 7.67939E+01-4.70647E+01-2.37348E-07 1.03071E-01-3.75925E+00 1.13513E-02
 -1      2021 7.49485E+01-4.59341E+01-1.92780E-07 1.09705E-01-3.66875E+00 1.19182E-02
 -1      2022 7.30428E+01-4.47796E+01-1.43054E-07 1.12926E-01-3.57389E+00 1.24710E-02
 -1      2023 7.10418E+01-4.35415E+01-9.58367E-08 1.16661E-01-3.47479E+00 1.30092E-02
 -1      2024 6.89931E+01-4.22933E+01-5.52014E-08 1.20339E-01-3.37155E+00 1.35323E-02
 -1      2025 6.68617E+01-4.09808E+01-2.30710E-08 1.24226E-01-3.26432E+00 1.40397E-02
 -1      2026 6.46698E+01-3.96361E+01 5.21124E-09 1.28313E-01-3.15319E+00 1.45311E-02
 -1      2027 6.24277E+01-3.82688E+01 2.68588E-08 1.31537E-01-3.03831E+00 1.50058E-02
 -1      2028 6.01111E+01-3.68442E+01 2.88178E-08 1.35147E-01-2.91980E+00 1.54636E-02
 -1      2029 5.77407E+01-3.53915E+01 1.52521E-08 1.38043E-01-2.79780E+00 1.59038E-02
 -1      2030 5.53202E+01-3.39111E+01-8.55101E-10 1.41401E-01-2.67245E+00 1.63262E-02
 -1      2031 5.28382E+01-3.23854E+01-1.15245E-08 1.43826E-01-2.54388E+00 1.67302E-02
 -1      2032 5.03097E+01-3.08345E+01-1.18260E-08 1.47532E-01-2.41224E+00 1.71155E-02
 -1      2033 4.77412E+01-2.92679E+01-1.19334E-08 1.49880E-01-2.27768E+00 1.74818E-02
 -1      2034 4.51126E+01-2.76486E+01-1.87744E-08 1.51980E-01-2.14034E+00 1.78286E-02
 -1      2035 4.24543E+01-2.60229E+01-2.74793E-08 1.54844E-01-2.00038E+00 1.81557E-02
 -1      2036 3.97513E+01-2.43662E+01-3.54105E-08 1.56888E-01-1.85796E+00 1.84628E-02
 -1      2037 3.70082E+01-2.26816E+01-4.55398E-08 1.59041E-01-1.71323E+00 1.87496E-02
 -1      2038 3.42412E+01-2.09905E+01-5.44714E-08 1.60763E-01-1.56634E+00 1.90157E-02
 -1      2039 3.14333E+01-1.92658E+01-5.51361E-08 1.62553E-01-1.41747E+00 1.92610E-02
 -1      2040 2.86033E+01-1.75337E+01-5.15659E-08 1.63856E-01-1.26677E+00 1.94853E-02
 -1      2041 2.57436E+01-1.57784E+01-4.35528E-08 1.65315E-01-1.11441E+00 1.96883E-02
 -1      2042 2.28648E+01-1.40140E+01-3.19183E-08 1.66557E-01-9.60552E-01 1.98699E-02
 -1      2043 1.99691E+01-1.22413E+01-2.24018E-08 1.67667E-01-8.05367E-01 2.00299E-02
 -1      2044 1.70523E+01-1.04513E+01-1.39512E-08 1.68298E-01-6.49020E-01 2.01682E-02
 -1      2045 1.41270E+01-8.65986E+00-4.50433E-09 1.68902E-01-4.91684E-01 2.02849E-02
 -1      2046 1.11896E+01-6.85779E+00 2.25433E-09 1.69486E-01-3.33527E-01 2.03800E-02
 -1      2047 8.24599E+00-5.05399E+00 9.33144E-09 1.69753E-01-1.74718E-01 2.04529E-02
 -1      2048 5.30018E+00-3.24890E+00 1.85187E-08 1.69893E-01-1.54309E-02 2.05035E-02
 -1      2049 2.35215E+00-1.44113E+00 2.79479E-08 1.69801E-01 1.44166E-01 2.05321E-02
 -1      2050-5.91209E-01 3.62249E-01 3.73834E-08 1.69493E-01 3.03899E-01 2.05387E-02
 -1      2051-3.53043E+00 2.16478E+00 4.55776E-08 1.69055E-01 4.63597E-01 2.05233E-02
 -1      2052-6.45828E+00 3.95855E+00 5.48902E-08 1.68486E-01 6.23089E-01 2.04860E-02
 -1      2053-9.37522E+00 5.74648E+00 6.29396E-08 1.67690E-01 7.82206E-01 2.04269E-02
 -1      2054-1.22775E+01 7.52652E+00 7.01874E-08 1.66549E-01 9.40780E-01 2.03460E-02
 -1      2055-1.51583E+01 9.29092E+00 7.85120E-08 1.65465E-01 1.09864E+00 2.02435E-02
 -1      2056-1.80218E+01 1.10481E+01 8.29691E-08 1.64201E-01 1.25562E+00 2.01196E-02
 -1      2057-2.08553E+01 1.27828E+01 7.70852E-08 1.62686E-01 1.41155E+00 1.99744E-02
 -1      2058-2.36633E+01 1.45039E+01 6.05458E-08 1.60936E-01 1.56627E+00 1.98081E-02
 -1      2059-2.64423E+01 1.62092E+01 4.17394E-08 1.58828E-01 1.71962E+00 1.96209E-02
 -1      2060-2.91852E+01 1.78900E+01 2.96415E-08 1.57132E-01 1.87143E+00 1.94131E-02
 -1      2061-3.18921E+01 1.95498E+01 2.87452E-08 1.54957E-01 2.02155E+00 1.91850E-02
 -1      2062-3.45534E+01 2.11770E+01 3.48183E-08 1.52476E-01 2.16981E+00 1.89368E-02
 -1      2063-3.71805E+01 2.27907E+01 3.83932E-08 1.49692E-01 2.31606E+00 1.86688E-02
 -1      2064-3.97593E+01 2.43721E+01 4.05801E-08 1.46902E-01 2.46016E+00 1.83814E-02
 -1      2065-4.22857E+01 2.59194E+01 4.30703E-08 1.44182E-01 2.60194E+00 1.80749E-02
 -1      2066-4.47624E+01 2.74370E+01 4.71600E-08 1.41108E-01 2.74127E+00 1.77497E-02
 -1      2067-4.71898E+01 2.89281E+01 5.86540E-08 1.38072E-01 2.87800E+00 1.74062E-02
 -1      2068-4.95509E+01 3.03711E+01 8.08735E-08 1.34762E-01 3.01199E+00 1.70449E-02
 -1      2069-5.18567E+01 3.17838E+01 1.12288E-07 1.31001E-01 3.14309E+00 1.66661E-02
 -1      2070-5.41063E+01 3.31681E+01 1.41538E-07 1.27076E-01 3.27119E+00 1.62702E-02
 -1      2071-5.62820E+01 3.44968E+01 1.55867E-07 1.23830E-01 3.39614E+00 1.58579E-02
 -1      2072-5.84004E+01 3.58010E+01 1.52255E-07 1.19526E-01 3.51782E+00 1.54295E-02
 -1      2073-6.04340E+01 3.70399E+01 1.33573E-07 1.15920E-01 3.63611E+00 1.49856E-02
 -1      2074-6.24109E+01 3.82565E+01 1.12609E-07 1.11360E-01 3.75089E+00 1.45267E-02
 -1      2075-6.43085E+01 3.94195E+01 9.62720E-08 1.07157E-01 3.86204E+00 1.40533E-02
 -1      2076-6.61224E+01 4.05260E+01 7.57726E-08 1.02318E-01 3.96946E+00 1.35661E-02
 -1      2077-6.78758E+01 4.16122E+01 5.81658E-08 9.77018E-02 4.07303E+00 1.30655E-02
 -1      2078-6.95270E+01 4.26136E+01 5.30153E-08 9.39858E-02 4.17267E+00 1.25523E-02
 -1      2079-7.11077E+01 4.35841E+01 5.02154E-08 8.79980E-02 4.26826E+00 1.20269E-02
 -1      2080-7.26065E+01 4.45084E+01 3.79282E-08 8.32115E-02 4.35972E+00 1.14900E-02
 -1      2081-7.40103E+01 4.53633E+01 1.84852E-08 7.88514E-02 4.44696E+00 1.09424E-02
 -1      2082-7.53376E+01 4.61833E+01 6.40067E-09 7.31000E-02 4.52990E+00 1.03845E-02
 -1      2083-7.65594E+01 4.69251E+01-2.57077E-09 6.88118E-02 4.60847E+00 9.81705E-03
 -1      2084-7.76983E+01 4.76228E+01-1.60234E-08 6.24793E-02 4.68259E+00 9.24080E-03
 -1      2085-7.87544E+01 4.82772E+01-1.93306E-08 5.74772E-02 4.75219E+00 8.65636E-03
 -1      2086-7.97026E+01 4.88545E+01-1.65098E-08 5.17679E-02 4.81722E+00 8.06444E-03
 -1      2087-8.05570E+01 4.93758E+01-3.95332E-08 4.67663E-02 4.87762E+00 7.46577E-03
 -1      2088-8.13288E+01 4.98596E+01-9.17961E-08 4.06291E-02 4.93334E+00 6.86105E-03
 -1      2089-8.19791E+01 5.02439E+01-1.36292E-07 3.69275E-02 4.98434E+00 6.25101E-03
 -1      2090-8.25443E+01 5.05903E+01-1.55202E-07 2.83762E-02 5.03057E+00 5.63639E-03
 -1      2091-8.30220E+01 5.08975E+01-1.53672E-07 2.33316E-02 5.07200E+00 5.01790E-03
 -1      2092-8.33777E+01 5.11038E+01-1.33140E-07 1.83641E-02 5.10861E+00 4.39631E-03
 -1      2093-8.36508E+01 5.12799E+01-9.44522E-08 1.18529E-02 5.14038E+00 3.77237E-03
 -1      2094-8.38029E+01 5.13646E+01-5.19771E-08 6.98351E-03 5.16729E+00 3.14684E-03
 -1      2095-8.38629E+01 5.14013E+01-2.66562E-08-1.01945E-04 5.18933E+00 2.52049E-03
 -1      2096-8.38310E+01 5.13901E+01-2.76271E-08-5.57893E-03 5.20650E+00 1.89406E-03
 -1      2097-8.36779E+01 5.12892E+01-5.02037E-08-1.17289E-02 5.21880E+00 1.26832E-03
 -1      2098-8.34345E+01 5.11465E+01-6.53270E-08-1.73640E-02 5.22623E+00 6.44061E-04
 -1      2099-8.30764E+01 5.09198E+01-6.49125E-08-2.26967E-02 5.22882E+00 2.20484E-05
 -1      2100-8.26215E+01 5.06410E+01-8.01882E-08-2.99153E-02 5.22658E+00-5.96946E-04
 -1      2101-8.20687E+01 5.03088E+01-1.01292E-07-3.55265E-02 5.21955E+00-1.21216E-03
 -1      2102-8.14035E+01 4.98984E+01-1.07989E-07-4.13660E-02 5.20774E+00-1.82281E-03
 -1      2103-8.06414E+01 4.94323E+01-1.25782E-07-4.61911E-02 5.19121E+00-2.42814E-03
 -1      2104-7.97650E+01 4.88867E+01-1.64140E-07-5.34148E-02 5.16999E+00-3.02738E-03
 -1      2105-7.88008E+01 4.83033E+01-2.10103E-07-5.93920E-02 5.14413E+00-3.61973E-03
 -1      2106-7.77322E+01 4.76501E+01-2.64417E-07-6.51076E-02 5.11370E+00-4.20446E-03
 -1      2107-7.65563E+01 4.69256E+01-3.20697E-07-7.04014E-02 5.07875E+00-4.78082E-03
 -1      2108-7.52837E+01 4.61463E+01-3.54236E-07-7.65684E-02 5.03936E+00-5.34803E-03
 -1      2109-7.39128E+01 4.53091E+01-3.60375E-07-8.21431E-02 4.99559E+00-5.90537E-03
 -1      2110-7.24369E+01 4.43994E+01-3.52835E-07-8.70605E-02 4.94753E+00-6.45208E-03
 -1      2111-7.08669E+01 4.34361E+01-3.23003E-07-9.39722E-02 4.89525E+00-6.98742E-03
 -1      2112-6.92070E+01 4.24261E+01-2.68434E-07-9.90150E-02 4.83887E+00-7.51067E-03
 -1      2113-6.74382E+01 4.13352E+01-2.11610E-07-1.04506E-01 4.77846E+00-8.02112E-03
 -1      2114-6.55891E+01 4.02080E+01-1.66413E-07-1.09534E-01 4.71413E+00-8.51806E-03
 -1      2115-6.36325E+01 3.90024E+01-1.31605E-07-1.15059E-01 4.64599E+00-9.00078E-03
 -1      2116-6.15912E+01 3.77533E+01-9.47543E-08-1.20602E-01 4.57416E+00-9.46858E-03
 -1      2117-5.94639E+01 3.64518E+01-4.41886E-08-1.25188E-01 4.49875E+00-9.92079E-03
 -1      2118-5.72363E+01 3.50803E+01 1.59763E-08-1.31189E-01 4.41988E+00-1.03567E-02
 -1      2119-5.49366E+01 3.36807E+01 8.66601E-08-1.35668E-01 4.33769E+00-1.07758E-02
 -1      2120-5.25339E+01 3.21995E+01 1.68281E-07-1.40298E-01 4.25230E+00-1.11772E-02
 -1      2121-5.00568E+01 3.06821E+01 2.50946E-07-1.45368E-01 4.16387E+00-1.15605E-02
 -1      2122-4.75014E+01 2.91207E+01 3.16606E-07-1.50401E-01 4.07253E+00-1.19249E-02
 -1      2123-4.48546E+01 2.74937E+01 3.44303E-07-1.54445E-01 3.97842E+00-1.22699E-02
 -1      2124-4.21388E+01 2.58331E+01 3.36059E-07-1.59137E-01 3.88171E+00-1.25949E-02
 -1      2125-3.93383E+01 2.41125E+01 3.12966E-07-1.63110E-01 3.78256E+00-1.28993E-02
 -1      2126-3.64670E+01 2.23531E+01 2.88377E-07-1.67994E-01 3.68112E+00-1.31825E-02
 -1      2127-3.35252E+01 2.05528E+01 2.66614E-07-1.71944E-01 3.57756E+00-1.34439E-02
 -1      2128-3.05085E+01 1.87018E+01 2.46567E-07-1.75703E-01 3.47205E+00-1.36831E-02
 -1      2129-2.74247E+01 1.68116E+01 2.27574E-07-1.79809E-01 3.36477E+00-1.38995E-02
 -1      2130-2.42760E+01 1.48837E+01 2.04856E-07-1.83466E-01 3.25590E+00-1.40927E-02
 -1      2131-2.10582E+01 1.29083E+01 1.66251E-07-1.86949E-01 3.14562E+00-1.42620E-02
 -1      2132-1.77813E+01 1.08996E+01 1.18642E-07-1.90926E-01 3.03411E+00-1.44071E-02
 -1      2133-1.44477E+01 8.85982E+00 6.84961E-08-1.94193E-01 2.92157E+00-1.45275E-02
 -1      2134-1.10500E+01 6.77463E+00 1.86290E-08-1.97279E-01 2.80819E+00-1.46228E-02
 -1      2135-7.60101E+00 4.66165E+00-1.70537E-08-2.00376E-01 2.69417E+00-1.46924E-02
 -1      2136-4.09687E+00 2.51328E+00-3.39315E-08-2.03538E-01 2.57971E+00-1.47361E-02
 -1      2137-5.42173E-01 3.34610E-01-4.37933E-08-2.06318E-01 2.46502E+00-1.47535E-02
 -1      2138 3.06083E+00-1.87365E+00-5.37964E-08-2.09072E-01 2.35029E+00-1.47441E-02
 -1      2139 6.71071E+00-4.11069E+00-6.45205E-08-2.11628E-01 2.23574E+00-1.47076E-02
 -1      2140 1.04058E+01-6.37646E+00-7.45804E-08-2.14137E-01 2.12158E+00-1.46436E-02
 -1      2141 1.41404E+01-8.66438E+00-7.92450E-08-2.16602E-01 2.00802E+00-1.45519E-02
 -1      2142 1.79154E+01-1.09774E+01-7.71398E-08-2.18739E-01 1.89529E+00-1.44322E-02
 -1      2143 2.17324E+01-1.33205E+01-7.22004E-08-2.20671E-01 1.78360E+00-1.42841E-02
 -1      2144 2.55771E+01-1.56729E+01-7.09703E-08-2.23112E-01 1.67317E+00-1.41074E-02
 -1      2145 2.94604E+01-1.80555E+01-7.22994E-08-2.24351E-01 1.56423E+00-1.39017E-02
 -1      2146 3.33731E+01-2.04532E+01-7.28452E-08-2.26744E-01 1.45700E+00-1.36670E-02
 -1      2147 3.73122E+01-2.28657E+01-7.11963E-08-2.27624E-01 1.35171E+00-1.34030E-02
 -1      2148 4.12842E+01-2.53037E+01-6.51966E-08-2.29454E-01 1.24859E+00-1.31094E-02
 -1      2149 4.52738E+01-2.77472E+01-5.87987E-08-2.30437E-01 1.14786E+00-1.27860E-02
 -1      2150 4.92904E+01-3.02083E+01-5.44901E-08-2.32452E-01 1.04977E+00-1.24327E-02
 -1      2151 5.33298E+01-3.26884E+01-4.79488E-08-2.32521E-01 9.54544E-01-1.20494E-02
 -1      2152 5.73798E+01-3.51650E+01-3.85704E-08-2.35226E-01 8.62416E-01-1.16358E-02
 -1      2153 6.14495E+01-3.76595E+01-2.97211E-08-2.34182E-01 7.73623E-01-1.11919E-02
 -1      2154 6.55473E+01-4.01766E+01-2.26891E-08-2.36690E-01 6.88400E-01-1.07175E-02
 -1      2155 6.96396E+01-4.26807E+01-1.65412E-08-2.35375E-01 6.06986E-01-1.02125E-02
 -1      2156 7.37600E+01-4.52091E+01-1.08047E-08-2.38743E-01 5.29619E-01-9.67681E-03
 -1      2157 7.78775E+01-4.77332E+01-6.27894E-09-2.36647E-01 4.56538E-01-9.11036E-03
 -1      2158 8.20101E+01-5.02562E+01-2.16159E-09-2.41182E-01 3.87983E-01-8.51307E-03
 -1      2159 8.61489E+01-5.28038E+01 4.50694E-09-2.34902E-01 3.24194E-01-7.88485E-03
 -1      2160 9.03054E+01-5.53471E+01 1.31976E-08-2.42733E-01 2.65410E-01-7.22568E-03
 -1      2161 9.44477E+01-5.78936E+01 2.35645E-08-2.34503E-01 2.11874E-01-6.53552E-03
 -1      2162 9.86185E+01-6.04403E+01 3.52828E-08-2.46509E-01 1.63826E-01-5.81431E-03
 -1      2163 1.02733E+02-6.29505E+01 4.74476E-08-2.31412E-01 1.21510E-01-5.06206E-03
 -1      2164 1.07000E+02-6.56354E+01 5.98828E-08-2.48081E-01 8.51635E-02-4.27870E-03
 -1      2165 1.10898E+02-6.77733E+01 7.19869E-08-2.35954E-01 5.50322E-02-3.46426E-03
 -1      2166 1.15907E+02-7.17717E+01 8.41038E-08-2.18283E-01 3.13546E-02-2.61861E-03
 -1      2167 1.17111E+02-6.90833E+01 9.40516E-08-3.64786E-01 1.43766E-02-1.74227E-03
 -1      2168 1.31956E+02-9.07589E+01 1.20185E-07 2.73036E-01 4.33682E-03-8.33201E-04
 -1      2169 8.67601E+01-1.68340E+01 1.42602E-07-2.06860E+00 1.07592E-03-3.69789E-04
 -1      2170 1.49892E-02-2.46149E-03 1.59411E-08 1.60724E-03-6.78836E+00 2.90298E-02
 -1      2171 8.37354E-02-4.50407E-02 3.04089E-08-7.86120E-03-6.67546E+00 2.90295E-02
 -1      2172 2.82649E-01-1.66812E-01 5.21595E-08-1.52091E-02-6.44967E+00 2.90281E-02
 -1      2173 6.09460E-01-3.67716E-01 4.82911E-08-2.25289E-02-6.22390E+00 2.90247E-02
 -1      2174 1.05914E+00-6.43377E-01 1.81926E-08-2.94274E-02-5.99816E+00 2.90184E-02
 -1      2175 1.62699E+00-9.91376E-01-2.01579E-08-3.61854E-02-5.77249E+00 2.90084E-02
 -1      2176 2.31032E+00-1.41086E+00-5.65334E-08-4.26158E-02-5.54692E+00 2.89936E-02
 -1      2177 3.10188E+00-1.89600E+00-8.23709E-08-4.87359E-02-5.32148E+00 2.89734E-02
 -1      2178 3.99945E+00-2.44608E+00-9.74604E-08-5.48163E-02-5.09622E+00 2.89468E-02
 -1      2179 4.99891E+00-3.06024E+00-1.03405E-07-6.03297E-02-4.87119E+00 2.89132E-02
 -1      2180 6.09038E+00-3.72648E+00-8.66715E-08-6.59975E-02-4.64646E+00 2.88718E-02
 -1      2181 7.28090E+00-4.45978E+00-5.41828E-08-7.08437E-02-4.42209E+00 2.88217E-02
 -1      2182 8.55199E+00-5.23676E+00-2.28290E-08-7.60065E-02-4.19813E+00 2.87626E-02
 -1      2183 9.90939E+00-6.06927E+00 8.06976E-09-8.04157E-02-3.97468E+00 2.86936E-02
 -1      2184 1.13493E+01-6.95572E+00 3.89132E-08-8.52921E-02-3.75180E+00 2.86142E-02
 -1      2185 1.28494E+01-7.86636E+00 5.91928E-08-8.91280E-02-3.52958E+00 2.85238E-02
 -1      2186 1.44389E+01-8.85047E+00 7.04696E-08-9.27524E-02-3.30811E+00 2.84218E-02
 -1      2187 1.60793E+01-9.85071E+00 6.95877E-08-9.69700E-02-3.08748E+00 2.83077E-02
 -1      2188 1.77859E+01-1.08982E+01 5.47772E-08-9.95547E-02-2.86778E+00 2.81812E-02
 -1      2189 1.95519E+01-1.19833E+01 4.47646E-08-1.03885E-01-2.64912E+00 2.80417E-02
 -1      2190 2.13598E+01-1.30849E+01 4.13115E-08-1.05588E-01-2.43159E+00 2.78889E-02
 -1      2191 2.32304E+01-1.42386E+01 4.00404E-08-1.09034E-01-2.21531E+00 2.77223E-02
 -1      2192 2.51348E+01-1.54023E+01 3.96591E-08-1.10880E-01-2.00038E+00 2.75416E-02
 -1      2193 2.70824E+01-1.65985E+01 3.39274E-08-1.13365E-01-1.78691E+00 2.73465E-02
 -1      2194 2.90631E+01-1.78103E+01 3.02878E-08-1.15512E-01-1.57501E+00 2.71368E-02
 -1      2195 3.10758E+01-1.90440E+01 4.13146E-08-1.16551E-01-1.36480E+00 2.69121E-02
 -1      2196 3.31182E+01-2.02981E+01 5.58326E-08-1.18446E-01-1.15640E+00 2.66723E-02
 -1      2197 3.51823E+01-2.15639E+01 7.23003E-08-1.19405E-01-9.49922E-01 2.64172E-02
 -1      2198 3.72605E+01-2.28351E+01 9.20667E-08-1.20799E-01-7.45490E-01 2.61466E-02
 -1      2199 3.93568E+01-2.41197E+01 1.03447E-07-1.20940E-01-5.43224E-01 2.58604E-02
 -1      2200 4.14690E+01-2.54183E+01 1.10198E-07-1.21795E-01-3.43244E-01 2.55584E-02
 -1      2201 4.35794E+01-2.67086E+01 1.15381E-07-1.21787E-01-1.45674E-01 2.52407E-02
 -1      2202 4.56995E+01-2.80119E+01 1.18222E-07-1.22172E-01 4.93635E-02 2.49072E-02
 -1      2203 4.78113E+01-2.93016E+01 1.20929E-07-1.22219E-01 2.41745E-01 2.45579E-02
 -1      2204 4.99253E+01-3.06002E+01 1.23980E-07-1.21203E-01 4.31347E-01 2.41928E-02
 -1      2205 5.20286E+01-3.18901E+01 1.23955E-07-1.21266E-01 6.18050E-01 2.38119E-02
 -1      2206 5.41139E+01-3.31633E+01 1.20894E-07-1.19649E-01 8.01731E-01 2.34154E-02
 -1      2207 5.61992E+01-3.44517E+01 1.13840E-07-1.19205E-01 9.82266E-01 2.30033E-02
 -1      2208 5.82454E+01-3.56969E+01 1.03201E-07-1.18061E-01 1.15953E+00 2.25759E-02
 -1      2209 6.02774E+01-3.69432E+01 9.12192E-08-1.16186E-01 1.33342E+00 2.21331E-02
 -1      2210 6.22893E+01-3.81818E+01 7.08403E-08-1.14563E-01 1.50380E+00 2.16752E-02
 -1      2211 6.42624E+01-3.93875E+01 4.52042E-08-1.13175E-01 1.67056E+00 2.12025E-02
 -1      2212 6.62055E+01-4.05788E+01 1.12051E-08-1.10786E-01 1.83359E+00 2.07152E-02
 -1      2213 6.81150E+01-4.17528E+01-3.53676E-08-1.08827E-01 1.99277E+00 2.02134E-02
 -1      2214 6.99781E+01-4.28896E+01-8.02549E-08-1.07102E-01 2.14800E+00 1.96976E-02
 -1      2215 7.18024E+01-4.40070E+01-1.19262E-07-1.03285E-01 2.29916E+00 1.91679E-02
 -1      2216 7.35889E+01-4.51097E+01-1.58672E-07-1.01202E-01 2.44614E+00 1.86248E-02
 -1      2217 7.53116E+01-4.61576E+01-1.97142E-07-9.80668E-02 2.58885E+00 1.80686E-02
 -1      2218 7.70047E+01-4.72072E+01-2.35423E-07-9.57973E-02 2.72719E+00 1.74997E-02
 -1      2219 7.86168E+01-4.81817E+01-2.71337E-07-9.28475E-02 2.86105E+00 1.69184E-02
 -1      2220 8.01831E+01-4.91404E+01-3.13148E-07-8.79705E-02 2.99034E+00 1.63252E-02
 -1      2221 8.17109E+01-5.00925E+01-3.49760E-07-8.50926E-02 3.11498E+00 1.57204E-02
 -1      2222 8.31472E+01-5.09605E+01-3.62108E-07-8.14730E-02 3.23486E+00 1.51046E-02
 -1      2223 8.45398E+01-5.18233E+01-3.65925E-07-7.81186E-02 3.34992E+00 1.44782E-02
 -1      2224 8.58487E+01-5.26163E+01-3.70161E-07-7.43921E-02 3.46006E+00 1.38417E-02
 -1      2225 8.71006E+01-5.33848E+01-3.84545E-07-6.98229E-02 3.56522E+00 1.31957E-02
 -1      2226 8.82881E+01-5.41197E+01-4.02479E-07-6.54524E-02 3.66531E+00 1.25405E-02
 -1      2227 8.93885E+01-5.47893E+01-4.10437E-07-6.17269E-02 3.76028E+00 1.18768E-02
 -1      2228 9.04206E+01-5.54218E+01-4.20790E-07-5.72171E-02 3.85005E+00 1.12052E-02
 -1      2229 9.13845E+01-5.60177E+01-4.45038E-07-5.32337E-02 3.93457E+00 1.05260E-02
 -1      2230 9.22555E+01-5.65453E+01-4.80350E-07-4.85971E-02 4.01378E+00 9.84007E-03
 -1      2231 9.30495E+01-5.70282E+01-5.04572E-07-4.32559E-02 4.08762E+00 9.14786E-03
 -1      2232 9.37864E+01-5.74965E+01-5.02703E-07-3.91047E-02 4.15607E+00 8.44995E-03
 -1      2233 9.44058E+01-5.78589E+01-4.86686E-07-3.47060E-02 4.21906E+00 7.74699E-03
 -1      2234 9.49666E+01-5.82116E+01-4.65417E-07-2.90591E-02 4.27657E+00 7.03958E-03
 -1      2235 9.54316E+01-5.84949E+01-4.42770E-07-2.46108E-02 4.32856E+00 6.32836E-03
 -1      2236 9.58107E+01-5.87217E+01-4.22481E-07-1.95665E-02 4.37501E+00 5.61398E-03
 -1      2237 9.61191E+01-5.89226E+01-3.87805E-07-1.38464E-02 4.41588E+00 4.89704E-03
 -1      2238 9.63137E+01-5.90307E+01-3.24093E-07-9.53082E-03 4.45118E+00 4.17822E-03
 -1      2239 9.64486E+01-5.91245E+01-2.40823E-07-4.77693E-03 4.48088E+00 3.45818E-03
 -1      2240 9.64692E+01-5.91266E+01-1.56950E-07 5.91602E-04 4.50497E+00 2.73755E-03
 -1      2241 9.64106E+01-5.90906E+01-8.26978E-08 6.10638E-03 4.52347E+00 2.01704E-03
 -1      2242 9.62748E+01-5.90171E+01-8.98900E-09 1.15672E-02 4.53635E+00 1.29728E-03
 -1      2243 9.60304E+01-5.88583E+01 6.94404E-08 1.58722E-02 4.54365E+00 5.78943E-04
 -1      2244 9.57141E+01-5.86741E+01 1.36395E-07 2.16706E-02 4.54537E+00-1.37301E-04
 -1      2245 9.52851E+01-5.83995E+01 1.80386E-07 2.58589E-02 4.54152E+00-8.50765E-04
 -1      2246 9.47845E+01-5.80990E+01 2.10929E-07 3.24731E-02 4.53214E+00-1.56077E-03
 -1      2247 9.41925E+01-5.77362E+01 2.34335E-07 3.59699E-02 4.51725E+00-2.26668E-03
 -1      2248 9.35021E+01-5.73083E+01 2.47975E-07 4.31904E-02 4.49689E+00-2.96782E-03
 -1      2249 9.27321E+01-5.68428E+01 2.59362E-07 4.72297E-02 4.47110E+00-3.66349E-03
 -1      2250 9.18742E+01-5.63178E+01 2.77930E-07 5.19097E-02 4.43992E+00-4.35306E-03
 -1      2251 9.09167E+01-5.57247E+01 3.03051E-07 5.71513E-02 4.40340E+00-5.03587E-03
 -1      2252 8.98772E+01-5.50859E+01 3.26624E-07 6.24840E-02 4.36160E+00-5.71123E-03
 -1      2253 8.87640E+01-5.44133E+01 3.37865E-07 6.77632E-02 4.31458E+00-6.37853E-03
 -1      2254 8.75479E+01-5.36595E+01 3.38704E-07 7.17548E-02 4.26240E+00-7.03713E-03
 -1      2255 8.62635E+01-5.28804E+01 3.44889E-07 7.71452E-02 4.20513E+00-7.68639E-03
 -1      2256 8.48756E+01-5.20205E+01 3.37452E-07 8.13394E-02 4.14285E+00-8.32567E-03
 -1      2257 8.34205E+01-5.11297E+01 3.06151E-07 8.64615E-02 4.07564E+00-8.95435E-03
 -1      2258 8.18905E+01-5.01996E+01 2.86118E-07 9.16130E-02 4.00359E+00-9.57185E-03
 -1      2259 8.02622E+01-4.91932E+01 2.80885E-07 9.53407E-02 3.92677E+00-1.01776E-02
 -1      2260 7.85789E+01-4.81730E+01 2.67714E-07 9.99755E-02 3.84529E+00-1.07709E-02
 -1      2261 7.67939E+01-4.70647E+01 2.37348E-07 1.03071E-01 3.75925E+00-1.13513E-02
 -1      2262 7.49485E+01-4.59341E+01 1.92780E-07 1.09706E-01 3.66875E+00-1.19182E-02
 -1      2263 7.30428E+01-4.47796E+01 1.43054E-07 1.12926E-01 3.57389E+00-1.24710E-02
 -1      2264 7.10418E+01-4.35415E+01 9.58367E-08 1.16661E-01 3.47479E+00-1.30092E-02
 -1      2265 6.89931E+01-4.22933E+01 5.52014E-08 1.20339E-01 3.37155E+00-1.35323E-02
 -1      2266 6.68617E+01-4.09808E+01 2.30710E-08 1.24226E-01 3.26432E+00-1.40397E-02
 -1      2267 6.46698E+01-3.96361E+01-5.21124E-09 1.28313E-01 3.15319E+00-1.45311E-02
 -1      2268 6.24277E+01-3.82688E+01-2.68588E-08 1.31537E-01 3.03831E+00-1.50058E-02
 -1      2269 6.01111E+01-3.68442E+01-2.88178E-08 1.35147E-01 2.91980E+00-1.54636E-02
 -1      2270 5.77407E+01-3.53915E+01-1.52521E-08 1.38043E-01 2.79780E+00-1.59038E-02
 -1      2271 5.53202E+01-3.39111E+01 8.55101E-10 1.41401E-01 2.67245E+00-1.63261E-02
 -1      2272 5.28382E+01-3.23854E+01 1.15245E-08 1.43826E-01 2.54388E+00-1.67302E-02
 -1      2273 5.03097E+01-3.08345E+01 1.18260E-08 1.47532E-01 2.41224E+00-1.71155E-02
 -1      2274 4.77412E+01-2.92679E+01 1.19334E-08 1.49880E-01 2.27768E+00-1.74818E-02
 -1      2275 4.51126E+01-2.76486E+01 1.87744E-08 1.51980E-01 2.14034E+00-1.78286E-02
 -1      2276 4.24543E+01-2.60229E+01 2.74793E-08 1.54844E-01 2.00038E+00-1.81557E-02
 -1      2277 3.97513E+01-2.43662E+01 3.54105E-08 1.56888E-01 1.85796E+00-1.84628E-02
 -1      2278 3.70082E+01-2.26816E+01 4.55398E-08 1.59041E-01 1.71323E+00-1.87496E-02
 -1      2279 3.42412E+01-2.09905E+01 5.44714E-08 1.60763E-01 1.56634E+00-1.90157E-02
 -1      2280 3.14333E+01-1.92658E+01 5.51361E-08 1.62553E-01 1.41747E+00-1.92610E-02
 -1      2281 2.86033E+01-1.75337E+01 5.15659E-08 1.63856E-01 1.26677E+00-1.94853E-02
 -1      2282 2.57436E+01-1.57784E+01 4.35528E-08 1.65315E-01 1.11441E+00-1.96883E-02
 -1      2283 2.28648E+01-1.40140E+01 3.19183E-08 1.66557E-01 9.60552E-01-1.98699E-02
 -1      2284 1.99691E+01-1.22413E+01 2.24018E-08 1.67667E-01 8.05367E-01-2.00299E-02
 -1      2285 1.70523E+01-1.04513E+01 1.39512E-08 1.68298E-01 6.49020E-01-2.01682E-02
 -1      2286 1.41270E+01-8.65986E+00 4.50433E-09 1.68902E-01 4.91684E-01-2.02849E-02
 -1      2287 1.11896E+01-6.85779E+00-2.25433E-09 1.69486E-01 3.33527E-01-2.03800E-02
 -1      2288 8.24599E+00-5.05399E+00-9.33144E-09 1.69753E-01 1.74718E-01-2.04529E-02
 -1      2289 5.30018E+00-3.24890E+00-1.85187E-08 1.69893E-01 1.54308E-02-2.05035E-02
 -1      2290 2.35215E+00-1.44113E+00-2.79479E-08 1.69801E-01-1.44166E-01-2.05321E-02
 -1      2291-5.91208E-01 3.62249E-01-3.73834E-08 1.69493E-01-3.03899E-01-2.05387E-02
 -1      2292-3.53043E+00 2.16478E+00-4.55776E-08 1.69056E-01-4.63597E-01-2.05233E-02
 -1      2293-6.45828E+00 3.95855E+00-5.48902E-08 1.68486E-01-6.23090E-01-2.04860E-02
 -1      2294-9.37522E+00 5.74648E+00-6.29396E-08 1.67690E-01-7.82207E-01-2.04269E-02
 -1      2295-1.22775E+01 7.52652E+00-7.01874E-08 1.66549E-01-9.40780E-01-2.03460E-02
 -1      2296-1.51583E+01 9.29092E+00-7.85120E-08 1.65465E-01-1.09864E+00-2.02435E-02
 -1      2297-1.80218E+01 1.10481E+01-8.29691E-08 1.64201E-01-1.25562E+00-2.01196E-02
 -1      2298-2.08553E+01 1.27828E+01-7.70852E-08 1.62686E-01-1.41155E+00-1.99744E-02
 -1      2299-2.36633E+01 1.45039E+01-6.05458E-08 1.60936E-01-1.56627E+00-1.98081E-02
 -1      2300-2.64423E+01 1.62092E+01-4.17394E-08 1.58828E-01-1.71962E+00-1.96209E-02
 -1      2301-2.91852E+01 1.78900E+01-2.96415E-08 1.57132E-01-1.87143E+00-1.94131E-02
 -1      2302-3.18921E+01 1.95498E+01-2.87452E-08 1.54957E-01-2.02155E+00-1.91850E-02
 -1      2303-3.45534E+01 2.11770E+01-3.48183E-08 1.52476E-01-2.16981E+00-1.89368E-02
 -1      2304-3.71805E+01 2.27907E+01-3.83932E-08 1.49692E-01-2.31606E+00-1.86688E-02
 -1      2305-3.97593E+01 2.43721E+01-4.05801E-08 1.46902E-01-2.46016E+00-1.83814E-02
 -1      2306-4.22857E+01 2.59194E+01-4.30703E-08 1.44182E-01-2.60194E+00-1.80749E-02
 -1      2307-4.47624E+01 2.74370E+01-4.71600E-08 1.41108E-01-2.74127E+00-1.77497E-02
 -1      2308-4.71898E+01 2.89281E+01-5.86540E-08 1.38072E-01-2.87800E+00-1.74062E-02
 -1      2309-4.95509E+01 3.03711E+01-8.08735E-08 1.34762E-01-3.01199E+00-1.70449E-02
 -1      2310-5.18567E+01 3.17838E+01-1.12288E-07 1.31001E-01-3.14309E+00-1.66661E-02
 -1      2311-5.41063E+01 3.31681E+01-1.41538E-07 1.27077E-01-3.27119E+00-1.62702E-02
 -1      2312-5.62820E+01 3.44968E+01-1.55867E-07 1.23830E-01-3.39614E+00-1.58579E-02
 -1      2313-5.84004E+01 3.58010E+01-1.52255E-07 1.19526E-01-3.51782E+00-1.54295E-02
 -1      2314-6.04340E+01 3.70399E+01-1.33573E-07 1.15920E-01-3.63611E+00-1.49856E-02
 -1      2315-6.24109E+01 3.82565E+01-1.12609E-07 1.11360E-01-3.75089E+00-1.45267E-02
 -1      2316-6.43085E+01 3.94195E+01-9.62720E-08 1.07157E-01-3.86204E+00-1.40533E-02
 -1      2317-6.61224E+01 4.05260E+01-7.57726E-08 1.02318E-01-3.96946E+00-1.35661E-02
 -1      2318-6.78758E+01 4.16122E+01-5.81658E-08 9.77018E-02-4.07303E+00-1.30655E-02
 -1      2319-6.95270E+01 4.26136E+01-5.30153E-08 9.39858E-02-4.17267E+00-1.25523E-02
 -1      2320-7.11077E+01 4.35841E+01-5.02154E-08 8.79980E-02-4.26826E+00-1.20269E-02
 -1      2321-7.26065E+01 4.45084E+01-3.79282E-08 8.32114E-02-4.35972E+00-1.14900E-02
 -1      2322-7.40103E+01 4.53633E+01-1.84852E-08 7.88513E-02-4.44696E+00-1.09423E-02
 -1      2323-7.53376E+01 4.61833E+01-6.40067E-09 7.31000E-02-4.52990E+00-1.03845E-02
 -1      2324-7.65594E+01 4.69251E+01 2.57077E-09 6.88117E-02-4.60847E+00-9.81704E-03
 -1      2325-7.76983E+01 4.76228E+01 1.60234E-08 6.24793E-02-4.68259E+00-9.24079E-03
 -1      2326-7.87544E+01 4.82772E+01 1.93306E-08 5.74772E-02-4.75219E+00-8.65634E-03
 -1      2327-7.97026E+01 4.88545E+01 1.65098E-08 5.17679E-02-4.81722E+00-8.06443E-03
 -1      2328-8.05570E+01 4.93758E+01 3.95332E-08 4.67662E-02-4.87762E+00-7.46576E-03
 -1      2329-8.13288E+01 4.98596E+01 9.17961E-08 4.06290E-02-4.93334E+00-6.86104E-03
 -1      2330-8.19791E+01 5.02439E+01 1.36292E-07 3.69274E-02-4.98433E+00-6.25100E-03
 -1      2331-8.25443E+01 5.05903E+01 1.55202E-07 2.83762E-02-5.03057E+00-5.63638E-03
 -1      2332-8.30220E+01 5.08975E+01 1.53672E-07 2.33317E-02-5.07200E+00-5.01789E-03
 -1      2333-8.33777E+01 5.11038E+01 1.33140E-07 1.83642E-02-5.10861E+00-4.39630E-03
 -1      2334-8.36508E+01 5.12799E+01 9.44522E-08 1.18530E-02-5.14038E+00-3.77236E-03
 -1      2335-8.38029E+01 5.13646E+01 5.19771E-08 6.98363E-03-5.16729E+00-3.14683E-03
 -1      2336-8.38629E+01 5.14013E+01 2.66562E-08-1.01909E-04-5.18933E+00-2.52048E-03
 -1      2337-8.38310E+01 5.13901E+01 2.76271E-08-5.57897E-03-5.20650E+00-1.89405E-03
 -1      2338-8.36779E+01 5.12892E+01 5.02037E-08-1.17290E-02-5.21879E+00-1.26831E-03
 -1      2339-8.34345E+01 5.11465E+01 6.53270E-08-1.73640E-02-5.22623E+00-6.44056E-04
 -1      2340-8.30764E+01 5.09198E+01 6.49125E-08-2.26967E-02-5.22882E+00-2.20431E-05
 -1      2341-8.26215E+01 5.06410E+01 8.01882E-08-2.99154E-02-5.22658E+00 5.96951E-04
 -1      2342-8.20687E+01 5.03088E+01 1.01292E-07-3.55265E-02-5.21954E+00 1.21216E-03
 -1      2343-8.14035E+01 4.98984E+01 1.07989E-07-4.13660E-02-5.20774E+00 1.82282E-03
 -1      2344-8.06414E+01 4.94323E+01 1.25782E-07-4.61912E-02-5.19120E+00 2.42815E-03
 -1      2345-7.97650E+01 4.88867E+01 1.64140E-07-5.34149E-02-5.16998E+00 3.02738E-03
 -1      2346-7.88008E+01 4.83033E+01 2.10103E-07-5.93922E-02-5.14413E+00 3.61973E-03
 -1      2347-7.77322E+01 4.76501E+01 2.64417E-07-6.51078E-02-5.11370E+00 4.20446E-03
 -1      2348-7.65563E+01 4.69256E+01 3.20697E-07-7.04015E-02-5.07875E+00 4.78081E-03
 -1      2349-7.52837E+01 4.61463E+01 3.54236E-07-7.65684E-02-5.03936E+00 5.34803E-03
 -1      2350-7.39128E+01 4.53091E+01 3.60375E-07-8.21431E-02-4.99559E+00 5.90536E-03
 -1      2351-7.24369E+01 4.43994E+01 3.52835E-07-8.70605E-02-4.94752E+00 6.45207E-03
 -1      2352-7.08669E+01 4.34361E+01 3.23003E-07-9.39720E-02-4.89525E+00 6.98741E-03
 -1      2353-6.92070E+01 4.24261E+01 2.68434E-07-9.90149E-02-4.83886E+00 7.51066E-03
 -1      2354-6.74382E+01 4.13352E+01 2.11610E-07-1.04506E-01-4.77845E+00 8.02111E-03
 -1      2355-6.55891E+01 4.02080E+01 1.66413E-07-1.09534E-01-4.71413E+00 8.51804E-03
 -1      2356-6.36325E+01 3.90024E+01 1.31605E-07-1.15059E-01-4.64599E+00 9.00076E-03
 -1      2357-6.15912E+01 3.77533E+01 9.47543E-08-1.20602E-01-4.57416E+00 9.46856E-03
 -1      2358-5.94639E+01 3.64518E+01 4.41886E-08-1.25188E-01-4.49874E+00 9.92077E-03
 -1      2359-5.72363E+01 3.50803E+01-1.59763E-08-1.31189E-01-4.41988E+00 1.03567E-02
 -1      2360-5.49366E+01 3.36807E+01-8.66601E-08-1.35668E-01-4.33769E+00 1.07758E-02
 -1      2361-5.25339E+01 3.21995E+01-1.68281E-07-1.40298E-01-4.25230E+00 1.11772E-02
 -1      2362-5.00568E+01 3.06821E+01-2.50946E-07-1.45368E-01-4.16387E+00 1.15605E-02
 -1      2363-4.75014E+01 2.91207E+01-3.16606E-07-1.50400E-01-4.07253E+00 1.19249E-02
 -1      2364-4.48546E+01 2.74937E+01-3.44303E-07-1.54445E-01-3.97842E+00 1.22699E-02
 -1      2365-4.21388E+01 2.58331E+01-3.36059E-07-1.59137E-01-3.88171E+00 1.25949E-02
 -1      2366-3.93383E+01 2.41125E+01-3.12966E-07-1.63110E-01-3.78256E+00 1.28993E-02
 -1      2367-3.64670E+01 2.23531E+01-2.88377E-07-1.67994E-01-3.68112E+00 1.31825E-02
 -1      2368-3.35252E+01 2.05528E+01-2.66614E-07-1.71944E-01-3.57756E+00 1.34439E-02
 -1      2369-3.05085E+01 1.87018E+01-2.46567E-07-1.75703E-01-3.47205E+00 1.36831E-02
 -1      2370-2.74247E+01 1.68116E+01-2.27574E-07-1.79809E-01-3.36477E+00 1.38995E-02
 -1      2371-2.42760E+01 1.48837E+01-2.04856E-07-1.83466E-01-3.25590E+00 1.40927E-02
 -1      2372-2.10582E+01 1.29082E+01-1.66251E-07-1.86949E-01-3.14562E+00 1.42620E-02
 -1      2373-1.77813E+01 1.08996E+01-1.18642E-07-1.90926E-01-3.03411E+00 1.44071E-02
 -1      2374-1.44477E+01 8.85982E+00-6.84961E-08-1.94193E-01-2.92157E+00 1.45275E-02
 -1      2375-1.10500E+01 6.77463E+00-1.86290E-08-1.97279E-01-2.80819E+00 1.46228E-02
 -1      2376-7.60101E+00 4.66165E+00 1.70537E-08-2.00376E-01-2.69417E+00 1.46924E-02
 -1      2377-4.09687E+00 2.51328E+00 3.39315E-08-2.03538E-01-2.57971E+00 1.47361E-02
 -1      2378-5.42173E-01 3.34611E-01 4.37933E-08-2.06318E-01-2.46502E+00 1.47535E-02
 -1      2379 3.06083E+00-1.87365E+00 5.37964E-08-2.09072E-01-2.35029E+00 1.47441E-02
 -1      2380 6.71071E+00-4.11069E+00 6.45205E-08-2.11628E-01-2.23574E+00 1.47076E-02
 -1      2381 1.04058E+01-6.37646E+00 7.45804E-08-2.14137E-01-2.12158E+00 1.46436E-02
 -1      2382 1.41404E+01-8.66438E+00 7.92450E-08-2.16602E-01-2.00802E+00 1.45519E-02
 -1      2383 1.79154E+01-1.09774E+01 7.71398E-08-2.18739E-01-1.89529E+00 1.44322E-02
 -1      2384 2.17324E+01-1.33205E+01 7.22004E-08-2.20671E-01-1.78360E+00 1.42841E-02
 -1      2385 2.55771E+01-1.56729E+01 7.09703E-08-2.23112E-01-1.67317E+00 1.41074E-02
 -1      2386 2.94604E+01-1.80555E+01 7.22994E-08-2.24351E-01-1.56423E+00 1.39017E-02
 -1      2387 3.33731E+01-2.04532E+01 7.28452E-08-2.26744E-01-1.45700E+00 1.36670E-02
 -1      2388 3.73122E+01-2.28657E+01 7.11963E-08-2.27624E-01-1.35171E+00 1.34030E-02
 -1      2389 4.12842E+01-2.53037E+01 6.51966E-08-2.29454E-01-1.24859E+00 1.31094E-02
 -1      2390 4.52738E+01-2.77472E+01 5.87987E-08-2.30437E-01-1.14786E+00 1.27860E-02
 -1      2391 4.92904E+01-3.02083E+01 5.44901E-08-2.32452E-01-1.04977E+00 1.24327E-02
 -1      2392 5.33298E+01-3.26884E+01 4.79488E-08-2.32521E-01-9.54544E-01 1.20494E-02
 -1      2393 5.73798E+01-3.51650E+01 3.85704E-08-2.35226E-01-8.62415E-01 1.16358E-02
 -1      2394 6.14495E+01-3.76595E+01 2.97211E-08-2.34182E-01-7.73622E-01 1.11919E-02
 -1      2395 6.55473E+01-4.01766E+01 2.26891E-08-2.36690E-01-6.88400E-01 1.07175E-02
 -1      2396 6.96396E+01-4.26807E+01 1.65412E-08-2.35375E-01-6.06986E-01 1.02125E-02
 -1      2397 7.37600E+01-4.52091E+01 1.08047E-08-2.38743E-01-5.29619E-01 9.67680E-03
 -1      2398 7.78775E+01-4.77332E+01 6.27894E-09-2.36647E-01-4.56538E-01 9.11035E-03
 -1      2399 8.20101E+01-5.02562E+01 2.16159E-09-2.41182E-01-3.87983E-01 8.51306E-03
 -1      2400 8.61489E+01-5.28038E+01-4.50694E-09-2.34902E-01-3.24193E-01 7.88485E-03
 -1      2401 9.03054E+01-5.53471E+01-1.31976E-08-2.42733E-01-2.65410E-01 7.22568E-03
 -1      2402 9.44477E+01-5.78936E+01-2.35645E-08-2.34503E-01-2.11874E-01 6.53551E-03
 -1      2403 9.86185E+01-6.04403E+01-3.52828E-08-2.46509E-01-1.63826E-01 5.81431E-03
 -1      2404 1.02733E+02-6.29505E+01-4.74476E-08-2.31412E-01-1.21510E-01 5.06206E-03
 -1      2405 1.07000E+02-6.56354E+01-5.98828E-08-2.48081E-01-8.51634E-02 4.27870E-03
 -1      2406 1.10898E+02-6.77733E+01-7.19869E-08-2.35954E-01-5.50322E-02 3.46426E-03
 -1      2407 1.15907E+02-7.17717E+01-8.41038E-08-2.18283E-01-3.13546E-02 2.61860E-03
 -1      2408 1.17111E+02-6.90833E+01-9.40516E-08-3.64786E-01-1.43766E-02 1.74226E-03
 -1      2409 1.31956E+02-9.07589E+01-1.20185E-07 2.73036E-01-4.33682E-03 8.33200E-04
 -1      2410 8.67601E+01-1.68340E+01-1.42602E-07-2.06860E+00-1.07592E-03 3.69789E-04
 -3
    1PSTEP                        12           1           1          
    1PGM                1.000000E+00                                  
    1PGK                2.131057E+06                                  
    1PHID                         -1                                  
    1PSUBC                         0                                  
    1PMODE                         3                                  
  100CL  103 232.3366394        2410                     2    3MODAL      1
 -4  ERROR       1    1
 -5  STR(%)      1    1    0    0
 -1         1 1.73526E-01
 -1         2 5.74620E-01
 -1         3 1.06803E+00
 -1         4 1.63144E+00
 -1         5 2.26673E+00
 -1         6 2.97791E+00
 -1         7 3.75020E+00
 -1         8 2.22980E+01
 -1         9 2.69657E+01
 -1        10 2.69911E+01
 -1        11 2.70412E+01
 -1        12 2.70412E+01
 -1        13 2.70497E+01
 -1        14 2.70497E+01
 -1        15 2.70202E+01
 -1        16 2.70302E+01
 -1        17 2.70302E+01
 -1        18 2.70416E+01
 -1        19 2.70416E+01
 -1        20 2.70244E+01
 -1        21 2.70244E+01
 -1        22 2.70120E+01
 -1        23 2.70203E+01
 -1        24 2.70203E+01
 -1        25 2.70211E+01
 -1        26 2.70211E+01
 -1        27 2.70153E+01
 -1        28 2.70153E+01
 -1        29 2.70174E+01
 -1        30 2.70174E+01
 -1        31 2.70119E+01
 -1        32 2.70119E+01
 -1        33 2.70105E+01
 -1        34 2.70139E+01
 -1        35 2.70139E+01
 -1        36 2.70099E+01
 -1        37 2.70160E+01
 -1        38 2.70160E+01
 -1        39 2.70251E+01
 -1        40 2.70251E+01
 -1        41 2.70193E+01
 -1        42 2.70193E+01
 -1        43 2.70166E+01
 -1        44 2.70166E+01
 -1        45 2.70175E+01
 -1        46 2.70175E+01
 -1        47 2.70094E+01
 -1        48 2.70138E+01
 -1        49 2.70138E+01
 -1        50 2.70214E+01
 -1        51 2.70214E+01
 -1        52 2.70077E+01
 -1        53 2.70168E+01
 -1        54 2.70168E+01
 -1        55 2.70248E+01
 -1        56 2.70248E+01
 -1        57 2.70210E+01
 -1        58 2.70210E+01
 -1        59 2.70196E+01
 -1        60 2.70196E+01
 -1        61 2.70198E+01
 -1        62 2.70198E+01
 -1        63 2.70066E+01
 -1        64 2.70183E+01
 -1        65 2.70183E+01
 -1        66 2.70201E+01
 -1        67 2.70201E+01
 -1        68 2.70113E+01
 -1        69 2.70121E+01
 -1        70 2.70121E+01
 -1        71 2.70201E+01
 -1        72 2.70201E+01
 -1        73 2.70145E+01
 -1        74 2.70145E+01
 -1        75 2.70074E+01
 -1        76 2.70158E+01
 -1        77 2.70158E+01
 -1        78 2.70184E+01
 -1        79 2.70184E+01
 -1        80 2.70168E+01
 -1        81 2.70168E+01
 -1        82 2.70211E+01
 -1        83 2.70211E+01
 -1        84 2.70138E+01
 -1        85 2.70138E+01
 -1        86 2.70080E+01
 -1        87 2.70167E+01
 -1        88 2.70167E+01
 -1        89 2.70135E+01
 -1        90 2.70135E+01
 -1        91 2.70064E+01
 -1        92 2.70160E+01
 -1        93 2.70160E+01
 -1        94 2.70057E+01
 -1        95 2.70143E+01
 -1        96 2.70143E+01
 -1        97 2.70187E+01
 -1        98 2.70187E+01
 -1        99 2.70113E+01
 -1       100 2.70113E+01
 -1       101 2.70089E+01
 -1       102 2.70089E+01
 -1       103 2.70116E+01
 -1       104 2.70116E+01
 -1       105 2.70064E+01
 -1       106 2.70170E+01
 -1       107 2.70170E+01
 -1       108 2.70167E+01
 -1       109 2.70167E+01
 -1       110 2.70068E+01
 -1       111 2.70068E+01
 -1       112 2.70065E+01
 -1       113 2.70128E+01
 -1       114 2.70128E+01
 -1       115 2.70053E+01
 -1       116 2.70053E+01
 -1       117 2.69931E+01
 -1       118 2.69902E+01
 -1       119 2.69882E+01
 -1       120 2.69521E+01
 -1       121 2.76471E+01
 -1       122 2.76471E+01
 -1       123 2.70155E+01
 -1       124 2.70155E+01
 -1       125 2.70155E+01
 -1       126 2.70122E+01
 -1       127 2.70193E+01
 -1       128 2.70193E+01
 -1       129 2.70223E+01
 -1       130 2.70223E+01
 -1       131 2.70136E+01
 -1       132 2.70136E+01
 -1       133 2.70130E+01
 -1       134 2.70225E+01
 -1       135 2.70225E+01
 -1       136 2.70227E+01
 -1       137 2.70227E+01
 -1       138 2.70231E+01
 -1       139 2.70231E+01
 -1       140 2.70252E+01
 -1       141 2.70252E+01
 -1       142 2.70160E+01
 -1       143 2.70160E+01
 -1       144 2.70102E+01
 -1       145 2.70195E+01
 -1       146 2.70195E+01
 -1       147 2.70197E+01
 -1       148 2.70197E+01
 -1       149 2.70091E+01
 -1       150 2.70154E+01
 -1       151 2.70154E+01
 -1       152 2.70118E+01
 -1       153 2.70118E+01
 -1       154 2.70105E+01
 -1       155 2.70150E+01
 -1       156 2.70150E+01
 -1       157 2.70105E+01
 -1       158 2.70105E+01
 -1       159 2.70126E+01
 -1       160 2.70126E+01
 -1       161 2.70224E+01
 -1       162 2.70224E+01
 -1       163 2.70134E+01
 -1       164 2.70134E+01
 -1       165 2.70083E+01
 -1       166 2.70136E+01
 -1       167 2.70136E+01
 -1       168 2.70088E+01
 -1       169 2.70107E+01
 -1       170 2.70107E+01
 -1       171 2.70133E+01
 -1       172 2.70133E+01
 -1       173 2.70076E+01
 -1       174 2.70121E+01
 -1       175 2.70121E+01
 -1       176 2.70191E+01
 -1       177 2.70191E+01
 -1       178 2.70178E+01
 -1       179 2.70178E+01
 -1       180 2.70153E+01
 -1       181 2.70153E+01
 -1       182 2.70161E+01
 -1       183 2.70161E+01
 -1       184 2.70077E+01
 -1       185 2.70100E+01
 -1       186 2.70100E+01
 -1       187 2.70148E+01
 -1       188 2.70148E+01
 -1       189 2.70103E+01
 -1       190 2.70103E+01
 -1       191 2.70077E+01
 -1       192 2.70176E+01
 -1       193 2.70176E+01
 -1       194 2.70115E+01
 -1       195 2.70115E+01
 -1       196 2.70028E+01
 -1       197 2.70076E+01
 -1       198 2.70076E+01
 -1       199 2.70053E+01
 -1       200 2.70053E+01
 -1       201 2.70059E+01
 -1       202 2.70059E+01
 -1       203 2.70116E+01
 -1       204 2.70116E+01
 -1       205 2.69902E+01
 -1       206 2.69902E+01
 -1       207 2.69401E+01
 -1       208 2.69136E+01
 -1       209 4.18952E+01
 -1       210 4.18952E+01
 -1       211 2.70468E+01
 -1       212 2.70312E+01
 -1       213 2.70312E+01
 -1       214 2.70306E+01
 -1       215 2.70306E+01
 -1       216 2.70354E+01
 -1       217 2.70354E+01
 -1       218 2.70326E+01
 -1       219 2.70326E+01
 -1       220 2.70269E+01
 -1       221 2.70269E+01
 -1       222 2.70300E+01
 -1       223 2.70300E+01
 -1       224 2.70392E+01
 -1       225 2.70392E+01
 -1       226 2.70424E+01
 -1       227 2.70424E+01
 -1       228 2.70538E+01
 -1       229 2.70538E+01
 -1       230 2.70821E+01
 -1       231 2.70821E+01
 -1       232 2.71171E+01
 -1       233 2.71171E+01
 -1       234 2.71706E+01
 -1       235 2.71706E+01
 -1       236 2.72129E+01
 -1       237 2.72129E+01
 -1       238 2.69118E+01
 -1       239 2.82127E+01
 -1       240 2.82127E+01
 -1       241 2.16859E+01
 -1       242 1.73526E-01
 -1       243 5.74620E-01
 -1       244 1.06803E+00
 -1       245 1.63144E+00
 -1       246 2.26673E+00
 -1       247 2.97791E+00
 -1       248 3.75020E+00
 -1       249 2.22980E+01
 -1       250 2.69657E+01
 -1       251 2.69911E+01
 -1       252 2.70412E+01
 -1       253 2.70412E+01
 -1       254 2.70497E+01
 -1       255 2.70497E+01
 -1       256 2.70202E+01
 -1       257 2.70302E+01
 -1       258 2.70302E+01
 -1       259 2.70416E+01
 -1       260 2.70416E+01
 -1       261 2.70244E+01
 -1       262 2.70244E+01
 -1       263 2.70120E+01
 -1       264 2.70203E+01
 -1       265 2.70203E+01
 -1       266 2.70211E+01
 -1       267 2.70211E+01
 -1       268 2.70153E+01
 -1       269 2.70153E+01
 -1       270 2.70174E+01
 -1       271 2.70174E+01
 -1       272 2.70119E+01
 -1       273 2.70119E+01
 -1       274 2.70105E+01
 -1       275 2.70139E+01
 -1       276 2.70139E+01
 -1       277 2.70099E+01
 -1       278 2.70160E+01
 -1       279 2.70160E+01
 -1       280 2.70251E+01
 -1       281 2.70251E+01
 -1       282 2.70193E+01
 -1       283 2.70193E+01
 -1       284 2.70166E+01
 -1       285 2.70166E+01
 -1       286 2.70175E+01
 -1       287 2.70175E+01
 -1       288 2.70094E+01
 -1       289 2.70138E+01
 -1       290 2.70138E+01
 -1       291 2.70214E+01
 -1       292 2.70214E+01
 -1       293 2.70077E+01
 -1       294 2.70168E+01
 -1       295 2.70168E+01
 -1       296 2.70248E+01
 -1       297 2.70248E+01
 -1       298 2.70210E+01
 -1       299 2.70210E+01
 -1       300 2.70196E+01
 -1       301 2.70196E+01
 -1       302 2.70198E+01
 -1       303 2.70198E+01
 -1       304 2.70066E+01
 -1       305 2.70183E+01
 -1       306 2.70183E+01
 -1       307 2.70201E+01
 -1       308 2.70201E+01
 -1       309 2.70113E+01
 -1       310 2.70121E+01
 -1       311 2.70121E+01
 -1       312 2.70201E+01
 -1       313 2.70201E+01
 -1       314 2.70145E+01
 -1       315 2.70145E+01
 -1       316 2.70074E+01
 -1       317 2.70158E+01
 -1       318 2.70158E+01
 -1       319 2.70184E+01
 -1       320 2.70184E+01
 -1       321 2.70168E+01
 -1       322 2.70168E+01
 -1       323 2.70211E+01
 -1       324 2.70211E+01
 -1       325 2.70138E+01
 -1       326 2.70138E+01
 -1       327 2.70080E+01
 -1       328 2.70167E+01
 -1       329 2.70167E+01
 -1       330 2.70135E+01
 -1       331 2.70135E+01
 -1       332 2.70064E+01
 -1       333 2.70160E+01
 -1       334 2.70160E+01
 -1       335 2.70057E+01
 -1       336 2.70143E+01
 -1       337 2.70143E+01
 -1       338 2.70187E+01
 -1       339 2.70187E+01
 -1       340 2.70113E+01
 -1       341 2.70113E+01
 -1       342 2.70089E+01
 -1       343 2.70089E+01
 -1       344 2.70116E+01
 -1       345 2.70116E+01
 -1       346 2.70064E+01
 -1       347 2.70170E+01
 -1       348 2.70170E+01
 -1       349 2.70167E+01
 -1       350 2.70167E+01
 -1       351 2.70068E+01
 -1       352 2.70068E+01
 -1       353 2.70065E+01
 -1       354 2.70128E+01
 -1       355 2.70128E+01
 -1       356 2.70053E+01
 -1       357 2.70053E+01
 -1       358 2.69931E+01
 -1       359 2.69902E+01
 -1       360 2.69882E+01
 -1       361 2.69521E+01
 -1       362 2.76471E+01
 -1       363 2.76471E+01
 -1       364 2.70155E+01
 -1       365 2.70155E+01
 -1       366 2.70155E+01
 -1       367 2.70122E+01
 -1       368 2.70193E+01
 -1       369 2.70193E+01
 -1       370 2.70223E+01
 -1       371 2.70223E+01
 -1       372 2.70136E+01
 -1       373 2.70136E+01
 -1       374 2.70130E+01
 -1       375 2.70225E+01
 -1       376 2.70225E+01
 -1       377 2.70227E+01
 -1       378 2.70227E+01
 -1       379 2.70231E+01
 -1       380 2.70231E+01
 -1       381 2.70252E+01
 -1       382 2.70252E+01
 -1       383 2.70160E+01
 -1       384 2.70160E+01
 -1       385 2.70102E+01
 -1       386 2.70195E+01
 -1       387 2.70195E+01
 -1       388 2.70197E+01
 -1       389 2.70197E+01
 -1       390 2.70091E+01
 -1       391 2.70154E+01
 -1       392 2.70154E+01
 -1       393 2.70118E+01
 -1       394 2.70118E+01
 -1       395 2.70105E+01
 -1       396 2.70150E+01
 -1       397 2.70150E+01
 -1       398 2.70105E+01
 -1       399 2.70105E+01
 -1       400 2.70126E+01
 -1       401 2.70126E+01
 -1       402 2.70224E+01
 -1       403 2.70224E+01
 -1       404 2.70134E+01
 -1       405 2.70134E+01
 -1       406 2.70083E+01
 -1       407 2.70136E+01
 -1       408 2.70136E+01
 -1       409 2.70088E+01
 -1       410 2.70107E+01
 -1       411 2.70107E+01
 -1       412 2.70133E+01
 -1       413 2.70133E+01
 -1       414 2.70076E+01
 -1       415 2.70121E+01
 -1       416 2.70121E+01
 -1       417 2.70191E+01
 -1       418 2.70191E+01
 -1       419 2.70178E+01
 -1       420 2.70178E+01
 -1       421 2.70153E+01
 -1       422 2.70153E+01
 -1       423 2.70161E+01
 -1       424 2.70161E+01
 -1       425 2.70077E+01
 -1       426 2.70100E+01
 -1       427 2.70100E+01
 -1       428 2.70148E+01
 -1       429 2.70148E+01
 -1       430 2.70103E+01
 -1       431 2.70103E+01
 -1       432 2.70077E+01
 -1       433 2.70176E+01
 -1       434 2.70176E+01
 -1       435 2.70115E+01
 -1       436 2.70115E+01
 -1       437 2.70028E+01
 -1       438 2.70076E+01
 -1       439 2.70076E+01
 -1       440 2.70053E+01
 -1       441 2.70053E+01
 -1       442 2.70059E+01
 -1       443 2.70059E+01
 -1       444 2.70116E+01
 -1       445 2.70116E+01
 -1       446 2.69902E+01
 -1       447 2.69902E+01
 -1       448 2.69401E+01
 -1       449 2.69136E+01
 -1       450 4.18952E+01
 -1       451 4.18952E+01
 -1       452 2.70468E+01
 -1       453 2.70312E+01
 -1       454 2.70312E+01
 -1       455 2.70306E+01
 -1       456 2.70306E+01
 -1       457 2.70354E+01
 -1       458 2.70354E+01
 -1       459 2.70326E+01
 -1       460 2.70326E+01
 -1       461 2.70269E+01
 -1       462 2.70269E+01
 -1       463 2.70300E+01
 -1       464 2.70300E+01
 -1       465 2.70392E+01
 -1       466 2.70392E+01
 -1       467 2.70424E+01
 -1       468 2.70424E+01
 -1       469 2.70538E+01
 -1       470 2.70538E+01
 -1       471 2.70821E+01
 -1       472 2.70821E+01
 -1       473 2.71171E+01
 -1       474 2.71171E+01
 -1       475 2.71706E+01
 -1       476 2.71706E+01
 -1       477 2.72129E+01
 -1       478 2.72129E+01
 -1       479 2.69118E+01
 -1       480 2.82127E+01
 -1       481 2.82127E+01
 -1       482 2.16859E+01
 -1       483 1.73526E-01
 -1       484 5.74620E-01
 -1       485 1.06803E+00
 -1       486 1.63144E+00
 -1       487 2.26673E+00
 -1       488 2.97791E+00
 -1       489 3.75020E+00
 -1       490 2.22980E+01
 -1       491 2.69657E+01
 -1       492 2.69911E+01
 -1       493 2.98255E+01
 -1       494 4.67466E+01
 -1       495 5.89313E+01
 -1       496 6.87865E+01
 -1       497 7.63882E+01
 -1       498 8.12262E+01
 -1       499 8.34026E+01
 -1       500 8.36391E+01
 -1       501 8.38472E+01
 -1       502 8.39596E+01
 -1       503 8.39596E+01
 -1       504 8.40806E+01
 -1       505 8.40806E+01
 -1       506 8.40324E+01
 -1       507 8.40324E+01
 -1       508 8.40258E+01
 -1       509 8.40672E+01
 -1       510 8.40672E+01
 -1       511 8.40526E+01
 -1       512 8.40595E+01
 -1       513 8.40931E+01
 -1       514 8.40931E+01
 -1       515 8.40847E+01
 -1       516 8.40847E+01
 -1       517 8.40829E+01
 -1       518 8.40907E+01
 -1       519 8.40907E+01
 -1       520 8.41443E+01
 -1       521 8.41443E+01
 -1       522 8.41278E+01
 -1       523 8.41278E+01
 -1       524 8.41293E+01
 -1       525 8.41293E+01
 -1       526 8.41062E+01
 -1       527 8.41062E+01
 -1       528 8.40981E+01
 -1       529 8.41128E+01
 -1       530 8.41128E+01
 -1       531 8.41614E+01
 -1       532 8.41614E+01
 -1       533 8.41162E+01
 -1       534 8.41278E+01
 -1       535 8.41278E+01
 -1       536 8.41436E+01
 -1       537 8.41436E+01
 -1       538 8.41640E+01
 -1       539 8.41640E+01
 -1       540 8.41300E+01
 -1       541 8.41300E+01
 -1       542 8.41629E+01
 -1       543 8.41629E+01
 -1       544 8.41150E+01
 -1       545 8.41377E+01
 -1       546 8.41377E+01
 -1       547 8.41503E+01
 -1       548 8.41503E+01
 -1       549 8.41664E+01
 -1       550 8.41664E+01
 -1       551 8.40912E+01
 -1       552 8.41645E+01
 -1       553 8.41645E+01
 -1       554 8.41478E+01
 -1       555 8.41478E+01
 -1       556 8.41376E+01
 -1       557 8.41376E+01
 -1       558 8.41094E+01
 -1       559 8.41120E+01
 -1       560 8.41282E+01
 -1       561 8.41282E+01
 -1       562 8.41032E+01
 -1       563 8.41633E+01
 -1       564 8.41633E+01
 -1       565 8.41457E+01
 -1       566 8.41457E+01
 -1       567 8.41308E+01
 -1       568 8.41308E+01
 -1       569 8.41145E+01
 -1       570 8.41591E+01
 -1       571 8.41591E+01
 -1       572 8.41107E+01
 -1       573 8.41107E+01
 -1       574 8.41012E+01
 -1       575 8.40992E+01
 -1       576 8.41029E+01
 -1       577 8.41029E+01
 -1       578 8.41448E+01
 -1       579 8.41448E+01
 -1       580 8.40973E+01
 -1       581 8.41049E+01
 -1       582 8.41049E+01
 -1       583 8.40826E+01
 -1       584 8.40826E+01
 -1       585 8.40686E+01
 -1       586 8.40643E+01
 -1       587 8.40594E+01
 -1       588 8.40594E+01
 -1       589 8.40823E+01
 -1       590 8.40823E+01
 -1       591 8.40077E+01
 -1       592 8.40077E+01
 -1       593 8.39962E+01
 -1       594 8.39399E+01
 -1       595 8.39399E+01
 -1       596 8.38360E+01
 -1       597 8.38360E+01
 -1       598 8.36305E+01
 -1       599 8.34828E+01
 -1       600 8.32366E+01
 -1       601 8.25543E+01
 -1       602 8.13840E+01
 -1       603 7.71498E+01
 -1       604 6.71873E+01
 -1       605 7.91401E+01
 -1       606 8.17513E+01
 -1       607 8.28694E+01
 -1       608 8.32895E+01
 -1       609 8.35172E+01
 -1       610 8.37667E+01
 -1       611 8.37667E+01
 -1       612 8.39092E+01
 -1       613 8.39092E+01
 -1       614 8.39824E+01
 -1       615 8.39942E+01
 -1       616 8.39942E+01
 -1       617 8.40729E+01
 -1       618 8.40729E+01
 -1       619 8.40664E+01
 -1       620 8.40664E+01
 -1       621 8.41223E+01
 -1       622 8.41223E+01
 -1       623 8.41120E+01
 -1       624 8.41120E+01
 -1       625 8.41067E+01
 -1       626 8.41067E+01
 -1       627 8.40976E+01
 -1       628 8.41464E+01
 -1       629 8.41464E+01
 -1       630 8.41087E+01
 -1       631 8.41087E+01
 -1       632 8.40970E+01
 -1       633 8.41116E+01
 -1       634 8.41116E+01
 -1       635 8.41285E+01
 -1       636 8.41285E+01
 -1       637 8.41061E+01
 -1       638 8.41056E+01
 -1       639 8.41328E+01
 -1       640 8.41328E+01
 -1       641 8.41132E+01
 -1       642 8.41132E+01
 -1       643 8.41117E+01
 -1       644 8.41188E+01
 -1       645 8.41188E+01
 -1       646 8.41342E+01
 -1       647 8.41342E+01
 -1       648 8.41096E+01
 -1       649 8.41082E+01
 -1       650 8.41361E+01
 -1       651 8.41361E+01
 -1       652 8.41186E+01
 -1       653 8.41186E+01
 -1       654 8.41108E+01
 -1       655 8.41151E+01
 -1       656 8.41151E+01
 -1       657 8.41603E+01
 -1       658 8.41603E+01
 -1       659 8.41434E+01
 -1       660 8.41434E+01
 -1       661 8.41392E+01
 -1       662 8.41392E+01
 -1       663 8.41103E+01
 -1       664 8.41103E+01
 -1       665 8.40972E+01
 -1       666 8.41059E+01
 -1       667 8.41059E+01
 -1       668 8.41449E+01
 -1       669 8.41449E+01
 -1       670 8.40959E+01
 -1       671 8.41016E+01
 -1       672 8.41016E+01
 -1       673 8.41054E+01
 -1       674 8.41054E+01
 -1       675 8.41086E+01
 -1       676 8.41086E+01
 -1       677 8.40343E+01
 -1       678 8.40343E+01
 -1       679 8.40048E+01
 -1       680 8.39768E+01
 -1       681 8.39579E+01
 -1       682 8.38798E+01
 -1       683 8.38740E+01
 -1       684 8.37028E+01
 -1       685 8.36091E+01
 -1       686 8.32188E+01
 -1       687 8.26945E+01
 -1       688 8.08330E+01
 -1       689 7.54621E+01
 -1       690 5.96641E+01
 -1       691 4.18952E+01
 -1       692 5.73841E+01
 -1       693 7.71997E+01
 -1       694 8.17434E+01
 -1       695 8.28873E+01
 -1       696 8.33627E+01
 -1       697 8.36314E+01
 -1       698 8.37212E+01
 -1       699 8.38306E+01
 -1       700 8.38838E+01
 -1       701 8.39217E+01
 -1       702 8.39679E+01
 -1       703 8.39679E+01
 -1       704 8.40297E+01
 -1       705 8.40297E+01
 -1       706 8.40196E+01
 -1       707 8.40196E+01
 -1       708 8.40891E+01
 -1       709 8.40891E+01
 -1       710 8.40912E+01
 -1       711 8.40912E+01
 -1       712 8.41021E+01
 -1       713 8.41021E+01
 -1       714 8.40993E+01
 -1       715 8.40993E+01
 -1       716 8.41136E+01
 -1       717 8.41136E+01
 -1       718 8.41694E+01
 -1       719 8.41694E+01
 -1       720 8.41407E+01
 -1       721 8.65408E+01
 -1       722 8.65408E+01
 -1       723 7.45530E+01
 -1       724 1.73526E-01
 -1       725 5.74620E-01
 -1       726 1.06803E+00
 -1       727 1.63144E+00
 -1       728 2.26673E+00
 -1       729 2.97791E+00
 -1       730 3.75020E+00
 -1       731 2.22980E+01
 -1       732 2.69657E+01
 -1       733 2.69911E+01
 -1       734 2.98255E+01
 -1       735 4.67466E+01
 -1       736 5.89313E+01
 -1       737 6.87865E+01
 -1       738 7.63882E+01
 -1       739 8.12262E+01
 -1       740 8.34026E+01
 -1       741 8.36391E+01
 -1       742 8.38472E+01
 -1       743 8.39596E+01
 -1       744 8.39596E+01
 -1       745 8.40806E+01
 -1       746 8.40806E+01
 -1       747 8.40324E+01
 -1       748 8.40324E+01
 -1       749 8.40258E+01
 -1       750 8.40672E+01
 -1       751 8.40672E+01
 -1       752 8.40526E+01
 -1       753 8.40595E+01
 -1       754 8.40931E+01
 -1       755 8.40931E+01
 -1       756 8.40847E+01
 -1       757 8.40847E+01
 -1       758 8.40829E+01
 -1       759 8.40907E+01
 -1       760 8.40907E+01
 -1       761 8.41443E+01
 -1       762 8.41443E+01
 -1       763 8.41278E+01
 -1       764 8.41278E+01
 -1       765 8.41293E+01
 -1       766 8.41293E+01
 -1       767 8.41062E+01
 -1       768 8.41062E+01
 -1       769 8.40981E+01
 -1       770 8.41128E+01
 -1       771 8.41128E+01
 -1       772 8.41614E+01
 -1       773 8.41614E+01
 -1       774 8.41162E+01
 -1       775 8.41278E+01
 -1       776 8.41278E+01
 -1       777 8.41436E+01
 -1       778 8.41436E+01
 -1       779 8.41640E+01
 -1       780 8.41640E+01
 -1       781 8.41300E+01
 -1       782 8.41300E+01
 -1       783 8.41629E+01
 -1       784 8.41629E+01
 -1       785 8.41150E+01
 -1       786 8.41377E+01
 -1       787 8.41377E+01
 -1       788 8.41503E+01
 -1       789 8.41503E+01
 -1       790 8.41664E+01
 -1       791 8.41664E+01
 -1       792 8.40912E+01
 -1       793 8.41645E+01
 -1       794 8.41645E+01
 -1       795 8.41478E+01
 -1       796 8.41478E+01
 -1       797 8.41376E+01
 -1       798 8.41376E+01
 -1       799 8.41094E+01
 -1       800 8.41120E+01
 -1       801 8.41282E+01
 -1       802 8.41282E+01
 -1       803 8.41032E+01
 -1       804 8.41633E+01
 -1       805 8.41633E+01
 -1       806 8.41457E+01
 -1       807 8.41457E+01
 -1       808 8.41308E+01
 -1       809 8.41308E+01
 -1       810 8.41145E+01
 -1       811 8.41591E+01
 -1       812 8.41591E+01
 -1       813 8.41107E+01
 -1       814 8.41107E+01
 -1       815 8.41012E+01
 -1       816 8.40992E+01
 -1       817 8.41029E+01
 -1       818 8.41029E+01
 -1       819 8.41448E+01
 -1       820 8.41448E+01
 -1       821 8.40973E+01
 -1       822 8.41049E+01
 -1       823 8.41049E+01
 -1       824 8.40826E+01
 -1       825 8.40826E+01
 -1       826 8.40686E+01
 -1       827 8.40643E+01
 -1       828 8.40594E+01
 -1       829 8.40594E+01
 -1       830 8.40823E+01
 -1       831 8.40823E+01
 -1       832 8.40077E+01
 -1       833 8.40077E+01
 -1       834 8.39962E+01
 -1       835 8.39399E+01
 -1       836 8.39399E+01
 -1       837 8.38360E+01
 -1       838 8.38360E+01
 -1       839 8.36305E+01
 -1       840 8.34828E+01
 -1       841 8.32366E+01
 -1       842 8.25543E+01
 -1       843 8.13840E+01
 -1       844 7.71498E+01
 -1       845 6.71873E+01
 -1       846 7.91401E+01
 -1       847 8.17513E+01
 -1       848 8.28694E+01
 -1       849 8.32895E+01
 -1       850 8.35172E+01
 -1       851 8.37667E+01
 -1       852 8.37667E+01
 -1       853 8.39092E+01
 -1       854 8.39092E+01
 -1       855 8.39824E+01
 -1       856 8.39942E+01
 -1       857 8.39942E+01
 -1       858 8.40729E+01
 -1       859 8.40729E+01
 -1       860 8.40664E+01
 -1       861 8.40664E+01
 -1       862 8.41223E+01
 -1       863 8.41223E+01
 -1       864 8.41120E+01
 -1       865 8.41120E+01
 -1       866 8.41067E+01
 -1       867 8.41067E+01
 -1       868 8.40976E+01
 -1       869 8.41464E+01
 -1       870 8.41464E+01
 -1       871 8.41087E+01
 -1       872 8.41087E+01
 -1       873 8.40970E+01
 -1       874 8.41116E+01
 -1       875 8.41116E+01
 -1       876 8.41285E+01
 -1       877 8.41285E+01
 -1       878 8.41061E+01
 -1       879 8.41056E+01
 -1       880 8.41328E+01
 -1       881 8.41328E+01
 -1       882 8.41132E+01
 -1       883 8.41132E+01
 -1       884 8.41117E+01
 -1       885 8.41188E+01
 -1       886 8.41188E+01
 -1       887 8.41342E+01
 -1       888 8.41342E+01
 -1       889 8.41096E+01
 -1       890 8.41082E+01
 -1       891 8.41361E+01
 -1       892 8.41361E+01
 -1       893 8.41186E+01
 -1       894 8.41186E+01
 -1       895 8.41108E+01
 -1       896 8.41151E+01
 -1       897 8.41151E+01
 -1       898 8.41603E+01
 -1       899 8.41603E+01
 -1       900 8.41434E+01
 -1       901 8.41434E+01
 -1       902 8.41392E+01
 -1       903 8.41392E+01
 -1       904 8.41103E+01
 -1       905 8.41103E+01
 -1       906 8.40972E+01
 -1       907 8.41059E+01
 -1       908 8.41059E+01
 -1       909 8.41449E+01
 -1       910 8.41449E+01
 -1       911 8.40959E+01
 -1       912 8.41016E+01
 -1       913 8.41016E+01
 -1       914 8.41054E+01
 -1       915 8.41054E+01
 -1       916 8.41086E+01
 -1       917 8.41086E+01
 -1       918 8.40343E+01
 -1       919 8.40343E+01
 -1       920 8.40048E+01
 -1       921 8.39768E+01
 -1       922 8.39579E+01
 -1       923 8.38798E+01
 -1       924 8.38740E+01
 -1       925 8.37028E+01
 -1       926 8.36091E+01
 -1       927 8.32188E+01
 -1       928 8.26945E+01
 -1       929 8.08330E+01
 -1       930 7.54621E+01
 -1       931 5.96641E+01
 -1       932 4.18952E+01
 -1       933 5.73841E+01
 -1       934 7.71997E+01
 -1       935 8.17434E+01
 -1       936 8.28873E+01
 -1       937 8.33627E+01
 -1       938 8.36314E+01
 -1       939 8.37212E+01
 -1       940 8.38306E+01
 -1       941 8.38838E+01
 -1       942 8.39217E+01
 -1       943 8.39679E+01
 -1       944 8.39679E+01
 -1       945 8.40297E+01
 -1       946 8.40297E+01
 -1       947 8.40196E+01
 -1       948 8.40196E+01
 -1       949 8.40891E+01
 -1       950 8.40891E+01
 -1       951 8.40912E+01
 -1       952 8.40912E+01
 -1       953 8.41021E+01
 -1       954 8.41021E+01
 -1       955 8.40993E+01
 -1       956 8.40993E+01
 -1       957 8.41136E+01
 -1       958 8.41136E+01
 -1       959 8.41694E+01
 -1       960 8.41694E+01
 -1       961 8.41407E+01
 -1       962 8.65408E+01
 -1       963 8.65408E+01
 -1       964 7.45530E+01
 -1       965 7.08034E-02
 -1       966 2.73280E-01
 -1       967 5.69893E-01
 -1       968 9.77959E-01
 -1       969 1.50070E+00
 -1       970 2.08096E+00
 -1       971 2.87442E+00
 -1       972 3.67241E+00
 -1       973 4.68048E+00
 -1       974 1.04813E+01
 -1       975 2.98255E+01
 -1       976 4.67466E+01
 -1       977 5.89313E+01
 -1       978 6.87865E+01
 -1       979 7.63882E+01
 -1       980 8.12321E+01
 -1       981 8.34199E+01
 -1       982 8.36587E+01
 -1       983 8.38674E+01
 -1       984 8.39800E+01
 -1       985 8.39800E+01
 -1       986 8.41011E+01
 -1       987 8.41011E+01
 -1       988 8.40530E+01
 -1       989 8.40530E+01
 -1       990 8.40464E+01
 -1       991 8.40878E+01
 -1       992 8.40878E+01
 -1       993 8.40732E+01
 -1       994 8.40802E+01
 -1       995 8.41138E+01
 -1       996 8.41138E+01
 -1       997 8.41054E+01
 -1       998 8.41054E+01
 -1       999 8.41036E+01
 -1      1000 8.41114E+01
 -1      1001 8.41114E+01
 -1      1002 8.41650E+01
 -1      1003 8.41650E+01
 -1      1004 8.41485E+01
 -1      1005 8.41485E+01
 -1      1006 8.41500E+01
 -1      1007 8.41500E+01
 -1      1008 8.41269E+01
 -1      1009 8.41269E+01
 -1      1010 8.41188E+01
 -1      1011 8.41335E+01
 -1      1012 8.41335E+01
 -1      1013 8.41822E+01
 -1      1014 8.41822E+01
 -1      1015 8.41369E+01
 -1      1016 8.41485E+01
 -1      1017 8.41485E+01
 -1      1018 8.41643E+01
 -1      1019 8.41643E+01
 -1      1020 8.41848E+01
 -1      1021 8.41848E+01
 -1      1022 8.41507E+01
 -1      1023 8.41507E+01
 -1      1024 8.41836E+01
 -1      1025 8.41836E+01
 -1      1026 8.41357E+01
 -1      1027 8.41585E+01
 -1      1028 8.41585E+01
 -1      1029 8.41711E+01
 -1      1030 8.41711E+01
 -1      1031 8.41871E+01
 -1      1032 8.41871E+01
 -1      1033 8.41120E+01
 -1      1034 8.41853E+01
 -1      1035 8.41853E+01
 -1      1036 8.41686E+01
 -1      1037 8.41686E+01
 -1      1038 8.41584E+01
 -1      1039 8.41584E+01
 -1      1040 8.41301E+01
 -1      1041 8.41327E+01
 -1      1042 8.41489E+01
 -1      1043 8.41489E+01
 -1      1044 8.41239E+01
 -1      1045 8.41841E+01
 -1      1046 8.41841E+01
 -1      1047 8.41664E+01
 -1      1048 8.41664E+01
 -1      1049 8.41515E+01
 -1      1050 8.41515E+01
 -1      1051 8.41353E+01
 -1      1052 8.41798E+01
 -1      1053 8.41798E+01
 -1      1054 8.41314E+01
 -1      1055 8.41314E+01
 -1      1056 8.41220E+01
 -1      1057 8.41199E+01
 -1      1058 8.41236E+01
 -1      1059 8.41236E+01
 -1      1060 8.41656E+01
 -1      1061 8.41656E+01
 -1      1062 8.41179E+01
 -1      1063 8.41256E+01
 -1      1064 8.41256E+01
 -1      1065 8.41033E+01
 -1      1066 8.41033E+01
 -1      1067 8.40892E+01
 -1      1068 8.40851E+01
 -1      1069 8.40802E+01
 -1      1070 8.40802E+01
 -1      1071 8.41031E+01
 -1      1072 8.41031E+01
 -1      1073 8.40286E+01
 -1      1074 8.40286E+01
 -1      1075 8.40164E+01
 -1      1076 8.39597E+01
 -1      1077 8.39597E+01
 -1      1078 8.38552E+01
 -1      1079 8.38552E+01
 -1      1080 8.36523E+01
 -1      1081 8.35009E+01
 -1      1082 8.32543E+01
 -1      1083 8.25765E+01
 -1      1084 8.13996E+01
 -1      1085 7.71710E+01
 -1      1086 6.71895E+01
 -1      1087 7.91610E+01
 -1      1088 8.17683E+01
 -1      1089 8.28903E+01
 -1      1090 8.33088E+01
 -1      1091 8.35380E+01
 -1      1092 8.37868E+01
 -1      1093 8.37868E+01
 -1      1094 8.39295E+01
 -1      1095 8.39295E+01
 -1      1096 8.40029E+01
 -1      1097 8.40149E+01
 -1      1098 8.40149E+01
 -1      1099 8.40936E+01
 -1      1100 8.40936E+01
 -1      1101 8.40871E+01
 -1      1102 8.40871E+01
 -1      1103 8.41430E+01
 -1      1104 8.41430E+01
 -1      1105 8.41327E+01
 -1      1106 8.41327E+01
 -1      1107 8.41274E+01
 -1      1108 8.41274E+01
 -1      1109 8.41183E+01
 -1      1110 8.41672E+01
 -1      1111 8.41672E+01
 -1      1112 8.41294E+01
 -1      1113 8.41294E+01
 -1      1114 8.41177E+01
 -1      1115 8.41323E+01
 -1      1116 8.41323E+01
 -1      1117 8.41492E+01
 -1      1118 8.41492E+01
 -1      1119 8.41268E+01
 -1      1120 8.41263E+01
 -1      1121 8.41535E+01
 -1      1122 8.41535E+01
 -1      1123 8.41339E+01
 -1      1124 8.41339E+01
 -1      1125 8.41324E+01
 -1      1126 8.41395E+01
 -1      1127 8.41395E+01
 -1      1128 8.41549E+01
 -1      1129 8.41549E+01
 -1      1130 8.41303E+01
 -1      1131 8.41289E+01
 -1      1132 8.41568E+01
 -1      1133 8.41568E+01
 -1      1134 8.41393E+01
 -1      1135 8.41393E+01
 -1      1136 8.41315E+01
 -1      1137 8.41359E+01
 -1      1138 8.41359E+01
 -1      1139 8.41810E+01
 -1      1140 8.41810E+01
 -1      1141 8.41642E+01
 -1      1142 8.41642E+01
 -1      1143 8.41599E+01
 -1      1144 8.41599E+01
 -1      1145 8.41310E+01
 -1      1146 8.41310E+01
 -1      1147 8.41179E+01
 -1      1148 8.41266E+01
 -1      1149 8.41266E+01
 -1      1150 8.41656E+01
 -1      1151 8.41656E+01
 -1      1152 8.41166E+01
 -1      1153 8.41223E+01
 -1      1154 8.41223E+01
 -1      1155 8.41261E+01
 -1      1156 8.41261E+01
 -1      1157 8.41293E+01
 -1      1158 8.41293E+01
 -1      1159 8.40550E+01
 -1      1160 8.40550E+01
 -1      1161 8.40254E+01
 -1      1162 8.39974E+01
 -1      1163 8.39784E+01
 -1      1164 8.39003E+01
 -1      1165 8.38945E+01
 -1      1166 8.37231E+01
 -1      1167 8.36291E+01
 -1      1168 8.32384E+01
 -1      1169 8.27129E+01
 -1      1170 8.08479E+01
 -1      1171 7.54706E+01
 -1      1172 5.96675E+01
 -1      1173 2.39745E+01
 -1      1174 5.73878E+01
 -1      1175 7.72118E+01
 -1      1176 8.17613E+01
 -1      1177 8.29068E+01
 -1      1178 8.33827E+01
 -1      1179 8.36517E+01
 -1      1180 8.37417E+01
 -1      1181 8.38511E+01
 -1      1182 8.39043E+01
 -1      1183 8.39423E+01
 -1      1184 8.39885E+01
 -1      1185 8.39885E+01
 -1      1186 8.40503E+01
 -1      1187 8.40503E+01
 -1      1188 8.40403E+01
 -1      1189 8.40403E+01
 -1      1190 8.41098E+01
 -1      1191 8.41098E+01
 -1      1192 8.41119E+01
 -1      1193 8.41119E+01
 -1      1194 8.41228E+01
 -1      1195 8.41228E+01
 -1      1196 8.41200E+01
 -1      1197 8.41200E+01
 -1      1198 8.41344E+01
 -1      1199 8.41344E+01
 -1      1200 8.41902E+01
 -1      1201 8.41902E+01
 -1      1202 8.41613E+01
 -1      1203 8.65616E+01
 -1      1204 8.65616E+01
 -1      1205 7.45729E+01
 -1      1206 7.08034E-02
 -1      1207 2.73280E-01
 -1      1208 5.69893E-01
 -1      1209 9.77959E-01
 -1      1210 1.50070E+00
 -1      1211 2.08096E+00
 -1      1212 2.87442E+00
 -1      1213 3.67241E+00
 -1      1214 4.68048E+00
 -1      1215 1.04813E+01
 -1      1216 2.98255E+01
 -1      1217 4.67466E+01
 -1      1218 5.89313E+01
 -1      1219 6.87865E+01
 -1      1220 7.63882E+01
 -1      1221 8.12321E+01
 -1      1222 8.34199E+01
 -1      1223 8.36587E+01
 -1      1224 8.38674E+01
 -1      1225 8.39800E+01
 -1      1226 8.39800E+01
 -1      1227 8.41011E+01
 -1      1228 8.41011E+01
 -1      1229 8.40530E+01
 -1      1230 8.40530E+01
 -1      1231 8.40464E+01
 -1      1232 8.40878E+01
 -1      1233 8.40878E+01
 -1      1234 8.40732E+01
 -1      1235 8.40802E+01
 -1      1236 8.41138E+01
 -1      1237 8.41138E+01
 -1      1238 8.41054E+01
 -1      1239 8.41054E+01
 -1      1240 8.41036E+01
 -1      1241 8.41114E+01
 -1      1242 8.41114E+01
 -1      1243 8.41650E+01
 -1      1244 8.41650E+01
 -1      1245 8.41485E+01
 -1      1246 8.41485E+01
 -1      1247 8.41500E+01
 -1      1248 8.41500E+01
 -1      1249 8.41269E+01
 -1      1250 8.41269E+01
 -1      1251 8.41188E+01
 -1      1252 8.41335E+01
 -1      1253 8.41335E+01
 -1      1254 8.41822E+01
 -1      1255 8.41822E+01
 -1      1256 8.41369E+01
 -1      1257 8.41485E+01
 -1      1258 8.41485E+01
 -1      1259 8.41643E+01
 -1      1260 8.41643E+01
 -1      1261 8.41848E+01
 -1      1262 8.41848E+01
 -1      1263 8.41507E+01
 -1      1264 8.41507E+01
 -1      1265 8.41836E+01
 -1      1266 8.41836E+01
 -1      1267 8.41357E+01
 -1      1268 8.41585E+01
 -1      1269 8.41585E+01
 -1      1270 8.41711E+01
 -1      1271 8.41711E+01
 -1      1272 8.41871E+01
 -1      1273 8.41871E+01
 -1      1274 8.41120E+01
 -1      1275 8.41853E+01
 -1      1276 8.41853E+01
 -1      1277 8.41686E+01
 -1      1278 8.41686E+01
 -1      1279 8.41584E+01
 -1      1280 8.41584E+01
 -1      1281 8.41301E+01
 -1      1282 8.41327E+01
 -1      1283 8.41489E+01
 -1      1284 8.41489E+01
 -1      1285 8.41239E+01
 -1      1286 8.41841E+01
 -1      1287 8.41841E+01
 -1      1288 8.41664E+01
 -1      1289 8.41664E+01
 -1      1290 8.41515E+01
 -1      1291 8.41515E+01
 -1      1292 8.41353E+01
 -1      1293 8.41798E+01
 -1      1294 8.41798E+01
 -1      1295 8.41314E+01
 -1      1296 8.41314E+01
 -1      1297 8.41220E+01
 -1      1298 8.41199E+01
 -1      1299 8.41236E+01
 -1      1300 8.41236E+01
 -1      1301 8.41656E+01
 -1      1302 8.41656E+01
 -1      1303 8.41179E+01
 -1      1304 8.41256E+01
 -1      1305 8.41256E+01
 -1      1306 8.41033E+01
 -1      1307 8.41033E+01
 -1      1308 8.40892E+01
 -1      1309 8.40851E+01
 -1      1310 8.40802E+01
 -1      1311 8.40802E+01
 -1      1312 8.41031E+01
 -1      1313 8.41031E+01
 -1      1314 8.40286E+01
 -1      1315 8.40286E+01
 -1      1316 8.40164E+01
 -1      1317 8.39597E+01
 -1      1318 8.39597E+01
 -1      1319 8.38552E+01
 -1      1320 8.38552E+01
 -1      1321 8.36523E+01
 -1      1322 8.35009E+01
 -1      1323 8.32543E+01
 -1      1324 8.25765E+01
 -1      1325 8.13996E+01
 -1      1326 7.71710E+01
 -1      1327 6.71895E+01
 -1      1328 7.91610E+01
 -1      1329 8.17683E+01
 -1      1330 8.28903E+01
 -1      1331 8.33088E+01
 -1      1332 8.35380E+01
 -1      1333 8.37868E+01
 -1      1334 8.37868E+01
 -1      1335 8.39295E+01
 -1      1336 8.39295E+01
 -1      1337 8.40029E+01
 -1      1338 8.40149E+01
 -1      1339 8.40149E+01
 -1      1340 8.40936E+01
 -1      1341 8.40936E+01
 -1      1342 8.40871E+01
 -1      1343 8.40871E+01
 -1      1344 8.41430E+01
 -1      1345 8.41430E+01
 -1      1346 8.41327E+01
 -1      1347 8.41327E+01
 -1      1348 8.41274E+01
 -1      1349 8.41274E+01
 -1      1350 8.41183E+01
 -1      1351 8.41672E+01
 -1      1352 8.41672E+01
 -1      1353 8.41294E+01
 -1      1354 8.41294E+01
 -1      1355 8.41177E+01
 -1      1356 8.41323E+01
 -1      1357 8.41323E+01
 -1      1358 8.41492E+01
 -1      1359 8.41492E+01
 -1      1360 8.41268E+01
 -1      1361 8.41263E+01
 -1      1362 8.41535E+01
 -1      1363 8.41535E+01
 -1      1364 8.41339E+01
 -1      1365 8.41339E+01
 -1      1366 8.41324E+01
 -1      1367 8.41395E+01
 -1      1368 8.41395E+01
 -1      1369 8.41549E+01
 -1      1370 8.41549E+01
 -1      1371 8.41303E+01
 -1      1372 8.41289E+01
 -1      1373 8.41568E+01
 -1      1374 8.41568E+01
 -1      1375 8.41393E+01
 -1      1376 8.41393E+01
 -1      1377 8.41315E+01
 -1      1378 8.41359E+01
 -1      1379 8.41359E+01
 -1      1380 8.41810E+01
 -1      1381 8.41810E+01
 -1      1382 8.41642E+01
 -1      1383 8.41642E+01
 -1      1384 8.41599E+01
 -1      1385 8.41599E+01
 -1      1386 8.41310E+01
 -1      1387 8.41310E+01
 -1      1388 8.41179E+01
 -1      1389 8.41266E+01
 -1      1390 8.41266E+01
 -1      1391 8.41656E+01
 -1      1392 8.41656E+01
 -1      1393 8.41166E+01
 -1      1394 8.41223E+01
 -1      1395 8.41223E+01
 -1      1396 8.41261E+01
 -1      1397 8.41261E+01
 -1      1398 8.41293E+01
 -1      1399 8.41293E+01
 -1      1400 8.40550E+01
 -1      1401 8.40550E+01
 -1      1402 8.40254E+01
 -1      1403 8.39974E+01
 -1      1404 8.39784E+01
 -1      1405 8.39003E+01
 -1      1406 8.38945E+01
 -1      1407 8.37231E+01
 -1      1408 8.36291E+01
 -1      1409 8.32384E+01
 -1      1410 8.27129E+01
 -1      1411 8.08479E+01
 -1      1412 7.54706E+01
 -1      1413 5.96675E+01
 -1      1414 2.39745E+01
 -1      1415 5.73878E+01
 -1      1416 7.72118E+01
 -1      1417 8.17613E+01
 -1      1418 8.29068E+01
 -1      1419 8.33827E+01
 -1      1420 8.36517E+01
 -1      1421 8.37417E+01
 -1      1422 8.38511E+01
 -1      1423 8.39043E+01
 -1      1424 8.39423E+01
 -1      1425 8.39885E+01
 -1      1426 8.39885E+01
 -1      1427 8.40503E+01
 -1      1428 8.40503E+01
 -1      1429 8.40403E+01
 -1      1430 8.40403E+01
 -1      1431 8.41098E+01
 -1      1432 8.41098E+01
 -1      1433 8.41119E+01
 -1      1434 8.41119E+01
 -1      1435 8.41228E+01
 -1      1436 8.41228E+01
 -1      1437 8.41200E+01
 -1      1438 8.41200E+01
 -1      1439 8.41344E+01
 -1      1440 8.41344E+01
 -1      1441 8.41902E+01
 -1      1442 8.41902E+01
 -1      1443 8.41613E+01
 -1      1444 8.65616E+01
 -1      1445 8.65616E+01
 -1      1446 7.45729E+01
 -1      1447 1.73521E-01
 -1      1448 5.74614E-01
 -1      1449 1.06804E+00
 -1      1450 1.63148E+00
 -1      1451 2.26683E+00
 -1      1452 2.97808E+00
 -1      1453 3.75046E+00
 -1      1454 2.22987E+01
 -1      1455 2.69737E+01
 -1      1456 2.69991E+01
 -1      1457 2.98126E+01
 -1      1458 4.67371E+01
 -1      1459 5.89245E+01
 -1      1460 6.87822E+01
 -1      1461 7.63868E+01
 -1      1462 8.12321E+01
 -1      1463 8.34199E+01
 -1      1464 8.36587E+01
 -1      1465 8.38674E+01
 -1      1466 8.39800E+01
 -1      1467 8.39800E+01
 -1      1468 8.41011E+01
 -1      1469 8.41011E+01
 -1      1470 8.40530E+01
 -1      1471 8.40530E+01
 -1      1472 8.40464E+01
 -1      1473 8.40878E+01
 -1      1474 8.40878E+01
 -1      1475 8.40732E+01
 -1      1476 8.40802E+01
 -1      1477 8.41138E+01
 -1      1478 8.41138E+01
 -1      1479 8.41054E+01
 -1      1480 8.41054E+01
 -1      1481 8.41036E+01
 -1      1482 8.41114E+01
 -1      1483 8.41114E+01
 -1      1484 8.41650E+01
 -1      1485 8.41650E+01
 -1      1486 8.41485E+01
 -1      1487 8.41485E+01
 -1      1488 8.41500E+01
 -1      1489 8.41500E+01
 -1      1490 8.41269E+01
 -1      1491 8.41269E+01
 -1      1492 8.41188E+01
 -1      1493 8.41335E+01
 -1      1494 8.41335E+01
 -1      1495 8.41822E+01
 -1      1496 8.41822E+01
 -1      1497 8.41369E+01
 -1      1498 8.41485E+01
 -1      1499 8.41485E+01
 -1      1500 8.41643E+01
 -1      1501 8.41643E+01
 -1      1502 8.41848E+01
 -1      1503 8.41848E+01
 -1      1504 8.41507E+01
 -1      1505 8.41507E+01
 -1      1506 8.41836E+01
 -1      1507 8.41836E+01
 -1      1508 8.41357E+01
 -1      1509 8.41585E+01
 -1      1510 8.41585E+01
 -1      1511 8.41711E+01
 -1      1512 8.41711E+01
 -1      1513 8.41871E+01
 -1      1514 8.41871E+01
 -1      1515 8.41120E+01
 -1      1516 8.41853E+01
 -1      1517 8.41853E+01
 -1      1518 8.41686E+01
 -1      1519 8.41686E+01
 -1      1520 8.41584E+01
 -1      1521 8.41584E+01
 -1      1522 8.41301E+01
 -1      1523 8.41327E+01
 -1      1524 8.41489E+01
 -1      1525 8.41489E+01
 -1      1526 8.41239E+01
 -1      1527 8.41841E+01
 -1      1528 8.41841E+01
 -1      1529 8.41664E+01
 -1      1530 8.41664E+01
 -1      1531 8.41515E+01
 -1      1532 8.41515E+01
 -1      1533 8.41353E+01
 -1      1534 8.41798E+01
 -1      1535 8.41798E+01
 -1      1536 8.41314E+01
 -1      1537 8.41314E+01
 -1      1538 8.41220E+01
 -1      1539 8.41199E+01
 -1      1540 8.41236E+01
 -1      1541 8.41236E+01
 -1      1542 8.41656E+01
 -1      1543 8.41656E+01
 -1      1544 8.41179E+01
 -1      1545 8.41256E+01
 -1      1546 8.41256E+01
 -1      1547 8.41033E+01
 -1      1548 8.41033E+01
 -1      1549 8.40892E+01
 -1      1550 8.40851E+01
 -1      1551 8.40802E+01
 -1      1552 8.40802E+01
 -1      1553 8.41031E+01
 -1      1554 8.41031E+01
 -1      1555 8.40286E+01
 -1      1556 8.40286E+01
 -1      1557 8.40164E+01
 -1      1558 8.39597E+01
 -1      1559 8.39597E+01
 -1      1560 8.38552E+01
 -1      1561 8.38552E+01
 -1      1562 8.36523E+01
 -1      1563 8.35009E+01
 -1      1564 8.32543E+01
 -1      1565 8.25765E+01
 -1      1566 8.13996E+01
 -1      1567 7.71710E+01
 -1      1568 6.71895E+01
 -1      1569 7.91610E+01
 -1      1570 8.17683E+01
 -1      1571 8.28903E+01
 -1      1572 8.33088E+01
 -1      1573 8.35380E+01
 -1      1574 8.37868E+01
 -1      1575 8.37868E+01
 -1      1576 8.39295E+01
 -1      1577 8.39295E+01
 -1      1578 8.40029E+01
 -1      1579 8.40149E+01
 -1      1580 8.40149E+01
 -1      1581 8.40936E+01
 -1      1582 8.40936E+01
 -1      1583 8.40871E+01
 -1      1584 8.40871E+01
 -1      1585 8.41430E+01
 -1      1586 8.41430E+01
 -1      1587 8.41327E+01
 -1      1588 8.41327E+01
 -1      1589 8.41274E+01
 -1      1590 8.41274E+01
 -1      1591 8.41183E+01
 -1      1592 8.41672E+01
 -1      1593 8.41672E+01
 -1      1594 8.41294E+01
 -1      1595 8.41294E+01
 -1      1596 8.41177E+01
 -1      1597 8.41323E+01
 -1      1598 8.41323E+01
 -1      1599 8.41492E+01
 -1      1600 8.41492E+01
 -1      1601 8.41268E+01
 -1      1602 8.41263E+01
 -1      1603 8.41535E+01
 -1      1604 8.41535E+01
 -1      1605 8.41339E+01
 -1      1606 8.41339E+01
 -1      1607 8.41324E+01
 -1      1608 8.41395E+01
 -1      1609 8.41395E+01
 -1      1610 8.41549E+01
 -1      1611 8.41549E+01
 -1      1612 8.41303E+01
 -1      1613 8.41289E+01
 -1      1614 8.41568E+01
 -1      1615 8.41568E+01
 -1      1616 8.41393E+01
 -1      1617 8.41393E+01
 -1      1618 8.41315E+01
 -1      1619 8.41359E+01
 -1      1620 8.41359E+01
 -1      1621 8.41810E+01
 -1      1622 8.41810E+01
 -1      1623 8.41642E+01
 -1      1624 8.41642E+01
 -1      1625 8.41599E+01
 -1      1626 8.41599E+01
 -1      1627 8.41310E+01
 -1      1628 8.41310E+01
 -1      1629 8.41179E+01
 -1      1630 8.41266E+01
 -1      1631 8.41266E+01
 -1      1632 8.41656E+01
 -1      1633 8.41656E+01
 -1      1634 8.41166E+01
 -1      1635 8.41223E+01
 -1      1636 8.41223E+01
 -1      1637 8.41261E+01
 -1      1638 8.41261E+01
 -1      1639 8.41293E+01
 -1      1640 8.41293E+01
 -1      1641 8.40550E+01
 -1      1642 8.40550E+01
 -1      1643 8.40254E+01
 -1      1644 8.39974E+01
 -1      1645 8.39784E+01
 -1      1646 8.39003E+01
 -1      1647 8.38945E+01
 -1      1648 8.37231E+01
 -1      1649 8.36291E+01
 -1      1650 8.32384E+01
 -1      1651 8.27129E+01
 -1      1652 8.08479E+01
 -1      1653 7.54706E+01
 -1      1654 5.96675E+01
 -1      1655 4.18953E+01
 -1      1656 5.73878E+01
 -1      1657 7.72118E+01
 -1      1658 8.17613E+01
 -1      1659 8.29068E+01
 -1      1660 8.33827E+01
 -1      1661 8.36517E+01
 -1      1662 8.37417E+01
 -1      1663 8.38511E+01
 -1      1664 8.39043E+01
 -1      1665 8.39423E+01
 -1      1666 8.39885E+01
 -1      1667 8.39885E+01
 -1      1668 8.40503E+01
 -1      1669 8.40503E+01
 -1      1670 8.40403E+01
 -1      1671 8.40403E+01
 -1      1672 8.41098E+01
 -1      1673 8.41098E+01
 -1      1674 8.41119E+01
 -1      1675 8.41119E+01
 -1      1676 8.41228E+01
 -1      1677 8.41228E+01
 -1      1678 8.41200E+01
 -1      1679 8.41200E+01
 -1      1680 8.41344E+01
 -1      1681 8.41344E+01
 -1      1682 8.41902E+01
 -1      1683 8.41902E+01
 -1      1684 8.41613E+01
 -1      1685 8.65616E+01
 -1      1686 8.65616E+01
 -1      1687 7.45729E+01
 -1      1688 1.73521E-01
 -1      1689 5.74614E-01
 -1      1690 1.06804E+00
 -1      1691 1.63148E+00
 -1      1692 2.26683E+00
 -1      1693 2.97808E+00
 -1      1694 3.75046E+00
 -1      1695 2.22987E+01
 -1      1696 2.69737E+01
 -1      1697 2.69991E+01
 -1      1698 2.98126E+01
 -1      1699 4.67371E+01
 -1      1700 5.89245E+01
 -1      1701 6.87822E+01
 -1      1702 7.63868E+01
 -1      1703 8.12321E+01
 -1      1704 8.34199E+01
 -1      1705 8.36587E+01
 -1      1706 8.38674E+01
 -1      1707 8.39800E+01
 -1      1708 8.39800E+01
 -1      1709 8.41011E+01
 -1      1710 8.41011E+01
 -1      1711 8.40530E+01
 -1      1712 8.40530E+01
 -1      1713 8.40464E+01
 -1      1714 8.40878E+01
 -1      1715 8.40878E+01
 -1      1716 8.40732E+01
 -1      1717 8.40802E+01
 -1      1718 8.41138E+01
 -1      1719 8.41138E+01
 -1      1720 8.41054E+01
 -1      1721 8.41054E+01
 -1      1722 8.41036E+01
 -1      1723 8.41114E+01
 -1      1724 8.41114E+01
 -1      1725 8.41650E+01
 -1      1726 8.41650E+01
 -1      1727 8.41485E+01
 -1      1728 8.41485E+01
 -1      1729 8.41500E+01
 -1      1730 8.41500E+01
 -1      1731 8.41269E+01
 -1      1732 8.41269E+01
 -1      1733 8.41188E+01
 -1      1734 8.41335E+01
 -1      1735 8.41335E+01
 -1      1736 8.41822E+01
 -1      1737 8.41822E+01
 -1      1738 8.41369E+01
 -1      1739 8.41485E+01
 -1      1740 8.41485E+01
 -1      1741 8.41643E+01
 -1      1742 8.41643E+01
 -1      1743 8.41848E+01
 -1      1744 8.41848E+01
 -1      1745 8.41507E+01
 -1      1746 8.41507E+01
 -1      1747 8.41836E+01
 -1      1748 8.41836E+01
 -1      1749 8.41357E+01
 -1      1750 8.41585E+01
 -1      1751 8.41585E+01
 -1      1752 8.41711E+01
 -1      1753 8.41711E+01
 -1      1754 8.41871E+01
 -1      1755 8.41871E+01
 -1      1756 8.41120E+01
 -1      1757 8.41853E+01
 -1      1758 8.41853E+01
 -1      1759 8.41686E+01
 -1      1760 8.41686E+01
 -1      1761 8.41584E+01
 -1      1762 8.41584E+01
 -1      1763 8.41301E+01
 -1      1764 8.41327E+01
 -1      1765 8.41489E+01
 -1      1766 8.41489E+01
 -1      1767 8.41239E+01
 -1      1768 8.41841E+01
 -1      1769 8.41841E+01
 -1      1770 8.41664E+01
 -1      1771 8.41664E+01
 -1      1772 8.41515E+01
 -1      1773 8.41515E+01
 -1      1774 8.41353E+01
 -1      1775 8.41798E+01
 -1      1776 8.41798E+01
 -1      1777 8.41314E+01
 -1      1778 8.41314E+01
 -1      1779 8.41220E+01
 -1      1780 8.41199E+01
 -1      1781 8.41236E+01
 -1      1782 8.41236E+01
 -1      1783 8.41656E+01
 -1      1784 8.41656E+01
 -1      1785 8.41179E+01
 -1      1786 8.41256E+01
 -1      1787 8.41256E+01
 -1      1788 8.41033E+01
 -1      1789 8.41033E+01
 -1      1790 8.40892E+01
 -1      1791 8.40851E+01
 -1      1792 8.40802E+01
 -1      1793 8.40802E+01
 -1      1794 8.41031E+01
 -1      1795 8.41031E+01
 -1      1796 8.40286E+01
 -1      1797 8.40286E+01
 -1      1798 8.40164E+01
 -1      1799 8.39597E+01
 -1      1800 8.39597E+01
 -1      1801 8.38552E+01
 -1      1802 8.38552E+01
 -1      1803 8.36523E+01
 -1      1804 8.35009E+01
 -1      1805 8.32543E+01
 -1      1806 8.25765E+01
 -1      1807 8.13996E+01
 -1      1808 7.71710E+01
 -1      1809 6.71895E+01
 -1      1810 7.91610E+01
 -1      1811 8.17683E+01
 -1      1812 8.28903E+01
 -1      1813 8.33088E+01
 -1      1814 8.35380E+01
 -1      1815 8.37868E+01
 -1      1816 8.37868E+01
 -1      1817 8.39295E+01
 -1      1818 8.39295E+01
 -1      1819 8.40029E+01
 -1      1820 8.40149E+01
 -1      1821 8.40149E+01
 -1      1822 8.40936E+01
 -1      1823 8.40936E+01
 -1      1824 8.40871E+01
 -1      1825 8.40871E+01
 -1      1826 8.41430E+01
 -1      1827 8.41430E+01
 -1      1828 8.41327E+01
 -1      1829 8.41327E+01
 -1      1830 8.41274E+01
 -1      1831 8.41274E+01
 -1      1832 8.41183E+01
 -1      1833 8.41672E+01
 -1      1834 8.41672E+01
 -1      1835 8.41294E+01
 -1      1836 8.41294E+01
 -1      1837 8.41177E+01
 -1      1838 8.41323E+01
 -1      1839 8.41323E+01
 -1      1840 8.41492E+01
 -1      1841 8.41492E+01
 -1      1842 8.41268E+01
 -1      1843 8.41263E+01
 -1      1844 8.41535E+01
 -1      1845 8.41535E+01
 -1      1846 8.41339E+01
 -1      1847 8.41339E+01
 -1      1848 8.41324E+01
 -1      1849 8.41395E+01
 -1      1850 8.41395E+01
 -1      1851 8.41549E+01
 -1      1852 8.41549E+01
 -1      1853 8.41303E+01
 -1      1854 8.41289E+01
 -1      1855 8.41568E+01
 -1      1856 8.41568E+01
 -1      1857 8.41393E+01
 -1      1858 8.41393E+01
 -1      1859 8.41315E+01
 -1      1860 8.41359E+01
 -1      1861 8.41359E+01
 -1      1862 8.41810E+01
 -1      1863 8.41810E+01
 -1      1864 8.41642E+01
 -1      1865 8.41642E+01
 -1      1866 8.41599E+01
 -1      1867 8.41599E+01
 -1      1868 8.41310E+01
 -1      1869 8.41310E+01
 -1      1870 8.41179E+01
 -1      1871 8.41266E+01
 -1      1872 8.41266E+01
 -1      1873 8.41656E+01
 -1      1874 8.41656E+01
 -1      1875 8.41166E+01
 -1      1876 8.41223E+01
 -1      1877 8.41223E+01
 -1      1878 8.41261E+01
 -1      1879 8.41261E+01
 -1      1880 8.41293E+01
 -1      1881 8.41293E+01
 -1      1882 8.40550E+01
 -1      1883 8.40550E+01
 -1      1884 8.40254E+01
 -1      1885 8.39974E+01
 -1      1886 8.39784E+01
 -1      1887 8.39003E+01
 -1      1888 8.38945E+01
 -1      1889 8.37231E+01
 -1      1890 8.36291E+01
 -1      1891 8.32384E+01
 -1      1892 8.27129E+01
 -1      1893 8.08479E+01
 -1      1894 7.54706E+01
 -1      1895 5.96675E+01
 -1      1896 4.18953E+01
 -1      1897 5.73878E+01
 -1      1898 7.72118E+01
 -1      1899 8.17613E+01
 -1      1900 8.29068E+01
 -1      1901 8.33827E+01
 -1      1902 8.36517E+01
 -1      1903 8.37417E+01
 -1      1904 8.38511E+01
 -1      1905 8.39043E+01
 -1      1906 8.39423E+01
 -1      1907 8.39885E+01
 -1      1908 8.39885E+01
 -1      1909 8.40503E+01
 -1      1910 8.40503E+01
 -1      1911 8.40403E+01
 -1      1912 8.40403E+01
 -1      1913 8.41098E+01
 -1      1914 8.41098E+01
 -1      1915 8.41119E+01
 -1      1916 8.41119E+01
 -1      1917 8.41228E+01
 -1      1918 8.41228E+01
 -1      1919 8.41200E+01
 -1      1920 8.41200E+01
 -1      1921 8.41344E+01
 -1      1922 8.41344E+01
 -1      1923 8.41902E+01
 -1      1924 8.41902E+01
 -1      1925 8.41613E+01
 -1      1926 8.65616E+01
 -1      1927 8.65616E+01
 -1      1928 7.45729E+01
 -1      1929 1.73521E-01
 -1      1930 5.74614E-01
 -1      1931 1.06804E+00
 -1      1932 1.63148E+00
 -1      1933 2.26683E+00
 -1      1934 2.97808E+00
 -1      1935 3.75046E+00
 -1      1936 2.22987E+01
 -1      1937 2.69737E+01
 -1      1938 2.69991E+01
 -1      1939 2.70492E+01
 -1      1940 2.70492E+01
 -1      1941 2.70577E+01
 -1      1942 2.70577E+01
 -1      1943 2.70282E+01
 -1      1944 2.70382E+01
 -1      1945 2.70382E+01
 -1      1946 2.70496E+01
 -1      1947 2.70496E+01
 -1      1948 2.70325E+01
 -1      1949 2.70325E+01
 -1      1950 2.70201E+01
 -1      1951 2.70284E+01
 -1      1952 2.70284E+01
 -1      1953 2.70292E+01
 -1      1954 2.70292E+01
 -1      1955 2.70234E+01
 -1      1956 2.70234E+01
 -1      1957 2.70255E+01
 -1      1958 2.70255E+01
 -1      1959 2.70200E+01
 -1      1960 2.70200E+01
 -1      1961 2.70186E+01
 -1      1962 2.70220E+01
 -1      1963 2.70220E+01
 -1      1964 2.70180E+01
 -1      1965 2.70241E+01
 -1      1966 2.70241E+01
 -1      1967 2.70332E+01
 -1      1968 2.70332E+01
 -1      1969 2.70273E+01
 -1      1970 2.70273E+01
 -1      1971 2.70247E+01
 -1      1972 2.70247E+01
 -1      1973 2.70256E+01
 -1      1974 2.70256E+01
 -1      1975 2.70174E+01
 -1      1976 2.70219E+01
 -1      1977 2.70219E+01
 -1      1978 2.70294E+01
 -1      1979 2.70294E+01
 -1      1980 2.70157E+01
 -1      1981 2.70248E+01
 -1      1982 2.70248E+01
 -1      1983 2.70329E+01
 -1      1984 2.70329E+01
 -1      1985 2.70290E+01
 -1      1986 2.70290E+01
 -1      1987 2.70277E+01
 -1      1988 2.70277E+01
 -1      1989 2.70279E+01
 -1      1990 2.70279E+01
 -1      1991 2.70147E+01
 -1      1992 2.70264E+01
 -1      1993 2.70264E+01
 -1      1994 2.70281E+01
 -1      1995 2.70281E+01
 -1      1996 2.70194E+01
 -1      1997 2.70202E+01
 -1      1998 2.70202E+01
 -1      1999 2.70282E+01
 -1      2000 2.70282E+01
 -1      2001 2.70226E+01
 -1      2002 2.70226E+01
 -1      2003 2.70154E+01
 -1      2004 2.70239E+01
 -1      2005 2.70239E+01
 -1      2006 2.70265E+01
 -1      2007 2.70265E+01
 -1      2008 2.70249E+01
 -1      2009 2.70249E+01
 -1      2010 2.70292E+01
 -1      2011 2.70292E+01
 -1      2012 2.70218E+01
 -1      2013 2.70218E+01
 -1      2014 2.70160E+01
 -1      2015 2.70248E+01
 -1      2016 2.70248E+01
 -1      2017 2.70216E+01
 -1      2018 2.70216E+01
 -1      2019 2.70144E+01
 -1      2020 2.70241E+01
 -1      2021 2.70241E+01
 -1      2022 2.70137E+01
 -1      2023 2.70224E+01
 -1      2024 2.70224E+01
 -1      2025 2.70267E+01
 -1      2026 2.70267E+01
 -1      2027 2.70193E+01
 -1      2028 2.70193E+01
 -1      2029 2.70169E+01
 -1      2030 2.70169E+01
 -1      2031 2.70196E+01
 -1      2032 2.70196E+01
 -1      2033 2.70145E+01
 -1      2034 2.70251E+01
 -1      2035 2.70251E+01
 -1      2036 2.70248E+01
 -1      2037 2.70248E+01
 -1      2038 2.70150E+01
 -1      2039 2.70150E+01
 -1      2040 2.70143E+01
 -1      2041 2.70204E+01
 -1      2042 2.70204E+01
 -1      2043 2.70126E+01
 -1      2044 2.70126E+01
 -1      2045 2.70027E+01
 -1      2046 2.70027E+01
 -1      2047 2.69864E+01
 -1      2048 2.69552E+01
 -1      2049 2.76618E+01
 -1      2050 2.76618E+01
 -1      2051 2.70212E+01
 -1      2052 2.70169E+01
 -1      2053 2.70169E+01
 -1      2054 2.70120E+01
 -1      2055 2.70195E+01
 -1      2056 2.70195E+01
 -1      2057 2.70225E+01
 -1      2058 2.70225E+01
 -1      2059 2.70139E+01
 -1      2060 2.70139E+01
 -1      2061 2.70135E+01
 -1      2062 2.70229E+01
 -1      2063 2.70229E+01
 -1      2064 2.70232E+01
 -1      2065 2.70232E+01
 -1      2066 2.70235E+01
 -1      2067 2.70235E+01
 -1      2068 2.70256E+01
 -1      2069 2.70256E+01
 -1      2070 2.70164E+01
 -1      2071 2.70164E+01
 -1      2072 2.70106E+01
 -1      2073 2.70199E+01
 -1      2074 2.70199E+01
 -1      2075 2.70201E+01
 -1      2076 2.70201E+01
 -1      2077 2.70095E+01
 -1      2078 2.70158E+01
 -1      2079 2.70158E+01
 -1      2080 2.70122E+01
 -1      2081 2.70122E+01
 -1      2082 2.70109E+01
 -1      2083 2.70154E+01
 -1      2084 2.70154E+01
 -1      2085 2.70109E+01
 -1      2086 2.70109E+01
 -1      2087 2.70130E+01
 -1      2088 2.70130E+01
 -1      2089 2.70228E+01
 -1      2090 2.70228E+01
 -1      2091 2.70138E+01
 -1      2092 2.70138E+01
 -1      2093 2.70087E+01
 -1      2094 2.70140E+01
 -1      2095 2.70140E+01
 -1      2096 2.70092E+01
 -1      2097 2.70111E+01
 -1      2098 2.70111E+01
 -1      2099 2.70137E+01
 -1      2100 2.70137E+01
 -1      2101 2.70080E+01
 -1      2102 2.70125E+01
 -1      2103 2.70125E+01
 -1      2104 2.70195E+01
 -1      2105 2.70195E+01
 -1      2106 2.70182E+01
 -1      2107 2.70182E+01
 -1      2108 2.70157E+01
 -1      2109 2.70157E+01
 -1      2110 2.70165E+01
 -1      2111 2.70165E+01
 -1      2112 2.70081E+01
 -1      2113 2.70104E+01
 -1      2114 2.70104E+01
 -1      2115 2.70152E+01
 -1      2116 2.70152E+01
 -1      2117 2.70107E+01
 -1      2118 2.70107E+01
 -1      2119 2.70081E+01
 -1      2120 2.70180E+01
 -1      2121 2.70180E+01
 -1      2122 2.70119E+01
 -1      2123 2.70119E+01
 -1      2124 2.70033E+01
 -1      2125 2.70081E+01
 -1      2126 2.70081E+01
 -1      2127 2.70058E+01
 -1      2128 2.70058E+01
 -1      2129 2.70063E+01
 -1      2130 2.70063E+01
 -1      2131 2.70120E+01
 -1      2132 2.70120E+01
 -1      2133 2.69906E+01
 -1      2134 2.69906E+01
 -1      2135 2.69405E+01
 -1      2136 2.69140E+01
 -1      2137 4.18953E+01
 -1      2138 4.18953E+01
 -1      2139 2.70472E+01
 -1      2140 2.70316E+01
 -1      2141 2.70316E+01
 -1      2142 2.70310E+01
 -1      2143 2.70310E+01
 -1      2144 2.70358E+01
 -1      2145 2.70358E+01
 -1      2146 2.70330E+01
 -1      2147 2.70330E+01
 -1      2148 2.70273E+01
 -1      2149 2.70273E+01
 -1      2150 2.70304E+01
 -1      2151 2.70304E+01
 -1      2152 2.70396E+01
 -1      2153 2.70396E+01
 -1      2154 2.70428E+01
 -1      2155 2.70428E+01
 -1      2156 2.70542E+01
 -1      2157 2.70542E+01
 -1      2158 2.70825E+01
 -1      2159 2.70825E+01
 -1      2160 2.71175E+01
 -1      2161 2.71175E+01
 -1      2162 2.71710E+01
 -1      2163 2.71710E+01
 -1      2164 2.72133E+01
 -1      2165 2.72133E+01
 -1      2166 2.69122E+01
 -1      2167 2.82132E+01
 -1      2168 2.82132E+01
 -1      2169 2.16862E+01
 -1      2170 1.73521E-01
 -1      2171 5.74614E-01
 -1      2172 1.06804E+00
 -1      2173 1.63148E+00
 -1      2174 2.26683E+00
 -1      2175 2.97808E+00
 -1      2176 3.75046E+00
 -1      2177 2.22987E+01
 -1      2178 2.69737E+01
 -1      2179 2.69991E+01
 -1      2180 2.70492E+01
 -1      2181 2.70492E+01
 -1      2182 2.70577E+01
 -1      2183 2.70577E+01
 -1      2184 2.70282E+01
 -1      2185 2.70382E+01
 -1      2186 2.70382E+01
 -1      2187 2.70496E+01
 -1      2188 2.70496E+01
 -1      2189 2.70325E+01
 -1      2190 2.70325E+01
 -1      2191 2.70201E+01
 -1      2192 2.70284E+01
 -1      2193 2.70284E+01
 -1      2194 2.70292E+01
 -1      2195 2.70292E+01
 -1      2196 2.70234E+01
 -1      2197 2.70234E+01
 -1      2198 2.70255E+01
 -1      2199 2.70255E+01
 -1      2200 2.70200E+01
 -1      2201 2.70200E+01
 -1      2202 2.70186E+01
 -1      2203 2.70220E+01
 -1      2204 2.70220E+01
 -1      2205 2.70180E+01
 -1      2206 2.70241E+01
 -1      2207 2.70241E+01
 -1      2208 2.70332E+01
 -1      2209 2.70332E+01
 -1      2210 2.70273E+01
 -1      2211 2.70273E+01
 -1      2212 2.70247E+01
 -1      2213 2.70247E+01
 -1      2214 2.70256E+01
 -1      2215 2.70256E+01
 -1      2216 2.70174E+01
 -1      2217 2.70219E+01
 -1      2218 2.70219E+01
 -1      2219 2.70294E+01
 -1      2220 2.70294E+01
 -1      2221 2.70157E+01
 -1      2222 2.70248E+01
 -1      2223 2.70248E+01
 -1      2224 2.70329E+01
 -1      2225 2.70329E+01
 -1      2226 2.70290E+01
 -1      2227 2.70290E+01
 -1      2228 2.70277E+01
 -1      2229 2.70277E+01
 -1      2230 2.70279E+01
 -1      2231 2.70279E+01
 -1      2232 2.70147E+01
 -1      2233 2.70264E+01
 -1      2234 2.70264E+01
 -1      2235 2.70281E+01
 -1      2236 2.70281E+01
 -1      2237 2.70194E+01
 -1      2238 2.70202E+01
 -1      2239 2.70202E+01
 -1      2240 2.70282E+01
 -1      2241 2.70282E+01
 -1      2242 2.70226E+01
 -1      2243 2.70226E+01
 -1      2244 2.70154E+01
 -1      2245 2.70239E+01
 -1      2246 2.70239E+01
 -1      2247 2.70265E+01
 -1      2248 2.70265E+01
 -1      2249 2.70249E+01
 -1      2250 2.70249E+01
 -1      2251 2.70292E+01
 -1      2252 2.70292E+01
 -1      2253 2.70218E+01
 -1      2254 2.70218E+01
 -1      2255 2.70160E+01
 -1      2256 2.70248E+01
 -1      2257 2.70248E+01
 -1      2258 2.70216E+01
 -1      2259 2.70216E+01
 -1      2260 2.70144E+01
 -1      2261 2.70241E+01
 -1      2262 2.70241E+01
 -1      2263 2.70137E+01
 -1      2264 2.70224E+01
 -1      2265 2.70224E+01
 -1      2266 2.70267E+01
 -1      2267 2.70267E+01
 -1      2268 2.70193E+01
 -1      2269 2.70193E+01
 -1      2270 2.70169E+01
 -1      2271 2.70169E+01
 -1      2272 2.70196E+01
 -1      2273 2.70196E+01
 -1      2274 2.70145E+01
 -1      2275 2.70251E+01
 -1      2276 2.70251E+01
 -1      2277 2.70248E+01
 -1      2278 2.70248E+01
 -1      2279 2.70150E+01
 -1      2280 2.70150E+01
 -1      2281 2.70143E+01
 -1      2282 2.70204E+01
 -1      2283 2.70204E+01
 -1      2284 2.70126E+01
 -1      2285 2.70126E+01
 -1      2286 2.70027E+01
 -1      2287 2.70027E+01
 -1      2288 2.69864E+01
 -1      2289 2.69552E+01
 -1      2290 2.76618E+01
 -1      2291 2.76618E+01
 -1      2292 2.70212E+01
 -1      2293 2.70169E+01
 -1      2294 2.70169E+01
 -1      2295 2.70120E+01
 -1      2296 2.70195E+01
 -1      2297 2.70195E+01
 -1      2298 2.70225E+01
 -1      2299 2.70225E+01
 -1      2300 2.70139E+01
 -1      2301 2.70139E+01
 -1      2302 2.70135E+01
 -1      2303 2.70229E+01
 -1      2304 2.70229E+01
 -1      2305 2.70232E+01
 -1      2306 2.70232E+01
 -1      2307 2.70235E+01
 -1      2308 2.70235E+01
 -1      2309 2.70256E+01
 -1      2310 2.70256E+01
 -1      2311 2.70164E+01
 -1      2312 2.70164E+01
 -1      2313 2.70106E+01
 -1      2314 2.70199E+01
 -1      2315 2.70199E+01
 -1      2316 2.70201E+01
 -1      2317 2.70201E+01
 -1      2318 2.70095E+01
 -1      2319 2.70158E+01
 -1      2320 2.70158E+01
 -1      2321 2.70122E+01
 -1      2322 2.70122E+01
 -1      2323 2.70109E+01
 -1      2324 2.70154E+01
 -1      2325 2.70154E+01
 -1      2326 2.70109E+01
 -1      2327 2.70109E+01
 -1      2328 2.70130E+01
 -1      2329 2.70130E+01
 -1      2330 2.70228E+01
 -1      2331 2.70228E+01
 -1      2332 2.70138E+01
 -1      2333 2.70138E+01
 -1      2334 2.70087E+01
 -1      2335 2.70140E+01
 -1      2336 2.70140E+01
 -1      2337 2.70092E+01
 -1      2338 2.70111E+01
 -1      2339 2.70111E+01
 -1      2340 2.70137E+01
 -1      2341 2.70137E+01
 -1      2342 2.70080E+01
 -1      2343 2.70125E+01
 -1      2344 2.70125E+01
 -1      2345 2.70195E+01
 -1      2346 2.70195E+01
 -1      2347 2.70182E+01
 -1      2348 2.70182E+01
 -1      2349 2.70157E+01
 -1      2350 2.70157E+01
 -1      2351 2.70165E+01
 -1      2352 2.70165E+01
 -1      2353 2.70081E+01
 -1      2354 2.70104E+01
 -1      2355 2.70104E+01
 -1      2356 2.70152E+01
 -1      2357 2.70152E+01
 -1      2358 2.70107E+01
 -1      2359 2.70107E+01
 -1      2360 2.70081E+01
 -1      2361 2.70180E+01
 -1      2362 2.70180E+01
 -1      2363 2.70119E+01
 -1      2364 2.70119E+01
 -1      2365 2.70033E+01
 -1      2366 2.70081E+01
 -1      2367 2.70081E+01
 -1      2368 2.70058E+01
 -1      2369 2.70058E+01
 -1      2370 2.70063E+01
 -1      2371 2.70063E+01
 -1      2372 2.70120E+01
 -1      2373 2.70120E+01
 -1      2374 2.69906E+01
 -1      2375 2.69906E+01
 -1      2376 2.69405E+01
 -1      2377 2.69140E+01
 -1      2378 4.18953E+01
 -1      2379 4.18953E+01
 -1      2380 2.70472E+01
 -1      2381 2.70316E+01
 -1      2382 2.70316E+01
 -1      2383 2.70310E+01
 -1      2384 2.70310E+01
 -1      2385 2.70358E+01
 -1      2386 2.70358E+01
 -1      2387 2.70330E+01
 -1      2388 2.70330E+01
 -1      2389 2.70273E+01
 -1      2390 2.70273E+01
 -1      2391 2.70304E+01
 -1      2392 2.70304E+01
 -1      2393 2.70396E+01
 -1      2394 2.70396E+01
 -1      2395 2.70428E+01
 -1      2396 2.70428E+01
 -1      2397 2.70542E+01
 -1      2398 2.70542E+01
 -1      2399 2.70825E+01
 -1      2400 2.70825E+01
 -1      2401 2.71175E+01
 -1      2402 2.71175E+01
 -1      2403 2.71710E+01
 -1      2404 2.71710E+01
 -1      2405 2.72133E+01
 -1      2406 2.72133E+01
 -1      2407 2.69122E+01
 -1      2408 2.82132E+01
 -1      2409 2.82132E+01
 -1      2410 2.16862E+01
 -3
    1PSTEP                        13           1           1          
    1PGM                1.000000E+00                                  
    1PGK                8.100383E+06                                  
    1PHID                         -1                                  
    1PSUBC                         0                                  
    1PMODE                         4                                  
  100CL  104 452.9736312        2410                     2    4MODAL      1
 -4  DISP        4    1
 -5  D1          1    2    1    0
 -5  D2          1    2    2    0
 -5  D3          1    2    3    0
 -5  ALL         1    2    0    0    1ALL
 -1         1-7.85840E-01-1.00004E+02 0.00000E+00
 -1         2-7.85826E-01-9.54200E+01 0.00000E+00
 -1         3-7.85738E-01-9.08360E+01 0.00000E+00
 -1         4-7.85506E-01-8.62530E+01 0.00000E+00
 -1         5-7.85063E-01-8.16721E+01 0.00000E+00
 -1         6-7.84345E-01-7.70944E+01 0.00000E+00
 -1         7-7.83293E-01-7.25221E+01 0.00000E+00
 -1         8-7.81849E-01-6.79568E+01 0.00000E+00
 -1         9-7.79961E-01-6.34014E+01 0.00000E+00
 -1        10-7.77579E-01-5.88583E+01 0.00000E+00
 -1        11-7.74657E-01-5.43309E+01 0.00000E+00
 -1        12-7.71150E-01-4.98220E+01 0.00000E+00
 -1        13-7.67024E-01-4.53355E+01 0.00000E+00
 -1        14-7.62235E-01-4.08749E+01 0.00000E+00
 -1        15-7.56760E-01-3.64444E+01 0.00000E+00
 -1        16-7.50560E-01-3.20477E+01 0.00000E+00
 -1        17-7.43614E-01-2.76893E+01 0.00000E+00
 -1        18-7.35904E-01-2.33740E+01 0.00000E+00
 -1        19-7.27397E-01-1.91057E+01 0.00000E+00
 -1        20-7.18096E-01-1.48895E+01 0.00000E+00
 -1        21-7.07968E-01-1.07298E+01 0.00000E+00
 -1        22-6.97021E-01-6.63185E+00 0.00000E+00
 -1        23-6.85235E-01-2.59994E+00 0.00000E+00
 -1        24-6.72615E-01 1.36058E+00 0.00000E+00
 -1        25-6.59157E-01 5.24523E+00 0.00000E+00
 -1        26-6.44862E-01 9.04884E+00 0.00000E+00
 -1        27-6.29741E-01 1.27666E+01 0.00000E+00
 -1        28-6.13796E-01 1.63938E+01 0.00000E+00
 -1        29-5.97043E-01 1.99257E+01 0.00000E+00
 -1        30-5.79490E-01 2.33574E+01 0.00000E+00
 -1        31-5.61161E-01 2.66845E+01 0.00000E+00
 -1        32-5.42068E-01 2.99025E+01 0.00000E+00
 -1        33-5.22236E-01 3.30069E+01 0.00000E+00
 -1        34-5.01690E-01 3.59935E+01 0.00000E+00
 -1        35-4.80449E-01 3.88582E+01 0.00000E+00
 -1        36-4.58553E-01 4.15972E+01 0.00000E+00
 -1        37-4.36020E-01 4.42065E+01 0.00000E+00
 -1        38-4.12891E-01 4.66827E+01 0.00000E+00
 -1        39-3.89199E-01 4.90223E+01 0.00000E+00
 -1        40-3.64975E-01 5.12221E+01 0.00000E+00
 -1        41-3.40266E-01 5.32791E+01 0.00000E+00
 -1        42-3.15102E-01 5.51907E+01 0.00000E+00
 -1        43-2.89531E-01 5.69543E+01 0.00000E+00
 -1        44-2.63591E-01 5.85677E+01 0.00000E+00
 -1        45-2.37331E-01 6.00288E+01 0.00000E+00
 -1        46-2.10786E-01 6.13359E+01 0.00000E+00
 -1        47-1.84015E-01 6.24874E+01 0.00000E+00
 -1        48-1.57055E-01 6.34823E+01 0.00000E+00
 -1        49-1.29956E-01 6.43194E+01 0.00000E+00
 -1        50-1.02771E-01 6.49982E+01 0.00000E+00
 -1        51-7.55376E-02 6.55183E+01 0.00000E+00
 -1        52-4.83210E-02 6.58796E+01 0.00000E+00
 -1        53-2.11580E-02 6.60822E+01 0.00000E+00
 -1        54 5.89614E-03 6.61267E+01 0.00000E+00
 -1        55 3.27895E-02 6.60139E+01 0.00000E+00
 -1        56 5.94799E-02 6.57447E+01 0.00000E+00
 -1        57 8.59073E-02 6.53206E+01 0.00000E+00
 -1        58 1.12031E-01 6.47432E+01 0.00000E+00
 -1        59 1.37794E-01 6.40145E+01 0.00000E+00
 -1        60 1.63156E-01 6.31366E+01 0.00000E+00
 -1        61 1.88060E-01 6.21122E+01 0.00000E+00
 -1        62 2.12468E-01 6.09438E+01 0.00000E+00
 -1        63 2.36324E-01 5.96348E+01 0.00000E+00
 -1        64 2.59588E-01 5.81882E+01 0.00000E+00
 -1        65 2.82218E-01 5.66078E+01 0.00000E+00
 -1        66 3.04161E-01 5.48974E+01 0.00000E+00
 -1        67 3.25385E-01 5.30610E+01 0.00000E+00
 -1        68 3.45843E-01 5.11031E+01 0.00000E+00
 -1        69 3.65497E-01 4.90282E+01 0.00000E+00
 -1        70 3.84311E-01 4.68411E+01 0.00000E+00
 -1        71 4.02246E-01 4.45468E+01 0.00000E+00
 -1        72 4.19270E-01 4.21505E+01 0.00000E+00
 -1        73 4.35347E-01 3.96576E+01 0.00000E+00
 -1        74 4.50450E-01 3.70738E+01 0.00000E+00
 -1        75 4.64547E-01 3.44049E+01 0.00000E+00
 -1        76 4.77612E-01 3.16567E+01 0.00000E+00
 -1        77 4.89621E-01 2.88354E+01 0.00000E+00
 -1        78 5.00547E-01 2.59471E+01 0.00000E+00
 -1        79 5.10376E-01 2.29983E+01 0.00000E+00
 -1        80 5.19083E-01 1.99955E+01 0.00000E+00
 -1        81 5.26656E-01 1.69451E+01 0.00000E+00
 -1        82 5.33079E-01 1.38540E+01 0.00000E+00
 -1        83 5.38341E-01 1.07288E+01 0.00000E+00
 -1        84 5.42432E-01 7.57626E+00 0.00000E+00
 -1        85 5.45347E-01 4.40332E+00 0.00000E+00
 -1        86 5.47079E-01 1.21682E+00 0.00000E+00
 -1        87 5.47627E-01-1.97633E+00 0.00000E+00
 -1        88 5.46992E-01-5.16922E+00 0.00000E+00
 -1        89 5.45175E-01-8.35497E+00 0.00000E+00
 -1        90 5.42183E-01-1.15267E+01 0.00000E+00
 -1        91 5.38022E-01-1.46775E+01 0.00000E+00
 -1        92 5.32704E-01-1.78007E+01 0.00000E+00
 -1        93 5.26237E-01-2.08896E+01 0.00000E+00
 -1        94 5.18641E-01-2.39374E+01 0.00000E+00
 -1        95 5.09930E-01-2.69377E+01 0.00000E+00
 -1        96 5.00123E-01-2.98839E+01 0.00000E+00
 -1        97 4.89242E-01-3.27698E+01 0.00000E+00
 -1        98 4.77311E-01-3.55891E+01 0.00000E+00
 -1        99 4.64357E-01-3.83359E+01 0.00000E+00
 -1       100 4.50405E-01-4.10041E+01 0.00000E+00
 -1       101 4.35488E-01-4.35882E+01 0.00000E+00
 -1       102 4.19635E-01-4.60825E+01 0.00000E+00
 -1       103 4.02884E-01-4.84817E+01 0.00000E+00
 -1       104 3.85266E-01-5.07807E+01 0.00000E+00
 -1       105 3.66823E-01-5.29744E+01 0.00000E+00
 -1       106 3.47593E-01-5.50583E+01 0.00000E+00
 -1       107 3.27611E-01-5.70279E+01 0.00000E+00
 -1       108 3.06930E-01-5.88788E+01 0.00000E+00
 -1       109 2.85585E-01-6.06071E+01 0.00000E+00
 -1       110 2.63627E-01-6.22091E+01 0.00000E+00
 -1       111 2.41098E-01-6.36813E+01 0.00000E+00
 -1       112 2.18049E-01-6.50206E+01 0.00000E+00
 -1       113 1.94528E-01-6.62240E+01 0.00000E+00
 -1       114 1.70581E-01-6.72890E+01 0.00000E+00
 -1       115 1.46264E-01-6.82132E+01 0.00000E+00
 -1       116 1.21626E-01-6.89946E+01 0.00000E+00
 -1       117 9.67169E-02-6.96315E+01 0.00000E+00
 -1       118 7.15934E-02-7.01225E+01 0.00000E+00
 -1       119 4.63010E-02-7.04663E+01 0.00000E+00
 -1       120 2.09058E-02-7.06624E+01 0.00000E+00
 -1       121-4.55688E-03-7.07101E+01 0.00000E+00
 -1       122-3.00150E-02-7.06092E+01 0.00000E+00
 -1       123-5.54291E-02-7.03600E+01 0.00000E+00
 -1       124-8.07351E-02-6.99628E+01 0.00000E+00
 -1       125-1.05891E-01-6.94185E+01 0.00000E+00
 -1       126-1.30834E-01-6.87280E+01 0.00000E+00
 -1       127-1.55518E-01-6.78927E+01 0.00000E+00
 -1       128-1.79888E-01-6.69144E+01 0.00000E+00
 -1       129-2.03895E-01-6.57949E+01 0.00000E+00
 -1       130-2.27490E-01-6.45366E+01 0.00000E+00
 -1       131-2.50619E-01-6.31420E+01 0.00000E+00
 -1       132-2.73238E-01-6.16140E+01 0.00000E+00
 -1       133-2.95298E-01-5.99556E+01 0.00000E+00
 -1       134-3.16755E-01-5.81703E+01 0.00000E+00
 -1       135-3.37561E-01-5.62617E+01 0.00000E+00
 -1       136-3.57674E-01-5.42338E+01 0.00000E+00
 -1       137-3.77054E-01-5.20907E+01 0.00000E+00
 -1       138-3.95658E-01-4.98367E+01 0.00000E+00
 -1       139-4.13451E-01-4.74767E+01 0.00000E+00
 -1       140-4.30391E-01-4.50153E+01 0.00000E+00
 -1       141-4.46449E-01-4.24576E+01 0.00000E+00
 -1       142-4.61586E-01-3.98090E+01 0.00000E+00
 -1       143-4.75776E-01-3.70748E+01 0.00000E+00
 -1       144-4.88987E-01-3.42607E+01 0.00000E+00
 -1       145-5.01192E-01-3.13724E+01 0.00000E+00
 -1       146-5.12368E-01-2.84160E+01 0.00000E+00
 -1       147-5.22490E-01-2.53974E+01 0.00000E+00
 -1       148-5.31541E-01-2.23228E+01 0.00000E+00
 -1       149-5.39499E-01-1.91987E+01 0.00000E+00
 -1       150-5.46351E-01-1.60314E+01 0.00000E+00
 -1       151-5.52083E-01-1.28274E+01 0.00000E+00
 -1       152-5.56683E-01-9.59327E+00 0.00000E+00
 -1       153-5.60144E-01-6.33561E+00 0.00000E+00
 -1       154-5.62459E-01-3.06110E+00 0.00000E+00
 -1       155-5.63625E-01 2.23568E-01 0.00000E+00
 -1       156-5.63641E-01 3.51168E+00 0.00000E+00
 -1       157-5.62508E-01 6.79653E+00 0.00000E+00
 -1       158-5.60230E-01 1.00714E+01 0.00000E+00
 -1       159-5.56814E-01 1.33297E+01 0.00000E+00
 -1       160-5.52267E-01 1.65648E+01 0.00000E+00
 -1       161-5.46604E-01 1.97701E+01 0.00000E+00
 -1       162-5.39833E-01 2.29392E+01 0.00000E+00
 -1       163-5.31976E-01 2.60655E+01 0.00000E+00
 -1       164-5.23049E-01 2.91429E+01 0.00000E+00
 -1       165-5.13072E-01 3.21652E+01 0.00000E+00
 -1       166-5.02070E-01 3.51262E+01 0.00000E+00
 -1       167-4.90066E-01 3.80202E+01 0.00000E+00
 -1       168-4.77092E-01 4.08413E+01 0.00000E+00
 -1       169-4.63173E-01 4.35839E+01 0.00000E+00
 -1       170-4.48343E-01 4.62427E+01 0.00000E+00
 -1       171-4.32638E-01 4.88124E+01 0.00000E+00
 -1       172-4.16089E-01 5.12881E+01 0.00000E+00
 -1       173-3.98739E-01 5.36648E+01 0.00000E+00
 -1       174-3.80625E-01 5.59381E+01 0.00000E+00
 -1       175-3.61790E-01 5.81037E+01 0.00000E+00
 -1       176-3.42274E-01 6.01574E+01 0.00000E+00
 -1       177-3.22125E-01 6.20954E+01 0.00000E+00
 -1       178-3.01390E-01 6.39141E+01 0.00000E+00
 -1       179-2.80112E-01 6.56102E+01 0.00000E+00
 -1       180-2.58345E-01 6.71808E+01 0.00000E+00
 -1       181-2.36135E-01 6.86232E+01 0.00000E+00
 -1       182-2.13539E-01 6.99348E+01 0.00000E+00
 -1       183-1.90600E-01 7.11136E+01 0.00000E+00
 -1       184-1.67383E-01 7.21578E+01 0.00000E+00
 -1       185-1.43934E-01 7.30659E+01 0.00000E+00
 -1       186-1.20310E-01 7.38366E+01 0.00000E+00
 -1       187-9.65685E-02 7.44692E+01 0.00000E+00
 -1       188-7.27612E-02 7.49631E+01 0.00000E+00
 -1       189-4.89524E-02 7.53181E+01 0.00000E+00
 -1       190-2.51873E-02 7.55344E+01 0.00000E+00
 -1       191-1.53471E-03 7.56123E+01 0.00000E+00
 -1       192 2.19530E-02 7.55527E+01 0.00000E+00
 -1       193 4.52223E-02 7.53567E+01 0.00000E+00
 -1       194 6.82093E-02 7.50258E+01 0.00000E+00
 -1       195 9.08620E-02 7.45618E+01 0.00000E+00
 -1       196 1.13122E-01 7.39668E+01 0.00000E+00
 -1       197 1.34932E-01 7.32432E+01 0.00000E+00
 -1       198 1.56241E-01 7.23938E+01 0.00000E+00
 -1       199 1.76987E-01 7.14218E+01 0.00000E+00
 -1       200 1.97121E-01 7.03305E+01 0.00000E+00
 -1       201 2.16586E-01 6.91238E+01 0.00000E+00
 -1       202 2.35333E-01 6.78055E+01 0.00000E+00
 -1       203 2.53304E-01 6.63802E+01 0.00000E+00
 -1       204 2.70459E-01 6.48523E+01 0.00000E+00
 -1       205 2.86735E-01 6.32270E+01 0.00000E+00
 -1       206 3.02094E-01 6.15094E+01 0.00000E+00
 -1       207 3.16483E-01 5.97050E+01 0.00000E+00
 -1       208 3.29858E-01 5.78197E+01 0.00000E+00
 -1       209 3.42176E-01 5.58593E+01 0.00000E+00
 -1       210 3.53390E-01 5.38304E+01 0.00000E+00
 -1       211 3.63463E-01 5.17393E+01 0.00000E+00
 -1       212 3.72353E-01 4.95930E+01 0.00000E+00
 -1       213 3.80021E-01 4.73983E+01 0.00000E+00
 -1       214 3.86432E-01 4.51626E+01 0.00000E+00
 -1       215 3.91550E-01 4.28932E+01 0.00000E+00
 -1       216 3.95341E-01 4.05978E+01 0.00000E+00
 -1       217 3.97775E-01 3.82843E+01 0.00000E+00
 -1       218 3.98821E-01 3.59606E+01 0.00000E+00
 -1       219 3.98451E-01 3.36349E+01 0.00000E+00
 -1       220 3.96640E-01 3.13157E+01 0.00000E+00
 -1       221 3.93360E-01 2.90112E+01 0.00000E+00
 -1       222 3.88593E-01 2.67302E+01 0.00000E+00
 -1       223 3.82313E-01 2.44815E+01 0.00000E+00
 -1       224 3.74507E-01 2.22738E+01 0.00000E+00
 -1       225 3.65147E-01 2.01162E+01 0.00000E+00
 -1       226 3.54231E-01 1.80177E+01 0.00000E+00
 -1       227 3.41729E-01 1.59875E+01 0.00000E+00
 -1       228 3.27645E-01 1.40349E+01 0.00000E+00
 -1       229 3.11948E-01 1.21691E+01 0.00000E+00
 -1       230 2.94653E-01 1.03996E+01 0.00000E+00
 -1       231 2.75715E-01 8.73569E+00 0.00000E+00
 -1       232 2.55180E-01 7.18696E+00 0.00000E+00
 -1       233 2.32972E-01 5.76290E+00 0.00000E+00
 -1       234 2.09174E-01 4.47302E+00 0.00000E+00
 -1       235 1.83671E-01 3.32695E+00 0.00000E+00
 -1       236 1.56597E-01 2.33423E+00 0.00000E+00
 -1       237 1.27802E-01 1.50445E+00 0.00000E+00
 -1       238 9.73682E-02 8.47469E-01 0.00000E+00
 -1       239 6.55740E-02 3.71833E-01 0.00000E+00
 -1       240 3.06542E-02 9.13776E-02 0.00000E+00
 -1       241 0.00000E+00 0.00000E+00 0.00000E+00
 -1       242-7.85840E-01-1.00004E+02 0.00000E+00
 -1       243-7.85826E-01-9.54200E+01 0.00000E+00
 -1       244-7.85738E-01-9.08360E+01 0.00000E+00
 -1       245-7.85506E-01-8.62530E+01 0.00000E+00
 -1       246-7.85063E-01-8.16721E+01 0.00000E+00
 -1       247-7.84345E-01-7.70944E+01 0.00000E+00
 -1       248-7.83293E-01-7.25221E+01 0.00000E+00
 -1       249-7.81849E-01-6.79568E+01 0.00000E+00
 -1       250-7.79961E-01-6.34014E+01 0.00000E+00
 -1       251-7.77579E-01-5.88583E+01 0.00000E+00
 -1       252-7.74657E-01-5.43309E+01 0.00000E+00
 -1       253-7.71150E-01-4.98220E+01 0.00000E+00
 -1       254-7.67024E-01-4.53355E+01 0.00000E+00
 -1       255-7.62235E-01-4.08749E+01 0.00000E+00
 -1       256-7.56760E-01-3.64444E+01 0.00000E+00
 -1       257-7.50560E-01-3.20477E+01 0.00000E+00
 -1       258-7.43614E-01-2.76893E+01 0.00000E+00
 -1       259-7.35904E-01-2.33740E+01 0.00000E+00
 -1       260-7.27397E-01-1.91057E+01 0.00000E+00
 -1       261-7.18096E-01-1.48895E+01 0.00000E+00
 -1       262-7.07968E-01-1.07298E+01 0.00000E+00
 -1       263-6.97021E-01-6.63185E+00 0.00000E+00
 -1       264-6.85235E-01-2.59994E+00 0.00000E+00
 -1       265-6.72615E-01 1.36058E+00 0.00000E+00
 -1       266-6.59157E-01 5.24523E+00 0.00000E+00
 -1       267-6.44862E-01 9.04884E+00 0.00000E+00
 -1       268-6.29741E-01 1.27666E+01 0.00000E+00
 -1       269-6.13796E-01 1.63938E+01 0.00000E+00
 -1       270-5.97043E-01 1.99257E+01 0.00000E+00
 -1       271-5.79490E-01 2.33574E+01 0.00000E+00
 -1       272-5.61161E-01 2.66845E+01 0.00000E+00
 -1       273-5.42068E-01 2.99025E+01 0.00000E+00
 -1       274-5.22236E-01 3.30069E+01 0.00000E+00
 -1       275-5.01690E-01 3.59935E+01 0.00000E+00
 -1       276-4.80450E-01 3.88582E+01 0.00000E+00
 -1       277-4.58553E-01 4.15972E+01 0.00000E+00
 -1       278-4.36020E-01 4.42065E+01 0.00000E+00
 -1       279-4.12891E-01 4.66827E+01 0.00000E+00
 -1       280-3.89199E-01 4.90223E+01 0.00000E+00
 -1       281-3.64975E-01 5.12221E+01 0.00000E+00
 -1       282-3.40266E-01 5.32791E+01 0.00000E+00
 -1       283-3.15102E-01 5.51907E+01 0.00000E+00
 -1       284-2.89531E-01 5.69543E+01 0.00000E+00
 -1       285-2.63591E-01 5.85677E+01 0.00000E+00
 -1       286-2.37331E-01 6.00288E+01 0.00000E+00
 -1       287-2.10786E-01 6.13359E+01 0.00000E+00
 -1       288-1.84015E-01 6.24874E+01 0.00000E+00
 -1       289-1.57055E-01 6.34823E+01 0.00000E+00
 -1       290-1.29956E-01 6.43194E+01 0.00000E+00
 -1       291-1.02771E-01 6.49983E+01 0.00000E+00
 -1       292-7.55376E-02 6.55183E+01 0.00000E+00
 -1       293-4.83210E-02 6.58796E+01 0.00000E+00
 -1       294-2.11580E-02 6.60822E+01 0.00000E+00
 -1       295 5.89614E-03 6.61267E+01 0.00000E+00
 -1       296 3.27895E-02 6.60139E+01 0.00000E+00
 -1       297 5.94799E-02 6.57447E+01 0.00000E+00
 -1       298 8.59073E-02 6.53206E+01 0.00000E+00
 -1       299 1.12031E-01 6.47432E+01 0.00000E+00
 -1       300 1.37794E-01 6.40145E+01 0.00000E+00
 -1       301 1.63156E-01 6.31366E+01 0.00000E+00
 -1       302 1.88060E-01 6.21122E+01 0.00000E+00
 -1       303 2.12468E-01 6.09438E+01 0.00000E+00
 -1       304 2.36324E-01 5.96348E+01 0.00000E+00
 -1       305 2.59588E-01 5.81882E+01 0.00000E+00
 -1       306 2.82218E-01 5.66078E+01 0.00000E+00
 -1       307 3.04161E-01 5.48974E+01 0.00000E+00
 -1       308 3.25385E-01 5.30610E+01 0.00000E+00
 -1       309 3.45843E-01 5.11031E+01 0.00000E+00
 -1       310 3.65497E-01 4.90282E+01 0.00000E+00
 -1       311 3.84311E-01 4.68411E+01 0.00000E+00
 -1       312 4.02246E-01 4.45468E+01 0.00000E+00
 -1       313 4.19270E-01 4.21505E+01 0.00000E+00
 -1       314 4.35347E-01 3.96576E+01 0.00000E+00
 -1       315 4.50450E-01 3.70738E+01 0.00000E+00
 -1       316 4.64547E-01 3.44049E+01 0.00000E+00
 -1       317 4.77612E-01 3.16567E+01 0.00000E+00
 -1       318 4.89621E-01 2.88354E+01 0.00000E+00
 -1       319 5.00547E-01 2.59471E+01 0.00000E+00
 -1       320 5.10376E-01 2.29983E+01 0.00000E+00
 -1       321 5.19083E-01 1.99955E+01 0.00000E+00
 -1       322 5.26656E-01 1.69451E+01 0.00000E+00
 -1       323 5.33079E-01 1.38540E+01 0.00000E+00
 -1       324 5.38341E-01 1.07288E+01 0.00000E+00
 -1       325 5.42432E-01 7.57626E+00 0.00000E+00
 -1       326 5.45347E-01 4.40332E+00 0.00000E+00
 -1       327 5.47079E-01 1.21682E+00 0.00000E+00
 -1       328 5.47627E-01-1.97633E+00 0.00000E+00
 -1       329 5.46992E-01-5.16922E+00 0.00000E+00
 -1       330 5.45175E-01-8.35497E+00 0.00000E+00
 -1       331 5.42183E-01-1.15267E+01 0.00000E+00
 -1       332 5.38022E-01-1.46775E+01 0.00000E+00
 -1       333 5.32704E-01-1.78007E+01 0.00000E+00
 -1       334 5.26237E-01-2.08896E+01 0.00000E+00
 -1       335 5.18641E-01-2.39374E+01 0.00000E+00
 -1       336 5.09930E-01-2.69377E+01 0.00000E+00
 -1       337 5.00123E-01-2.98839E+01 0.00000E+00
 -1       338 4.89242E-01-3.27698E+01 0.00000E+00
 -1       339 4.77311E-01-3.55891E+01 0.00000E+00
 -1       340 4.64357E-01-3.83359E+01 0.00000E+00
 -1       341 4.50405E-01-4.10041E+01 0.00000E+00
 -1       342 4.35488E-01-4.35882E+01 0.00000E+00
 -1       343 4.19635E-01-4.60825E+01 0.00000E+00
 -1       344 4.02884E-01-4.84817E+01 0.00000E+00
 -1       345 3.85266E-01-5.07807E+01 0.00000E+00
 -1       346 3.66823E-01-5.29744E+01 0.00000E+00
 -1       347 3.47593E-01-5.50583E+01 0.00000E+00
 -1       348 3.27611E-01-5.70279E+01 0.00000E+00
 -1       349 3.06930E-01-5.88788E+01 0.00000E+00
 -1       350 2.85585E-01-6.06071E+01 0.00000E+00
 -1       351 2.63627E-01-6.22091E+01 0.00000E+00
 -1       352 2.41098E-01-6.36813E+01 0.00000E+00
 -1       353 2.18049E-01-6.50206E+01 0.00000E+00
 -1       354 1.94528E-01-6.62240E+01 0.00000E+00
 -1       355 1.70581E-01-6.72890E+01 0.00000E+00
 -1       356 1.46264E-01-6.82132E+01 0.00000E+00
 -1       357 1.21626E-01-6.89946E+01 0.00000E+00
 -1       358 9.67169E-02-6.96315E+01 0.00000E+00
 -1       359 7.15934E-02-7.01225E+01 0.00000E+00
 -1       360 4.63010E-02-7.04663E+01 0.00000E+00
 -1       361 2.09058E-02-7.06624E+01 0.00000E+00
 -1       362-4.55688E-03-7.07101E+01 0.00000E+00
 -1       363-3.00150E-02-7.06092E+01 0.00000E+00
 -1       364-5.54291E-02-7.03600E+01 0.00000E+00
 -1       365-8.07351E-02-6.99628E+01 0.00000E+00
 -1       366-1.05891E-01-6.94185E+01 0.00000E+00
 -1       367-1.30834E-01-6.87280E+01 0.00000E+00
 -1       368-1.55518E-01-6.78927E+01 0.00000E+00
 -1       369-1.79888E-01-6.69144E+01 0.00000E+00
 -1       370-2.03895E-01-6.57949E+01 0.00000E+00
 -1       371-2.27490E-01-6.45366E+01 0.00000E+00
 -1       372-2.50619E-01-6.31420E+01 0.00000E+00
 -1       373-2.73238E-01-6.16140E+01 0.00000E+00
 -1       374-2.95298E-01-5.99556E+01 0.00000E+00
 -1       375-3.16755E-01-5.81703E+01 0.00000E+00
 -1       376-3.37561E-01-5.62617E+01 0.00000E+00
 -1       377-3.57674E-01-5.42338E+01 0.00000E+00
 -1       378-3.77054E-01-5.20907E+01 0.00000E+00
 -1       379-3.95658E-01-4.98367E+01 0.00000E+00
 -1       380-4.13451E-01-4.74767E+01 0.00000E+00
 -1       381-4.30391E-01-4.50153E+01 0.00000E+00
 -1       382-4.46449E-01-4.24576E+01 0.00000E+00
 -1       383-4.61586E-01-3.98090E+01 0.00000E+00
 -1       384-4.75776E-01-3.70748E+01 0.00000E+00
 -1       385-4.88987E-01-3.42607E+01 0.00000E+00
 -1       386-5.01192E-01-3.13724E+01 0.00000E+00
 -1       387-5.12368E-01-2.84160E+01 0.00000E+00
 -1       388-5.22490E-01-2.53974E+01 0.00000E+00
 -1       389-5.31541E-01-2.23228E+01 0.00000E+00
 -1       390-5.39499E-01-1.91987E+01 0.00000E+00
 -1       391-5.46351E-01-1.60314E+01 0.00000E+00
 -1       392-5.52083E-01-1.28274E+01 0.00000E+00
 -1       393-5.56683E-01-9.59327E+00 0.00000E+00
 -1       394-5.60144E-01-6.33561E+00 0.00000E+00
 -1       395-5.62459E-01-3.06110E+00 0.00000E+00
 -1       396-5.63625E-01 2.23568E-01 0.00000E+00
 -1       397-5.63641E-01 3.51168E+00 0.00000E+00
 -1       398-5.62508E-01 6.79654E+00 0.00000E+00
 -1       399-5.60230E-01 1.00714E+01 0.00000E+00
 -1       400-5.56814E-01 1.33297E+01 0.00000E+00
 -1       401-5.52267E-01 1.65648E+01 0.00000E+00
 -1       402-5.46604E-01 1.97701E+01 0.00000E+00
 -1       403-5.39833E-01 2.29392E+01 0.00000E+00
 -1       404-5.31976E-01 2.60655E+01 0.00000E+00
 -1       405-5.23049E-01 2.91429E+01 0.00000E+00
 -1       406-5.13072E-01 3.21652E+01 0.00000E+00
 -1       407-5.02070E-01 3.51262E+01 0.00000E+00
 -1       408-4.90066E-01 3.80202E+01 0.00000E+00
 -1       409-4.77092E-01 4.08413E+01 0.00000E+00
 -1       410-4.63173E-01 4.35839E+01 0.00000E+00
 -1       411-4.48343E-01 4.62427E+01 0.00000E+00
 -1       412-4.32638E-01 4.88124E+01 0.00000E+00
 -1       413-4.16089E-01 5.12881E+01 0.00000E+00
 -1       414-3.98739E-01 5.36648E+01 0.00000E+00
 -1       415-3.80625E-01 5.59381E+01 0.00000E+00
 -1       416-3.61790E-01 5.81037E+01 0.00000E+00
 -1       417-3.42274E-01 6.01574E+01 0.00000E+00
 -1       418-3.22125E-01 6.20954E+01 0.00000E+00
 -1       419-3.01390E-01 6.39141E+01 0.00000E+00
 -1       420-2.80112E-01 6.56102E+01 0.00000E+00
 -1       421-2.58345E-01 6.71809E+01 0.00000E+00
 -1       422-2.36135E-01 6.86232E+01 0.00000E+00
 -1       423-2.13539E-01 6.99348E+01 0.00000E+00
 -1       424-1.90600E-01 7.11136E+01 0.00000E+00
 -1       425-1.67383E-01 7.21578E+01 0.00000E+00
 -1       426-1.43934E-01 7.30659E+01 0.00000E+00
 -1       427-1.20310E-01 7.38366E+01 0.00000E+00
 -1       428-9.65685E-02 7.44692E+01 0.00000E+00
 -1       429-7.27612E-02 7.49631E+01 0.00000E+00
 -1       430-4.89524E-02 7.53181E+01 0.00000E+00
 -1       431-2.51873E-02 7.55344E+01 0.00000E+00
 -1       432-1.53471E-03 7.56123E+01 0.00000E+00
 -1       433 2.19530E-02 7.55527E+01 0.00000E+00
 -1       434 4.52223E-02 7.53567E+01 0.00000E+00
 -1       435 6.82093E-02 7.50258E+01 0.00000E+00
 -1       436 9.08620E-02 7.45618E+01 0.00000E+00
 -1       437 1.13122E-01 7.39668E+01 0.00000E+00
 -1       438 1.34932E-01 7.32432E+01 0.00000E+00
 -1       439 1.56241E-01 7.23938E+01 0.00000E+00
 -1       440 1.76987E-01 7.14218E+01 0.00000E+00
 -1       441 1.97121E-01 7.03305E+01 0.00000E+00
 -1       442 2.16586E-01 6.91238E+01 0.00000E+00
 -1       443 2.35333E-01 6.78055E+01 0.00000E+00
 -1       444 2.53304E-01 6.63802E+01 0.00000E+00
 -1       445 2.70459E-01 6.48523E+01 0.00000E+00
 -1       446 2.86735E-01 6.32270E+01 0.00000E+00
 -1       447 3.02094E-01 6.15094E+01 0.00000E+00
 -1       448 3.16483E-01 5.97050E+01 0.00000E+00
 -1       449 3.29858E-01 5.78197E+01 0.00000E+00
 -1       450 3.42176E-01 5.58593E+01 0.00000E+00
 -1       451 3.53390E-01 5.38304E+01 0.00000E+00
 -1       452 3.63463E-01 5.17393E+01 0.00000E+00
 -1       453 3.72353E-01 4.95930E+01 0.00000E+00
 -1       454 3.80021E-01 4.73983E+01 0.00000E+00
 -1       455 3.86432E-01 4.51626E+01 0.00000E+00
 -1       456 3.91550E-01 4.28932E+01 0.00000E+00
 -1       457 3.95341E-01 4.05978E+01 0.00000E+00
 -1       458 3.97775E-01 3.82843E+01 0.00000E+00
 -1       459 3.98821E-01 3.59606E+01 0.00000E+00
 -1       460 3.98451E-01 3.36349E+01 0.00000E+00
 -1       461 3.96640E-01 3.13157E+01 0.00000E+00
 -1       462 3.93360E-01 2.90112E+01 0.00000E+00
 -1       463 3.88593E-01 2.67302E+01 0.00000E+00
 -1       464 3.82313E-01 2.44815E+01 0.00000E+00
 -1       465 3.74507E-01 2.22738E+01 0.00000E+00
 -1       466 3.65147E-01 2.01162E+01 0.00000E+00
 -1       467 3.54231E-01 1.80177E+01 0.00000E+00
 -1       468 3.41729E-01 1.59875E+01 0.00000E+00
 -1       469 3.27645E-01 1.40349E+01 0.00000E+00
 -1       470 3.11948E-01 1.21691E+01 0.00000E+00
 -1       471 2.94653E-01 1.03996E+01 0.00000E+00
 -1       472 2.75715E-01 8.73569E+00 0.00000E+00
 -1       473 2.55180E-01 7.18696E+00 0.00000E+00
 -1       474 2.32972E-01 5.76290E+00 0.00000E+00
 -1       475 2.09174E-01 4.47302E+00 0.00000E+00
 -1       476 1.83671E-01 3.32695E+00 0.00000E+00
 -1       477 1.56597E-01 2.33423E+00 0.00000E+00
 -1       478 1.27802E-01 1.50445E+00 0.00000E+00
 -1       479 9.73682E-02 8.47469E-01 0.00000E+00
 -1       480 6.55740E-02 3.71833E-01 0.00000E+00
 -1       481 3.06542E-02 9.13776E-02 0.00000E+00
 -1       482 0.00000E+00 0.00000E+00 0.00000E+00
 -1       483-3.92966E-01-1.00004E+02 0.00000E+00
 -1       484-3.92958E-01-9.54200E+01 0.00000E+00
 -1       485-3.92914E-01-9.08360E+01 0.00000E+00
 -1       486-3.92797E-01-8.62532E+01 0.00000E+00
 -1       487-3.92576E-01-8.16721E+01 0.00000E+00
 -1       488-3.92216E-01-7.70946E+01 0.00000E+00
 -1       489-3.91690E-01-7.25223E+01 0.00000E+00
 -1       490-3.90968E-01-6.79569E+01 0.00000E+00
 -1       491-3.90024E-01-6.34016E+01 0.00000E+00
 -1       492-3.88832E-01-5.88584E+01 0.00000E+00
 -1       493-3.87371E-01-5.43310E+01 0.00000E+00
 -1       494-3.85617E-01-4.98223E+01 0.00000E+00
 -1       495-3.83553E-01-4.53356E+01 0.00000E+00
 -1       496-3.81159E-01-4.08751E+01 0.00000E+00
 -1       497-3.78420E-01-3.64443E+01 0.00000E+00
 -1       498-3.75320E-01-3.20479E+01 0.00000E+00
 -1       499-3.71847E-01-2.76897E+01 0.00000E+00
 -1       500-3.67991E-01-2.33741E+01 0.00000E+00
 -1       501-3.63738E-01-1.91060E+01 0.00000E+00
 -1       502-3.59086E-01-1.48896E+01 0.00000E+00
 -1       503-3.54022E-01-1.07301E+01 0.00000E+00
 -1       504-3.48548E-01-6.63202E+00 0.00000E+00
 -1       505-3.42654E-01-2.60007E+00 0.00000E+00
 -1       506-3.36344E-01 1.36049E+00 0.00000E+00
 -1       507-3.29614E-01 5.24519E+00 0.00000E+00
 -1       508-3.22466E-01 9.04874E+00 0.00000E+00
 -1       509-3.14904E-01 1.27666E+01 0.00000E+00
 -1       510-3.06931E-01 1.63938E+01 0.00000E+00
 -1       511-2.98554E-01 1.99257E+01 0.00000E+00
 -1       512-2.89777E-01 2.33574E+01 0.00000E+00
 -1       513-2.80611E-01 2.66846E+01 0.00000E+00
 -1       514-2.71064E-01 2.99026E+01 0.00000E+00
 -1       515-2.61147E-01 3.30070E+01 0.00000E+00
 -1       516-2.50873E-01 3.59937E+01 0.00000E+00
 -1       517-2.40252E-01 3.88584E+01 0.00000E+00
 -1       518-2.29303E-01 4.15974E+01 0.00000E+00
 -1       519-2.18034E-01 4.42068E+01 0.00000E+00
 -1       520-2.06471E-01 4.66830E+01 0.00000E+00
 -1       521-1.94622E-01 4.90226E+01 0.00000E+00
 -1       522-1.82511E-01 5.12224E+01 0.00000E+00
 -1       523-1.70153E-01 5.32796E+01 0.00000E+00
 -1       524-1.57572E-01 5.51912E+01 0.00000E+00
 -1       525-1.44783E-01 5.69549E+01 0.00000E+00
 -1       526-1.31813E-01 5.85683E+01 0.00000E+00
 -1       527-1.18681E-01 6.00295E+01 0.00000E+00
 -1       528-1.05409E-01 6.13366E+01 0.00000E+00
 -1       529-9.20211E-02 6.24882E+01 0.00000E+00
 -1       530-7.85397E-02 6.34831E+01 0.00000E+00
 -1       531-6.49897E-02 6.43203E+01 0.00000E+00
 -1       532-5.13953E-02 6.49991E+01 0.00000E+00
 -1       533-3.77782E-02 6.55193E+01 0.00000E+00
 -1       534-2.41687E-02 6.58806E+01 0.00000E+00
 -1       535-1.05850E-02 6.60833E+01 0.00000E+00
 -1       536 2.94195E-03 6.61278E+01 0.00000E+00
 -1       537 1.63920E-02 6.60150E+01 0.00000E+00
 -1       538 2.97359E-02 6.57459E+01 0.00000E+00
 -1       539 4.29534E-02 6.53218E+01 0.00000E+00
 -1       540 5.60141E-02 6.47445E+01 0.00000E+00
 -1       541 6.88995E-02 6.40158E+01 0.00000E+00
 -1       542 8.15793E-02 6.31380E+01 0.00000E+00
 -1       543 9.40346E-02 6.21136E+01 0.00000E+00
 -1       544 1.06238E-01 6.09453E+01 0.00000E+00
 -1       545 1.18168E-01 5.96362E+01 0.00000E+00
 -1       546 1.29801E-01 5.81897E+01 0.00000E+00
 -1       547 1.41117E-01 5.66094E+01 0.00000E+00
 -1       548 1.52090E-01 5.48990E+01 0.00000E+00
 -1       549 1.62703E-01 5.30627E+01 0.00000E+00
 -1       550 1.72933E-01 5.11048E+01 0.00000E+00
 -1       551 1.82761E-01 4.90299E+01 0.00000E+00
 -1       552 1.92169E-01 4.68428E+01 0.00000E+00
 -1       553 2.01138E-01 4.45485E+01 0.00000E+00
 -1       554 2.09651E-01 4.21523E+01 0.00000E+00
 -1       555 2.17691E-01 3.96595E+01 0.00000E+00
 -1       556 2.25242E-01 3.70757E+01 0.00000E+00
 -1       557 2.32293E-01 3.44067E+01 0.00000E+00
 -1       558 2.38825E-01 3.16585E+01 0.00000E+00
 -1       559 2.44831E-01 2.88373E+01 0.00000E+00
 -1       560 2.50295E-01 2.59490E+01 0.00000E+00
 -1       561 2.55210E-01 2.30003E+01 0.00000E+00
 -1       562 2.59564E-01 1.99974E+01 0.00000E+00
 -1       563 2.63351E-01 1.69471E+01 0.00000E+00
 -1       564 2.66563E-01 1.38559E+01 0.00000E+00
 -1       565 2.69195E-01 1.07307E+01 0.00000E+00
 -1       566 2.71241E-01 7.57818E+00 0.00000E+00
 -1       567 2.72698E-01 4.40520E+00 0.00000E+00
 -1       568 2.73565E-01 1.21866E+00 0.00000E+00
 -1       569 2.73840E-01-1.97453E+00 0.00000E+00
 -1       570 2.73522E-01-5.16739E+00 0.00000E+00
 -1       571 2.72614E-01-8.35319E+00 0.00000E+00
 -1       572 2.71118E-01-1.15250E+01 0.00000E+00
 -1       573 2.69038E-01-1.46759E+01 0.00000E+00
 -1       574 2.66379E-01-1.77991E+01 0.00000E+00
 -1       575 2.63146E-01-2.08880E+01 0.00000E+00
 -1       576 2.59348E-01-2.39358E+01 0.00000E+00
 -1       577 2.54992E-01-2.69361E+01 0.00000E+00
 -1       578 2.50089E-01-2.98824E+01 0.00000E+00
 -1       579 2.44648E-01-3.27684E+01 0.00000E+00
 -1       580 2.38682E-01-3.55878E+01 0.00000E+00
 -1       581 2.32205E-01-3.83346E+01 0.00000E+00
 -1       582 2.25229E-01-4.10030E+01 0.00000E+00
 -1       583 2.17770E-01-4.35871E+01 0.00000E+00
 -1       584 2.09843E-01-4.60815E+01 0.00000E+00
 -1       585 2.01467E-01-4.84808E+01 0.00000E+00
 -1       586 1.92657E-01-5.07798E+01 0.00000E+00
 -1       587 1.83436E-01-5.29737E+01 0.00000E+00
 -1       588 1.73819E-01-5.50577E+01 0.00000E+00
 -1       589 1.63829E-01-5.70273E+01 0.00000E+00
 -1       590 1.53487E-01-5.88783E+01 0.00000E+00
 -1       591 1.42814E-01-6.06067E+01 0.00000E+00
 -1       592 1.31834E-01-6.22088E+01 0.00000E+00
 -1       593 1.20569E-01-6.36812E+01 0.00000E+00
 -1       594 1.09044E-01-6.50206E+01 0.00000E+00
 -1       595 9.72817E-02-6.62241E+01 0.00000E+00
 -1       596 8.53082E-02-6.72892E+01 0.00000E+00
 -1       597 7.31484E-02-6.82135E+01 0.00000E+00
 -1       598 6.08277E-02-6.89951E+01 0.00000E+00
 -1       599 4.83734E-02-6.96321E+01 0.00000E+00
 -1       600 3.58088E-02-7.01231E+01 0.00000E+00
 -1       601 2.31639E-02-7.04671E+01 0.00000E+00
 -1       602 1.04625E-02-7.06633E+01 0.00000E+00
 -1       603-2.26695E-03-7.07111E+01 0.00000E+00
 -1       604-1.49999E-02-7.06104E+01 0.00000E+00
 -1       605-2.77056E-02-7.03613E+01 0.00000E+00
 -1       606-4.03624E-02-6.99642E+01 0.00000E+00
 -1       607-5.29391E-02-6.94200E+01 0.00000E+00
 -1       608-6.54135E-02-6.87296E+01 0.00000E+00
 -1       609-7.77558E-02-6.78944E+01 0.00000E+00
 -1       610-8.99427E-02-6.69162E+01 0.00000E+00
 -1       611-1.01948E-01-6.57969E+01 0.00000E+00
 -1       612-1.13746E-01-6.45387E+01 0.00000E+00
 -1       613-1.25312E-01-6.31442E+01 0.00000E+00
 -1       614-1.36622E-01-6.16162E+01 0.00000E+00
 -1       615-1.47654E-01-5.99580E+01 0.00000E+00
 -1       616-1.58383E-01-5.81728E+01 0.00000E+00
 -1       617-1.68787E-01-5.62643E+01 0.00000E+00
 -1       618-1.78846E-01-5.42365E+01 0.00000E+00
 -1       619-1.88536E-01-5.20934E+01 0.00000E+00
 -1       620-1.97840E-01-4.98396E+01 0.00000E+00
 -1       621-2.06736E-01-4.74796E+01 0.00000E+00
 -1       622-2.15209E-01-4.50182E+01 0.00000E+00
 -1       623-2.23238E-01-4.24607E+01 0.00000E+00
 -1       624-2.30809E-01-3.98121E+01 0.00000E+00
 -1       625-2.37904E-01-3.70780E+01 0.00000E+00
 -1       626-2.44511E-01-3.42639E+01 0.00000E+00
 -1       627-2.50614E-01-3.13757E+01 0.00000E+00
 -1       628-2.56204E-01-2.84193E+01 0.00000E+00
 -1       629-2.61266E-01-2.54008E+01 0.00000E+00
 -1       630-2.65792E-01-2.23263E+01 0.00000E+00
 -1       631-2.69772E-01-1.92022E+01 0.00000E+00
 -1       632-2.73198E-01-1.60349E+01 0.00000E+00
 -1       633-2.76065E-01-1.28309E+01 0.00000E+00
 -1       634-2.78366E-01-9.59675E+00 0.00000E+00
 -1       635-2.80097E-01-6.33906E+00 0.00000E+00
 -1       636-2.81256E-01-3.06452E+00 0.00000E+00
 -1       637-2.81839E-01 2.20185E-01 0.00000E+00
 -1       638-2.81848E-01 3.50826E+00 0.00000E+00
 -1       639-2.81282E-01 6.79316E+00 0.00000E+00
 -1       640-2.80144E-01 1.00681E+01 0.00000E+00
 -1       641-2.78436E-01 1.33265E+01 0.00000E+00
 -1       642-2.76163E-01 1.65616E+01 0.00000E+00
 -1       643-2.73331E-01 1.97670E+01 0.00000E+00
 -1       644-2.69947E-01 2.29360E+01 0.00000E+00
 -1       645-2.66018E-01 2.60625E+01 0.00000E+00
 -1       646-2.61555E-01 2.91399E+01 0.00000E+00
 -1       647-2.56566E-01 3.21623E+01 0.00000E+00
 -1       648-2.51066E-01 3.51235E+01 0.00000E+00
 -1       649-2.45064E-01 3.80175E+01 0.00000E+00
 -1       650-2.38577E-01 4.08387E+01 0.00000E+00
 -1       651-2.31617E-01 4.35814E+01 0.00000E+00
 -1       652-2.24202E-01 4.62404E+01 0.00000E+00
 -1       653-2.16349E-01 4.88102E+01 0.00000E+00
 -1       654-2.08074E-01 5.12859E+01 0.00000E+00
 -1       655-1.99400E-01 5.36628E+01 0.00000E+00
 -1       656-1.90341E-01 5.59363E+01 0.00000E+00
 -1       657-1.80925E-01 5.81020E+01 0.00000E+00
 -1       658-1.71165E-01 6.01558E+01 0.00000E+00
 -1       659-1.61091E-01 6.20939E+01 0.00000E+00
 -1       660-1.50722E-01 6.39128E+01 0.00000E+00
 -1       661-1.40084E-01 6.56091E+01 0.00000E+00
 -1       662-1.29198E-01 6.71799E+01 0.00000E+00
 -1       663-1.18093E-01 6.86224E+01 0.00000E+00
 -1       664-1.06793E-01 6.99342E+01 0.00000E+00
 -1       665-9.53242E-02 7.11132E+01 0.00000E+00
 -1       666-8.37143E-02 7.21575E+01 0.00000E+00
 -1       667-7.19886E-02 7.30658E+01 0.00000E+00
 -1       668-6.01763E-02 7.38367E+01 0.00000E+00
 -1       669-4.83039E-02 7.44695E+01 0.00000E+00
 -1       670-3.63998E-02 7.49635E+01 0.00000E+00
 -1       671-2.44943E-02 7.53187E+01 0.00000E+00
 -1       672-1.26105E-02 7.55351E+01 0.00000E+00
 -1       673-7.83903E-04 7.56132E+01 0.00000E+00
 -1       674 1.09625E-02 7.55538E+01 0.00000E+00
 -1       675 2.25966E-02 7.53580E+01 0.00000E+00
 -1       676 3.40927E-02 7.50272E+01 0.00000E+00
 -1       677 4.54193E-02 7.45634E+01 0.00000E+00
 -1       678 5.65512E-02 7.39685E+01 0.00000E+00
 -1       679 6.74572E-02 7.32451E+01 0.00000E+00
 -1       680 7.81127E-02 7.23959E+01 0.00000E+00
 -1       681 8.84874E-02 7.14240E+01 0.00000E+00
 -1       682 9.85550E-02 7.03328E+01 0.00000E+00
 -1       683 1.08290E-01 6.91262E+01 0.00000E+00
 -1       684 1.17664E-01 6.78081E+01 0.00000E+00
 -1       685 1.26652E-01 6.63828E+01 0.00000E+00
 -1       686 1.35229E-01 6.48551E+01 0.00000E+00
 -1       687 1.43369E-01 6.32299E+01 0.00000E+00
 -1       688 1.51049E-01 6.15124E+01 0.00000E+00
 -1       689 1.58245E-01 5.97081E+01 0.00000E+00
 -1       690 1.64934E-01 5.78228E+01 0.00000E+00
 -1       691 1.71094E-01 5.58626E+01 0.00000E+00
 -1       692 1.76703E-01 5.38337E+01 0.00000E+00
 -1       693 1.81740E-01 5.17427E+01 0.00000E+00
 -1       694 1.86187E-01 4.95964E+01 0.00000E+00
 -1       695 1.90022E-01 4.74017E+01 0.00000E+00
 -1       696 1.93228E-01 4.51660E+01 0.00000E+00
 -1       697 1.95788E-01 4.28966E+01 0.00000E+00
 -1       698 1.97685E-01 4.06013E+01 0.00000E+00
 -1       699 1.98903E-01 3.82877E+01 0.00000E+00
 -1       700 1.99426E-01 3.59640E+01 0.00000E+00
 -1       701 1.99243E-01 3.36383E+01 0.00000E+00
 -1       702 1.98337E-01 3.13190E+01 0.00000E+00
 -1       703 1.96699E-01 2.90145E+01 0.00000E+00
 -1       704 1.94315E-01 2.67334E+01 0.00000E+00
 -1       705 1.91178E-01 2.44845E+01 0.00000E+00
 -1       706 1.87273E-01 2.22767E+01 0.00000E+00
 -1       707 1.82597E-01 2.01190E+01 0.00000E+00
 -1       708 1.77135E-01 1.80204E+01 0.00000E+00
 -1       709 1.70890E-01 1.59900E+01 0.00000E+00
 -1       710 1.63841E-01 1.40372E+01 0.00000E+00
 -1       711 1.56002E-01 1.21712E+01 0.00000E+00
 -1       712 1.47343E-01 1.04015E+01 0.00000E+00
 -1       713 1.37890E-01 8.73742E+00 0.00000E+00
 -1       714 1.27602E-01 7.18844E+00 0.00000E+00
 -1       715 1.16525E-01 5.76411E+00 0.00000E+00
 -1       716 1.04591E-01 4.47396E+00 0.00000E+00
 -1       717 9.18845E-02 3.32761E+00 0.00000E+00
 -1       718 7.82895E-02 2.33457E+00 0.00000E+00
 -1       719 6.39657E-02 1.50447E+00 0.00000E+00
 -1       720 4.86546E-02 8.47111E-01 0.00000E+00
 -1       721 3.28695E-02 3.71249E-01 0.00000E+00
 -1       722 1.52949E-02 8.99156E-02 0.00000E+00
 -1       723 0.00000E+00 0.00000E+00 0.00000E+00
 -1       724-3.92966E-01-1.00004E+02 0.00000E+00
 -1       725-3.92958E-01-9.54200E+01 0.00000E+00
 -1       726-3.92914E-01-9.08360E+01 0.00000E+00
 -1       727-3.92797E-01-8.62532E+01 0.00000E+00
 -1       728-3.92576E-01-8.16721E+01 0.00000E+00
 -1       729-3.92216E-01-7.70946E+01 0.00000E+00
 -1       730-3.91690E-01-7.25223E+01 0.00000E+00
 -1       731-3.90968E-01-6.79569E+01 0.00000E+00
 -1       732-3.90024E-01-6.34016E+01 0.00000E+00
 -1       733-3.88832E-01-5.88584E+01 0.00000E+00
 -1       734-3.87371E-01-5.43310E+01 0.00000E+00
 -1       735-3.85617E-01-4.98223E+01 0.00000E+00
 -1       736-3.83553E-01-4.53356E+01 0.00000E+00
 -1       737-3.81159E-01-4.08751E+01 0.00000E+00
 -1       738-3.78420E-01-3.64443E+01 0.00000E+00
 -1       739-3.75320E-01-3.20479E+01 0.00000E+00
 -1       740-3.71847E-01-2.76897E+01 0.00000E+00
 -1       741-3.67991E-01-2.33741E+01 0.00000E+00
 -1       742-3.63738E-01-1.91060E+01 0.00000E+00
 -1       743-3.59086E-01-1.48896E+01 0.00000E+00
 -1       744-3.54022E-01-1.07301E+01 0.00000E+00
 -1       745-3.48548E-01-6.63202E+00 0.00000E+00
 -1       746-3.42654E-01-2.60007E+00 0.00000E+00
 -1       747-3.36344E-01 1.36049E+00 0.00000E+00
 -1       748-3.29614E-01 5.24519E+00 0.00000E+00
 -1       749-3.22466E-01 9.04874E+00 0.00000E+00
 -1       750-3.14904E-01 1.27666E+01 0.00000E+00
 -1       751-3.06931E-01 1.63938E+01 0.00000E+00
 -1       752-2.98554E-01 1.99257E+01 0.00000E+00
 -1       753-2.89777E-01 2.33574E+01 0.00000E+00
 -1       754-2.80611E-01 2.66846E+01 0.00000E+00
 -1       755-2.71064E-01 2.99026E+01 0.00000E+00
 -1       756-2.61147E-01 3.30070E+01 0.00000E+00
 -1       757-2.50873E-01 3.59937E+01 0.00000E+00
 -1       758-2.40252E-01 3.88584E+01 0.00000E+00
 -1       759-2.29303E-01 4.15974E+01 0.00000E+00
 -1       760-2.18034E-01 4.42068E+01 0.00000E+00
 -1       761-2.06471E-01 4.66830E+01 0.00000E+00
 -1       762-1.94622E-01 4.90226E+01 0.00000E+00
 -1       763-1.82511E-01 5.12224E+01 0.00000E+00
 -1       764-1.70153E-01 5.32796E+01 0.00000E+00
 -1       765-1.57572E-01 5.51912E+01 0.00000E+00
 -1       766-1.44783E-01 5.69549E+01 0.00000E+00
 -1       767-1.31813E-01 5.85683E+01 0.00000E+00
 -1       768-1.18681E-01 6.00295E+01 0.00000E+00
 -1       769-1.05409E-01 6.13366E+01 0.00000E+00
 -1       770-9.20211E-02 6.24882E+01 0.00000E+00
 -1       771-7.85397E-02 6.34831E+01 0.00000E+00
 -1       772-6.49897E-02 6.43203E+01 0.00000E+00
 -1       773-5.13953E-02 6.49991E+01 0.00000E+00
 -1       774-3.77782E-02 6.55193E+01 0.00000E+00
 -1       775-2.41687E-02 6.58806E+01 0.00000E+00
 -1       776-1.05850E-02 6.60833E+01 0.00000E+00
 -1       777 2.94195E-03 6.61278E+01 0.00000E+00
 -1       778 1.63920E-02 6.60150E+01 0.00000E+00
 -1       779 2.97359E-02 6.57459E+01 0.00000E+00
 -1       780 4.29534E-02 6.53218E+01 0.00000E+00
 -1       781 5.60141E-02 6.47445E+01 0.00000E+00
 -1       782 6.88995E-02 6.40158E+01 0.00000E+00
 -1       783 8.15793E-02 6.31380E+01 0.00000E+00
 -1       784 9.40346E-02 6.21136E+01 0.00000E+00
 -1       785 1.06238E-01 6.09453E+01 0.00000E+00
 -1       786 1.18168E-01 5.96362E+01 0.00000E+00
 -1       787 1.29801E-01 5.81897E+01 0.00000E+00
 -1       788 1.41117E-01 5.66094E+01 0.00000E+00
 -1       789 1.52090E-01 5.48990E+01 0.00000E+00
 -1       790 1.62703E-01 5.30627E+01 0.00000E+00
 -1       791 1.72933E-01 5.11048E+01 0.00000E+00
 -1       792 1.82761E-01 4.90299E+01 0.00000E+00
 -1       793 1.92169E-01 4.68428E+01 0.00000E+00
 -1       794 2.01138E-01 4.45485E+01 0.00000E+00
 -1       795 2.09651E-01 4.21523E+01 0.00000E+00
 -1       796 2.17691E-01 3.96595E+01 0.00000E+00
 -1       797 2.25242E-01 3.70757E+01 0.00000E+00
 -1       798 2.32293E-01 3.44067E+01 0.00000E+00
 -1       799 2.38825E-01 3.16585E+01 0.00000E+00
 -1       800 2.44831E-01 2.88373E+01 0.00000E+00
 -1       801 2.50295E-01 2.59490E+01 0.00000E+00
 -1       802 2.55210E-01 2.30003E+01 0.00000E+00
 -1       803 2.59564E-01 1.99974E+01 0.00000E+00
 -1       804 2.63351E-01 1.69471E+01 0.00000E+00
 -1       805 2.66563E-01 1.38559E+01 0.00000E+00
 -1       806 2.69195E-01 1.07307E+01 0.00000E+00
 -1       807 2.71241E-01 7.57818E+00 0.00000E+00
 -1       808 2.72698E-01 4.40520E+00 0.00000E+00
 -1       809 2.73565E-01 1.21866E+00 0.00000E+00
 -1       810 2.73840E-01-1.97453E+00 0.00000E+00
 -1       811 2.73522E-01-5.16739E+00 0.00000E+00
 -1       812 2.72614E-01-8.35319E+00 0.00000E+00
 -1       813 2.71119E-01-1.15250E+01 0.00000E+00
 -1       814 2.69038E-01-1.46759E+01 0.00000E+00
 -1       815 2.66379E-01-1.77991E+01 0.00000E+00
 -1       816 2.63146E-01-2.08880E+01 0.00000E+00
 -1       817 2.59348E-01-2.39358E+01 0.00000E+00
 -1       818 2.54992E-01-2.69361E+01 0.00000E+00
 -1       819 2.50089E-01-2.98824E+01 0.00000E+00
 -1       820 2.44648E-01-3.27684E+01 0.00000E+00
 -1       821 2.38682E-01-3.55878E+01 0.00000E+00
 -1       822 2.32205E-01-3.83346E+01 0.00000E+00
 -1       823 2.25229E-01-4.10030E+01 0.00000E+00
 -1       824 2.17770E-01-4.35871E+01 0.00000E+00
 -1       825 2.09843E-01-4.60815E+01 0.00000E+00
 -1       826 2.01467E-01-4.84808E+01 0.00000E+00
 -1       827 1.92657E-01-5.07798E+01 0.00000E+00
 -1       828 1.83436E-01-5.29737E+01 0.00000E+00
 -1       829 1.73819E-01-5.50577E+01 0.00000E+00
 -1       830 1.63829E-01-5.70273E+01 0.00000E+00
 -1       831 1.53487E-01-5.88783E+01 0.00000E+00
 -1       832 1.42814E-01-6.06067E+01 0.00000E+00
 -1       833 1.31834E-01-6.22088E+01 0.00000E+00
 -1       834 1.20569E-01-6.36812E+01 0.00000E+00
 -1       835 1.09044E-01-6.50206E+01 0.00000E+00
 -1       836 9.72817E-02-6.62241E+01 0.00000E+00
 -1       837 8.53082E-02-6.72892E+01 0.00000E+00
 -1       838 7.31484E-02-6.82135E+01 0.00000E+00
 -1       839 6.08277E-02-6.89951E+01 0.00000E+00
 -1       840 4.83734E-02-6.96321E+01 0.00000E+00
 -1       841 3.58088E-02-7.01231E+01 0.00000E+00
 -1       842 2.31639E-02-7.04671E+01 0.00000E+00
 -1       843 1.04625E-02-7.06633E+01 0.00000E+00
 -1       844-2.26695E-03-7.07111E+01 0.00000E+00
 -1       845-1.49999E-02-7.06104E+01 0.00000E+00
 -1       846-2.77056E-02-7.03613E+01 0.00000E+00
 -1       847-4.03624E-02-6.99642E+01 0.00000E+00
 -1       848-5.29391E-02-6.94200E+01 0.00000E+00
 -1       849-6.54135E-02-6.87296E+01 0.00000E+00
 -1       850-7.77558E-02-6.78944E+01 0.00000E+00
 -1       851-8.99427E-02-6.69162E+01 0.00000E+00
 -1       852-1.01948E-01-6.57969E+01 0.00000E+00
 -1       853-1.13746E-01-6.45387E+01 0.00000E+00
 -1       854-1.25312E-01-6.31442E+01 0.00000E+00
 -1       855-1.36622E-01-6.16162E+01 0.00000E+00
 -1       856-1.47654E-01-5.99580E+01 0.00000E+00
 -1       857-1.58383E-01-5.81728E+01 0.00000E+00
 -1       858-1.68787E-01-5.62643E+01 0.00000E+00
 -1       859-1.78846E-01-5.42365E+01 0.00000E+00
 -1       860-1.88536E-01-5.20934E+01 0.00000E+00
 -1       861-1.97840E-01-4.98396E+01 0.00000E+00
 -1       862-2.06736E-01-4.74796E+01 0.00000E+00
 -1       863-2.15209E-01-4.50182E+01 0.00000E+00
 -1       864-2.23238E-01-4.24607E+01 0.00000E+00
 -1       865-2.30809E-01-3.98121E+01 0.00000E+00
 -1       866-2.37904E-01-3.70780E+01 0.00000E+00
 -1       867-2.44511E-01-3.42639E+01 0.00000E+00
 -1       868-2.50614E-01-3.13757E+01 0.00000E+00
 -1       869-2.56204E-01-2.84193E+01 0.00000E+00
 -1       870-2.61266E-01-2.54008E+01 0.00000E+00
 -1       871-2.65792E-01-2.23263E+01 0.00000E+00
 -1       872-2.69772E-01-1.92022E+01 0.00000E+00
 -1       873-2.73198E-01-1.60349E+01 0.00000E+00
 -1       874-2.76065E-01-1.28309E+01 0.00000E+00
 -1       875-2.78366E-01-9.59675E+00 0.00000E+00
 -1       876-2.80097E-01-6.33906E+00 0.00000E+00
 -1       877-2.81256E-01-3.06452E+00 0.00000E+00
 -1       878-2.81839E-01 2.20185E-01 0.00000E+00
 -1       879-2.81848E-01 3.50826E+00 0.00000E+00
 -1       880-2.81282E-01 6.79316E+00 0.00000E+00
 -1       881-2.80144E-01 1.00681E+01 0.00000E+00
 -1       882-2.78436E-01 1.33265E+01 0.00000E+00
 -1       883-2.76163E-01 1.65616E+01 0.00000E+00
 -1       884-2.73331E-01 1.97670E+01 0.00000E+00
 -1       885-2.69947E-01 2.29360E+01 0.00000E+00
 -1       886-2.66018E-01 2.60625E+01 0.00000E+00
 -1       887-2.61555E-01 2.91399E+01 0.00000E+00
 -1       888-2.56566E-01 3.21623E+01 0.00000E+00
 -1       889-2.51066E-01 3.51235E+01 0.00000E+00
 -1       890-2.45064E-01 3.80175E+01 0.00000E+00
 -1       891-2.38577E-01 4.08387E+01 0.00000E+00
 -1       892-2.31617E-01 4.35814E+01 0.00000E+00
 -1       893-2.24202E-01 4.62404E+01 0.00000E+00
 -1       894-2.16349E-01 4.88102E+01 0.00000E+00
 -1       895-2.08074E-01 5.12859E+01 0.00000E+00
 -1       896-1.99400E-01 5.36628E+01 0.00000E+00
 -1       897-1.90341E-01 5.59363E+01 0.00000E+00
 -1       898-1.80925E-01 5.81020E+01 0.00000E+00
 -1       899-1.71165E-01 6.01558E+01 0.00000E+00
 -1       900-1.61091E-01 6.20939E+01 0.00000E+00
 -1       901-1.50722E-01 6.39128E+01 0.00000E+00
 -1       902-1.40084E-01 6.56091E+01 0.00000E+00
 -1       903-1.29198E-01 6.71799E+01 0.00000E+00
 -1       904-1.18093E-01 6.86224E+01 0.00000E+00
 -1       905-1.06793E-01 6.99342E+01 0.00000E+00
 -1       906-9.53242E-02 7.11132E+01 0.00000E+00
 -1       907-8.37143E-02 7.21575E+01 0.00000E+00
 -1       908-7.19886E-02 7.30658E+01 0.00000E+00
 -1       909-6.01763E-02 7.38367E+01 0.00000E+00
 -1       910-4.83039E-02 7.44695E+01 0.00000E+00
 -1       911-3.63998E-02 7.49635E+01 0.00000E+00
 -1       912-2.44943E-02 7.53187E+01 0.00000E+00
 -1       913-1.26105E-02 7.55351E+01 0.00000E+00
 -1       914-7.83901E-04 7.56132E+01 0.00000E+00
 -1       915 1.09625E-02 7.55538E+01 0.00000E+00
 -1       916 2.25966E-02 7.53580E+01 0.00000E+00
 -1       917 3.40927E-02 7.50272E+01 0.00000E+00
 -1       918 4.54193E-02 7.45634E+01 0.00000E+00
 -1       919 5.65512E-02 7.39685E+01 0.00000E+00
 -1       920 6.74572E-02 7.32451E+01 0.00000E+00
 -1       921 7.81127E-02 7.23959E+01 0.00000E+00
 -1       922 8.84874E-02 7.14240E+01 0.00000E+00
 -1       923 9.85550E-02 7.03328E+01 0.00000E+00
 -1       924 1.08290E-01 6.91262E+01 0.00000E+00
 -1       925 1.17664E-01 6.78081E+01 0.00000E+00
 -1       926 1.26652E-01 6.63828E+01 0.00000E+00
 -1       927 1.35229E-01 6.48552E+01 0.00000E+00
 -1       928 1.43369E-01 6.32299E+01 0.00000E+00
 -1       929 1.51049E-01 6.15124E+01 0.00000E+00
 -1       930 1.58245E-01 5.97081E+01 0.00000E+00
 -1       931 1.64934E-01 5.78228E+01 0.00000E+00
 -1       932 1.71094E-01 5.58626E+01 0.00000E+00
 -1       933 1.76703E-01 5.38337E+01 0.00000E+00
 -1       934 1.81740E-01 5.17427E+01 0.00000E+00
 -1       935 1.86187E-01 4.95964E+01 0.00000E+00
 -1       936 1.90022E-01 4.74017E+01 0.00000E+00
 -1       937 1.93228E-01 4.51660E+01 0.00000E+00
 -1       938 1.95788E-01 4.28966E+01 0.00000E+00
 -1       939 1.97685E-01 4.06013E+01 0.00000E+00
 -1       940 1.98903E-01 3.82877E+01 0.00000E+00
 -1       941 1.99426E-01 3.59640E+01 0.00000E+00
 -1       942 1.99243E-01 3.36383E+01 0.00000E+00
 -1       943 1.98337E-01 3.13190E+01 0.00000E+00
 -1       944 1.96699E-01 2.90145E+01 0.00000E+00
 -1       945 1.94315E-01 2.67334E+01 0.00000E+00
 -1       946 1.91178E-01 2.44845E+01 0.00000E+00
 -1       947 1.87273E-01 2.22767E+01 0.00000E+00
 -1       948 1.82597E-01 2.01190E+01 0.00000E+00
 -1       949 1.77135E-01 1.80204E+01 0.00000E+00
 -1       950 1.70890E-01 1.59900E+01 0.00000E+00
 -1       951 1.63841E-01 1.40372E+01 0.00000E+00
 -1       952 1.56002E-01 1.21712E+01 0.00000E+00
 -1       953 1.47343E-01 1.04015E+01 0.00000E+00
 -1       954 1.37890E-01 8.73742E+00 0.00000E+00
 -1       955 1.27602E-01 7.18844E+00 0.00000E+00
 -1       956 1.16525E-01 5.76411E+00 0.00000E+00
 -1       957 1.04591E-01 4.47396E+00 0.00000E+00
 -1       958 9.18845E-02 3.32761E+00 0.00000E+00
 -1       959 7.82895E-02 2.33457E+00 0.00000E+00
 -1       960 6.39657E-02 1.50447E+00 0.00000E+00
 -1       961 4.86546E-02 8.47111E-01 0.00000E+00
 -1       962 3.28695E-02 3.71249E-01 0.00000E+00
 -1       963 1.52949E-02 8.99156E-02 0.00000E+00
 -1       964 0.00000E+00 0.00000E+00 0.00000E+00
 -1       965-3.14346E-05-1.00004E+02 0.00000E+00
 -1       966-3.14339E-05-9.54200E+01 0.00000E+00
 -1       967-3.14304E-05-9.08360E+01 0.00000E+00
 -1       968-3.14211E-05-8.62532E+01 0.00000E+00
 -1       969-3.14033E-05-8.16723E+01 0.00000E+00
 -1       970-3.13746E-05-7.70946E+01 0.00000E+00
 -1       971-3.13325E-05-7.25222E+01 0.00000E+00
 -1       972-3.12747E-05-6.79572E+01 0.00000E+00
 -1       973-3.11991E-05-6.34016E+01 0.00000E+00
 -1       974-3.11039E-05-5.88586E+01 0.00000E+00
 -1       975-3.09869E-05-5.43309E+01 0.00000E+00
 -1       976-3.08467E-05-4.98222E+01 0.00000E+00
 -1       977-3.06816E-05-4.53357E+01 0.00000E+00
 -1       978-3.04900E-05-4.08750E+01 0.00000E+00
 -1       979-3.02710E-05-3.64445E+01 0.00000E+00
 -1       980-3.00230E-05-3.20480E+01 0.00000E+00
 -1       981-2.97452E-05-2.76896E+01 0.00000E+00
 -1       982-2.94367E-05-2.33742E+01 0.00000E+00
 -1       983-2.90966E-05-1.91061E+01 0.00000E+00
 -1       984-2.87243E-05-1.48897E+01 0.00000E+00
 -1       985-2.83194E-05-1.07301E+01 0.00000E+00
 -1       986-2.78813E-05-6.63187E+00 0.00000E+00
 -1       987-2.74100E-05-2.60012E+00 0.00000E+00
 -1       988-2.69051E-05 1.36046E+00 0.00000E+00
 -1       989-2.63668E-05 5.24517E+00 0.00000E+00
 -1       990-2.57951E-05 9.04875E+00 0.00000E+00
 -1       991-2.51902E-05 1.27666E+01 0.00000E+00
 -1       992-2.45524E-05 1.63938E+01 0.00000E+00
 -1       993-2.38823E-05 1.99257E+01 0.00000E+00
 -1       994-2.31802E-05 2.33575E+01 0.00000E+00
 -1       995-2.24470E-05 2.66847E+01 0.00000E+00
 -1       996-2.16833E-05 2.99026E+01 0.00000E+00
 -1       997-2.08901E-05 3.30071E+01 0.00000E+00
 -1       998-2.00681E-05 3.59938E+01 0.00000E+00
 -1       999-1.92186E-05 3.88585E+01 0.00000E+00
 -1      1000-1.83427E-05 4.15975E+01 0.00000E+00
 -1      1001-1.74415E-05 4.42069E+01 0.00000E+00
 -1      1002-1.65163E-05 4.66831E+01 0.00000E+00
 -1      1003-1.55686E-05 4.90227E+01 0.00000E+00
 -1      1004-1.45997E-05 5.12226E+01 0.00000E+00
 -1      1005-1.36113E-05 5.32797E+01 0.00000E+00
 -1      1006-1.26048E-05 5.51914E+01 0.00000E+00
 -1      1007-1.15819E-05 5.69550E+01 0.00000E+00
 -1      1008-1.05444E-05 5.85685E+01 0.00000E+00
 -1      1009-9.49392E-06 6.00297E+01 0.00000E+00
 -1      1010-8.43223E-06 6.13368E+01 0.00000E+00
 -1      1011-7.36133E-06 6.24884E+01 0.00000E+00
 -1      1012-6.28293E-06 6.34833E+01 0.00000E+00
 -1      1013-5.19906E-06 6.43205E+01 0.00000E+00
 -1      1014-4.11159E-06 6.49994E+01 0.00000E+00
 -1      1015-3.02237E-06 6.55196E+01 0.00000E+00
 -1      1016-1.93361E-06 6.58809E+01 0.00000E+00
 -1      1017-8.47182E-07 6.60836E+01 0.00000E+00
 -1      1018 2.35006E-07 6.61282E+01 0.00000E+00
 -1      1019 1.31077E-06 6.60154E+01 0.00000E+00
 -1      1020 2.37834E-06 6.57463E+01 0.00000E+00
 -1      1021 3.43548E-06 6.53223E+01 0.00000E+00
 -1      1022 4.48035E-06 6.47449E+01 0.00000E+00
 -1      1023 5.51097E-06 6.40163E+01 0.00000E+00
 -1      1024 6.52535E-06 6.31384E+01 0.00000E+00
 -1      1025 7.52158E-06 6.21140E+01 0.00000E+00
 -1      1026 8.49784E-06 6.09458E+01 0.00000E+00
 -1      1027 9.45211E-06 5.96367E+01 0.00000E+00
 -1      1028 1.03827E-05 5.81903E+01 0.00000E+00
 -1      1029 1.12878E-05 5.66099E+01 0.00000E+00
 -1      1030 1.21656E-05 5.48995E+01 0.00000E+00
 -1      1031 1.30146E-05 5.30632E+01 0.00000E+00
 -1      1032 1.38329E-05 5.11054E+01 0.00000E+00
 -1      1033 1.46191E-05 4.90305E+01 0.00000E+00
 -1      1034 1.53716E-05 4.68434E+01 0.00000E+00
 -1      1035 1.60891E-05 4.45492E+01 0.00000E+00
 -1      1036 1.67700E-05 4.21529E+01 0.00000E+00
 -1      1037 1.74132E-05 3.96601E+01 0.00000E+00
 -1      1038 1.80172E-05 3.70763E+01 0.00000E+00
 -1      1039 1.85812E-05 3.44074E+01 0.00000E+00
 -1      1040 1.91037E-05 3.16592E+01 0.00000E+00
 -1      1041 1.95842E-05 2.88379E+01 0.00000E+00
 -1      1042 2.00212E-05 2.59496E+01 0.00000E+00
 -1      1043 2.04145E-05 2.30009E+01 0.00000E+00
 -1      1044 2.07626E-05 1.99981E+01 0.00000E+00
 -1      1045 2.10657E-05 1.69477E+01 0.00000E+00
 -1      1046 2.13225E-05 1.38566E+01 0.00000E+00
 -1      1047 2.15333E-05 1.07313E+01 0.00000E+00
 -1      1048 2.16966E-05 7.57879E+00 0.00000E+00
 -1      1049 2.18136E-05 4.40580E+00 0.00000E+00
 -1      1050 2.18824E-05 1.21933E+00 0.00000E+00
 -1      1051 2.19050E-05-1.97388E+00 0.00000E+00
 -1      1052 2.18789E-05-5.16684E+00 0.00000E+00
 -1      1053 2.18072E-05-8.35257E+00 0.00000E+00
 -1      1054 2.16864E-05-1.15244E+01 0.00000E+00
 -1      1055 2.15213E-05-1.46753E+01 0.00000E+00
 -1      1056 2.13070E-05-1.77986E+01 0.00000E+00
 -1      1057 2.10503E-05-2.08874E+01 0.00000E+00
 -1      1058 2.07443E-05-2.39353E+01 0.00000E+00
 -1      1059 2.03985E-05-2.69357E+01 0.00000E+00
 -1      1060 2.00031E-05-2.98820E+01 0.00000E+00
 -1      1061 1.95717E-05-3.27679E+01 0.00000E+00
 -1      1062 1.90900E-05-3.55874E+01 0.00000E+00
 -1      1063 1.85772E-05-3.83342E+01 0.00000E+00
 -1      1064 1.80128E-05-4.10025E+01 0.00000E+00
 -1      1065 1.74237E-05-4.35867E+01 0.00000E+00
 -1      1066 1.67805E-05-4.60812E+01 0.00000E+00
 -1      1067 1.61215E-05-4.84805E+01 0.00000E+00
 -1      1068 1.54036E-05-5.07795E+01 0.00000E+00
 -1      1069 1.46817E-05-5.29735E+01 0.00000E+00
 -1      1070 1.38936E-05-5.50575E+01 0.00000E+00
 -1      1071 1.31171E-05-5.70271E+01 0.00000E+00
 -1      1072 1.22627E-05-5.88781E+01 0.00000E+00
 -1      1073 1.14415E-05-6.06066E+01 0.00000E+00
 -1      1074 1.05241E-05-6.22087E+01 0.00000E+00
 -1      1075 9.67008E-06-6.36811E+01 0.00000E+00
 -1      1076 8.69134E-06-6.50205E+01 0.00000E+00
 -1      1077 7.81910E-06-6.62241E+01 0.00000E+00
 -1      1078 6.77836E-06-6.72893E+01 0.00000E+00
 -1      1079 5.90575E-06-6.82136E+01 0.00000E+00
 -1      1080 4.80045E-06-6.89952E+01 0.00000E+00
 -1      1081 3.94383E-06-6.96323E+01 0.00000E+00
 -1      1082 2.93850E-06-7.01234E+01 0.00000E+00
 -1      1083 1.78910E-06-7.04674E+01 0.00000E+00
 -1      1084 8.90450E-07-7.06636E+01 0.00000E+00
 -1      1085-2.26016E-07-7.07114E+01 0.00000E+00
 -1      1086-1.16281E-06-7.06108E+01 0.00000E+00
 -1      1087-2.24707E-06-7.03617E+01 0.00000E+00
 -1      1088-3.20304E-06-6.99647E+01 0.00000E+00
 -1      1089-4.25609E-06-6.94205E+01 0.00000E+00
 -1      1090-5.21478E-06-6.87301E+01 0.00000E+00
 -1      1091-6.23469E-06-6.78950E+01 0.00000E+00
 -1      1092-7.18233E-06-6.69168E+01 0.00000E+00
 -1      1093-8.16532E-06-6.57975E+01 0.00000E+00
 -1      1094-9.09010E-06-6.45394E+01 0.00000E+00
 -1      1095-1.00312E-05-6.31449E+01 0.00000E+00
 -1      1096-1.09227E-05-6.16170E+01 0.00000E+00
 -1      1097-1.18162E-05-5.99588E+01 0.00000E+00
 -1      1098-1.26652E-05-5.81736E+01 0.00000E+00
 -1      1099-1.35052E-05-5.62652E+01 0.00000E+00
 -1      1100-1.43033E-05-5.42374E+01 0.00000E+00
 -1      1101-1.50839E-05-5.20944E+01 0.00000E+00
 -1      1102-1.58236E-05-4.98405E+01 0.00000E+00
 -1      1103-1.65390E-05-4.74805E+01 0.00000E+00
 -1      1104-1.72136E-05-4.50193E+01 0.00000E+00
 -1      1105-1.78585E-05-4.24617E+01 0.00000E+00
 -1      1106-1.84619E-05-3.98131E+01 0.00000E+00
 -1      1107-1.90313E-05-3.70790E+01 0.00000E+00
 -1      1108-1.95583E-05-3.42650E+01 0.00000E+00
 -1      1109-2.00478E-05-3.13768E+01 0.00000E+00
 -1      1110-2.04938E-05-2.84204E+01 0.00000E+00
 -1      1111-2.08997E-05-2.54019E+01 0.00000E+00
 -1      1112-2.12610E-05-2.23274E+01 0.00000E+00
 -1      1113-2.15800E-05-1.92033E+01 0.00000E+00
 -1      1114-2.18535E-05-1.60360E+01 0.00000E+00
 -1      1115-2.20833E-05-1.28321E+01 0.00000E+00
 -1      1116-2.22670E-05-9.59788E+00 0.00000E+00
 -1      1117-2.24058E-05-6.34018E+00 0.00000E+00
 -1      1118-2.24982E-05-3.06571E+00 0.00000E+00
 -1      1119-2.25451E-05 2.19000E-01 0.00000E+00
 -1      1120-2.25457E-05 3.50717E+00 0.00000E+00
 -1      1121-2.25006E-05 6.79210E+00 0.00000E+00
 -1      1122-2.24094E-05 1.00670E+01 0.00000E+00
 -1      1123-2.22729E-05 1.33254E+01 0.00000E+00
 -1      1124-2.20910E-05 1.65605E+01 0.00000E+00
 -1      1125-2.18646E-05 1.97659E+01 0.00000E+00
 -1      1126-2.15938E-05 2.29350E+01 0.00000E+00
 -1      1127-2.12796E-05 2.60615E+01 0.00000E+00
 -1      1128-2.09225E-05 2.91390E+01 0.00000E+00
 -1      1129-2.05236E-05 3.21613E+01 0.00000E+00
 -1      1130-2.00835E-05 3.51225E+01 0.00000E+00
 -1      1131-1.96035E-05 3.80166E+01 0.00000E+00
 -1      1132-1.90845E-05 4.08379E+01 0.00000E+00
 -1      1133-1.85278E-05 4.35806E+01 0.00000E+00
 -1      1134-1.79347E-05 4.62396E+01 0.00000E+00
 -1      1135-1.73066E-05 4.88095E+01 0.00000E+00
 -1      1136-1.66447E-05 5.12852E+01 0.00000E+00
 -1      1137-1.59507E-05 5.36622E+01 0.00000E+00
 -1      1138-1.52262E-05 5.59357E+01 0.00000E+00
 -1      1139-1.44729E-05 5.81014E+01 0.00000E+00
 -1      1140-1.36923E-05 6.01553E+01 0.00000E+00
 -1      1141-1.28864E-05 6.20935E+01 0.00000E+00
 -1      1142-1.20570E-05 6.39124E+01 0.00000E+00
 -1      1143-1.12060E-05 6.56088E+01 0.00000E+00
 -1      1144-1.03353E-05 6.71796E+01 0.00000E+00
 -1      1145-9.44698E-06 6.86221E+01 0.00000E+00
 -1      1146-8.54310E-06 6.99340E+01 0.00000E+00
 -1      1147-7.62565E-06 7.11130E+01 0.00000E+00
 -1      1148-6.69697E-06 7.21574E+01 0.00000E+00
 -1      1149-5.75901E-06 7.30657E+01 0.00000E+00
 -1      1150-4.81413E-06 7.38367E+01 0.00000E+00
 -1      1151-3.86444E-06 7.44695E+01 0.00000E+00
 -1      1152-2.91222E-06 7.49637E+01 0.00000E+00
 -1      1153-1.95983E-06 7.53189E+01 0.00000E+00
 -1      1154-1.00929E-06 7.55353E+01 0.00000E+00
 -1      1155-6.32138E-08 7.56135E+01 0.00000E+00
 -1      1156 8.76362E-07 7.55541E+01 0.00000E+00
 -1      1157 1.80706E-06 7.53584E+01 0.00000E+00
 -1      1158 2.72661E-06 7.50277E+01 0.00000E+00
 -1      1159 3.63267E-06 7.45639E+01 0.00000E+00
 -1      1160 4.52312E-06 7.39691E+01 0.00000E+00
 -1      1161 5.39554E-06 7.32457E+01 0.00000E+00
 -1      1162 6.24788E-06 7.23965E+01 0.00000E+00
 -1      1163 7.07779E-06 7.14247E+01 0.00000E+00
 -1      1164 7.88312E-06 7.03336E+01 0.00000E+00
 -1      1165 8.66185E-06 6.91270E+01 0.00000E+00
 -1      1166 9.41167E-06 6.78089E+01 0.00000E+00
 -1      1167 1.01307E-05 6.63837E+01 0.00000E+00
 -1      1168 1.08168E-05 6.48561E+01 0.00000E+00
 -1      1169 1.14680E-05 6.32309E+01 0.00000E+00
 -1      1170 1.20823E-05 6.15134E+01 0.00000E+00
 -1      1171 1.26579E-05 5.97091E+01 0.00000E+00
 -1      1172 1.31930E-05 5.78239E+01 0.00000E+00
 -1      1173 1.36857E-05 5.58637E+01 0.00000E+00
 -1      1174 1.41345E-05 5.38348E+01 0.00000E+00
 -1      1175 1.45374E-05 5.17438E+01 0.00000E+00
 -1      1176 1.48931E-05 4.95975E+01 0.00000E+00
 -1      1177 1.51999E-05 4.74029E+01 0.00000E+00
 -1      1178 1.54564E-05 4.51671E+01 0.00000E+00
 -1      1179 1.56611E-05 4.28978E+01 0.00000E+00
 -1      1180 1.58130E-05 4.06024E+01 0.00000E+00
 -1      1181 1.59103E-05 3.82889E+01 0.00000E+00
 -1      1182 1.59524E-05 3.59651E+01 0.00000E+00
 -1      1183 1.59375E-05 3.36395E+01 0.00000E+00
 -1      1184 1.58653E-05 3.13201E+01 0.00000E+00
 -1      1185 1.57341E-05 2.90155E+01 0.00000E+00
 -1      1186 1.55437E-05 2.67344E+01 0.00000E+00
 -1      1187 1.52924E-05 2.44855E+01 0.00000E+00
 -1      1188 1.49804E-05 2.22777E+01 0.00000E+00
 -1      1189 1.46060E-05 2.01199E+01 0.00000E+00
 -1      1190 1.41696E-05 1.80212E+01 0.00000E+00
 -1      1191 1.36694E-05 1.59909E+01 0.00000E+00
 -1      1192 1.31064E-05 1.40380E+01 0.00000E+00
 -1      1193 1.24784E-05 1.21719E+01 0.00000E+00
 -1      1194 1.17869E-05 1.04022E+01 0.00000E+00
 -1      1195 1.10295E-05 8.73798E+00 0.00000E+00
 -1      1196 1.02081E-05 7.18892E+00 0.00000E+00
 -1      1197 9.32018E-06 5.76450E+00 0.00000E+00
 -1      1198 8.36785E-06 4.47429E+00 0.00000E+00
 -1      1199 7.34868E-06 3.32781E+00 0.00000E+00
 -1      1200 6.26462E-06 2.33467E+00 0.00000E+00
 -1      1201 5.11462E-06 1.50449E+00 0.00000E+00
 -1      1202 3.89522E-06 8.46996E-01 0.00000E+00
 -1      1203 2.62605E-06 3.71059E-01 0.00000E+00
 -1      1204 1.22731E-06 8.94272E-02 0.00000E+00
 -1      1205 0.00000E+00 0.00000E+00 0.00000E+00
 -1      1206-3.14342E-05-1.00004E+02 0.00000E+00
 -1      1207-3.14336E-05-9.54200E+01 0.00000E+00
 -1      1208-3.14300E-05-9.08360E+01 0.00000E+00
 -1      1209-3.14207E-05-8.62532E+01 0.00000E+00
 -1      1210-3.14030E-05-8.16723E+01 0.00000E+00
 -1      1211-3.13742E-05-7.70946E+01 0.00000E+00
 -1      1212-3.13321E-05-7.25222E+01 0.00000E+00
 -1      1213-3.12744E-05-6.79572E+01 0.00000E+00
 -1      1214-3.11988E-05-6.34016E+01 0.00000E+00
 -1      1215-3.11035E-05-5.88586E+01 0.00000E+00
 -1      1216-3.09866E-05-5.43309E+01 0.00000E+00
 -1      1217-3.08464E-05-4.98222E+01 0.00000E+00
 -1      1218-3.06812E-05-4.53357E+01 0.00000E+00
 -1      1219-3.04897E-05-4.08750E+01 0.00000E+00
 -1      1220-3.02706E-05-3.64445E+01 0.00000E+00
 -1      1221-3.00226E-05-3.20480E+01 0.00000E+00
 -1      1222-2.97448E-05-2.76896E+01 0.00000E+00
 -1      1223-2.94363E-05-2.33742E+01 0.00000E+00
 -1      1224-2.90962E-05-1.91061E+01 0.00000E+00
 -1      1225-2.87240E-05-1.48897E+01 0.00000E+00
 -1      1226-2.83190E-05-1.07301E+01 0.00000E+00
 -1      1227-2.78810E-05-6.63187E+00 0.00000E+00
 -1      1228-2.74096E-05-2.60012E+00 0.00000E+00
 -1      1229-2.69048E-05 1.36046E+00 0.00000E+00
 -1      1230-2.63665E-05 5.24517E+00 0.00000E+00
 -1      1231-2.57947E-05 9.04875E+00 0.00000E+00
 -1      1232-2.51898E-05 1.27666E+01 0.00000E+00
 -1      1233-2.45521E-05 1.63938E+01 0.00000E+00
 -1      1234-2.38819E-05 1.99257E+01 0.00000E+00
 -1      1235-2.31799E-05 2.33575E+01 0.00000E+00
 -1      1236-2.24467E-05 2.66847E+01 0.00000E+00
 -1      1237-2.16830E-05 2.99026E+01 0.00000E+00
 -1      1238-2.08897E-05 3.30071E+01 0.00000E+00
 -1      1239-2.00678E-05 3.59938E+01 0.00000E+00
 -1      1240-1.92183E-05 3.88585E+01 0.00000E+00
 -1      1241-1.83423E-05 4.15975E+01 0.00000E+00
 -1      1242-1.74411E-05 4.42069E+01 0.00000E+00
 -1      1243-1.65159E-05 4.66831E+01 0.00000E+00
 -1      1244-1.55683E-05 4.90227E+01 0.00000E+00
 -1      1245-1.45993E-05 5.12226E+01 0.00000E+00
 -1      1246-1.36109E-05 5.32797E+01 0.00000E+00
 -1      1247-1.26044E-05 5.51914E+01 0.00000E+00
 -1      1248-1.15816E-05 5.69550E+01 0.00000E+00
 -1      1249-1.05440E-05 5.85685E+01 0.00000E+00
 -1      1250-9.49357E-06 6.00297E+01 0.00000E+00
 -1      1251-8.43187E-06 6.13368E+01 0.00000E+00
 -1      1252-7.36097E-06 6.24884E+01 0.00000E+00
 -1      1253-6.28256E-06 6.34833E+01 0.00000E+00
 -1      1254-5.19870E-06 6.43205E+01 0.00000E+00
 -1      1255-4.11123E-06 6.49994E+01 0.00000E+00
 -1      1256-3.02201E-06 6.55196E+01 0.00000E+00
 -1      1257-1.93324E-06 6.58809E+01 0.00000E+00
 -1      1258-8.46816E-07 6.60836E+01 0.00000E+00
 -1      1259 2.35372E-07 6.61282E+01 0.00000E+00
 -1      1260 1.31113E-06 6.60154E+01 0.00000E+00
 -1      1261 2.37870E-06 6.57463E+01 0.00000E+00
 -1      1262 3.43585E-06 6.53223E+01 0.00000E+00
 -1      1263 4.48072E-06 6.47449E+01 0.00000E+00
 -1      1264 5.51134E-06 6.40163E+01 0.00000E+00
 -1      1265 6.52573E-06 6.31384E+01 0.00000E+00
 -1      1266 7.52195E-06 6.21140E+01 0.00000E+00
 -1      1267 8.49822E-06 6.09458E+01 0.00000E+00
 -1      1268 9.45249E-06 5.96367E+01 0.00000E+00
 -1      1269 1.03831E-05 5.81903E+01 0.00000E+00
 -1      1270 1.12882E-05 5.66099E+01 0.00000E+00
 -1      1271 1.21660E-05 5.48995E+01 0.00000E+00
 -1      1272 1.30149E-05 5.30632E+01 0.00000E+00
 -1      1273 1.38333E-05 5.11054E+01 0.00000E+00
 -1      1274 1.46195E-05 4.90305E+01 0.00000E+00
 -1      1275 1.53720E-05 4.68434E+01 0.00000E+00
 -1      1276 1.60894E-05 4.45492E+01 0.00000E+00
 -1      1277 1.67704E-05 4.21529E+01 0.00000E+00
 -1      1278 1.74136E-05 3.96601E+01 0.00000E+00
 -1      1279 1.80176E-05 3.70763E+01 0.00000E+00
 -1      1280 1.85816E-05 3.44074E+01 0.00000E+00
 -1      1281 1.91041E-05 3.16592E+01 0.00000E+00
 -1      1282 1.95846E-05 2.88379E+01 0.00000E+00
 -1      1283 2.00216E-05 2.59496E+01 0.00000E+00
 -1      1284 2.04148E-05 2.30009E+01 0.00000E+00
 -1      1285 2.07630E-05 1.99981E+01 0.00000E+00
 -1      1286 2.10661E-05 1.69477E+01 0.00000E+00
 -1      1287 2.13228E-05 1.38566E+01 0.00000E+00
 -1      1288 2.15337E-05 1.07313E+01 0.00000E+00
 -1      1289 2.16970E-05 7.57879E+00 0.00000E+00
 -1      1290 2.18140E-05 4.40580E+00 0.00000E+00
 -1      1291 2.18828E-05 1.21933E+00 0.00000E+00
 -1      1292 2.19054E-05-1.97388E+00 0.00000E+00
 -1      1293 2.18793E-05-5.16684E+00 0.00000E+00
 -1      1294 2.18075E-05-8.35257E+00 0.00000E+00
 -1      1295 2.16868E-05-1.15244E+01 0.00000E+00
 -1      1296 2.15217E-05-1.46753E+01 0.00000E+00
 -1      1297 2.13074E-05-1.77986E+01 0.00000E+00
 -1      1298 2.10507E-05-2.08874E+01 0.00000E+00
 -1      1299 2.07447E-05-2.39353E+01 0.00000E+00
 -1      1300 2.03989E-05-2.69357E+01 0.00000E+00
 -1      1301 2.00035E-05-2.98820E+01 0.00000E+00
 -1      1302 1.95721E-05-3.27679E+01 0.00000E+00
 -1      1303 1.90904E-05-3.55874E+01 0.00000E+00
 -1      1304 1.85776E-05-3.83342E+01 0.00000E+00
 -1      1305 1.80132E-05-4.10025E+01 0.00000E+00
 -1      1306 1.74242E-05-4.35867E+01 0.00000E+00
 -1      1307 1.67809E-05-4.60812E+01 0.00000E+00
 -1      1308 1.61219E-05-4.84805E+01 0.00000E+00
 -1      1309 1.54040E-05-5.07795E+01 0.00000E+00
 -1      1310 1.46821E-05-5.29735E+01 0.00000E+00
 -1      1311 1.38940E-05-5.50575E+01 0.00000E+00
 -1      1312 1.31175E-05-5.70271E+01 0.00000E+00
 -1      1313 1.22631E-05-5.88781E+01 0.00000E+00
 -1      1314 1.14419E-05-6.06066E+01 0.00000E+00
 -1      1315 1.05245E-05-6.22087E+01 0.00000E+00
 -1      1316 9.67048E-06-6.36811E+01 0.00000E+00
 -1      1317 8.69174E-06-6.50205E+01 0.00000E+00
 -1      1318 7.81949E-06-6.62241E+01 0.00000E+00
 -1      1319 6.77875E-06-6.72893E+01 0.00000E+00
 -1      1320 5.90614E-06-6.82136E+01 0.00000E+00
 -1      1321 4.80084E-06-6.89952E+01 0.00000E+00
 -1      1322 3.94421E-06-6.96323E+01 0.00000E+00
 -1      1323 2.93888E-06-7.01234E+01 0.00000E+00
 -1      1324 1.78949E-06-7.04674E+01 0.00000E+00
 -1      1325 8.90831E-07-7.06636E+01 0.00000E+00
 -1      1326-2.25638E-07-7.07114E+01 0.00000E+00
 -1      1327-1.16243E-06-7.06108E+01 0.00000E+00
 -1      1328-2.24670E-06-7.03617E+01 0.00000E+00
 -1      1329-3.20267E-06-6.99647E+01 0.00000E+00
 -1      1330-4.25572E-06-6.94205E+01 0.00000E+00
 -1      1331-5.21442E-06-6.87301E+01 0.00000E+00
 -1      1332-6.23433E-06-6.78950E+01 0.00000E+00
 -1      1333-7.18197E-06-6.69168E+01 0.00000E+00
 -1      1334-8.16497E-06-6.57975E+01 0.00000E+00
 -1      1335-9.08975E-06-6.45394E+01 0.00000E+00
 -1      1336-1.00308E-05-6.31449E+01 0.00000E+00
 -1      1337-1.09223E-05-6.16170E+01 0.00000E+00
 -1      1338-1.18158E-05-5.99588E+01 0.00000E+00
 -1      1339-1.26648E-05-5.81736E+01 0.00000E+00
 -1      1340-1.35048E-05-5.62652E+01 0.00000E+00
 -1      1341-1.43030E-05-5.42374E+01 0.00000E+00
 -1      1342-1.50835E-05-5.20944E+01 0.00000E+00
 -1      1343-1.58233E-05-4.98405E+01 0.00000E+00
 -1      1344-1.65387E-05-4.74805E+01 0.00000E+00
 -1      1345-1.72133E-05-4.50193E+01 0.00000E+00
 -1      1346-1.78582E-05-4.24617E+01 0.00000E+00
 -1      1347-1.84616E-05-3.98131E+01 0.00000E+00
 -1      1348-1.90310E-05-3.70790E+01 0.00000E+00
 -1      1349-1.95580E-05-3.42650E+01 0.00000E+00
 -1      1350-2.00475E-05-3.13768E+01 0.00000E+00
 -1      1351-2.04935E-05-2.84204E+01 0.00000E+00
 -1      1352-2.08994E-05-2.54019E+01 0.00000E+00
 -1      1353-2.12607E-05-2.23274E+01 0.00000E+00
 -1      1354-2.15797E-05-1.92033E+01 0.00000E+00
 -1      1355-2.18533E-05-1.60360E+01 0.00000E+00
 -1      1356-2.20830E-05-1.28321E+01 0.00000E+00
 -1      1357-2.22667E-05-9.59788E+00 0.00000E+00
 -1      1358-2.24055E-05-6.34018E+00 0.00000E+00
 -1      1359-2.24980E-05-3.06571E+00 0.00000E+00
 -1      1360-2.25449E-05 2.19000E-01 0.00000E+00
 -1      1361-2.25454E-05 3.50717E+00 0.00000E+00
 -1      1362-2.25003E-05 6.79210E+00 0.00000E+00
 -1      1363-2.24091E-05 1.00670E+01 0.00000E+00
 -1      1364-2.22726E-05 1.33254E+01 0.00000E+00
 -1      1365-2.20908E-05 1.65605E+01 0.00000E+00
 -1      1366-2.18643E-05 1.97659E+01 0.00000E+00
 -1      1367-2.15935E-05 2.29350E+01 0.00000E+00
 -1      1368-2.12794E-05 2.60615E+01 0.00000E+00
 -1      1369-2.09223E-05 2.91390E+01 0.00000E+00
 -1      1370-2.05233E-05 3.21613E+01 0.00000E+00
 -1      1371-2.00833E-05 3.51225E+01 0.00000E+00
 -1      1372-1.96032E-05 3.80166E+01 0.00000E+00
 -1      1373-1.90843E-05 4.08379E+01 0.00000E+00
 -1      1374-1.85276E-05 4.35806E+01 0.00000E+00
 -1      1375-1.79345E-05 4.62396E+01 0.00000E+00
 -1      1376-1.73063E-05 4.88095E+01 0.00000E+00
 -1      1377-1.66444E-05 5.12852E+01 0.00000E+00
 -1      1378-1.59505E-05 5.36622E+01 0.00000E+00
 -1      1379-1.52260E-05 5.59357E+01 0.00000E+00
 -1      1380-1.44727E-05 5.81014E+01 0.00000E+00
 -1      1381-1.36920E-05 6.01553E+01 0.00000E+00
 -1      1382-1.28862E-05 6.20935E+01 0.00000E+00
 -1      1383-1.20568E-05 6.39124E+01 0.00000E+00
 -1      1384-1.12058E-05 6.56088E+01 0.00000E+00
 -1      1385-1.03351E-05 6.71796E+01 0.00000E+00
 -1      1386-9.44677E-06 6.86221E+01 0.00000E+00
 -1      1387-8.54290E-06 6.99340E+01 0.00000E+00
 -1      1388-7.62545E-06 7.11130E+01 0.00000E+00
 -1      1389-6.69677E-06 7.21574E+01 0.00000E+00
 -1      1390-5.75880E-06 7.30657E+01 0.00000E+00
 -1      1391-4.81393E-06 7.38367E+01 0.00000E+00
 -1      1392-3.86424E-06 7.44695E+01 0.00000E+00
 -1      1393-2.91202E-06 7.49637E+01 0.00000E+00
 -1      1394-1.95964E-06 7.53189E+01 0.00000E+00
 -1      1395-1.00910E-06 7.55353E+01 0.00000E+00
 -1      1396-6.30256E-08 7.56135E+01 0.00000E+00
 -1      1397 8.76547E-07 7.55541E+01 0.00000E+00
 -1      1398 1.80724E-06 7.53584E+01 0.00000E+00
 -1      1399 2.72678E-06 7.50277E+01 0.00000E+00
 -1      1400 3.63285E-06 7.45639E+01 0.00000E+00
 -1      1401 4.52329E-06 7.39691E+01 0.00000E+00
 -1      1402 5.39570E-06 7.32457E+01 0.00000E+00
 -1      1403 6.24804E-06 7.23965E+01 0.00000E+00
 -1      1404 7.07794E-06 7.14247E+01 0.00000E+00
 -1      1405 7.88327E-06 7.03336E+01 0.00000E+00
 -1      1406 8.66200E-06 6.91270E+01 0.00000E+00
 -1      1407 9.41181E-06 6.78089E+01 0.00000E+00
 -1      1408 1.01308E-05 6.63837E+01 0.00000E+00
 -1      1409 1.08169E-05 6.48561E+01 0.00000E+00
 -1      1410 1.14681E-05 6.32309E+01 0.00000E+00
 -1      1411 1.20824E-05 6.15134E+01 0.00000E+00
 -1      1412 1.26580E-05 5.97091E+01 0.00000E+00
 -1      1413 1.31931E-05 5.78239E+01 0.00000E+00
 -1      1414 1.36859E-05 5.58637E+01 0.00000E+00
 -1      1415 1.41346E-05 5.38348E+01 0.00000E+00
 -1      1416 1.45375E-05 5.17438E+01 0.00000E+00
 -1      1417 1.48932E-05 4.95975E+01 0.00000E+00
 -1      1418 1.52000E-05 4.74029E+01 0.00000E+00
 -1      1419 1.54565E-05 4.51671E+01 0.00000E+00
 -1      1420 1.56612E-05 4.28978E+01 0.00000E+00
 -1      1421 1.58131E-05 4.06024E+01 0.00000E+00
 -1      1422 1.59104E-05 3.82889E+01 0.00000E+00
 -1      1423 1.59524E-05 3.59651E+01 0.00000E+00
 -1      1424 1.59376E-05 3.36395E+01 0.00000E+00
 -1      1425 1.58654E-05 3.13201E+01 0.00000E+00
 -1      1426 1.57341E-05 2.90155E+01 0.00000E+00
 -1      1427 1.55437E-05 2.67344E+01 0.00000E+00
 -1      1428 1.52924E-05 2.44855E+01 0.00000E+00
 -1      1429 1.49805E-05 2.22777E+01 0.00000E+00
 -1      1430 1.46060E-05 2.01199E+01 0.00000E+00
 -1      1431 1.41697E-05 1.80212E+01 0.00000E+00
 -1      1432 1.36695E-05 1.59909E+01 0.00000E+00
 -1      1433 1.31064E-05 1.40380E+01 0.00000E+00
 -1      1434 1.24785E-05 1.21719E+01 0.00000E+00
 -1      1435 1.17869E-05 1.04022E+01 0.00000E+00
 -1      1436 1.10295E-05 8.73798E+00 0.00000E+00
 -1      1437 1.02081E-05 7.18892E+00 0.00000E+00
 -1      1438 9.32020E-06 5.76450E+00 0.00000E+00
 -1      1439 8.36787E-06 4.47429E+00 0.00000E+00
 -1      1440 7.34870E-06 3.32781E+00 0.00000E+00
 -1      1441 6.26464E-06 2.33467E+00 0.00000E+00
 -1      1442 5.11463E-06 1.50449E+00 0.00000E+00
 -1      1443 3.89523E-06 8.46996E-01 0.00000E+00
 -1      1444 2.62606E-06 3.71059E-01 0.00000E+00
 -1      1445 1.22731E-06 8.94272E-02 0.00000E+00
 -1      1446 0.00000E+00 0.00000E+00 0.00000E+00
 -1      1447 3.92903E-01-1.00004E+02 0.00000E+00
 -1      1448 3.92895E-01-9.54200E+01 0.00000E+00
 -1      1449 3.92851E-01-9.08360E+01 0.00000E+00
 -1      1450 3.92734E-01-8.62532E+01 0.00000E+00
 -1      1451 3.92513E-01-8.16721E+01 0.00000E+00
 -1      1452 3.92154E-01-7.70946E+01 0.00000E+00
 -1      1453 3.91627E-01-7.25223E+01 0.00000E+00
 -1      1454 3.90905E-01-6.79569E+01 0.00000E+00
 -1      1455 3.89961E-01-6.34016E+01 0.00000E+00
 -1      1456 3.88770E-01-5.88584E+01 0.00000E+00
 -1      1457 3.87309E-01-5.43310E+01 0.00000E+00
 -1      1458 3.85555E-01-4.98223E+01 0.00000E+00
 -1      1459 3.83492E-01-4.53356E+01 0.00000E+00
 -1      1460 3.81098E-01-4.08751E+01 0.00000E+00
 -1      1461 3.78360E-01-3.64443E+01 0.00000E+00
 -1      1462 3.75260E-01-3.20479E+01 0.00000E+00
 -1      1463 3.71788E-01-2.76897E+01 0.00000E+00
 -1      1464 3.67932E-01-2.33741E+01 0.00000E+00
 -1      1465 3.63679E-01-1.91060E+01 0.00000E+00
 -1      1466 3.59029E-01-1.48896E+01 0.00000E+00
 -1      1467 3.53965E-01-1.07301E+01 0.00000E+00
 -1      1468 3.48492E-01-6.63202E+00 0.00000E+00
 -1      1469 3.42599E-01-2.60007E+00 0.00000E+00
 -1      1470 3.36290E-01 1.36049E+00 0.00000E+00
 -1      1471 3.29561E-01 5.24519E+00 0.00000E+00
 -1      1472 3.22414E-01 9.04874E+00 0.00000E+00
 -1      1473 3.14854E-01 1.27666E+01 0.00000E+00
 -1      1474 3.06882E-01 1.63938E+01 0.00000E+00
 -1      1475 2.98506E-01 1.99257E+01 0.00000E+00
 -1      1476 2.89731E-01 2.33574E+01 0.00000E+00
 -1      1477 2.80566E-01 2.66846E+01 0.00000E+00
 -1      1478 2.71021E-01 2.99026E+01 0.00000E+00
 -1      1479 2.61105E-01 3.30070E+01 0.00000E+00
 -1      1480 2.50833E-01 3.59937E+01 0.00000E+00
 -1      1481 2.40213E-01 3.88584E+01 0.00000E+00
 -1      1482 2.29266E-01 4.15974E+01 0.00000E+00
 -1      1483 2.18000E-01 4.42068E+01 0.00000E+00
 -1      1484 2.06438E-01 4.66830E+01 0.00000E+00
 -1      1485 1.94590E-01 4.90226E+01 0.00000E+00
 -1      1486 1.82482E-01 5.12224E+01 0.00000E+00
 -1      1487 1.70126E-01 5.32796E+01 0.00000E+00
 -1      1488 1.57547E-01 5.51912E+01 0.00000E+00
 -1      1489 1.44760E-01 5.69549E+01 0.00000E+00
 -1      1490 1.31792E-01 5.85683E+01 0.00000E+00
 -1      1491 1.18662E-01 6.00295E+01 0.00000E+00
 -1      1492 1.05392E-01 6.13366E+01 0.00000E+00
 -1      1493 9.20064E-02 6.24882E+01 0.00000E+00
 -1      1494 7.85271E-02 6.34831E+01 0.00000E+00
 -1      1495 6.49793E-02 6.43203E+01 0.00000E+00
 -1      1496 5.13871E-02 6.49991E+01 0.00000E+00
 -1      1497 3.77721E-02 6.55193E+01 0.00000E+00
 -1      1498 2.41648E-02 6.58806E+01 0.00000E+00
 -1      1499 1.05834E-02 6.60833E+01 0.00000E+00
 -1      1500-2.94148E-03 6.61278E+01 0.00000E+00
 -1      1501-1.63894E-02 6.60150E+01 0.00000E+00
 -1      1502-2.97311E-02 6.57459E+01 0.00000E+00
 -1      1503-4.29465E-02 6.53218E+01 0.00000E+00
 -1      1504-5.60051E-02 6.47445E+01 0.00000E+00
 -1      1505-6.88885E-02 6.40158E+01 0.00000E+00
 -1      1506-8.15662E-02 6.31380E+01 0.00000E+00
 -1      1507-9.40196E-02 6.21136E+01 0.00000E+00
 -1      1508-1.06221E-01 6.09453E+01 0.00000E+00
 -1      1509-1.18149E-01 5.96362E+01 0.00000E+00
 -1      1510-1.29781E-01 5.81897E+01 0.00000E+00
 -1      1511-1.41094E-01 5.66094E+01 0.00000E+00
 -1      1512-1.52066E-01 5.48990E+01 0.00000E+00
 -1      1513-1.62677E-01 5.30627E+01 0.00000E+00
 -1      1514-1.72905E-01 5.11048E+01 0.00000E+00
 -1      1515-1.82732E-01 4.90299E+01 0.00000E+00
 -1      1516-1.92138E-01 4.68428E+01 0.00000E+00
 -1      1517-2.01106E-01 4.45485E+01 0.00000E+00
 -1      1518-2.09617E-01 4.21523E+01 0.00000E+00
 -1      1519-2.17656E-01 3.96595E+01 0.00000E+00
 -1      1520-2.25206E-01 3.70757E+01 0.00000E+00
 -1      1521-2.32255E-01 3.44067E+01 0.00000E+00
 -1      1522-2.38787E-01 3.16585E+01 0.00000E+00
 -1      1523-2.44792E-01 2.88373E+01 0.00000E+00
 -1      1524-2.50255E-01 2.59490E+01 0.00000E+00
 -1      1525-2.55169E-01 2.30003E+01 0.00000E+00
 -1      1526-2.59523E-01 1.99974E+01 0.00000E+00
 -1      1527-2.63309E-01 1.69471E+01 0.00000E+00
 -1      1528-2.66521E-01 1.38559E+01 0.00000E+00
 -1      1529-2.69152E-01 1.07307E+01 0.00000E+00
 -1      1530-2.71198E-01 7.57818E+00 0.00000E+00
 -1      1531-2.72655E-01 4.40520E+00 0.00000E+00
 -1      1532-2.73522E-01 1.21866E+00 0.00000E+00
 -1      1533-2.73796E-01-1.97453E+00 0.00000E+00
 -1      1534-2.73479E-01-5.16739E+00 0.00000E+00
 -1      1535-2.72571E-01-8.35319E+00 0.00000E+00
 -1      1536-2.71075E-01-1.15250E+01 0.00000E+00
 -1      1537-2.68995E-01-1.46759E+01 0.00000E+00
 -1      1538-2.66337E-01-1.77991E+01 0.00000E+00
 -1      1539-2.63104E-01-2.08880E+01 0.00000E+00
 -1      1540-2.59306E-01-2.39358E+01 0.00000E+00
 -1      1541-2.54951E-01-2.69361E+01 0.00000E+00
 -1      1542-2.50049E-01-2.98824E+01 0.00000E+00
 -1      1543-2.44609E-01-3.27684E+01 0.00000E+00
 -1      1544-2.38644E-01-3.55878E+01 0.00000E+00
 -1      1545-2.32168E-01-3.83346E+01 0.00000E+00
 -1      1546-2.25193E-01-4.10030E+01 0.00000E+00
 -1      1547-2.17735E-01-4.35871E+01 0.00000E+00
 -1      1548-2.09809E-01-4.60815E+01 0.00000E+00
 -1      1549-2.01435E-01-4.84808E+01 0.00000E+00
 -1      1550-1.92627E-01-5.07798E+01 0.00000E+00
 -1      1551-1.83406E-01-5.29737E+01 0.00000E+00
 -1      1552-1.73791E-01-5.50577E+01 0.00000E+00
 -1      1553-1.63803E-01-5.70273E+01 0.00000E+00
 -1      1554-1.53462E-01-5.88783E+01 0.00000E+00
 -1      1555-1.42791E-01-6.06067E+01 0.00000E+00
 -1      1556-1.31813E-01-6.22088E+01 0.00000E+00
 -1      1557-1.20550E-01-6.36812E+01 0.00000E+00
 -1      1558-1.09026E-01-6.50206E+01 0.00000E+00
 -1      1559-9.72662E-02-6.62241E+01 0.00000E+00
 -1      1560-8.52945E-02-6.72892E+01 0.00000E+00
 -1      1561-7.31368E-02-6.82135E+01 0.00000E+00
 -1      1562-6.08179E-02-6.89951E+01 0.00000E+00
 -1      1563-4.83658E-02-6.96321E+01 0.00000E+00
 -1      1564-3.58086E-02-7.01231E+01 0.00000E+00
 -1      1565-2.31636E-02-7.04671E+01 0.00000E+00
 -1      1566-1.04626E-02-7.06633E+01 0.00000E+00
 -1      1567 2.26701E-03-7.07111E+01 0.00000E+00
 -1      1568 1.49997E-02-7.06104E+01 0.00000E+00
 -1      1569 2.77054E-02-7.03613E+01 0.00000E+00
 -1      1570 4.03620E-02-6.99642E+01 0.00000E+00
 -1      1571 5.29388E-02-6.94200E+01 0.00000E+00
 -1      1572 6.54129E-02-6.87296E+01 0.00000E+00
 -1      1573 7.77552E-02-6.78944E+01 0.00000E+00
 -1      1574 8.99419E-02-6.69162E+01 0.00000E+00
 -1      1575 1.01947E-01-6.57969E+01 0.00000E+00
 -1      1576 1.13745E-01-6.45387E+01 0.00000E+00
 -1      1577 1.25311E-01-6.31442E+01 0.00000E+00
 -1      1578 1.36621E-01-6.16162E+01 0.00000E+00
 -1      1579 1.47652E-01-5.99580E+01 0.00000E+00
 -1      1580 1.58382E-01-5.81728E+01 0.00000E+00
 -1      1581 1.68786E-01-5.62643E+01 0.00000E+00
 -1      1582 1.78845E-01-5.42365E+01 0.00000E+00
 -1      1583 1.88534E-01-5.20934E+01 0.00000E+00
 -1      1584 1.97839E-01-4.98396E+01 0.00000E+00
 -1      1585 2.06735E-01-4.74796E+01 0.00000E+00
 -1      1586 2.15208E-01-4.50182E+01 0.00000E+00
 -1      1587 2.23236E-01-4.24607E+01 0.00000E+00
 -1      1588 2.30807E-01-3.98121E+01 0.00000E+00
 -1      1589 2.37902E-01-3.70780E+01 0.00000E+00
 -1      1590 2.44509E-01-3.42639E+01 0.00000E+00
 -1      1591 2.50612E-01-3.13757E+01 0.00000E+00
 -1      1592 2.56202E-01-2.84193E+01 0.00000E+00
 -1      1593 2.61264E-01-2.54008E+01 0.00000E+00
 -1      1594 2.65790E-01-2.23263E+01 0.00000E+00
 -1      1595 2.69770E-01-1.92022E+01 0.00000E+00
 -1      1596 2.73196E-01-1.60349E+01 0.00000E+00
 -1      1597 2.76063E-01-1.28309E+01 0.00000E+00
 -1      1598 2.78364E-01-9.59675E+00 0.00000E+00
 -1      1599 2.80095E-01-6.33906E+00 0.00000E+00
 -1      1600 2.81253E-01-3.06452E+00 0.00000E+00
 -1      1601 2.81837E-01 2.20185E-01 0.00000E+00
 -1      1602 2.81846E-01 3.50826E+00 0.00000E+00
 -1      1603 2.81280E-01 6.79316E+00 0.00000E+00
 -1      1604 2.80141E-01 1.00681E+01 0.00000E+00
 -1      1605 2.78434E-01 1.33265E+01 0.00000E+00
 -1      1606 2.76161E-01 1.65616E+01 0.00000E+00
 -1      1607 2.73329E-01 1.97670E+01 0.00000E+00
 -1      1608 2.69945E-01 2.29360E+01 0.00000E+00
 -1      1609 2.66016E-01 2.60625E+01 0.00000E+00
 -1      1610 2.61553E-01 2.91399E+01 0.00000E+00
 -1      1611 2.56564E-01 3.21623E+01 0.00000E+00
 -1      1612 2.51064E-01 3.51235E+01 0.00000E+00
 -1      1613 2.45062E-01 3.80175E+01 0.00000E+00
 -1      1614 2.38575E-01 4.08387E+01 0.00000E+00
 -1      1615 2.31615E-01 4.35814E+01 0.00000E+00
 -1      1616 2.24200E-01 4.62404E+01 0.00000E+00
 -1      1617 2.16347E-01 4.88102E+01 0.00000E+00
 -1      1618 2.08073E-01 5.12859E+01 0.00000E+00
 -1      1619 1.99398E-01 5.36628E+01 0.00000E+00
 -1      1620 1.90340E-01 5.59363E+01 0.00000E+00
 -1      1621 1.80923E-01 5.81020E+01 0.00000E+00
 -1      1622 1.71163E-01 6.01558E+01 0.00000E+00
 -1      1623 1.61090E-01 6.20939E+01 0.00000E+00
 -1      1624 1.50720E-01 6.39128E+01 0.00000E+00
 -1      1625 1.40082E-01 6.56091E+01 0.00000E+00
 -1      1626 1.29197E-01 6.71799E+01 0.00000E+00
 -1      1627 1.18092E-01 6.86224E+01 0.00000E+00
 -1      1628 1.06793E-01 6.99342E+01 0.00000E+00
 -1      1629 9.53234E-02 7.11132E+01 0.00000E+00
 -1      1630 8.37136E-02 7.21575E+01 0.00000E+00
 -1      1631 7.19880E-02 7.30658E+01 0.00000E+00
 -1      1632 6.01758E-02 7.38367E+01 0.00000E+00
 -1      1633 4.83035E-02 7.44695E+01 0.00000E+00
 -1      1634 3.63995E-02 7.49635E+01 0.00000E+00
 -1      1635 2.44941E-02 7.53187E+01 0.00000E+00
 -1      1636 1.26104E-02 7.55351E+01 0.00000E+00
 -1      1637 7.83896E-04 7.56132E+01 0.00000E+00
 -1      1638-1.09624E-02 7.55538E+01 0.00000E+00
 -1      1639-2.25965E-02 7.53580E+01 0.00000E+00
 -1      1640-3.40924E-02 7.50272E+01 0.00000E+00
 -1      1641-4.54190E-02 7.45634E+01 0.00000E+00
 -1      1642-5.65507E-02 7.39685E+01 0.00000E+00
 -1      1643-6.74567E-02 7.32451E+01 0.00000E+00
 -1      1644-7.81121E-02 7.23959E+01 0.00000E+00
 -1      1645-8.84866E-02 7.14240E+01 0.00000E+00
 -1      1646-9.85542E-02 7.03328E+01 0.00000E+00
 -1      1647-1.08289E-01 6.91262E+01 0.00000E+00
 -1      1648-1.17663E-01 6.78081E+01 0.00000E+00
 -1      1649-1.26651E-01 6.63828E+01 0.00000E+00
 -1      1650-1.35228E-01 6.48551E+01 0.00000E+00
 -1      1651-1.43368E-01 6.32299E+01 0.00000E+00
 -1      1652-1.51048E-01 6.15124E+01 0.00000E+00
 -1      1653-1.58244E-01 5.97081E+01 0.00000E+00
 -1      1654-1.64933E-01 5.78228E+01 0.00000E+00
 -1      1655-1.71093E-01 5.58626E+01 0.00000E+00
 -1      1656-1.76702E-01 5.38337E+01 0.00000E+00
 -1      1657-1.81739E-01 5.17427E+01 0.00000E+00
 -1      1658-1.86185E-01 4.95964E+01 0.00000E+00
 -1      1659-1.90020E-01 4.74017E+01 0.00000E+00
 -1      1660-1.93227E-01 4.51660E+01 0.00000E+00
 -1      1661-1.95786E-01 4.28966E+01 0.00000E+00
 -1      1662-1.97683E-01 4.06013E+01 0.00000E+00
 -1      1663-1.98901E-01 3.82877E+01 0.00000E+00
 -1      1664-1.99425E-01 3.59640E+01 0.00000E+00
 -1      1665-1.99241E-01 3.36383E+01 0.00000E+00
 -1      1666-1.98336E-01 3.13190E+01 0.00000E+00
 -1      1667-1.96698E-01 2.90145E+01 0.00000E+00
 -1      1668-1.94314E-01 2.67334E+01 0.00000E+00
 -1      1669-1.91176E-01 2.44845E+01 0.00000E+00
 -1      1670-1.87271E-01 2.22767E+01 0.00000E+00
 -1      1671-1.82595E-01 2.01190E+01 0.00000E+00
 -1      1672-1.77134E-01 1.80204E+01 0.00000E+00
 -1      1673-1.70888E-01 1.59900E+01 0.00000E+00
 -1      1674-1.63840E-01 1.40372E+01 0.00000E+00
 -1      1675-1.56001E-01 1.21712E+01 0.00000E+00
 -1      1676-1.47342E-01 1.04015E+01 0.00000E+00
 -1      1677-1.37889E-01 8.73742E+00 0.00000E+00
 -1      1678-1.27601E-01 7.18844E+00 0.00000E+00
 -1      1679-1.16524E-01 5.76411E+00 0.00000E+00
 -1      1680-1.04590E-01 4.47396E+00 0.00000E+00
 -1      1681-9.18837E-02 3.32761E+00 0.00000E+00
 -1      1682-7.82889E-02 2.33457E+00 0.00000E+00
 -1      1683-6.39652E-02 1.50447E+00 0.00000E+00
 -1      1684-4.86542E-02 8.47111E-01 0.00000E+00
 -1      1685-3.28693E-02 3.71249E-01 0.00000E+00
 -1      1686-1.52948E-02 8.99156E-02 0.00000E+00
 -1      1687 0.00000E+00 0.00000E+00 0.00000E+00
 -1      1688 3.92903E-01-1.00004E+02 0.00000E+00
 -1      1689 3.92895E-01-9.54200E+01 0.00000E+00
 -1      1690 3.92851E-01-9.08360E+01 0.00000E+00
 -1      1691 3.92734E-01-8.62532E+01 0.00000E+00
 -1      1692 3.92513E-01-8.16721E+01 0.00000E+00
 -1      1693 3.92154E-01-7.70946E+01 0.00000E+00
 -1      1694 3.91627E-01-7.25223E+01 0.00000E+00
 -1      1695 3.90905E-01-6.79569E+01 0.00000E+00
 -1      1696 3.89961E-01-6.34016E+01 0.00000E+00
 -1      1697 3.88770E-01-5.88584E+01 0.00000E+00
 -1      1698 3.87309E-01-5.43310E+01 0.00000E+00
 -1      1699 3.85555E-01-4.98223E+01 0.00000E+00
 -1      1700 3.83492E-01-4.53356E+01 0.00000E+00
 -1      1701 3.81098E-01-4.08751E+01 0.00000E+00
 -1      1702 3.78360E-01-3.64443E+01 0.00000E+00
 -1      1703 3.75260E-01-3.20479E+01 0.00000E+00
 -1      1704 3.71788E-01-2.76897E+01 0.00000E+00
 -1      1705 3.67932E-01-2.33741E+01 0.00000E+00
 -1      1706 3.63679E-01-1.91060E+01 0.00000E+00
 -1      1707 3.59029E-01-1.48896E+01 0.00000E+00
 -1      1708 3.53965E-01-1.07301E+01 0.00000E+00
 -1      1709 3.48492E-01-6.63202E+00 0.00000E+00
 -1      1710 3.42599E-01-2.60007E+00 0.00000E+00
 -1      1711 3.36290E-01 1.36049E+00 0.00000E+00
 -1      1712 3.29561E-01 5.24519E+00 0.00000E+00
 -1      1713 3.22414E-01 9.04874E+00 0.00000E+00
 -1      1714 3.14854E-01 1.27666E+01 0.00000E+00
 -1      1715 3.06882E-01 1.63938E+01 0.00000E+00
 -1      1716 2.98506E-01 1.99257E+01 0.00000E+00
 -1      1717 2.89731E-01 2.33574E+01 0.00000E+00
 -1      1718 2.80566E-01 2.66846E+01 0.00000E+00
 -1      1719 2.71021E-01 2.99026E+01 0.00000E+00
 -1      1720 2.61105E-01 3.30070E+01 0.00000E+00
 -1      1721 2.50833E-01 3.59937E+01 0.00000E+00
 -1      1722 2.40213E-01 3.88584E+01 0.00000E+00
 -1      1723 2.29266E-01 4.15974E+01 0.00000E+00
 -1      1724 2.18000E-01 4.42068E+01 0.00000E+00
 -1      1725 2.06438E-01 4.66830E+01 0.00000E+00
 -1      1726 1.94590E-01 4.90226E+01 0.00000E+00
 -1      1727 1.82482E-01 5.12224E+01 0.00000E+00
 -1      1728 1.70126E-01 5.32796E+01 0.00000E+00
 -1      1729 1.57547E-01 5.51912E+01 0.00000E+00
 -1      1730 1.44760E-01 5.69549E+01 0.00000E+00
 -1      1731 1.31792E-01 5.85683E+01 0.00000E+00
 -1      1732 1.18662E-01 6.00295E+01 0.00000E+00
 -1      1733 1.05392E-01 6.13366E+01 0.00000E+00
 -1      1734 9.20064E-02 6.24882E+01 0.00000E+00
 -1      1735 7.85272E-02 6.34831E+01 0.00000E+00
 -1      1736 6.49793E-02 6.43203E+01 0.00000E+00
 -1      1737 5.13871E-02 6.49991E+01 0.00000E+00
 -1      1738 3.77721E-02 6.55193E+01 0.00000E+00
 -1      1739 2.41648E-02 6.58806E+01 0.00000E+00
 -1      1740 1.05834E-02 6.60833E+01 0.00000E+00
 -1      1741-2.94147E-03 6.61278E+01 0.00000E+00
 -1      1742-1.63894E-02 6.60150E+01 0.00000E+00
 -1      1743-2.97311E-02 6.57459E+01 0.00000E+00
 -1      1744-4.29465E-02 6.53218E+01 0.00000E+00
 -1      1745-5.60051E-02 6.47445E+01 0.00000E+00
 -1      1746-6.88885E-02 6.40158E+01 0.00000E+00
 -1      1747-8.15662E-02 6.31380E+01 0.00000E+00
 -1      1748-9.40196E-02 6.21136E+01 0.00000E+00
 -1      1749-1.06221E-01 6.09453E+01 0.00000E+00
 -1      1750-1.18149E-01 5.96362E+01 0.00000E+00
 -1      1751-1.29781E-01 5.81897E+01 0.00000E+00
 -1      1752-1.41094E-01 5.66094E+01 0.00000E+00
 -1      1753-1.52066E-01 5.48990E+01 0.00000E+00
 -1      1754-1.62677E-01 5.30627E+01 0.00000E+00
 -1      1755-1.72905E-01 5.11048E+01 0.00000E+00
 -1      1756-1.82732E-01 4.90299E+01 0.00000E+00
 -1      1757-1.92138E-01 4.68428E+01 0.00000E+00
 -1      1758-2.01106E-01 4.45485E+01 0.00000E+00
 -1      1759-2.09617E-01 4.21523E+01 0.00000E+00
 -1      1760-2.17656E-01 3.96595E+01 0.00000E+00
 -1      1761-2.25206E-01 3.70757E+01 0.00000E+00
 -1      1762-2.32255E-01 3.44067E+01 0.00000E+00
 -1      1763-2.38787E-01 3.16585E+01 0.00000E+00
 -1      1764-2.44792E-01 2.88373E+01 0.00000E+00
 -1      1765-2.50255E-01 2.59490E+01 0.00000E+00
 -1      1766-2.55169E-01 2.30003E+01 0.00000E+00
 -1      1767-2.59523E-01 1.99974E+01 0.00000E+00
 -1      1768-2.63309E-01 1.69471E+01 0.00000E+00
 -1      1769-2.66521E-01 1.38559E+01 0.00000E+00
 -1      1770-2.69152E-01 1.07307E+01 0.00000E+00
 -1      1771-2.71198E-01 7.57818E+00 0.00000E+00
 -1      1772-2.72655E-01 4.40520E+00 0.00000E+00
 -1      1773-2.73522E-01 1.21866E+00 0.00000E+00
 -1      1774-2.73796E-01-1.97453E+00 0.00000E+00
 -1      1775-2.73479E-01-5.16739E+00 0.00000E+00
 -1      1776-2.72571E-01-8.35319E+00 0.00000E+00
 -1      1777-2.71075E-01-1.15250E+01 0.00000E+00
 -1      1778-2.68995E-01-1.46759E+01 0.00000E+00
 -1      1779-2.66337E-01-1.77991E+01 0.00000E+00
 -1      1780-2.63104E-01-2.08880E+01 0.00000E+00
 -1      1781-2.59306E-01-2.39358E+01 0.00000E+00
 -1      1782-2.54951E-01-2.69361E+01 0.00000E+00
 -1      1783-2.50049E-01-2.98824E+01 0.00000E+00
 -1      1784-2.44609E-01-3.27684E+01 0.00000E+00
 -1      1785-2.38644E-01-3.55878E+01 0.00000E+00
 -1      1786-2.32168E-01-3.83346E+01 0.00000E+00
 -1      1787-2.25193E-01-4.10030E+01 0.00000E+00
 -1      1788-2.17735E-01-4.35871E+01 0.00000E+00
 -1      1789-2.09809E-01-4.60815E+01 0.00000E+00
 -1      1790-2.01435E-01-4.84808E+01 0.00000E+00
 -1      1791-1.92627E-01-5.07798E+01 0.00000E+00
 -1      1792-1.83406E-01-5.29737E+01 0.00000E+00
 -1      1793-1.73791E-01-5.50577E+01 0.00000E+00
 -1      1794-1.63803E-01-5.70273E+01 0.00000E+00
 -1      1795-1.53462E-01-5.88783E+01 0.00000E+00
 -1      1796-1.42791E-01-6.06067E+01 0.00000E+00
 -1      1797-1.31813E-01-6.22088E+01 0.00000E+00
 -1      1798-1.20550E-01-6.36812E+01 0.00000E+00
 -1      1799-1.09026E-01-6.50206E+01 0.00000E+00
 -1      1800-9.72662E-02-6.62241E+01 0.00000E+00
 -1      1801-8.52945E-02-6.72892E+01 0.00000E+00
 -1      1802-7.31368E-02-6.82135E+01 0.00000E+00
 -1      1803-6.08179E-02-6.89951E+01 0.00000E+00
 -1      1804-4.83658E-02-6.96321E+01 0.00000E+00
 -1      1805-3.58086E-02-7.01231E+01 0.00000E+00
 -1      1806-2.31636E-02-7.04671E+01 0.00000E+00
 -1      1807-1.04626E-02-7.06633E+01 0.00000E+00
 -1      1808 2.26701E-03-7.07111E+01 0.00000E+00
 -1      1809 1.49997E-02-7.06104E+01 0.00000E+00
 -1      1810 2.77054E-02-7.03613E+01 0.00000E+00
 -1      1811 4.03620E-02-6.99642E+01 0.00000E+00
 -1      1812 5.29388E-02-6.94200E+01 0.00000E+00
 -1      1813 6.54129E-02-6.87296E+01 0.00000E+00
 -1      1814 7.77552E-02-6.78944E+01 0.00000E+00
 -1      1815 8.99419E-02-6.69162E+01 0.00000E+00
 -1      1816 1.01947E-01-6.57969E+01 0.00000E+00
 -1      1817 1.13745E-01-6.45387E+01 0.00000E+00
 -1      1818 1.25311E-01-6.31442E+01 0.00000E+00
 -1      1819 1.36621E-01-6.16162E+01 0.00000E+00
 -1      1820 1.47652E-01-5.99580E+01 0.00000E+00
 -1      1821 1.58382E-01-5.81728E+01 0.00000E+00
 -1      1822 1.68786E-01-5.62643E+01 0.00000E+00
 -1      1823 1.78845E-01-5.42365E+01 0.00000E+00
 -1      1824 1.88534E-01-5.20934E+01 0.00000E+00
 -1      1825 1.97839E-01-4.98396E+01 0.00000E+00
 -1      1826 2.06735E-01-4.74796E+01 0.00000E+00
 -1      1827 2.15208E-01-4.50182E+01 0.00000E+00
 -1      1828 2.23236E-01-4.24607E+01 0.00000E+00
 -1      1829 2.30807E-01-3.98121E+01 0.00000E+00
 -1      1830 2.37902E-01-3.70780E+01 0.00000E+00
 -1      1831 2.44509E-01-3.42639E+01 0.00000E+00
 -1      1832 2.50612E-01-3.13757E+01 0.00000E+00
 -1      1833 2.56202E-01-2.84193E+01 0.00000E+00
 -1      1834 2.61264E-01-2.54008E+01 0.00000E+00
 -1      1835 2.65790E-01-2.23263E+01 0.00000E+00
 -1      1836 2.69770E-01-1.92022E+01 0.00000E+00
 -1      1837 2.73196E-01-1.60349E+01 0.00000E+00
 -1      1838 2.76063E-01-1.28309E+01 0.00000E+00
 -1      1839 2.78364E-01-9.59675E+00 0.00000E+00
 -1      1840 2.80095E-01-6.33906E+00 0.00000E+00
 -1      1841 2.81253E-01-3.06452E+00 0.00000E+00
 -1      1842 2.81837E-01 2.20185E-01 0.00000E+00
 -1      1843 2.81846E-01 3.50826E+00 0.00000E+00
 -1      1844 2.81280E-01 6.79316E+00 0.00000E+00
 -1      1845 2.80141E-01 1.00681E+01 0.00000E+00
 -1      1846 2.78434E-01 1.33265E+01 0.00000E+00
 -1      1847 2.76161E-01 1.65616E+01 0.00000E+00
 -1      1848 2.73329E-01 1.97670E+01 0.00000E+00
 -1      1849 2.69945E-01 2.29360E+01 0.00000E+00
 -1      1850 2.66016E-01 2.60625E+01 0.00000E+00
 -1      1851 2.61553E-01 2.91399E+01 0.00000E+00
 -1      1852 2.56564E-01 3.21623E+01 0.00000E+00
 -1      1853 2.51064E-01 3.51235E+01 0.00000E+00
 -1      1854 2.45062E-01 3.80175E+01 0.00000E+00
 -1      1855 2.38575E-01 4.08387E+01 0.00000E+00
 -1      1856 2.31615E-01 4.35814E+01 0.00000E+00
 -1      1857 2.24200E-01 4.62404E+01 0.00000E+00
 -1      1858 2.16347E-01 4.88102E+01 0.00000E+00
 -1      1859 2.08073E-01 5.12859E+01 0.00000E+00
 -1      1860 1.99398E-01 5.36628E+01 0.00000E+00
 -1      1861 1.90340E-01 5.59363E+01 0.00000E+00
 -1      1862 1.80923E-01 5.81020E+01 0.00000E+00
 -1      1863 1.71163E-01 6.01558E+01 0.00000E+00
 -1      1864 1.61090E-01 6.20939E+01 0.00000E+00
 -1      1865 1.50720E-01 6.39128E+01 0.00000E+00
 -1      1866 1.40082E-01 6.56091E+01 0.00000E+00
 -1      1867 1.29197E-01 6.71799E+01 0.00000E+00
 -1      1868 1.18092E-01 6.86224E+01 0.00000E+00
 -1      1869 1.06793E-01 6.99342E+01 0.00000E+00
 -1      1870 9.53234E-02 7.11132E+01 0.00000E+00
 -1      1871 8.37136E-02 7.21575E+01 0.00000E+00
 -1      1872 7.19880E-02 7.30658E+01 0.00000E+00
 -1      1873 6.01758E-02 7.38367E+01 0.00000E+00
 -1      1874 4.83035E-02 7.44695E+01 0.00000E+00
 -1      1875 3.63995E-02 7.49635E+01 0.00000E+00
 -1      1876 2.44941E-02 7.53187E+01 0.00000E+00
 -1      1877 1.26104E-02 7.55351E+01 0.00000E+00
 -1      1878 7.83895E-04 7.56132E+01 0.00000E+00
 -1      1879-1.09624E-02 7.55538E+01 0.00000E+00
 -1      1880-2.25965E-02 7.53580E+01 0.00000E+00
 -1      1881-3.40924E-02 7.50272E+01 0.00000E+00
 -1      1882-4.54190E-02 7.45634E+01 0.00000E+00
 -1      1883-5.65507E-02 7.39685E+01 0.00000E+00
 -1      1884-6.74567E-02 7.32451E+01 0.00000E+00
 -1      1885-7.81121E-02 7.23959E+01 0.00000E+00
 -1      1886-8.84866E-02 7.14240E+01 0.00000E+00
 -1      1887-9.85542E-02 7.03328E+01 0.00000E+00
 -1      1888-1.08289E-01 6.91262E+01 0.00000E+00
 -1      1889-1.17663E-01 6.78081E+01 0.00000E+00
 -1      1890-1.26651E-01 6.63828E+01 0.00000E+00
 -1      1891-1.35228E-01 6.48552E+01 0.00000E+00
 -1      1892-1.43368E-01 6.32299E+01 0.00000E+00
 -1      1893-1.51048E-01 6.15124E+01 0.00000E+00
 -1      1894-1.58244E-01 5.97081E+01 0.00000E+00
 -1      1895-1.64933E-01 5.78228E+01 0.00000E+00
 -1      1896-1.71093E-01 5.58626E+01 0.00000E+00
 -1      1897-1.76702E-01 5.38337E+01 0.00000E+00
 -1      1898-1.81739E-01 5.17427E+01 0.00000E+00
 -1      1899-1.86185E-01 4.95964E+01 0.00000E+00
 -1      1900-1.90020E-01 4.74017E+01 0.00000E+00
 -1      1901-1.93227E-01 4.51660E+01 0.00000E+00
 -1      1902-1.95786E-01 4.28966E+01 0.00000E+00
 -1      1903-1.97683E-01 4.06013E+01 0.00000E+00
 -1      1904-1.98901E-01 3.82877E+01 0.00000E+00
 -1      1905-1.99425E-01 3.59640E+01 0.00000E+00
 -1      1906-1.99241E-01 3.36383E+01 0.00000E+00
 -1      1907-1.98336E-01 3.13190E+01 0.00000E+00
 -1      1908-1.96698E-01 2.90145E+01 0.00000E+00
 -1      1909-1.94314E-01 2.67334E+01 0.00000E+00
 -1      1910-1.91176E-01 2.44845E+01 0.00000E+00
 -1      1911-1.87271E-01 2.22767E+01 0.00000E+00
 -1      1912-1.82595E-01 2.01190E+01 0.00000E+00
 -1      1913-1.77134E-01 1.80204E+01 0.00000E+00
 -1      1914-1.70888E-01 1.59900E+01 0.00000E+00
 -1      1915-1.63840E-01 1.40372E+01 0.00000E+00
 -1      1916-1.56001E-01 1.21712E+01 0.00000E+00
 -1      1917-1.47342E-01 1.04015E+01 0.00000E+00
 -1      1918-1.37889E-01 8.73742E+00 0.00000E+00
 -1      1919-1.27601E-01 7.18844E+00 0.00000E+00
 -1      1920-1.16524E-01 5.76411E+00 0.00000E+00
 -1      1921-1.04590E-01 4.47396E+00 0.00000E+00
 -1      1922-9.18837E-02 3.32761E+00 0.00000E+00
 -1      1923-7.82889E-02 2.33457E+00 0.00000E+00
 -1      1924-6.39652E-02 1.50447E+00 0.00000E+00
 -1      1925-4.86542E-02 8.47111E-01 0.00000E+00
 -1      1926-3.28693E-02 3.71249E-01 0.00000E+00
 -1      1927-1.52948E-02 8.99156E-02 0.00000E+00
 -1      1928 0.00000E+00 0.00000E+00 0.00000E+00
 -1      1929 7.85840E-01-1.00004E+02 0.00000E+00
 -1      1930 7.85826E-01-9.54200E+01 0.00000E+00
 -1      1931 7.85738E-01-9.08360E+01 0.00000E+00
 -1      1932 7.85506E-01-8.62530E+01 0.00000E+00
 -1      1933 7.85063E-01-8.16721E+01 0.00000E+00
 -1      1934 7.84345E-01-7.70944E+01 0.00000E+00
 -1      1935 7.83293E-01-7.25221E+01 0.00000E+00
 -1      1936 7.81849E-01-6.79568E+01 0.00000E+00
 -1      1937 7.79961E-01-6.34014E+01 0.00000E+00
 -1      1938 7.77579E-01-5.88583E+01 0.00000E+00
 -1      1939 7.74657E-01-5.43309E+01 0.00000E+00
 -1      1940 7.71150E-01-4.98220E+01 0.00000E+00
 -1      1941 7.67024E-01-4.53355E+01 0.00000E+00
 -1      1942 7.62235E-01-4.08749E+01 0.00000E+00
 -1      1943 7.56760E-01-3.64444E+01 0.00000E+00
 -1      1944 7.50560E-01-3.20477E+01 0.00000E+00
 -1      1945 7.43614E-01-2.76893E+01 0.00000E+00
 -1      1946 7.35904E-01-2.33740E+01 0.00000E+00
 -1      1947 7.27397E-01-1.91057E+01 0.00000E+00
 -1      1948 7.18096E-01-1.48895E+01 0.00000E+00
 -1      1949 7.07968E-01-1.07298E+01 0.00000E+00
 -1      1950 6.97020E-01-6.63185E+00 0.00000E+00
 -1      1951 6.85235E-01-2.59994E+00 0.00000E+00
 -1      1952 6.72615E-01 1.36058E+00 0.00000E+00
 -1      1953 6.59157E-01 5.24523E+00 0.00000E+00
 -1      1954 6.44862E-01 9.04884E+00 0.00000E+00
 -1      1955 6.29741E-01 1.27666E+01 0.00000E+00
 -1      1956 6.13796E-01 1.63938E+01 0.00000E+00
 -1      1957 5.97043E-01 1.99257E+01 0.00000E+00
 -1      1958 5.79490E-01 2.33574E+01 0.00000E+00
 -1      1959 5.61161E-01 2.66845E+01 0.00000E+00
 -1      1960 5.42068E-01 2.99025E+01 0.00000E+00
 -1      1961 5.22236E-01 3.30069E+01 0.00000E+00
 -1      1962 5.01690E-01 3.59935E+01 0.00000E+00
 -1      1963 4.80449E-01 3.88582E+01 0.00000E+00
 -1      1964 4.58553E-01 4.15972E+01 0.00000E+00
 -1      1965 4.36020E-01 4.42065E+01 0.00000E+00
 -1      1966 4.12891E-01 4.66827E+01 0.00000E+00
 -1      1967 3.89199E-01 4.90223E+01 0.00000E+00
 -1      1968 3.64975E-01 5.12221E+01 0.00000E+00
 -1      1969 3.40266E-01 5.32791E+01 0.00000E+00
 -1      1970 3.15102E-01 5.51907E+01 0.00000E+00
 -1      1971 2.89531E-01 5.69543E+01 0.00000E+00
 -1      1972 2.63591E-01 5.85677E+01 0.00000E+00
 -1      1973 2.37331E-01 6.00288E+01 0.00000E+00
 -1      1974 2.10786E-01 6.13359E+01 0.00000E+00
 -1      1975 1.84015E-01 6.24874E+01 0.00000E+00
 -1      1976 1.57055E-01 6.34823E+01 0.00000E+00
 -1      1977 1.29956E-01 6.43194E+01 0.00000E+00
 -1      1978 1.02771E-01 6.49982E+01 0.00000E+00
 -1      1979 7.55376E-02 6.55183E+01 0.00000E+00
 -1      1980 4.83210E-02 6.58796E+01 0.00000E+00
 -1      1981 2.11580E-02 6.60822E+01 0.00000E+00
 -1      1982-5.89614E-03 6.61267E+01 0.00000E+00
 -1      1983-3.27895E-02 6.60139E+01 0.00000E+00
 -1      1984-5.94799E-02 6.57447E+01 0.00000E+00
 -1      1985-8.59073E-02 6.53206E+01 0.00000E+00
 -1      1986-1.12031E-01 6.47432E+01 0.00000E+00
 -1      1987-1.37794E-01 6.40145E+01 0.00000E+00
 -1      1988-1.63156E-01 6.31366E+01 0.00000E+00
 -1      1989-1.88060E-01 6.21122E+01 0.00000E+00
 -1      1990-2.12468E-01 6.09438E+01 0.00000E+00
 -1      1991-2.36324E-01 5.96348E+01 0.00000E+00
 -1      1992-2.59588E-01 5.81882E+01 0.00000E+00
 -1      1993-2.82218E-01 5.66078E+01 0.00000E+00
 -1      1994-3.04161E-01 5.48974E+01 0.00000E+00
 -1      1995-3.25385E-01 5.30610E+01 0.00000E+00
 -1      1996-3.45843E-01 5.11031E+01 0.00000E+00
 -1      1997-3.65497E-01 4.90282E+01 0.00000E+00
 -1      1998-3.84311E-01 4.68411E+01 0.00000E+00
 -1      1999-4.02246E-01 4.45468E+01 0.00000E+00
 -1      2000-4.19270E-01 4.21505E+01 0.00000E+00
 -1      2001-4.35347E-01 3.96576E+01 0.00000E+00
 -1      2002-4.50450E-01 3.70738E+01 0.00000E+00
 -1      2003-4.64547E-01 3.44049E+01 0.00000E+00
 -1      2004-4.77612E-01 3.16567E+01 0.00000E+00
 -1      2005-4.89621E-01 2.88354E+01 0.00000E+00
 -1      2006-5.00547E-01 2.59471E+01 0.00000E+00
 -1      2007-5.10376E-01 2.29983E+01 0.00000E+00
 -1      2008-5.19083E-01 1.99955E+01 0.00000E+00
 -1      2009-5.26656E-01 1.69451E+01 0.00000E+00
 -1      2010-5.33079E-01 1.38540E+01 0.00000E+00
 -1      2011-5.38341E-01 1.07288E+01 0.00000E+00
 -1      2012-5.42432E-01 7.57626E+00 0.00000E+00
 -1      2013-5.45347E-01 4.40332E+00 0.00000E+00
 -1      2014-5.47079E-01 1.21682E+00 0.00000E+00
 -1      2015-5.47627E-01-1.97633E+00 0.00000E+00
 -1      2016-5.46992E-01-5.16922E+00 0.00000E+00
 -1      2017-5.45175E-01-8.35497E+00 0.00000E+00
 -1      2018-5.42183E-01-1.15267E+01 0.00000E+00
 -1      2019-5.38022E-01-1.46775E+01 0.00000E+00
 -1      2020-5.32704E-01-1.78007E+01 0.00000E+00
 -1      2021-5.26237E-01-2.08896E+01 0.00000E+00
 -1      2022-5.18641E-01-2.39374E+01 0.00000E+00
 -1      2023-5.09930E-01-2.69377E+01 0.00000E+00
 -1      2024-5.00123E-01-2.98839E+01 0.00000E+00
 -1      2025-4.89242E-01-3.27698E+01 0.00000E+00
 -1      2026-4.77311E-01-3.55891E+01 0.00000E+00
 -1      2027-4.64357E-01-3.83359E+01 0.00000E+00
 -1      2028-4.50405E-01-4.10041E+01 0.00000E+00
 -1      2029-4.35488E-01-4.35882E+01 0.00000E+00
 -1      2030-4.19635E-01-4.60825E+01 0.00000E+00
 -1      2031-4.02884E-01-4.84817E+01 0.00000E+00
 -1      2032-3.85266E-01-5.07807E+01 0.00000E+00
 -1      2033-3.66823E-01-5.29744E+01 0.00000E+00
 -1      2034-3.47593E-01-5.50583E+01 0.00000E+00
 -1      2035-3.27611E-01-5.70279E+01 0.00000E+00
 -1      2036-3.06930E-01-5.88788E+01 0.00000E+00
 -1      2037-2.85585E-01-6.06071E+01 0.00000E+00
 -1      2038-2.63627E-01-6.22091E+01 0.00000E+00
 -1      2039-2.41098E-01-6.36813E+01 0.00000E+00
 -1      2040-2.18049E-01-6.50206E+01 0.00000E+00
 -1      2041-1.94528E-01-6.62240E+01 0.00000E+00
 -1      2042-1.70581E-01-6.72890E+01 0.00000E+00
 -1      2043-1.46264E-01-6.82132E+01 0.00000E+00
 -1      2044-1.21626E-01-6.89946E+01 0.00000E+00
 -1      2045-9.67168E-02-6.96315E+01 0.00000E+00
 -1      2046-7.15933E-02-7.01225E+01 0.00000E+00
 -1      2047-4.63011E-02-7.04663E+01 0.00000E+00
 -1      2048-2.09057E-02-7.06624E+01 0.00000E+00
 -1      2049 4.55680E-03-7.07101E+01 0.00000E+00
 -1      2050 3.00151E-02-7.06092E+01 0.00000E+00
 -1      2051 5.54290E-02-7.03600E+01 0.00000E+00
 -1      2052 8.07352E-02-6.99628E+01 0.00000E+00
 -1      2053 1.05891E-01-6.94185E+01 0.00000E+00
 -1      2054 1.30834E-01-6.87280E+01 0.00000E+00
 -1      2055 1.55518E-01-6.78927E+01 0.00000E+00
 -1      2056 1.79888E-01-6.69144E+01 0.00000E+00
 -1      2057 2.03895E-01-6.57949E+01 0.00000E+00
 -1      2058 2.27490E-01-6.45366E+01 0.00000E+00
 -1      2059 2.50619E-01-6.31420E+01 0.00000E+00
 -1      2060 2.73238E-01-6.16140E+01 0.00000E+00
 -1      2061 2.95298E-01-5.99556E+01 0.00000E+00
 -1      2062 3.16755E-01-5.81703E+01 0.00000E+00
 -1      2063 3.37561E-01-5.62617E+01 0.00000E+00
 -1      2064 3.57674E-01-5.42338E+01 0.00000E+00
 -1      2065 3.77054E-01-5.20907E+01 0.00000E+00
 -1      2066 3.95658E-01-4.98367E+01 0.00000E+00
 -1      2067 4.13451E-01-4.74767E+01 0.00000E+00
 -1      2068 4.30391E-01-4.50153E+01 0.00000E+00
 -1      2069 4.46449E-01-4.24576E+01 0.00000E+00
 -1      2070 4.61586E-01-3.98090E+01 0.00000E+00
 -1      2071 4.75776E-01-3.70748E+01 0.00000E+00
 -1      2072 4.88987E-01-3.42607E+01 0.00000E+00
 -1      2073 5.01192E-01-3.13724E+01 0.00000E+00
 -1      2074 5.12368E-01-2.84160E+01 0.00000E+00
 -1      2075 5.22490E-01-2.53974E+01 0.00000E+00
 -1      2076 5.31541E-01-2.23228E+01 0.00000E+00
 -1      2077 5.39499E-01-1.91987E+01 0.00000E+00
 -1      2078 5.46351E-01-1.60314E+01 0.00000E+00
 -1      2079 5.52083E-01-1.28274E+01 0.00000E+00
 -1      2080 5.56683E-01-9.59327E+00 0.00000E+00
 -1      2081 5.60144E-01-6.33561E+00 0.00000E+00
 -1      2082 5.62459E-01-3.06110E+00 0.00000E+00
 -1      2083 5.63625E-01 2.23568E-01 0.00000E+00
 -1      2084 5.63641E-01 3.51168E+00 0.00000E+00
 -1      2085 5.62508E-01 6.79653E+00 0.00000E+00
 -1      2086 5.60230E-01 1.00714E+01 0.00000E+00
 -1      2087 5.56814E-01 1.33297E+01 0.00000E+00
 -1      2088 5.52267E-01 1.65648E+01 0.00000E+00
 -1      2089 5.46604E-01 1.97701E+01 0.00000E+00
 -1      2090 5.39833E-01 2.29392E+01 0.00000E+00
 -1      2091 5.31976E-01 2.60655E+01 0.00000E+00
 -1      2092 5.23049E-01 2.91429E+01 0.00000E+00
 -1      2093 5.13072E-01 3.21652E+01 0.00000E+00
 -1      2094 5.02070E-01 3.51262E+01 0.00000E+00
 -1      2095 4.90066E-01 3.80202E+01 0.00000E+00
 -1      2096 4.77092E-01 4.08413E+01 0.00000E+00
 -1      2097 4.63173E-01 4.35839E+01 0.00000E+00
 -1      2098 4.48343E-01 4.62427E+01 0.00000E+00
 -1      2099 4.32638E-01 4.88124E+01 0.00000E+00
 -1      2100 4.16089E-01 5.12881E+01 0.00000E+00
 -1      2101 3.98739E-01 5.36648E+01 0.00000E+00
 -1      2102 3.80625E-01 5.59381E+01 0.00000E+00
 -1      2103 3.61790E-01 5.81037E+01 0.00000E+00
 -1      2104 3.42274E-01 6.01574E+01 0.00000E+00
 -1      2105 3.22125E-01 6.20954E+01 0.00000E+00
 -1      2106 3.01390E-01 6.39141E+01 0.00000E+00
 -1      2107 2.80112E-01 6.56102E+01 0.00000E+00
 -1      2108 2.58345E-01 6.71808E+01 0.00000E+00
 -1      2109 2.36135E-01 6.86232E+01 0.00000E+00
 -1      2110 2.13539E-01 6.99348E+01 0.00000E+00
 -1      2111 1.90600E-01 7.11136E+01 0.00000E+00
 -1      2112 1.67383E-01 7.21578E+01 0.00000E+00
 -1      2113 1.43934E-01 7.30659E+01 0.00000E+00
 -1      2114 1.20310E-01 7.38366E+01 0.00000E+00
 -1      2115 9.65685E-02 7.44692E+01 0.00000E+00
 -1      2116 7.27612E-02 7.49631E+01 0.00000E+00
 -1      2117 4.89524E-02 7.53181E+01 0.00000E+00
 -1      2118 2.51873E-02 7.55344E+01 0.00000E+00
 -1      2119 1.53471E-03 7.56123E+01 0.00000E+00
 -1      2120-2.19530E-02 7.55527E+01 0.00000E+00
 -1      2121-4.52223E-02 7.53567E+01 0.00000E+00
 -1      2122-6.82093E-02 7.50258E+01 0.00000E+00
 -1      2123-9.08620E-02 7.45618E+01 0.00000E+00
 -1      2124-1.13122E-01 7.39668E+01 0.00000E+00
 -1      2125-1.34932E-01 7.32432E+01 0.00000E+00
 -1      2126-1.56241E-01 7.23938E+01 0.00000E+00
 -1      2127-1.76987E-01 7.14218E+01 0.00000E+00
 -1      2128-1.97121E-01 7.03305E+01 0.00000E+00
 -1      2129-2.16586E-01 6.91238E+01 0.00000E+00
 -1      2130-2.35333E-01 6.78055E+01 0.00000E+00
 -1      2131-2.53304E-01 6.63802E+01 0.00000E+00
 -1      2132-2.70459E-01 6.48523E+01 0.00000E+00
 -1      2133-2.86735E-01 6.32270E+01 0.00000E+00
 -1      2134-3.02094E-01 6.15094E+01 0.00000E+00
 -1      2135-3.16483E-01 5.97050E+01 0.00000E+00
 -1      2136-3.29858E-01 5.78197E+01 0.00000E+00
 -1      2137-3.42176E-01 5.58593E+01 0.00000E+00
 -1      2138-3.53390E-01 5.38304E+01 0.00000E+00
 -1      2139-3.63463E-01 5.17393E+01 0.00000E+00
 -1      2140-3.72353E-01 4.95930E+01 0.00000E+00
 -1      2141-3.80021E-01 4.73983E+01 0.00000E+00
 -1      2142-3.86432E-01 4.51626E+01 0.00000E+00
 -1      2143-3.91550E-01 4.28932E+01 0.00000E+00
 -1      2144-3.95341E-01 4.05978E+01 0.00000E+00
 -1      2145-3.97775E-01 3.82843E+01 0.00000E+00
 -1      2146-3.98821E-01 3.59606E+01 0.00000E+00
 -1      2147-3.98451E-01 3.36349E+01 0.00000E+00
 -1      2148-3.96640E-01 3.13157E+01 0.00000E+00
 -1      2149-3.93360E-01 2.90112E+01 0.00000E+00
 -1      2150-3.88593E-01 2.67302E+01 0.00000E+00
 -1      2151-3.82313E-01 2.44815E+01 0.00000E+00
 -1      2152-3.74507E-01 2.22738E+01 0.00000E+00
 -1      2153-3.65147E-01 2.01162E+01 0.00000E+00
 -1      2154-3.54231E-01 1.80177E+01 0.00000E+00
 -1      2155-3.41729E-01 1.59875E+01 0.00000E+00
 -1      2156-3.27645E-01 1.40349E+01 0.00000E+00
 -1      2157-3.11948E-01 1.21691E+01 0.00000E+00
 -1      2158-2.94653E-01 1.03996E+01 0.00000E+00
 -1      2159-2.75715E-01 8.73569E+00 0.00000E+00
 -1      2160-2.55180E-01 7.18696E+00 0.00000E+00
 -1      2161-2.32972E-01 5.76290E+00 0.00000E+00
 -1      2162-2.09174E-01 4.47302E+00 0.00000E+00
 -1      2163-1.83671E-01 3.32695E+00 0.00000E+00
 -1      2164-1.56597E-01 2.33423E+00 0.00000E+00
 -1      2165-1.27802E-01 1.50445E+00 0.00000E+00
 -1      2166-9.73682E-02 8.47469E-01 0.00000E+00
 -1      2167-6.55740E-02 3.71833E-01 0.00000E+00
 -1      2168-3.06542E-02 9.13776E-02 0.00000E+00
 -1      2169 0.00000E+00 0.00000E+00 0.00000E+00
 -1      2170 7.85840E-01-1.00004E+02 0.00000E+00
 -1      2171 7.85826E-01-9.54200E+01 0.00000E+00
 -1      2172 7.85738E-01-9.08360E+01 0.00000E+00
 -1      2173 7.85506E-01-8.62530E+01 0.00000E+00
 -1      2174 7.85063E-01-8.16721E+01 0.00000E+00
 -1      2175 7.84345E-01-7.70944E+01 0.00000E+00
 -1      2176 7.83293E-01-7.25221E+01 0.00000E+00
 -1      2177 7.81849E-01-6.79568E+01 0.00000E+00
 -1      2178 7.79961E-01-6.34014E+01 0.00000E+00
 -1      2179 7.77579E-01-5.88583E+01 0.00000E+00
 -1      2180 7.74657E-01-5.43309E+01 0.00000E+00
 -1      2181 7.71150E-01-4.98220E+01 0.00000E+00
 -1      2182 7.67024E-01-4.53355E+01 0.00000E+00
 -1      2183 7.62235E-01-4.08749E+01 0.00000E+00
 -1      2184 7.56760E-01-3.64444E+01 0.00000E+00
 -1      2185 7.50560E-01-3.20477E+01 0.00000E+00
 -1      2186 7.43614E-01-2.76893E+01 0.00000E+00
 -1      2187 7.35904E-01-2.33740E+01 0.00000E+00
 -1      2188 7.27397E-01-1.91057E+01 0.00000E+00
 -1      2189 7.18096E-01-1.48895E+01 0.00000E+00
 -1      2190 7.07968E-01-1.07298E+01 0.00000E+00
 -1      2191 6.97021E-01-6.63185E+00 0.00000E+00
 -1      2192 6.85235E-01-2.59994E+00 0.00000E+00
 -1      2193 6.72615E-01 1.36058E+00 0.00000E+00
 -1      2194 6.59157E-01 5.24523E+00 0.00000E+00
 -1      2195 6.44862E-01 9.04884E+00 0.00000E+00
 -1      2196 6.29741E-01 1.27666E+01 0.00000E+00
 -1      2197 6.13796E-01 1.63938E+01 0.00000E+00
 -1      2198 5.97043E-01 1.99257E+01 0.00000E+00
 -1      2199 5.79490E-01 2.33574E+01 0.00000E+00
 -1      2200 5.61161E-01 2.66845E+01 0.00000E+00
 -1      2201 5.42068E-01 2.99025E+01 0.00000E+00
 -1      2202 5.22236E-01 3.30069E+01 0.00000E+00
 -1      2203 5.01690E-01 3.59935E+01 0.00000E+00
 -1      2204 4.80450E-01 3.88582E+01 0.00000E+00
 -1      2205 4.58553E-01 4.15972E+01 0.00000E+00
 -1      2206 4.36020E-01 4.42065E+01 0.00000E+00
 -1      2207 4.12891E-01 4.66827E+01 0.00000E+00
 -1      2208 3.89199E-01 4.90223E+01 0.00000E+00
 -1      2209 3.64975E-01 5.12221E+01 0.00000E+00
 -1      2210 3.40266E-01 5.32791E+01 0.00000E+00
 -1      2211 3.15102E-01 5.51907E+01 0.00000E+00
 -1      2212 2.89531E-01 5.69543E+01 0.00000E+00
 -1      2213 2.63591E-01 5.85677E+01 0.00000E+00
 -1      2214 2.37331E-01 6.00288E+01 0.00000E+00
 -1      2215 2.10786E-01 6.13359E+01 0.00000E+00
 -1      2216 1.84015E-01 6.24874E+01 0.00000E+00
 -1      2217 1.57055E-01 6.34823E+01 0.00000E+00
 -1      2218 1.29956E-01 6.43194E+01 0.00000E+00
 -1      2219 1.02771E-01 6.49983E+01 0.00000E+00
 -1      2220 7.55376E-02 6.55183E+01 0.00000E+00
 -1      2221 4.83210E-02 6.58796E+01 0.00000E+00
 -1      2222 2.11580E-02 6.60822E+01 0.00000E+00
 -1      2223-5.89614E-03 6.61267E+01 0.00000E+00
 -1      2224-3.27895E-02 6.60139E+01 0.00000E+00
 -1      2225-5.94799E-02 6.57447E+01 0.00000E+00
 -1      2226-8.59073E-02 6.53206E+01 0.00000E+00
 -1      2227-1.12031E-01 6.47432E+01 0.00000E+00
 -1      2228-1.37794E-01 6.40145E+01 0.00000E+00
 -1      2229-1.63156E-01 6.31366E+01 0.00000E+00
 -1      2230-1.88060E-01 6.21122E+01 0.00000E+00
 -1      2231-2.12468E-01 6.09438E+01 0.00000E+00
 -1      2232-2.36324E-01 5.96348E+01 0.00000E+00
 -1      2233-2.59588E-01 5.81882E+01 0.00000E+00
 -1      2234-2.82218E-01 5.66078E+01 0.00000E+00
 -1      2235-3.04161E-01 5.48974E+01 0.00000E+00
 -1      2236-3.25385E-01 5.30610E+01 0.00000E+00
 -1      2237-3.45843E-01 5.11031E+01 0.00000E+00
 -1      2238-3.65497E-01 4.90282E+01 0.00000E+00
 -1      2239-3.84311E-01 4.68411E+01 0.00000E+00
 -1      2240-4.02246E-01 4.45468E+01 0.00000E+00
 -1      2241-4.19270E-01 4.21505E+01 0.00000E+00
 -1      2242-4.35347E-01 3.96576E+01 0.00000E+00
 -1      2243-4.50450E-01 3.70738E+01 0.00000E+00
 -1      2244-4.64547E-01 3.44049E+01 0.00000E+00
 -1      2245-4.77612E-01 3.16567E+01 0.00000E+00
 -1      2246-4.89621E-01 2.88354E+01 0.00000E+00
 -1      2247-5.00547E-01 2.59471E+01 0.00000E+00
 -1      2248-5.10376E-01 2.29983E+01 0.00000E+00
 -1      2249-5.19083E-01 1.99955E+01 0.00000E+00
 -1      2250-5.26656E-01 1.69451E+01 0.00000E+00
 -1      2251-5.33079E-01 1.38540E+01 0.00000E+00
 -1      2252-5.38341E-01 1.07288E+01 0.00000E+00
 -1      2253-5.42432E-01 7.57626E+00 0.00000E+00
 -1      2254-5.45347E-01 4.40332E+00 0.00000E+00
 -1      2255-5.47079E-01 1.21682E+00 0.00000E+00
 -1      2256-5.47627E-01-1.97633E+00 0.00000E+00
 -1      2257-5.46992E-01-5.16922E+00 0.00000E+00
 -1      2258-5.45175E-01-8.35497E+00 0.00000E+00
 -1      2259-5.42183E-01-1.15267E+01 0.00000E+00
 -1      2260-5.38022E-01-1.46775E+01 0.00000E+00
 -1      2261-5.32704E-01-1.78007E+01 0.00000E+00
 -1      2262-5.26237E-01-2.08896E+01 0.00000E+00
 -1      2263-5.18641E-01-2.39374E+01 0.00000E+00
 -1      2264-5.09930E-01-2.69377E+01 0.00000E+00
 -1      2265-5.00123E-01-2.98839E+01 0.00000E+00
 -1      2266-4.89242E-01-3.27698E+01 0.00000E+00
 -1      2267-4.77311E-01-3.55891E+01 0.00000E+00
 -1      2268-4.64357E-01-3.83359E+01 0.00000E+00
 -1      2269-4.50405E-01-4.10041E+01 0.00000E+00
 -1      2270-4.35488E-01-4.35882E+01 0.00000E+00
 -1      2271-4.19635E-01-4.60825E+01 0.00000E+00
 -1      2272-4.02884E-01-4.84817E+01 0.00000E+00
 -1      2273-3.85266E-01-5.07807E+01 0.00000E+00
 -1      2274-3.66823E-01-5.29744E+01 0.00000E+00
 -1      2275-3.47593E-01-5.50583E+01 0.00000E+00
 -1      2276-3.27611E-01-5.70279E+01 0.00000E+00
 -1      2277-3.06930E-01-5.88788E+01 0.00000E+00
 -1      2278-2.85585E-01-6.06071E+01 0.00000E+00
 -1      2279-2.63627E-01-6.22091E+01 0.00000E+00
 -1      2280-2.41098E-01-6.36813E+01 0.00000E+00
 -1      2281-2.18049E-01-6.50206E+01 0.00000E+00
 -1      2282-1.94528E-01-6.62240E+01 0.00000E+00
 -1      2283-1.70581E-01-6.72890E+01 0.00000E+00
 -1      2284-1.46264E-01-6.82132E+01 0.00000E+00
 -1      2285-1.21626E-01-6.89946E+01 0.00000E+00
 -1      2286-9.67168E-02-6.96315E+01 0.00000E+00
 -1      2287-7.15933E-02-7.01225E+01 0.00000E+00
 -1      2288-4.63011E-02-7.04663E+01 0.00000E+00
 -1      2289-2.09057E-02-7.06624E+01 0.00000E+00
 -1      2290 4.55680E-03-7.07101E+01 0.00000E+00
 -1      2291 3.00151E-02-7.06092E+01 0.00000E+00
 -1      2292 5.54290E-02-7.03600E+01 0.00000E+00
 -1      2293 8.07352E-02-6.99628E+01 0.00000E+00
 -1      2294 1.05891E-01-6.94185E+01 0.00000E+00
 -1      2295 1.30834E-01-6.87280E+01 0.00000E+00
 -1      2296 1.55518E-01-6.78927E+01 0.00000E+00
 -1      2297 1.79888E-01-6.69144E+01 0.00000E+00
 -1      2298 2.03895E-01-6.57949E+01 0.00000E+00
 -1      2299 2.27490E-01-6.45366E+01 0.00000E+00
 -1      2300 2.50619E-01-6.31420E+01 0.00000E+00
 -1      2301 2.73238E-01-6.16140E+01 0.00000E+00
 -1      2302 2.95298E-01-5.99556E+01 0.00000E+00
 -1      2303 3.16755E-01-5.81703E+01 0.00000E+00
 -1      2304 3.37561E-01-5.62617E+01 0.00000E+00
 -1      2305 3.57674E-01-5.42338E+01 0.00000E+00
 -1      2306 3.77054E-01-5.20907E+01 0.00000E+00
 -1      2307 3.95658E-01-4.98367E+01 0.00000E+00
 -1      2308 4.13451E-01-4.74767E+01 0.00000E+00
 -1      2309 4.30391E-01-4.50153E+01 0.00000E+00
 -1      2310 4.46449E-01-4.24576E+01 0.00000E+00
 -1      2311 4.61586E-01-3.98090E+01 0.00000E+00
 -1      2312 4.75776E-01-3.70748E+01 0.00000E+00
 -1      2313 4.88987E-01-3.42607E+01 0.00000E+00
 -1      2314 5.01192E-01-3.13724E+01 0.00000E+00
 -1      2315 5.12368E-01-2.84160E+01 0.00000E+00
 -1      2316 5.22490E-01-2.53974E+01 0.00000E+00
 -1      2317 5.31541E-01-2.23228E+01 0.00000E+00
 -1      2318 5.39499E-01-1.91987E+01 0.00000E+00
 -1      2319 5.46351E-01-1.60314E+01 0.00000E+00
 -1      2320 5.52083E-01-1.28274E+01 0.00000E+00
 -1      2321 5.56683E-01-9.59327E+00 0.00000E+00
 -1      2322 5.60144E-01-6.33561E+00 0.00000E+00
 -1      2323 5.62459E-01-3.06110E+00 0.00000E+00
 -1      2324 5.63625E-01 2.23568E-01 0.00000E+00
 -1      2325 5.63641E-01 3.51168E+00 0.00000E+00
 -1      2326 5.62508E-01 6.79654E+00 0.00000E+00
 -1      2327 5.60230E-01 1.00714E+01 0.00000E+00
 -1      2328 5.56814E-01 1.33297E+01 0.00000E+00
 -1      2329 5.52267E-01 1.65648E+01 0.00000E+00
 -1      2330 5.46604E-01 1.97701E+01 0.00000E+00
 -1      2331 5.39833E-01 2.29392E+01 0.00000E+00
 -1      2332 5.31976E-01 2.60655E+01 0.00000E+00
 -1      2333 5.23049E-01 2.91429E+01 0.00000E+00
 -1      2334 5.13072E-01 3.21652E+01 0.00000E+00
 -1      2335 5.02070E-01 3.51262E+01 0.00000E+00
 -1      2336 4.90066E-01 3.80202E+01 0.00000E+00
 -1      2337 4.77092E-01 4.08413E+01 0.00000E+00
 -1      2338 4.63173E-01 4.35839E+01 0.00000E+00
 -1      2339 4.48343E-01 4.62427E+01 0.00000E+00
 -1      2340 4.32638E-01 4.88124E+01 0.00000E+00
 -1      2341 4.16089E-01 5.12881E+01 0.00000E+00
 -1      2342 3.98739E-01 5.36648E+01 0.00000E+00
 -1      2343 3.80625E-01 5.59381E+01 0.00000E+00
 -1      2344 3.61790E-01 5.81037E+01 0.00000E+00
 -1      2345 3.42274E-01 6.01574E+01 0.00000E+00
 -1      2346 3.22125E-01 6.20954E+01 0.00000E+00
 -1      2347 3.01390E-01 6.39141E+01 0.00000E+00
 -1      2348 2.80112E-01 6.56102E+01 0.00000E+00
 -1      2349 2.58345E-01 6.71809E+01 0.00000E+00
 -1      2350 2.36135E-01 6.86232E+01 0.00000E+00
 -1      2351 2.13539E-01 6.99348E+01 0.00000E+00
 -1      2352 1.90600E-01 7.11136E+01 0.00000E+00
 -1      2353 1.67383E-01 7.21578E+01 0.00000E+00
 -1      2354 1.43934E-01 7.30659E+01 0.00000E+00
 -1      2355 1.20310E-01 7.38366E+01 0.00000E+00
 -1      2356 9.65685E-02 7.44692E+01 0.00000E+00
 -1      2357 7.27612E-02 7.49631E+01 0.00000E+00
 -1      2358 4.89524E-02 7.53181E+01 0.00000E+00
 -1      2359 2.51873E-02 7.55344E+01 0.00000E+00
 -1      2360 1.53471E-03 7.56123E+01 0.00000E+00
 -1      2361-2.19530E-02 7.55527E+01 0.00000E+00
 -1      2362-4.52223E-02 7.53567E+01 0.00000E+00
 -1      2363-6.82093E-02 7.50258E+01 0.00000E+00
 -1      2364-9.08620E-02 7.45618E+01 0.00000E+00
 -1      2365-1.13122E-01 7.39668E+01 0.00000E+00
 -1      2366-1.34932E-01 7.32432E+01 0.00000E+00
 -1      2367-1.56241E-01 7.23938E+01 0.00000E+00
 -1      2368-1.76987E-01 7.14218E+01 0.00000E+00
 -1      2369-1.97121E-01 7.03305E+01 0.00000E+00
 -1      2370-2.16586E-01 6.91238E+01 0.00000E+00
 -1      2371-2.35333E-01 6.78055E+01 0.00000E+00
 -1      2372-2.53304E-01 6.63802E+01 0.00000E+00
 -1      2373-2.70459E-01 6.48523E+01 0.00000E+00
 -1      2374-2.86735E-01 6.32270E+01 0.00000E+00
 -1      2375-3.02094E-01 6.15094E+01 0.00000E+00
 -1      2376-3.16483E-01 5.97050E+01 0.00000E+00
 -1      2377-3.29858E-01 5.78197E+01 0.00000E+00
 -1      2378-3.42176E-01 5.58593E+01 0.00000E+00
 -1      2379-3.53390E-01 5.38304E+01 0.00000E+00
 -1      2380-3.63463E-01 5.17393E+01 0.00000E+00
 -1      2381-3.72353E-01 4.95930E+01 0.00000E+00
 -1      2382-3.80021E-01 4.73983E+01 0.00000E+00
 -1      2383-3.86432E-01 4.51626E+01 0.00000E+00
 -1      2384-3.91550E-01 4.28932E+01 0.00000E+00
 -1      2385-3.95341E-01 4.05978E+01 0.00000E+00
 -1      2386-3.97775E-01 3.82843E+01 0.00000E+00
 -1      2387-3.98821E-01 3.59606E+01 0.00000E+00
 -1      2388-3.98451E-01 3.36349E+01 0.00000E+00
 -1      2389-3.96640E-01 3.13157E+01 0.00000E+00
 -1      2390-3.93360E-01 2.90112E+01 0.00000E+00
 -1      2391-3.88593E-01 2.67302E+01 0.00000E+00
 -1      2392-3.82313E-01 2.44815E+01 0.00000E+00
 -1      2393-3.74507E-01 2.22738E+01 0.00000E+00
 -1      2394-3.65147E-01 2.01162E+01 0.00000E+00
 -1      2395-3.54231E-01 1.80177E+01 0.00000E+00
 -1      2396-3.41729E-01 1.59875E+01 0.00000E+00
 -1      2397-3.27645E-01 1.40349E+01 0.00000E+00
 -1      2398-3.11948E-01 1.21691E+01 0.00000E+00
 -1      2399-2.94653E-01 1.03996E+01 0.00000E+00
 -1      2400-2.75715E-01 8.73569E+00 0.00000E+00
 -1      2401-2.55180E-01 7.18696E+00 0.00000E+00
 -1      2402-2.32972E-01 5.76290E+00 0.00000E+00
 -1      2403-2.09174E-01 4.47302E+00 0.00000E+00
 -1      2404-1.83671E-01 3.32695E+00 0.00000E+00
 -1      2405-1.56597E-01 2.33423E+00 0.00000E+00
 -1      2406-1.27802E-01 1.50445E+00 0.00000E+00
 -1      2407-9.73682E-02 8.47469E-01 0.00000E+00
 -1      2408-6.55740E-02 3.71833E-01 0.00000E+00
 -1      2409-3.06542E-02 9.13776E-02 0.00000E+00
 -1      2410 0.00000E+00 0.00000E+00 0.00000E+00
 -3
    1PSTEP                        14           1           1          
    1PGM                1.000000E+00                                  
    1PGK                8.100383E+06                                  
    1PHID                         -1                                  
    1PSUBC                         0                                  
    1PMODE                         4                                  
  100CL  104 452.9736312        2410                     2    4MODAL      1
 -4  STRESS      6    1
 -5  SXX         1    4    1    1
 -5  SYY         1    4    2    2
 -5  SZZ         1    4    3    3
 -5  SXY         1    4    1    2
 -5  SYZ         1    4    2    3
 -5  SZX         1    4    3    1
 -1         1-4.59252E+08-2.28727E+08-2.61432E+08 2.10190E+07 8.92461E+10 5.38332E+08
 -1         2-1.90650E+09-2.11932E+08-8.05006E+08-1.03606E+08 8.71527E+10 5.38316E+08
 -1         3-6.10487E+09-2.13586E+08-2.40101E+09-1.98795E+08 8.29661E+10 5.38245E+08
 -1         4-1.29414E+10-1.90285E+08-4.99005E+09-2.92250E+08 7.87803E+10 5.38075E+08
 -1         5-2.22978E+10-1.85486E+08-8.54364E+09-3.78757E+08 7.45965E+10 5.37762E+08
 -1         6-3.40257E+10-1.83527E+08-1.29995E+10-4.62054E+08 7.04158E+10 5.37262E+08
 -1         7-4.80131E+10-1.58255E+08-1.83051E+10-5.39628E+08 6.62398E+10 5.36532E+08
 -1         8-6.40965E+10-1.55455E+08-2.44158E+10-6.11829E+08 6.20705E+10 5.35535E+08
 -1         9-8.21764E+10-1.53366E+08-3.12853E+10-6.81993E+08 5.79102E+10 5.34234E+08
 -1        10-1.02093E+11-9.87089E+07-3.88330E+10-7.43523E+08 5.37612E+10 5.32595E+08
 -1        11-1.23723E+11-1.83485E+08-4.70846E+10-8.05476E+08 4.96265E+10 5.30588E+08
 -1        12-1.46955E+11-6.34737E+07-5.58669E+10-8.55649E+08 4.55088E+10 5.28179E+08
 -1        13-1.71612E+11-1.26288E+08-6.52606E+10-9.08300E+08 4.14116E+10 5.25346E+08
 -1        14-1.97604E+11-1.05941E+08-7.51299E+10-9.50103E+08 3.73381E+10 5.22062E+08
 -1        15-2.24800E+11 2.16456E+07-8.54159E+10-9.96119E+08 3.32919E+10 5.18305E+08
 -1        16-2.53027E+11-2.52013E+08-9.62460E+10-1.02787E+09 2.92769E+10 5.14056E+08
 -1        17-2.82212E+11 6.18986E+07-1.07217E+11-1.05568E+09 2.52970E+10 5.09294E+08
 -1        18-3.12210E+11-9.47692E+07-1.18676E+11-1.08919E+09 2.13561E+10 5.04007E+08
 -1        19-3.42859E+11-4.50692E+07-1.30303E+11-1.10160E+09 1.74584E+10 4.98180E+08
 -1        20-3.74099E+11 4.04350E+07-1.42142E+11-1.13339E+09 1.36081E+10 4.91803E+08
 -1        21-4.05741E+11-1.54954E+08-1.54240E+11-1.13254E+09 9.80966E+09 4.84867E+08
 -1        22-4.37717E+11 7.11631E+07-1.66305E+11-1.15102E+09 6.06736E+09 4.77364E+08
 -1        23-4.69902E+11-3.54916E+07-1.78576E+11-1.14929E+09 2.38560E+09 4.69291E+08
 -1        24-5.02115E+11 4.33142E+07-1.90787E+11-1.15376E+09-1.23115E+09 4.60645E+08
 -1        25-5.34335E+11-1.68101E+07-2.03054E+11-1.15283E+09-4.77843E+09 4.51426E+08
 -1        26-5.66377E+11-1.12179E+07-2.15227E+11-1.13817E+09-8.25178E+09 4.41636E+08
 -1        27-5.98168E+11 5.77209E+07-2.27282E+11-1.13202E+09-1.16467E+10 4.31277E+08
 -1        28-6.29593E+11 7.74846E+07-2.39216E+11-1.11413E+09-1.49590E+10 4.20356E+08
 -1        29-6.60513E+11 9.15945E+06-2.50991E+11-1.09987E+09-1.81841E+10 4.08881E+08
 -1        30-6.90872E+11 6.21336E+06-2.62529E+11-1.07084E+09-2.13178E+10 3.96861E+08
 -1        31-7.20569E+11 1.22905E+08-2.73769E+11-1.04859E+09-2.43560E+10 3.84306E+08
 -1        32-7.49464E+11 3.41012E+07-2.84784E+11-1.01615E+09-2.72945E+10 3.71230E+08
 -1        33-7.77485E+11 1.42643E+08-2.95390E+11-9.86830E+08-3.01293E+10 3.57648E+08
 -1        34-8.04565E+11 1.96285E+07-3.05727E+11-9.53074E+08-3.28566E+10 3.43576E+08
 -1        35-8.30588E+11 9.73426E+07-3.15586E+11-9.07410E+08-3.54725E+10 3.29032E+08
 -1        36-8.55477E+11 1.23368E+08-3.25034E+11-8.72376E+08-3.79736E+10 3.14035E+08
 -1        37-8.79154E+11-5.21728E+06-3.34080E+11-8.19437E+08-4.03563E+10 2.98605E+08
 -1        38-9.01559E+11 2.61095E+08-3.42493E+11-7.78031E+08-4.26174E+10 2.82766E+08
 -1        39-9.22590E+11 3.55403E+07-3.50571E+11-7.28751E+08-4.47538E+10 2.66540E+08
 -1        40-9.42181E+11 5.71785E+07-3.58007E+11-6.72164E+08-4.67626E+10 2.49953E+08
 -1        41-9.60305E+11 1.99654E+08-3.64840E+11-6.17874E+08-4.86411E+10 2.33031E+08
 -1        42-9.76878E+11 1.06730E+08-3.71173E+11-5.65368E+08-5.03867E+10 2.15800E+08
 -1        43-9.91832E+11 1.17720E+08-3.76851E+11-5.03388E+08-5.19972E+10 1.98288E+08
 -1        44-1.00512E+12 2.01955E+08-3.81868E+11-4.45240E+08-5.34705E+10 1.80525E+08
 -1        45-1.01672E+12 8.58761E+07-3.86321E+11-3.89080E+08-5.48048E+10 1.62541E+08
 -1        46-1.02657E+12 6.69310E+07-3.90071E+11-3.14328E+08-5.59984E+10 1.44367E+08
 -1        47-1.03462E+12 2.43190E+08-3.93063E+11-2.55633E+08-5.70500E+10 1.26032E+08
 -1        48-1.04085E+12 6.51489E+07-3.95499E+11-1.87866E+08-5.79585E+10 1.07571E+08
 -1        49-1.04526E+12 3.18979E+08-3.97079E+11-1.27593E+08-5.87231E+10 8.90152E+07
 -1        50-1.04777E+12 3.10198E+07-3.98142E+11-6.17741E+07-5.93430E+10 7.03978E+07
 -1        51-1.04837E+12 2.75588E+06-3.98381E+11 1.89262E+07-5.98181E+10 5.17529E+07
 -1        52-1.04712E+12 3.32580E+08-3.97779E+11 8.18265E+07-6.01481E+10 3.31134E+07
 -1        53-1.04392E+12 7.36389E+07-3.96660E+11 1.50614E+08-6.03333E+10 1.45136E+07
 -1        54-1.03878E+12 2.52768E+08-3.94639E+11 2.16144E+08-6.03740E+10-4.01187E+06
 -1        55-1.03172E+12 7.31472E+07-3.92027E+11 2.84311E+08-6.02711E+10-2.24289E+07
 -1        56-1.02276E+12 9.43808E+07-3.88611E+11 3.56953E+08-6.00255E+10-4.07032E+07
 -1        57-1.01188E+12 2.28025E+08-3.84428E+11 4.26759E+08-5.96384E+10-5.88012E+07
 -1        58-9.99070E+11 1.29389E+08-3.79597E+11 4.90764E+08-5.91114E+10-7.66886E+07
 -1        59-9.84391E+11 1.31911E+08-3.74018E+11 5.58803E+08-5.84462E+10-9.43315E+07
 -1        60-9.67876E+11 2.08214E+08-3.67714E+11 6.22382E+08-5.76448E+10-1.11697E+08
 -1        61-9.49482E+11 1.04048E+08-3.60763E+11 6.88295E+08-5.67095E+10-1.28752E+08
 -1        62-9.29278E+11 4.29008E+07-3.53109E+11 7.57121E+08-5.56429E+10-1.45463E+08
 -1        63-9.07338E+11 2.97532E+08-3.44676E+11 8.15995E+08-5.44477E+10-1.61800E+08
 -1        64-8.83641E+11 3.02851E+07-3.35772E+11 8.75756E+08-5.31271E+10-1.77731E+08
 -1        65-8.58237E+11 1.55113E+08-3.26071E+11 9.39917E+08-5.16842E+10-1.93225E+08
 -1        66-8.31185E+11 1.34033E+08-3.15799E+11 9.95512E+08-5.01226E+10-2.08252E+08
 -1        67-8.02558E+11 4.96829E+07-3.04953E+11 1.05214E+09-4.84461E+10-2.22784E+08
 -1        68-7.72380E+11 2.04376E+08-2.93427E+11 1.10959E+09-4.66585E+10-2.36793E+08
 -1        69-7.40680E+11 5.48836E+07-2.81438E+11 1.15778E+09-4.47641E+10-2.50252E+08
 -1        70-7.07602E+11 1.80595E+08-2.68820E+11 1.20634E+09-4.27672E+10-2.63135E+08
 -1        71-6.73130E+11 5.58285E+07-2.55768E+11 1.25548E+09-4.06725E+10-2.75417E+08
 -1        72-6.37354E+11 5.16896E+07-2.42175E+11 1.30206E+09-3.84847E+10-2.87073E+08
 -1        73-6.00374E+11 1.49825E+08-2.28085E+11 1.34531E+09-3.62087E+10-2.98083E+08
 -1        74-5.62230E+11 5.24732E+07-2.13627E+11 1.38203E+09-3.38496E+10-3.08424E+08
 -1        75-5.23007E+11 1.28388E+08-1.98694E+11 1.42122E+09-3.14128E+10-3.18077E+08
 -1        76-4.82771E+11 3.02105E+07-1.83441E+11 1.45316E+09-2.89037E+10-3.27024E+08
 -1        77-4.41618E+11 6.71702E+07-1.67789E+11 1.48852E+09-2.63277E+10-3.35247E+08
 -1        78-3.99644E+11 7.18833E+07-1.51838E+11 1.51318E+09-2.36907E+10-3.42730E+08
 -1        79-3.56894E+11 2.34761E+07-1.35611E+11 1.54329E+09-2.09984E+10-3.49459E+08
 -1        80-3.13471E+11 6.88758E+07-1.19093E+11 1.56267E+09-1.82567E+10-3.55422E+08
 -1        81-2.69484E+11 4.75416E+07-1.02386E+11 1.58123E+09-1.54717E+10-3.60608E+08
 -1        82-2.24992E+11 2.27470E+07-8.54884E+10 1.59805E+09-1.26494E+10-3.65007E+08
 -1        83-1.80094E+11 9.08898E+06-6.84323E+10 1.61140E+09-9.79596E+09-3.68610E+08
 -1        84-1.34893E+11 3.47961E+07-5.12463E+10 1.62041E+09-6.91762E+09-3.71412E+08
 -1        85-8.94659E+10 5.27791E+06-3.39950E+10 1.62618E+09-4.02061E+09-3.73408E+08
 -1        86-4.39113E+10 2.41795E+06-1.66854E+10 1.62909E+09-1.11122E+09-3.74594E+08
 -1        87 1.67799E+09-3.88567E+06 6.36160E+08 1.62936E+09 1.80423E+09-3.74970E+08
 -1        88 4.72118E+10-9.01609E+06 1.79371E+10 1.62530E+09 4.71944E+09-3.74536E+08
 -1        89 9.25933E+10-2.42356E+07 3.51762E+10 1.61783E+09 7.62814E+09-3.73292E+08
 -1        90 1.37731E+11-1.48157E+07 5.23321E+10 1.60727E+09 1.05240E+10-3.71243E+08
 -1        91 1.82533E+11-7.21370E+07 6.93350E+10 1.59391E+09 1.34009E+10-3.68395E+08
 -1        92 2.26910E+11-1.05420E+07 8.62218E+10 1.58031E+09 1.62525E+10-3.64754E+08
 -1        93 2.70769E+11-1.56841E+07 1.02886E+11 1.55538E+09 1.90727E+10-3.60327E+08
 -1        94 3.14015E+11-1.00215E+08 1.19288E+11 1.53263E+09 2.18555E+10-3.55125E+08
 -1        95 3.56562E+11-3.41722E+07 1.35481E+11 1.50650E+09 2.45949E+10-3.49161E+08
 -1        96 3.98340E+11-1.08677E+08 1.51328E+11 1.47815E+09 2.72849E+10-3.42446E+08
 -1        97 4.39231E+11-5.22208E+07 1.66888E+11 1.44554E+09 2.99198E+10-3.34996E+08
 -1        98 4.79162E+11-4.30336E+07 1.82065E+11 1.40805E+09 3.24940E+10-3.26827E+08
 -1        99 5.18085E+11-1.29658E+08 1.96823E+11 1.37030E+09 3.50019E+10-3.17957E+08
 -1       100 5.55871E+11-8.64322E+07 2.11198E+11 1.32791E+09 3.74382E+10-3.08404E+08
 -1       101 5.92456E+11-8.29386E+07 2.25102E+11 1.28535E+09 3.97975E+10-2.98190E+08
 -1       102 6.27789E+11-1.58946E+08 2.38499E+11 1.23776E+09 4.20750E+10-2.87336E+08
 -1       103 6.61771E+11-7.62092E+07 2.51444E+11 1.19287E+09 4.42656E+10-2.75866E+08
 -1       104 6.94347E+11-5.17093E+07 2.63832E+11 1.13459E+09 4.63646E+10-2.63804E+08
 -1       105 7.25433E+11-2.43406E+08 2.75572E+11 1.08194E+09 4.83676E+10-2.51175E+08
 -1       106 7.54979E+11-3.91977E+07 2.86877E+11 1.03082E+09 5.02703E+10-2.38007E+08
 -1       107 7.82947E+11-1.55271E+08 2.97461E+11 9.67325E+08 5.20686E+10-2.24327E+08
 -1       108 8.09218E+11-1.49220E+08 3.07446E+11 9.08596E+08 5.37586E+10-2.10165E+08
 -1       109 8.33773E+11-5.54675E+07 3.16813E+11 8.44208E+08 5.53366E+10-1.95551E+08
 -1       110 8.56608E+11-2.30269E+08 3.25423E+11 7.81850E+08 5.67994E+10-1.80515E+08
 -1       111 8.77594E+11-9.67139E+07 3.33449E+11 7.14151E+08 5.81436E+10-1.65089E+08
 -1       112 8.96730E+11-2.30327E+08 3.40670E+11 6.51568E+08 5.93665E+10-1.49307E+08
 -1       113 9.13963E+11-8.74612E+07 3.47273E+11 5.82031E+08 6.04653E+10-1.33201E+08
 -1       114 9.29300E+11-9.63198E+07 3.53097E+11 5.12219E+08 6.14377E+10-1.16806E+08
 -1       115 9.42662E+11-2.47784E+08 3.58117E+11 4.35864E+08 6.22816E+10-1.00155E+08
 -1       116 9.54007E+11-8.92923E+07 3.62489E+11 3.70589E+08 6.29951E+10-8.32839E+07
 -1       117 9.63397E+11-2.68486E+08 3.65989E+11 2.98764E+08 6.35766E+10-6.62287E+07
 -1       118 9.70724E+11-6.27260E+07 3.68851E+11 2.26412E+08 6.40249E+10-4.90248E+07
 -1       119 9.75993E+11-1.84559E+08 3.70807E+11 1.48672E+08 6.43390E+10-3.17090E+07
 -1       120 9.79256E+11-1.75957E+08 3.72051E+11 8.13028E+07 6.45180E+10-1.43171E+07
 -1       121 9.80439E+11-8.38905E+07 3.72535E+11 7.22415E+05 6.45616E+10 3.11437E+06
 -1       122 9.79557E+11-2.22277E+08 3.72147E+11-7.16701E+07 6.44696E+10 2.05485E+07
 -1       123 9.76626E+11-2.14041E+08 3.71037E+11-1.41964E+08 6.42420E+10 3.79488E+07
 -1       124 9.71623E+11-1.05682E+08 3.69177E+11-2.13035E+08 6.38795E+10 5.52785E+07
 -1       125 9.64626E+11-8.72381E+07 3.66525E+11-2.89556E+08 6.33825E+10 7.25012E+07
 -1       126 9.55588E+11-2.62564E+08 3.63024E+11-3.64022E+08 6.27521E+10 8.95814E+07
 -1       127 9.44518E+11-8.28440E+07 3.58885E+11-4.31494E+08 6.19895E+10 1.06483E+08
 -1       128 9.31525E+11-2.48606E+08 3.53885E+11-4.98936E+08 6.10962E+10 1.23170E+08
 -1       129 9.16549E+11-8.97023E+07 3.48254E+11-5.70533E+08 6.00742E+10 1.39609E+08
 -1       130 8.99647E+11-8.65246E+07 3.41833E+11-6.38985E+08 5.89253E+10 1.55764E+08
 -1       131 8.80894E+11-2.13953E+08 3.34659E+11-7.09016E+08 5.76520E+10 1.71602E+08
 -1       132 8.60293E+11-1.52243E+08 3.26854E+11-7.67175E+08 5.62569E+10 1.87090E+08
 -1       133 8.37904E+11-1.70576E+08 3.18339E+11-8.30892E+08 5.47428E+10 2.02196E+08
 -1       134 8.13735E+11-2.01035E+07 3.09211E+11-8.95393E+08 5.31128E+10 2.16887E+08
 -1       135 7.87908E+11-1.49461E+08 2.99348E+11-9.56380E+08 5.13702E+10 2.31134E+08
 -1       136 7.60447E+11-1.66071E+08 2.88907E+11-1.01439E+09 4.95186E+10 2.44906E+08
 -1       137 7.31368E+11-1.07702E+08 2.77879E+11-1.06657E+09 4.75619E+10 2.58176E+08
 -1       138 7.00800E+11-1.04097E+08 2.66264E+11-1.12024E+09 4.55040E+10 2.70916E+08
 -1       139 6.68789E+11-1.55180E+08 2.54081E+11-1.16957E+09 4.33492E+10 2.83098E+08
 -1       140 6.35372E+11-6.93941E+07 2.41415E+11-1.21781E+09 4.11018E+10 2.94699E+08
 -1       141 6.00649E+11-5.10052E+07 2.28227E+11-1.26567E+09 3.87666E+10 3.05694E+08
 -1       142 5.64698E+11-1.47206E+08 2.14529E+11-1.30879E+09 3.63483E+10 3.16059E+08
 -1       143 5.27590E+11-5.65912E+07 2.00463E+11-1.34593E+09 3.38519E+10 3.25776E+08
 -1       144 4.89397E+11-1.23151E+08 1.85924E+11-1.38445E+09 3.12825E+10 3.34822E+08
 -1       145 4.50194E+11-2.95403E+07 1.71063E+11-1.41739E+09 2.86454E+10 3.43180E+08
 -1       146 4.10095E+11-7.00945E+07 1.55810E+11-1.44960E+09 2.59461E+10 3.50833E+08
 -1       147 3.69171E+11-7.10851E+07 1.40258E+11-1.47781E+09 2.31900E+10 3.57765E+08
 -1       148 3.27487E+11-1.36727E+07 1.24440E+11-1.50302E+09 2.03828E+10 3.63962E+08
 -1       149 2.85169E+11-9.20723E+07 1.08329E+11-1.52431E+09 1.75303E+10 3.69411E+08
 -1       150 2.42288E+11-1.33464E+07 9.20645E+10-1.54074E+09 1.46384E+10 3.74104E+08
 -1       151 1.98940E+11-1.96505E+07 7.55898E+10-1.55816E+09 1.17130E+10 3.78029E+08
 -1       152 1.55217E+11-3.72396E+07 5.89683E+10-1.56868E+09 8.76011E+09 3.81179E+08
 -1       153 1.11218E+11-9.91282E+06 4.22589E+10-1.57617E+09 5.78570E+09 3.83549E+08
 -1       154 6.70326E+10-8.66983E+06 2.54691E+10-1.58155E+09 2.79590E+09 3.85135E+08
 -1       155 2.27560E+10 1.72711E+06 8.64794E+09-1.58309E+09-2.03170E+08 3.85934E+08
 -1       156-2.15098E+10 7.26315E+06-8.17098E+09-1.58105E+09-3.20538E+09 3.85946E+08
 -1       157-6.56778E+10 1.46795E+07-2.49520E+10-1.57548E+09-6.20463E+09 3.85170E+08
 -1       158-1.09645E+11 2.73968E+07-4.16545E+10-1.56598E+09-9.19481E+09 3.83611E+08
 -1       159-1.53319E+11 1.70501E+07-5.82547E+10-1.55445E+09-1.21698E+10 3.81273E+08
 -1       160-1.96604E+11 7.89362E+07-7.46793E+10-1.53789E+09-1.51236E+10 3.78160E+08
 -1       161-2.39410E+11 1.40289E+07-9.09704E+10-1.52362E+09-1.80503E+10 3.74283E+08
 -1       162-2.81640E+11 2.05956E+07-1.07016E+11-1.49570E+09-2.09438E+10 3.69649E+08
 -1       163-3.23193E+11 1.01499E+08-1.22775E+11-1.47046E+09-2.37983E+10 3.64268E+08
 -1       164-3.64001E+11 4.31839E+07-1.38304E+11-1.44369E+09-2.66082E+10 3.58156E+08
 -1       165-4.03955E+11 1.15855E+08-1.53459E+11-1.40983E+09-2.93677E+10 3.51326E+08
 -1       166-4.42962E+11 5.09669E+07-1.68306E+11-1.37840E+09-3.20714E+10 3.43793E+08
 -1       167-4.80951E+11 5.37246E+07-1.82741E+11-1.33606E+09-3.47138E+10 3.35575E+08
 -1       168-5.17850E+11 1.36356E+08-1.96731E+11-1.29648E+09-3.72896E+10 3.26691E+08
 -1       169-5.53541E+11 7.51174E+07-2.10317E+11-1.25113E+09-3.97939E+10 3.17161E+08
 -1       170-5.87959E+11 1.55205E+08-2.23366E+11-1.20588E+09-4.22216E+10 3.07008E+08
 -1       171-6.21044E+11 7.31736E+07-2.35969E+11-1.15948E+09-4.45680E+10 2.96254E+08
 -1       172-6.52706E+11 7.91233E+07-2.47998E+11-1.10164E+09-4.68284E+10 2.84925E+08
 -1       173-6.82863E+11 1.66016E+08-2.59425E+11-1.04779E+09-4.89986E+10 2.73045E+08
 -1       174-7.11459E+11 1.43187E+08-2.70300E+11-9.91324E+08-5.10744E+10 2.60643E+08
 -1       175-7.38449E+11 1.62817E+08-2.80549E+11-9.38463E+08-5.30518E+10 2.47746E+08
 -1       176-7.63723E+11 3.68692E+07-2.90201E+11-8.69869E+08-5.49270E+10 2.34385E+08
 -1       177-7.87236E+11 1.55340E+08-2.99091E+11-8.04800E+08-5.66966E+10 2.20589E+08
 -1       178-8.08965E+11 1.89373E+08-3.07335E+11-7.39571E+08-5.83573E+10 2.06391E+08
 -1       179-8.28830E+11 1.35967E+08-3.14904E+11-6.75470E+08-5.99061E+10 1.91823E+08
 -1       180-8.46775E+11 1.46005E+08-3.21719E+11-6.03443E+08-6.13403E+10 1.76919E+08
 -1       181-8.62754E+11 2.13232E+08-3.27766E+11-5.33795E+08-6.26574E+10 1.61713E+08
 -1       182-8.76754E+11 1.15822E+08-3.33122E+11-4.67459E+08-6.38551E+10 1.46240E+08
 -1       183-8.88714E+11 9.95124E+07-3.37673E+11-3.84327E+08-6.49316E+10 1.30536E+08
 -1       184-8.98590E+11 2.48449E+08-3.41370E+11-3.12947E+08-6.58852E+10 1.14638E+08
 -1       185-9.06367E+11 1.12465E+08-3.44377E+11-2.37289E+08-6.67145E+10 9.85834E+07
 -1       186-9.12042E+11 2.54052E+08-3.46479E+11-1.64006E+08-6.74184E+10 8.24087E+07
 -1       187-9.15536E+11 1.06215E+08-3.47864E+11-8.56056E+07-6.79962E+10 6.61525E+07
 -1       188-9.16847E+11 1.60958E+08-3.48341E+11-4.92554E+06-6.84473E+10 4.98537E+07
 -1       189-9.16035E+11 2.13867E+08-3.48012E+11 6.75062E+07-6.87717E+10 3.35502E+07
 -1       190-9.12987E+11 6.50919E+07-3.46910E+11 1.55187E+08-6.89693E+10 1.72810E+07
 -1       191-9.07733E+11 3.23484E+08-3.44815E+11 2.29270E+08-6.90407E+10 1.08556E+06
 -1       192-9.00285E+11 9.52909E+07-3.42072E+11 3.04857E+08-6.89865E+10-1.49969E+07
 -1       193-8.90652E+11 1.16016E+08-3.38404E+11 3.86203E+08-6.88078E+10-3.09271E+07
 -1       194-8.78821E+11 2.55486E+08-3.33855E+11 4.68921E+08-6.85059E+10-4.66666E+07
 -1       195-8.64781E+11 1.19284E+08-3.28571E+11 5.40470E+08-6.80825E+10-6.21761E+07
 -1       196-8.48587E+11 2.48154E+08-3.22369E+11 6.20727E+08-6.75395E+10-7.74167E+07
 -1       197-8.30247E+11 1.06094E+08-3.15453E+11 6.91148E+08-6.68791E+10-9.23502E+07
 -1       198-8.09758E+11 1.24221E+08-3.07661E+11 7.76025E+08-6.61038E+10-1.06938E+08
 -1       199-7.87160E+11 2.17655E+08-2.99038E+11 8.48468E+08-6.52166E+10-1.21143E+08
 -1       200-7.62498E+11 1.53775E+08-2.89691E+11 9.18907E+08-6.42205E+10-1.34927E+08
 -1       201-7.35780E+11 1.33275E+08-2.79546E+11 9.94457E+08-6.31190E+10-1.48255E+08
 -1       202-7.07037E+11 2.52374E+08-2.68578E+11 1.06407E+09-6.19157E+10-1.61089E+08
 -1       203-6.76325E+11 7.39988E+07-2.56975E+11 1.12899E+09-6.06146E+10-1.73395E+08
 -1       204-6.43695E+11 6.49333E+07-2.44579E+11 1.20593E+09-5.92199E+10-1.85136E+08
 -1       205-6.09164E+11 2.54778E+08-2.31385E+11 1.27312E+09-5.77363E+10-1.96281E+08
 -1       206-5.72777E+11 9.03571E+07-2.17621E+11 1.33321E+09-5.61683E+10-2.06795E+08
 -1       207-5.34628E+11 1.90775E+08-2.03086E+11 1.39574E+09-5.45212E+10-2.16645E+08
 -1       208-4.94721E+11 9.52301E+07-1.87958E+11 1.45817E+09-5.28002E+10-2.25802E+08
 -1       209-4.53124E+11 9.87808E+07-1.72150E+11 1.51759E+09-5.10107E+10-2.34234E+08
 -1       210-4.09919E+11 1.62890E+08-1.55707E+11 1.57620E+09-4.91585E+10-2.41911E+08
 -1       211-3.65135E+11 9.85722E+07-1.38714E+11 1.62786E+09-4.72497E+10-2.48805E+08
 -1       212-3.18849E+11 1.38479E+08-1.21110E+11 1.68253E+09-4.52904E+10-2.54890E+08
 -1       213-2.71108E+11 9.01351E+07-1.02987E+11 1.73131E+09-4.32870E+10-2.60138E+08
 -1       214-2.21992E+11 8.62717E+07-8.43243E+10 1.78146E+09-4.12461E+10-2.64525E+08
 -1       215-1.71569E+11 1.23918E+08-6.51490E+10 1.82632E+09-3.91745E+10-2.68026E+08
 -1       216-1.19883E+11 8.24109E+07-4.55243E+10 1.86971E+09-3.70792E+10-2.70620E+08
 -1       217-6.70212E+10 8.02160E+07-2.54376E+10 1.91077E+09-3.49673E+10-2.72283E+08
 -1       218-1.30389E+10 9.08459E+07-4.92028E+09 1.95027E+09-3.28462E+10-2.72996E+08
 -1       219 4.19818E+10 7.39287E+07 1.59812E+10 1.98474E+09-3.07233E+10-2.72739E+08
 -1       220 9.79964E+10 7.27240E+07 3.72663E+10 2.01981E+09-2.86062E+10-2.71494E+08
 -1       221 1.54903E+11 6.19551E+07 5.88866E+10 2.04828E+09-2.65027E+10-2.69246E+08
 -1       222 2.12683E+11 7.27468E+07 8.08473E+10 2.08138E+09-2.44206E+10-2.65977E+08
 -1       223 2.71213E+11 2.18273E+07 1.03069E+11 2.10227E+09-2.23680E+10-2.61673E+08
 -1       224 3.30484E+11 7.61021E+07 1.25613E+11 2.13557E+09-2.03529E+10-2.56322E+08
 -1       225 3.90361E+11 6.73555E+07 1.48363E+11 2.14668E+09-1.83835E+10-2.49911E+08
 -1       226 4.50902E+11 1.29961E+07 1.71348E+11 2.17713E+09-1.64682E+10-2.42429E+08
 -1       227 5.11869E+11 4.38921E+07 1.94527E+11 2.18071E+09-1.46153E+10-2.33866E+08
 -1       228 5.73408E+11 1.18012E+07 2.17899E+11 2.21451E+09-1.28331E+10-2.24214E+08
 -1       229 6.35227E+11-8.84087E+06 2.41383E+11 2.20907E+09-1.11304E+10-2.13464E+08
 -1       230 6.97584E+11 1.33552E+08 2.65133E+11 2.24950E+09-9.51547E+09-2.01610E+08
 -1       231 7.60005E+11-2.88012E+07 2.88791E+11 2.21477E+09-7.99710E+09-1.88645E+08
 -1       232 8.22970E+11 4.22009E+07 3.12745E+11 2.27361E+09-6.58388E+09-1.74566E+08
 -1       233 8.85795E+11-9.34590E+07 3.36567E+11 2.22094E+09-5.28453E+09-1.59367E+08
 -1       234 9.49252E+11 6.00633E+07 3.60739E+11 2.30782E+09-4.10774E+09-1.43046E+08
 -1       235 1.01220E+12 2.56908E+08 3.84735E+11 2.20703E+09-3.06229E+09-1.25600E+08
 -1       236 1.07603E+12-9.37978E+08 4.08534E+11 2.32419E+09-2.15688E+09-1.07026E+08
 -1       237 1.13929E+12 3.42488E+09 4.34233E+11 2.24024E+09-1.40036E+09-8.73233E+07
 -1       238 1.20212E+12-1.27743E+10 4.51953E+11 2.12569E+09-8.01418E+08-6.64886E+07
 -1       239 1.27003E+12 4.70615E+10 5.00495E+11 3.11135E+09-3.68955E+08-4.45347E+07
 -1       240 1.31544E+12-1.72652E+11 4.34261E+11-1.19449E+09-1.11672E+08-2.14084E+07
 -1       241 1.32660E+12 6.30735E+11 7.43789E+11 1.45952E+10-2.77700E+07-9.53400E+06
 -1       242-4.59251E+08-2.28727E+08-2.61432E+08 2.10187E+07-8.92461E+10-5.38332E+08
 -1       243-1.90650E+09-2.11932E+08-8.05006E+08-1.03606E+08-8.71527E+10-5.38315E+08
 -1       244-6.10487E+09-2.13585E+08-2.40101E+09-1.98795E+08-8.29660E+10-5.38245E+08
 -1       245-1.29414E+10-1.90284E+08-4.99005E+09-2.92250E+08-7.87803E+10-5.38075E+08
 -1       246-2.22978E+10-1.85486E+08-8.54364E+09-3.78757E+08-7.45965E+10-5.37762E+08
 -1       247-3.40257E+10-1.83527E+08-1.29995E+10-4.62054E+08-7.04158E+10-5.37262E+08
 -1       248-4.80131E+10-1.58255E+08-1.83051E+10-5.39628E+08-6.62398E+10-5.36532E+08
 -1       249-6.40965E+10-1.55456E+08-2.44158E+10-6.11829E+08-6.20705E+10-5.35535E+08
 -1       250-8.21764E+10-1.53367E+08-3.12853E+10-6.81992E+08-5.79102E+10-5.34234E+08
 -1       251-1.02093E+11-9.87096E+07-3.88330E+10-7.43523E+08-5.37612E+10-5.32595E+08
 -1       252-1.23723E+11-1.83485E+08-4.70846E+10-8.05477E+08-4.96265E+10-5.30588E+08
 -1       253-1.46955E+11-6.34741E+07-5.58669E+10-8.55649E+08-4.55088E+10-5.28179E+08
 -1       254-1.71612E+11-1.26288E+08-6.52606E+10-9.08300E+08-4.14116E+10-5.25346E+08
 -1       255-1.97604E+11-1.05941E+08-7.51299E+10-9.50103E+08-3.73381E+10-5.22062E+08
 -1       256-2.24800E+11 2.16460E+07-8.54159E+10-9.96119E+08-3.32919E+10-5.18305E+08
 -1       257-2.53027E+11-2.52012E+08-9.62460E+10-1.02787E+09-2.92769E+10-5.14056E+08
 -1       258-2.82212E+11 6.18993E+07-1.07217E+11-1.05568E+09-2.52970E+10-5.09294E+08
 -1       259-3.12210E+11-9.47685E+07-1.18676E+11-1.08919E+09-2.13561E+10-5.04007E+08
 -1       260-3.42859E+11-4.50681E+07-1.30303E+11-1.10160E+09-1.74584E+10-4.98180E+08
 -1       261-3.74099E+11 4.04361E+07-1.42142E+11-1.13339E+09-1.36081E+10-4.91803E+08
 -1       262-4.05741E+11-1.54953E+08-1.54240E+11-1.13254E+09-9.80966E+09-4.84867E+08
 -1       263-4.37717E+11 7.11642E+07-1.66305E+11-1.15102E+09-6.06736E+09-4.77364E+08
 -1       264-4.69902E+11-3.54907E+07-1.78576E+11-1.14929E+09-2.38560E+09-4.69291E+08
 -1       265-5.02115E+11 4.33152E+07-1.90787E+11-1.15376E+09 1.23115E+09-4.60645E+08
 -1       266-5.34335E+11-1.68092E+07-2.03054E+11-1.15283E+09 4.77843E+09-4.51426E+08
 -1       267-5.66377E+11-1.12168E+07-2.15227E+11-1.13817E+09 8.25177E+09-4.41636E+08
 -1       268-5.98168E+11 5.77217E+07-2.27282E+11-1.13202E+09 1.16467E+10-4.31277E+08
 -1       269-6.29593E+11 7.74853E+07-2.39216E+11-1.11413E+09 1.49590E+10-4.20356E+08
 -1       270-6.60513E+11 9.16000E+06-2.50991E+11-1.09987E+09 1.81841E+10-4.08881E+08
 -1       271-6.90872E+11 6.21386E+06-2.62529E+11-1.07084E+09 2.13178E+10-3.96861E+08
 -1       272-7.20569E+11 1.22906E+08-2.73769E+11-1.04859E+09 2.43560E+10-3.84306E+08
 -1       273-7.49464E+11 3.41014E+07-2.84784E+11-1.01615E+09 2.72945E+10-3.71230E+08
 -1       274-7.77485E+11 1.42643E+08-2.95390E+11-9.86830E+08 3.01293E+10-3.57648E+08
 -1       275-8.04565E+11 1.96284E+07-3.05727E+11-9.53074E+08 3.28566E+10-3.43576E+08
 -1       276-8.30588E+11 9.73426E+07-3.15586E+11-9.07410E+08 3.54725E+10-3.29032E+08
 -1       277-8.55477E+11 1.23368E+08-3.25034E+11-8.72376E+08 3.79736E+10-3.14035E+08
 -1       278-8.79154E+11-5.21717E+06-3.34080E+11-8.19437E+08 4.03563E+10-2.98605E+08
 -1       279-9.01559E+11 2.61095E+08-3.42493E+11-7.78031E+08 4.26174E+10-2.82766E+08
 -1       280-9.22590E+11 3.55405E+07-3.50571E+11-7.28751E+08 4.47538E+10-2.66540E+08
 -1       281-9.42181E+11 5.71785E+07-3.58007E+11-6.72164E+08 4.67626E+10-2.49953E+08
 -1       282-9.60305E+11 1.99654E+08-3.64840E+11-6.17873E+08 4.86411E+10-2.33031E+08
 -1       283-9.76878E+11 1.06730E+08-3.71173E+11-5.65367E+08 5.03867E+10-2.15800E+08
 -1       284-9.91832E+11 1.17719E+08-3.76851E+11-5.03387E+08 5.19972E+10-1.98288E+08
 -1       285-1.00512E+12 2.01954E+08-3.81868E+11-4.45240E+08 5.34705E+10-1.80525E+08
 -1       286-1.01672E+12 8.58741E+07-3.86321E+11-3.89080E+08 5.48047E+10-1.62541E+08
 -1       287-1.02657E+12 6.69286E+07-3.90071E+11-3.14327E+08 5.59984E+10-1.44367E+08
 -1       288-1.03462E+12 2.43187E+08-3.93063E+11-2.55633E+08 5.70500E+10-1.26032E+08
 -1       289-1.04085E+12 6.51455E+07-3.95499E+11-1.87865E+08 5.79585E+10-1.07571E+08
 -1       290-1.04526E+12 3.18976E+08-3.97079E+11-1.27593E+08 5.87231E+10-8.90152E+07
 -1       291-1.04777E+12 3.10158E+07-3.98142E+11-6.17738E+07 5.93430E+10-7.03977E+07
 -1       292-1.04837E+12 2.75151E+06-3.98381E+11 1.89267E+07 5.98180E+10-5.17529E+07
 -1       293-1.04712E+12 3.32576E+08-3.97779E+11 8.18266E+07 6.01481E+10-3.31134E+07
 -1       294-1.04392E+12 7.36343E+07-3.96660E+11 1.50614E+08 6.03332E+10-1.45136E+07
 -1       295-1.03878E+12 2.52764E+08-3.94639E+11 2.16144E+08 6.03740E+10 4.01188E+06
 -1       296-1.03172E+12 7.31428E+07-3.92027E+11 2.84311E+08 6.02711E+10 2.24289E+07
 -1       297-1.02276E+12 9.43766E+07-3.88611E+11 3.56953E+08 6.00255E+10 4.07032E+07
 -1       298-1.01188E+12 2.28021E+08-3.84428E+11 4.26759E+08 5.96384E+10 5.88012E+07
 -1       299-9.99070E+11 1.29385E+08-3.79597E+11 4.90764E+08 5.91114E+10 7.66886E+07
 -1       300-9.84391E+11 1.31907E+08-3.74018E+11 5.58803E+08 5.84462E+10 9.43314E+07
 -1       301-9.67876E+11 2.08210E+08-3.67714E+11 6.22382E+08 5.76448E+10 1.11697E+08
 -1       302-9.49482E+11 1.04044E+08-3.60763E+11 6.88295E+08 5.67095E+10 1.28752E+08
 -1       303-9.29278E+11 4.28966E+07-3.53109E+11 7.57121E+08 5.56429E+10 1.45463E+08
 -1       304-9.07338E+11 2.97528E+08-3.44676E+11 8.15994E+08 5.44477E+10 1.61800E+08
 -1       305-8.83641E+11 3.02813E+07-3.35772E+11 8.75755E+08 5.31271E+10 1.77731E+08
 -1       306-8.58237E+11 1.55110E+08-3.26071E+11 9.39916E+08 5.16842E+10 1.93225E+08
 -1       307-8.31185E+11 1.34030E+08-3.15799E+11 9.95512E+08 5.01226E+10 2.08252E+08
 -1       308-8.02558E+11 4.96801E+07-3.04953E+11 1.05214E+09 4.84461E+10 2.22784E+08
 -1       309-7.72380E+11 2.04374E+08-2.93427E+11 1.10959E+09 4.66585E+10 2.36793E+08
 -1       310-7.40680E+11 5.48816E+07-2.81438E+11 1.15778E+09 4.47641E+10 2.50252E+08
 -1       311-7.07602E+11 1.80593E+08-2.68820E+11 1.20634E+09 4.27672E+10 2.63135E+08
 -1       312-6.73130E+11 5.58279E+07-2.55768E+11 1.25548E+09 4.06725E+10 2.75416E+08
 -1       313-6.37354E+11 5.16897E+07-2.42175E+11 1.30206E+09 3.84847E+10 2.87073E+08
 -1       314-6.00374E+11 1.49826E+08-2.28085E+11 1.34531E+09 3.62087E+10 2.98083E+08
 -1       315-5.62230E+11 5.24743E+07-2.13627E+11 1.38203E+09 3.38496E+10 3.08424E+08
 -1       316-5.23007E+11 1.28389E+08-1.98694E+11 1.42122E+09 3.14128E+10 3.18077E+08
 -1       317-4.82771E+11 3.02124E+07-1.83441E+11 1.45316E+09 2.89037E+10 3.27024E+08
 -1       318-4.41618E+11 6.71722E+07-1.67789E+11 1.48852E+09 2.63277E+10 3.35247E+08
 -1       319-3.99644E+11 7.18856E+07-1.51838E+11 1.51318E+09 2.36907E+10 3.42730E+08
 -1       320-3.56894E+11 2.34785E+07-1.35611E+11 1.54329E+09 2.09984E+10 3.49459E+08
 -1       321-3.13471E+11 6.88783E+07-1.19093E+11 1.56267E+09 1.82567E+10 3.55422E+08
 -1       322-2.69484E+11 4.75442E+07-1.02386E+11 1.58123E+09 1.54717E+10 3.60608E+08
 -1       323-2.24992E+11 2.27496E+07-8.54884E+10 1.59805E+09 1.26494E+10 3.65007E+08
 -1       324-1.80094E+11 9.09159E+06-6.84323E+10 1.61140E+09 9.79596E+09 3.68610E+08
 -1       325-1.34893E+11 3.47987E+07-5.12463E+10 1.62041E+09 6.91762E+09 3.71412E+08
 -1       326-8.94659E+10 5.28062E+06-3.39950E+10 1.62618E+09 4.02061E+09 3.73408E+08
 -1       327-4.39112E+10 2.42063E+06-1.66854E+10 1.62909E+09 1.11122E+09 3.74594E+08
 -1       328 1.67800E+09-3.88300E+06 6.36163E+08 1.62936E+09-1.80423E+09 3.74970E+08
 -1       329 4.72118E+10-9.01343E+06 1.79371E+10 1.62530E+09-4.71944E+09 3.74536E+08
 -1       330 9.25933E+10-2.42329E+07 3.51762E+10 1.61783E+09-7.62814E+09 3.73292E+08
 -1       331 1.37731E+11-1.48130E+07 5.23321E+10 1.60727E+09-1.05240E+10 3.71243E+08
 -1       332 1.82533E+11-7.21345E+07 6.93350E+10 1.59391E+09-1.34009E+10 3.68395E+08
 -1       333 2.26910E+11-1.05395E+07 8.62218E+10 1.58031E+09-1.62525E+10 3.64754E+08
 -1       334 2.70769E+11-1.56815E+07 1.02886E+11 1.55538E+09-1.90727E+10 3.60327E+08
 -1       335 3.14015E+11-1.00213E+08 1.19288E+11 1.53263E+09-2.18555E+10 3.55125E+08
 -1       336 3.56562E+11-3.41696E+07 1.35481E+11 1.50650E+09-2.45949E+10 3.49161E+08
 -1       337 3.98340E+11-1.08675E+08 1.51328E+11 1.47815E+09-2.72849E+10 3.42446E+08
 -1       338 4.39231E+11-5.22181E+07 1.66888E+11 1.44554E+09-2.99198E+10 3.34996E+08
 -1       339 4.79162E+11-4.30309E+07 1.82065E+11 1.40805E+09-3.24940E+10 3.26827E+08
 -1       340 5.18085E+11-1.29656E+08 1.96823E+11 1.37030E+09-3.50019E+10 3.17957E+08
 -1       341 5.55871E+11-8.64300E+07 2.11198E+11 1.32791E+09-3.74382E+10 3.08404E+08
 -1       342 5.92456E+11-8.29367E+07 2.25102E+11 1.28535E+09-3.97975E+10 2.98190E+08
 -1       343 6.27789E+11-1.58944E+08 2.38499E+11 1.23776E+09-4.20750E+10 2.87336E+08
 -1       344 6.61771E+11-7.62079E+07 2.51444E+11 1.19287E+09-4.42656E+10 2.75866E+08
 -1       345 6.94347E+11-5.17083E+07 2.63832E+11 1.13459E+09-4.63646E+10 2.63804E+08
 -1       346 7.25433E+11-2.43405E+08 2.75572E+11 1.08194E+09-4.83676E+10 2.51175E+08
 -1       347 7.54979E+11-3.91973E+07 2.86877E+11 1.03082E+09-5.02703E+10 2.38007E+08
 -1       348 7.82947E+11-1.55271E+08 2.97461E+11 9.67326E+08-5.20686E+10 2.24327E+08
 -1       349 8.09218E+11-1.49221E+08 3.07446E+11 9.08597E+08-5.37586E+10 2.10165E+08
 -1       350 8.33773E+11-5.54681E+07 3.16813E+11 8.44209E+08-5.53366E+10 1.95551E+08
 -1       351 8.56608E+11-2.30270E+08 3.25423E+11 7.81851E+08-5.67994E+10 1.80515E+08
 -1       352 8.77594E+11-9.67151E+07 3.33449E+11 7.14151E+08-5.81436E+10 1.65089E+08
 -1       353 8.96730E+11-2.30329E+08 3.40670E+11 6.51568E+08-5.93665E+10 1.49307E+08
 -1       354 9.13963E+11-8.74624E+07 3.47273E+11 5.82031E+08-6.04653E+10 1.33201E+08
 -1       355 9.29300E+11-9.63209E+07 3.53097E+11 5.12219E+08-6.14377E+10 1.16806E+08
 -1       356 9.42662E+11-2.47785E+08 3.58117E+11 4.35864E+08-6.22816E+10 1.00155E+08
 -1       357 9.54007E+11-8.92933E+07 3.62489E+11 3.70589E+08-6.29951E+10 8.32839E+07
 -1       358 9.63397E+11-2.68487E+08 3.65989E+11 2.98764E+08-6.35767E+10 6.62287E+07
 -1       359 9.70724E+11-6.27274E+07 3.68851E+11 2.26413E+08-6.40249E+10 4.90248E+07
 -1       360 9.75993E+11-1.84561E+08 3.70807E+11 1.48672E+08-6.43390E+10 3.17090E+07
 -1       361 9.79256E+11-1.75959E+08 3.72051E+11 8.13029E+07-6.45180E+10 1.43171E+07
 -1       362 9.80439E+11-8.38923E+07 3.72535E+11 7.22452E+05-6.45616E+10-3.11437E+06
 -1       363 9.79557E+11-2.22279E+08 3.72147E+11-7.16699E+07-6.44696E+10-2.05485E+07
 -1       364 9.76626E+11-2.14043E+08 3.71037E+11-1.41963E+08-6.42420E+10-3.79489E+07
 -1       365 9.71623E+11-1.05684E+08 3.69177E+11-2.13035E+08-6.38795E+10-5.52785E+07
 -1       366 9.64626E+11-8.72403E+07 3.66525E+11-2.89556E+08-6.33825E+10-7.25012E+07
 -1       367 9.55588E+11-2.62567E+08 3.63024E+11-3.64022E+08-6.27521E+10-8.95815E+07
 -1       368 9.44518E+11-8.28463E+07 3.58885E+11-4.31494E+08-6.19895E+10-1.06483E+08
 -1       369 9.31525E+11-2.48608E+08 3.53885E+11-4.98936E+08-6.10962E+10-1.23170E+08
 -1       370 9.16549E+11-8.97042E+07 3.48254E+11-5.70533E+08-6.00742E+10-1.39609E+08
 -1       371 8.99647E+11-8.65258E+07 3.41833E+11-6.38986E+08-5.89253E+10-1.55764E+08
 -1       372 8.80894E+11-2.13954E+08 3.34659E+11-7.09017E+08-5.76520E+10-1.71602E+08
 -1       373 8.60293E+11-1.52243E+08 3.26854E+11-7.67175E+08-5.62569E+10-1.87090E+08
 -1       374 8.37904E+11-1.70576E+08 3.18339E+11-8.30893E+08-5.47428E+10-2.02196E+08
 -1       375 8.13735E+11-2.01029E+07 3.09211E+11-8.95394E+08-5.31128E+10-2.16887E+08
 -1       376 7.87908E+11-1.49461E+08 2.99348E+11-9.56380E+08-5.13702E+10-2.31134E+08
 -1       377 7.60447E+11-1.66070E+08 2.88907E+11-1.01439E+09-4.95186E+10-2.44906E+08
 -1       378 7.31368E+11-1.07701E+08 2.77879E+11-1.06657E+09-4.75619E+10-2.58176E+08
 -1       379 7.00800E+11-1.04096E+08 2.66264E+11-1.12024E+09-4.55040E+10-2.70916E+08
 -1       380 6.68789E+11-1.55179E+08 2.54081E+11-1.16957E+09-4.33492E+10-2.83098E+08
 -1       381 6.35372E+11-6.93930E+07 2.41415E+11-1.21781E+09-4.11018E+10-2.94699E+08
 -1       382 6.00649E+11-5.10043E+07 2.28227E+11-1.26567E+09-3.87666E+10-3.05694E+08
 -1       383 5.64698E+11-1.47205E+08 2.14529E+11-1.30879E+09-3.63483E+10-3.16059E+08
 -1       384 5.27590E+11-5.65906E+07 2.00463E+11-1.34593E+09-3.38519E+10-3.25776E+08
 -1       385 4.89397E+11-1.23151E+08 1.85924E+11-1.38445E+09-3.12825E+10-3.34822E+08
 -1       386 4.50194E+11-2.95395E+07 1.71063E+11-1.41739E+09-2.86454E+10-3.43180E+08
 -1       387 4.10095E+11-7.00936E+07 1.55810E+11-1.44960E+09-2.59461E+10-3.50833E+08
 -1       388 3.69171E+11-7.10841E+07 1.40258E+11-1.47781E+09-2.31900E+10-3.57765E+08
 -1       389 3.27487E+11-1.36718E+07 1.24440E+11-1.50302E+09-2.03828E+10-3.63962E+08
 -1       390 2.85169E+11-9.20712E+07 1.08329E+11-1.52431E+09-1.75303E+10-3.69411E+08
 -1       391 2.42288E+11-1.33452E+07 9.20645E+10-1.54074E+09-1.46384E+10-3.74104E+08
 -1       392 1.98940E+11-1.96493E+07 7.55898E+10-1.55816E+09-1.17130E+10-3.78029E+08
 -1       393 1.55217E+11-3.72385E+07 5.89683E+10-1.56868E+09-8.76011E+09-3.81179E+08
 -1       394 1.11218E+11-9.91186E+06 4.22589E+10-1.57617E+09-5.78570E+09-3.83549E+08
 -1       395 6.70326E+10-8.66874E+06 2.54691E+10-1.58155E+09-2.79590E+09-3.85135E+08
 -1       396 2.27560E+10 1.72807E+06 8.64794E+09-1.58309E+09 2.03168E+08-3.85934E+08
 -1       397-2.15098E+10 7.26420E+06-8.17097E+09-1.58105E+09 3.20538E+09-3.85946E+08
 -1       398-6.56778E+10 1.46804E+07-2.49520E+10-1.57548E+09 6.20463E+09-3.85170E+08
 -1       399-1.09645E+11 2.73976E+07-4.16545E+10-1.56598E+09 9.19481E+09-3.83611E+08
 -1       400-1.53319E+11 1.70507E+07-5.82547E+10-1.55445E+09 1.21698E+10-3.81273E+08
 -1       401-1.96604E+11 7.89368E+07-7.46793E+10-1.53789E+09 1.51236E+10-3.78160E+08
 -1       402-2.39410E+11 1.40292E+07-9.09704E+10-1.52362E+09 1.80503E+10-3.74283E+08
 -1       403-2.81640E+11 2.05959E+07-1.07016E+11-1.49570E+09 2.09438E+10-3.69649E+08
 -1       404-3.23193E+11 1.01500E+08-1.22775E+11-1.47046E+09 2.37983E+10-3.64268E+08
 -1       405-3.64001E+11 4.31841E+07-1.38304E+11-1.44369E+09 2.66082E+10-3.58156E+08
 -1       406-4.03955E+11 1.15855E+08-1.53459E+11-1.40983E+09 2.93677E+10-3.51326E+08
 -1       407-4.42962E+11 5.09672E+07-1.68306E+11-1.37840E+09 3.20714E+10-3.43793E+08
 -1       408-4.80951E+11 5.37249E+07-1.82741E+11-1.33606E+09 3.47138E+10-3.35575E+08
 -1       409-5.17850E+11 1.36356E+08-1.96731E+11-1.29648E+09 3.72896E+10-3.26691E+08
 -1       410-5.53541E+11 7.51173E+07-2.10317E+11-1.25113E+09 3.97939E+10-3.17161E+08
 -1       411-5.87959E+11 1.55205E+08-2.23366E+11-1.20588E+09 4.22216E+10-3.07008E+08
 -1       412-6.21044E+11 7.31731E+07-2.35969E+11-1.15948E+09 4.45680E+10-2.96254E+08
 -1       413-6.52706E+11 7.91228E+07-2.47998E+11-1.10164E+09 4.68284E+10-2.84925E+08
 -1       414-6.82863E+11 1.66015E+08-2.59425E+11-1.04779E+09 4.89986E+10-2.73045E+08
 -1       415-7.11459E+11 1.43186E+08-2.70300E+11-9.91323E+08 5.10744E+10-2.60643E+08
 -1       416-7.38449E+11 1.62815E+08-2.80549E+11-9.38463E+08 5.30518E+10-2.47746E+08
 -1       417-7.63723E+11 3.68674E+07-2.90201E+11-8.69868E+08 5.49270E+10-2.34385E+08
 -1       418-7.87236E+11 1.55338E+08-2.99091E+11-8.04799E+08 5.66966E+10-2.20589E+08
 -1       419-8.08965E+11 1.89370E+08-3.07335E+11-7.39571E+08 5.83573E+10-2.06391E+08
 -1       420-8.28830E+11 1.35964E+08-3.14904E+11-6.75469E+08 5.99061E+10-1.91823E+08
 -1       421-8.46775E+11 1.46002E+08-3.21719E+11-6.03442E+08 6.13403E+10-1.76919E+08
 -1       422-8.62754E+11 2.13229E+08-3.27766E+11-5.33795E+08 6.26574E+10-1.61713E+08
 -1       423-8.76754E+11 1.15818E+08-3.33122E+11-4.67459E+08 6.38551E+10-1.46240E+08
 -1       424-8.88714E+11 9.95095E+07-3.37673E+11-3.84327E+08 6.49316E+10-1.30537E+08
 -1       425-8.98590E+11 2.48447E+08-3.41370E+11-3.12947E+08 6.58852E+10-1.14639E+08
 -1       426-9.06367E+11 1.12463E+08-3.44377E+11-2.37290E+08 6.67145E+10-9.85835E+07
 -1       427-9.12042E+11 2.54050E+08-3.46479E+11-1.64006E+08 6.74184E+10-8.24088E+07
 -1       428-9.15537E+11 1.06214E+08-3.47864E+11-8.56059E+07 6.79962E+10-6.61526E+07
 -1       429-9.16847E+11 1.60958E+08-3.48341E+11-4.92605E+06 6.84473E+10-4.98538E+07
 -1       430-9.16035E+11 2.13866E+08-3.48012E+11 6.75055E+07 6.87717E+10-3.35502E+07
 -1       431-9.12987E+11 6.50924E+07-3.46910E+11 1.55186E+08 6.89693E+10-1.72810E+07
 -1       432-9.07733E+11 3.23485E+08-3.44815E+11 2.29269E+08 6.90407E+10-1.08561E+06
 -1       433-9.00285E+11 9.52931E+07-3.42072E+11 3.04856E+08 6.89865E+10 1.49968E+07
 -1       434-8.90652E+11 1.16019E+08-3.38404E+11 3.86202E+08 6.88078E+10 3.09270E+07
 -1       435-8.78821E+11 2.55490E+08-3.33855E+11 4.68921E+08 6.85059E+10 4.66666E+07
 -1       436-8.64781E+11 1.19288E+08-3.28571E+11 5.40470E+08 6.80825E+10 6.21761E+07
 -1       437-8.48587E+11 2.48158E+08-3.22369E+11 6.20727E+08 6.75395E+10 7.74167E+07
 -1       438-8.30247E+11 1.06097E+08-3.15453E+11 6.91148E+08 6.68791E+10 9.23502E+07
 -1       439-8.09758E+11 1.24224E+08-3.07661E+11 7.76025E+08 6.61038E+10 1.06938E+08
 -1       440-7.87160E+11 2.17658E+08-2.99038E+11 8.48468E+08 6.52166E+10 1.21143E+08
 -1       441-7.62498E+11 1.53777E+08-2.89691E+11 9.18907E+08 6.42205E+10 1.34927E+08
 -1       442-7.35780E+11 1.33277E+08-2.79546E+11 9.94457E+08 6.31190E+10 1.48255E+08
 -1       443-7.07037E+11 2.52376E+08-2.68578E+11 1.06407E+09 6.19157E+10 1.61089E+08
 -1       444-6.76325E+11 7.40003E+07-2.56975E+11 1.12899E+09 6.06146E+10 1.73395E+08
 -1       445-6.43695E+11 6.49341E+07-2.44579E+11 1.20593E+09 5.92199E+10 1.85136E+08
 -1       446-6.09164E+11 2.54778E+08-2.31385E+11 1.27312E+09 5.77363E+10 1.96281E+08
 -1       447-5.72777E+11 9.03565E+07-2.17621E+11 1.33321E+09 5.61683E+10 2.06795E+08
 -1       448-5.34628E+11 1.90774E+08-2.03086E+11 1.39574E+09 5.45212E+10 2.16645E+08
 -1       449-4.94721E+11 9.52290E+07-1.87958E+11 1.45817E+09 5.28002E+10 2.25802E+08
 -1       450-4.53124E+11 9.87794E+07-1.72150E+11 1.51759E+09 5.10107E+10 2.34234E+08
 -1       451-4.09919E+11 1.62888E+08-1.55707E+11 1.57620E+09 4.91585E+10 2.41911E+08
 -1       452-3.65135E+11 9.85707E+07-1.38714E+11 1.62786E+09 4.72497E+10 2.48805E+08
 -1       453-3.18849E+11 1.38477E+08-1.21110E+11 1.68253E+09 4.52904E+10 2.54890E+08
 -1       454-2.71108E+11 9.01335E+07-1.02987E+11 1.73131E+09 4.32870E+10 2.60138E+08
 -1       455-2.21992E+11 8.62702E+07-8.43243E+10 1.78146E+09 4.12461E+10 2.64525E+08
 -1       456-1.71569E+11 1.23917E+08-6.51490E+10 1.82632E+09 3.91745E+10 2.68026E+08
 -1       457-1.19883E+11 8.24095E+07-4.55243E+10 1.86971E+09 3.70792E+10 2.70620E+08
 -1       458-6.70212E+10 8.02145E+07-2.54376E+10 1.91077E+09 3.49673E+10 2.72283E+08
 -1       459-1.30389E+10 9.08445E+07-4.92028E+09 1.95027E+09 3.28462E+10 2.72996E+08
 -1       460 4.19818E+10 7.39275E+07 1.59812E+10 1.98474E+09 3.07233E+10 2.72739E+08
 -1       461 9.79964E+10 7.27228E+07 3.72663E+10 2.01981E+09 2.86062E+10 2.71494E+08
 -1       462 1.54903E+11 6.19540E+07 5.88865E+10 2.04828E+09 2.65027E+10 2.69246E+08
 -1       463 2.12683E+11 7.27459E+07 8.08473E+10 2.08138E+09 2.44206E+10 2.65977E+08
 -1       464 2.71213E+11 2.18264E+07 1.03069E+11 2.10227E+09 2.23680E+10 2.61673E+08
 -1       465 3.30484E+11 7.61014E+07 1.25613E+11 2.13557E+09 2.03529E+10 2.56322E+08
 -1       466 3.90361E+11 6.73550E+07 1.48363E+11 2.14668E+09 1.83835E+10 2.49911E+08
 -1       467 4.50902E+11 1.29957E+07 1.71348E+11 2.17713E+09 1.64682E+10 2.42429E+08
 -1       468 5.11869E+11 4.38918E+07 1.94527E+11 2.18071E+09 1.46153E+10 2.33866E+08
 -1       469 5.73408E+11 1.18011E+07 2.17899E+11 2.21451E+09 1.28331E+10 2.24214E+08
 -1       470 6.35227E+11-8.84096E+06 2.41383E+11 2.20907E+09 1.11304E+10 2.13464E+08
 -1       471 6.97584E+11 1.33552E+08 2.65133E+11 2.24950E+09 9.51547E+09 2.01610E+08
 -1       472 7.60005E+11-2.88010E+07 2.88791E+11 2.21477E+09 7.99710E+09 1.88645E+08
 -1       473 8.22970E+11 4.22013E+07 3.12745E+11 2.27361E+09 6.58388E+09 1.74566E+08
 -1       474 8.85795E+11-9.34585E+07 3.36567E+11 2.22094E+09 5.28453E+09 1.59367E+08
 -1       475 9.49252E+11 6.00640E+07 3.60739E+11 2.30782E+09 4.10774E+09 1.43046E+08
 -1       476 1.01220E+12 2.56909E+08 3.84735E+11 2.20703E+09 3.06229E+09 1.25600E+08
 -1       477 1.07603E+12-9.37977E+08 4.08534E+11 2.32419E+09 2.15688E+09 1.07026E+08
 -1       478 1.13929E+12 3.42489E+09 4.34233E+11 2.24024E+09 1.40036E+09 8.73233E+07
 -1       479 1.20212E+12-1.27743E+10 4.51953E+11 2.12569E+09 8.01418E+08 6.64886E+07
 -1       480 1.27003E+12 4.70615E+10 5.00495E+11 3.11135E+09 3.68955E+08 4.45347E+07
 -1       481 1.31544E+12-1.72652E+11 4.34261E+11-1.19450E+09 1.11672E+08 2.14084E+07
 -1       482 1.32660E+12 6.30735E+11 7.43789E+11 1.45952E+10 2.77700E+07 9.53400E+06
 -1       483-2.71157E+08-1.43329E+08-1.57505E+08-6.07439E+05 8.92461E+10 3.58902E+08
 -1       484-9.56611E+08-1.38709E+08-4.16221E+08-1.63285E+08 8.71527E+10 3.58891E+08
 -1       485-3.04966E+09-1.34543E+08-1.21000E+09-3.18353E+08 8.29661E+10 3.58844E+08
 -1       486-6.47256E+09-1.24621E+08-2.50693E+09-4.66058E+08 7.87804E+10 3.58731E+08
 -1       487-1.11473E+10-1.22617E+08-4.28257E+09-6.05044E+08 7.45965E+10 3.58522E+08
 -1       488-1.70190E+10-1.03460E+08-6.50654E+09-7.38164E+08 7.04158E+10 3.58188E+08
 -1       489-2.40018E+10-1.20712E+08-9.16656E+09-8.62642E+08 6.62399E+10 3.57702E+08
 -1       490-3.20568E+10-8.58131E+07-1.22142E+10-9.78479E+08 6.20706E+10 3.57037E+08
 -1       491-4.10882E+10-1.01277E+08-1.56520E+10-1.08951E+09 5.79102E+10 3.56170E+08
 -1       492-5.10498E+10-8.41903E+07-1.94309E+10-1.18912E+09 5.37613E+10 3.55077E+08
 -1       493-6.18772E+10-6.63692E+07-2.35386E+10-1.28462E+09 4.96265E+10 3.53738E+08
 -1       494-7.34710E+10-9.63835E+07-2.79556E+10-1.37391E+09 4.55089E+10 3.52133E+08
 -1       495-8.58212E+10-5.58596E+07-3.26333E+10-1.44644E+09 4.14116E+10 3.50244E+08
 -1       496-9.88169E+10-4.08979E+07-3.75659E+10-1.52679E+09 3.73381E+10 3.48054E+08
 -1       497-1.12393E+11-7.58963E+07-4.27380E+10-1.58280E+09 3.32920E+10 3.45550E+08
 -1       498-1.26545E+11-5.77805E+07-4.81092E+10-1.64248E+09 2.92770E+10 3.42717E+08
 -1       499-1.41116E+11 6.30743E+06-5.36215E+10-1.69969E+09 2.52970E+10 3.39542E+08
 -1       500-1.56109E+11-9.88990E+07-5.93588E+10-1.73061E+09 2.13561E+10 3.36018E+08
 -1       501-1.71457E+11 2.40510E+07-6.51444E+10-1.77497E+09 1.74584E+10 3.32133E+08
 -1       502-1.87054E+11-5.14406E+07-7.10999E+10-1.79507E+09 1.36082E+10 3.27881E+08
 -1       503-2.02908E+11-3.99590E+06-7.71064E+10-1.82089E+09 9.80970E+09 3.23257E+08
 -1       504-2.18880E+11 2.57580E+07-8.31647E+10-1.83998E+09 6.06739E+09 3.18255E+08
 -1       505-2.34954E+11-8.28153E+07-8.93140E+10-1.84038E+09 2.38562E+09 3.12873E+08
 -1       506-2.51097E+11 7.51084E+07-9.53883E+10-1.84374E+09-1.23112E+09 3.07109E+08
 -1       507-2.67189E+11-3.20820E+07-1.01544E+11-1.83680E+09-4.77841E+09 3.00962E+08
 -1       508-2.83223E+11 2.84405E+07-1.07614E+11-1.82821E+09-8.25176E+09 2.94435E+08
 -1       509-2.99111E+11 1.83397E+07-1.13655E+11-1.80976E+09-1.16467E+10 2.87529E+08
 -1       510-3.14812E+11-1.77315E+06-1.19629E+11-1.78209E+09-1.49590E+10 2.80249E+08
 -1       511-3.30302E+11 5.05196E+07-1.25496E+11-1.74982E+09-1.81841E+10 2.72598E+08
 -1       512-3.45483E+11 5.66506E+07-1.31262E+11-1.72155E+09-2.13178E+10 2.64584E+08
 -1       513-3.60304E+11 1.53158E+07-1.36910E+11-1.67782E+09-2.43560E+10 2.56214E+08
 -1       514-3.74767E+11 1.64974E+07-1.42405E+11-1.62661E+09-2.72945E+10 2.47497E+08
 -1       515-3.88788E+11 1.07525E+08-1.47699E+11-1.57611E+09-3.01294E+10 2.38441E+08
 -1       516-4.02324E+11 1.27000E+07-1.52878E+11-1.51661E+09-3.28566E+10 2.29060E+08
 -1       517-4.15333E+11 6.97988E+07-1.57800E+11-1.45885E+09-3.54726E+10 2.19363E+08
 -1       518-4.27782E+11 5.22677E+07-1.62537E+11-1.38698E+09-3.79737E+10 2.09365E+08
 -1       519-4.39633E+11 7.34095E+07-1.67033E+11-1.32046E+09-4.03564E+10 1.99078E+08
 -1       520-4.50808E+11 6.78994E+07-1.71281E+11-1.24492E+09-4.26175E+10 1.88518E+08
 -1       521-4.61340E+11 3.84804E+07-1.75295E+11-1.15448E+09-4.47540E+10 1.77701E+08
 -1       522-4.71157E+11 1.05495E+08-1.78999E+11-1.08443E+09-4.67627E+10 1.66642E+08
 -1       523-4.80201E+11 1.03014E+08-1.82437E+11-9.92007E+08-4.86412E+10 1.55360E+08
 -1       524-4.88481E+11 5.62755E+07-1.85601E+11-9.04221E+08-5.03868E+10 1.43872E+08
 -1       525-4.95962E+11 4.19540E+07-1.88450E+11-8.05502E+08-5.19974E+10 1.32198E+08
 -1       526-5.02619E+11 1.62382E+08-1.90933E+11-7.11780E+08-5.34707E+10 1.20355E+08
 -1       527-5.08415E+11 4.64757E+07-1.93180E+11-6.10395E+08-5.48049E+10 1.08366E+08
 -1       528-5.13335E+11 6.69946E+07-1.95042E+11-5.15184E+08-5.59986E+10 9.62486E+07
 -1       529-5.17363E+11 1.14226E+08-1.96555E+11-4.08809E+08-5.70502E+10 8.40254E+07
 -1       530-5.20498E+11 1.22569E+08-1.97743E+11-3.04107E+08-5.79588E+10 7.17173E+07
 -1       531-5.22664E+11 9.55666E+07-1.98576E+11-2.00487E+08-5.87233E+10 5.93464E+07
 -1       532-5.23942E+11 2.28940E+07-1.99089E+11-7.79408E+07-5.93433E+10 4.69347E+07
 -1       533-5.24276E+11 1.57422E+08-1.99165E+11 9.61222E+06-5.98183E+10 3.45038E+07
 -1       534-5.23595E+11 7.60037E+07-1.98937E+11 1.25413E+08-6.01484E+10 2.20770E+07
 -1       535-5.22008E+11 7.19874E+07-1.98336E+11 2.40915E+08-6.03336E+10 9.67710E+06
 -1       536-5.19448E+11 1.21950E+08-1.97344E+11 3.48573E+08-6.03744E+10-2.67363E+06
 -1       537-5.15933E+11 1.24786E+08-1.96007E+11 4.64085E+08-6.02715E+10-1.49522E+07
 -1       538-5.11439E+11 7.29609E+07-1.94319E+11 5.59130E+08-6.00259E+10-2.71359E+07
 -1       539-5.05975E+11 5.95458E+07-1.92248E+11 6.80157E+08-5.96388E+10-3.92014E+07
 -1       540-4.99602E+11 1.26909E+08-1.89801E+11 7.85337E+08-5.91118E+10-5.11266E+07
 -1       541-4.92266E+11 1.22546E+08-1.87015E+11 8.93019E+08-5.84466E+10-6.28892E+07
 -1       542-4.83970E+11 6.31159E+07-1.83884E+11 9.95762E+08-5.76452E+10-7.44665E+07
 -1       543-4.74798E+11 5.30709E+07-1.80403E+11 1.11095E+09-5.67099E+10-8.58365E+07
 -1       544-4.64719E+11 1.59219E+08-1.76533E+11 1.20013E+09-5.56433E+10-9.69782E+07
 -1       545-4.53706E+11 7.49006E+07-1.72380E+11 1.30341E+09-5.44482E+10-1.07870E+08
 -1       546-4.41866E+11 4.10334E+07-1.67894E+11 1.40883E+09-5.31276E+10-1.18491E+08
 -1       547-4.29171E+11 8.01094E+07-1.63055E+11 1.49730E+09-5.16847E+10-1.28820E+08
 -1       548-4.15658E+11 1.34800E+08-1.57899E+11 1.59726E+09-5.01231E+10-1.38839E+08
 -1       549-4.01329E+11 5.23669E+07-1.52485E+11 1.67509E+09-4.84466E+10-1.48528E+08
 -1       550-3.86220E+11 3.67441E+07-1.46750E+11 1.77160E+09-4.66590E+10-1.57867E+08
 -1       551-3.70410E+11 1.38707E+08-1.40703E+11 1.85224E+09-4.47646E+10-1.66840E+08
 -1       552-3.53831E+11 3.17245E+07-1.34444E+11 1.93020E+09-4.27678E+10-1.75429E+08
 -1       553-3.36607E+11 4.88364E+07-1.27892E+11 2.01425E+09-4.06731E+10-1.83617E+08
 -1       554-3.18735E+11 8.59904E+07-1.21087E+11 2.07678E+09-3.84852E+10-1.91388E+08
 -1       555-3.00224E+11 6.72764E+07-1.14060E+11 2.14859E+09-3.62092E+10-1.98728E+08
 -1       556-2.81153E+11 4.19797E+07-1.06822E+11 2.21091E+09-3.38502E+10-2.05623E+08
 -1       557-2.61532E+11 3.31044E+07-9.93696E+10 2.27358E+09-3.14134E+10-2.12059E+08
 -1       558-2.41429E+11 6.08894E+07-9.17199E+10 2.32980E+09-2.89042E+10-2.18023E+08
 -1       559-2.20853E+11 6.62421E+07-8.38991E+10 2.37487E+09-2.63283E+10-2.23505E+08
 -1       560-1.99844E+11 1.51641E+07-7.59348E+10 2.42322E+09-2.36913E+10-2.28495E+08
 -1       561-1.78476E+11 9.06480E+06-6.78176E+10 2.46378E+09-2.09990E+10-2.32981E+08
 -1       562-1.56771E+11 6.82306E+07-5.95472E+10 2.49965E+09-1.82573E+10-2.36956E+08
 -1       563-1.34764E+11 7.86423E+06-5.12072E+10 2.52949E+09-1.54723E+10-2.40414E+08
 -1       564-1.12519E+11 1.59118E+07-4.27512E+10 2.55793E+09-1.26500E+10-2.43346E+08
 -1       565-9.00749E+10 2.48105E+07-3.42190E+10 2.57529E+09-9.79655E+09-2.45748E+08
 -1       566-6.74640E+10 9.52448E+06-2.56327E+10 2.59150E+09-6.91820E+09-2.47617E+08
 -1       567-4.47507E+10 5.98036E+06-1.70030E+10 2.60132E+09-4.02118E+09-2.48947E+08
 -1       568-2.19708E+10 3.24504E+04-8.34889E+09 2.60636E+09-1.11179E+09-2.49738E+08
 -1       569 8.27087E+08-3.01026E+06 3.13150E+08 2.60549E+09 1.80367E+09-2.49989E+08
 -1       570 2.35943E+10-6.10714E+06 8.96353E+09 2.60009E+09 4.71890E+09-2.49699E+08
 -1       571 4.62875E+10-1.04423E+07 1.75853E+10 2.58805E+09 7.62760E+09-2.48871E+08
 -1       572 6.88608E+10-1.58031E+07 2.61611E+10 2.57164E+09 1.05235E+10-2.47505E+08
 -1       573 9.12628E+10-3.84257E+07 3.46653E+10 2.54960E+09 1.34004E+10-2.45606E+08
 -1       574 1.13455E+11-1.08726E+07 4.31087E+10 2.52188E+09 1.62520E+10-2.43178E+08
 -1       575 1.35385E+11-1.86156E+07 5.14390E+10 2.49253E+09 1.90722E+10-2.40227E+08
 -1       576 1.57009E+11-4.69749E+07 5.96457E+10 2.45291E+09 2.18550E+10-2.36759E+08
 -1       577 1.78295E+11-5.36667E+07 6.77315E+10 2.41071E+09 2.45944E+10-2.32782E+08
 -1       578 1.99168E+11-2.96702E+07 7.56725E+10 2.36465E+09 2.72845E+10-2.28306E+08
 -1       579 2.19626E+11-3.01530E+07 8.34465E+10 2.30754E+09 2.99194E+10-2.23339E+08
 -1       580 2.39609E+11-9.31322E+07 9.10161E+10 2.25701E+09 3.24936E+10-2.17893E+08
 -1       581 2.59046E+11-3.00493E+07 9.84262E+10 2.19429E+09 3.50015E+10-2.11980E+08
 -1       582 2.77948E+11-4.78825E+07 1.05602E+11 2.12493E+09 3.74378E+10-2.05611E+08
 -1       583 2.96257E+11-7.91903E+07 1.12548E+11 2.05616E+09 3.97972E+10-1.98801E+08
 -1       584 3.13913E+11-8.42613E+07 1.19255E+11 1.98123E+09 4.20747E+10-1.91565E+08
 -1       585 3.30913E+11-5.53905E+07 1.25726E+11 1.90087E+09 4.42653E+10-1.83918E+08
 -1       586 3.47198E+11-4.94870E+07 1.31917E+11 1.82235E+09 4.63644E+10-1.75876E+08
 -1       587 3.62743E+11-1.17829E+08 1.37798E+11 1.73306E+09 4.83674E+10-1.67457E+08
 -1       588 3.77534E+11-8.91801E+07 1.43429E+11 1.64168E+09 5.02702E+10-1.58678E+08
 -1       589 3.91486E+11-3.55228E+07 1.48751E+11 1.55496E+09 5.20685E+10-1.49558E+08
 -1       590 4.04643E+11-7.75594E+07 1.53735E+11 1.44667E+09 5.37585E+10-1.40116E+08
 -1       591 4.16950E+11-1.56438E+08 1.58381E+11 1.35890E+09 5.53365E+10-1.30373E+08
 -1       592 4.28322E+11-4.71928E+07 1.62745E+11 1.25430E+09 5.67993E+10-1.20349E+08
 -1       593 4.38834E+11-7.79987E+07 1.66727E+11 1.14460E+09 5.81436E+10-1.10065E+08
 -1       594 4.48403E+11-1.11522E+08 1.70351E+11 1.03934E+09 5.93665E+10-9.95431E+07
 -1       595 4.57046E+11-1.27974E+08 1.73629E+11 9.25435E+08 6.04653E+10-8.88053E+07
 -1       596 4.64689E+11-7.71630E+07 1.76553E+11 8.27703E+08 6.14378E+10-7.78744E+07
 -1       597 4.71359E+11-5.15981E+07 1.79097E+11 7.03324E+08 6.22817E+10-6.67737E+07
 -1       598 4.77076E+11-1.86823E+08 1.81218E+11 5.92330E+08 6.29952E+10-5.55260E+07
 -1       599 4.81726E+11-5.27712E+07 1.83036E+11 4.79117E+08 6.35768E+10-4.41555E+07
 -1       600 4.85410E+11-7.17387E+07 1.84428E+11 3.52385E+08 6.40251E+10-3.26862E+07
 -1       601 4.88071E+11-1.72654E+08 1.85401E+11 2.48741E+08 6.43392E+10-2.11416E+07
 -1       602 4.89672E+11-9.27860E+07 1.86040E+11 1.22649E+08 6.45183E+10-9.54642E+06
 -1       603 4.90268E+11-5.25893E+07 1.86282E+11 1.39810E+07 6.45619E+10 2.07486E+06
 -1       604 4.89828E+11-1.13515E+08 1.86091E+11-1.12624E+08 6.44699E+10 1.36979E+07
 -1       605 4.88360E+11-1.13203E+08 1.85534E+11-2.27396E+08 6.42424E+10 2.52983E+07
 -1       606 4.85891E+11-1.37265E+08 1.84587E+11-3.49671E+08 6.38799E+10 3.68520E+07
 -1       607 4.82363E+11-7.87297E+07 1.83268E+11-4.51158E+08 6.33829E+10 4.83346E+07
 -1       608 4.77831E+11-5.19057E+07 1.81556E+11-5.78182E+08 6.27525E+10 5.97215E+07
 -1       609 4.72341E+11-1.83790E+08 1.79420E+11-6.89024E+08 6.19900E+10 7.09896E+07
 -1       610 4.65799E+11-5.09239E+07 1.76984E+11-7.98337E+08 6.10968E+10 8.21151E+07
 -1       611 4.58328E+11-7.34392E+07 1.74137E+11-9.19493E+08 6.00748E+10 9.30743E+07
 -1       612 4.49899E+11-1.26858E+08 1.70913E+11-1.01486E+09 5.89260E+10 1.03845E+08
 -1       613 4.40500E+11-1.02875E+08 1.67351E+11-1.12649E+09 5.76527E+10 1.14404E+08
 -1       614 4.30199E+11-1.03063E+08 1.63436E+11-1.22818E+09 5.62576E+10 1.24730E+08
 -1       615 4.18990E+11-2.20894E+07 1.59208E+11-1.33624E+09 5.47435E+10 1.34800E+08
 -1       616 4.06946E+11-1.31255E+08 1.54590E+11-1.43226E+09 5.31135E+10 1.44595E+08
 -1       617 3.94010E+11-7.89080E+07 1.49694E+11-1.51850E+09 5.13710E+10 1.54094E+08
 -1       618 3.80257E+11-4.67879E+07 1.44480E+11-1.61951E+09 4.95195E+10 1.63276E+08
 -1       619 3.65750E+11-1.03774E+08 1.38946E+11-1.70561E+09 4.75628E+10 1.72122E+08
 -1       620 3.50459E+11-9.24866E+07 1.33139E+11-1.79060E+09 4.55049E+10 1.80616E+08
 -1       621 3.34431E+11-4.56711E+07 1.27066E+11-1.86975E+09 4.33501E+10 1.88738E+08
 -1       622 3.17738E+11-4.96920E+07 1.20722E+11-1.95406E+09 4.11027E+10 1.96472E+08
 -1       623 3.00383E+11-8.39892E+07 1.14114E+11-2.01784E+09 3.87676E+10 2.03802E+08
 -1       624 2.82397E+11-6.63358E+07 1.07285E+11-2.08996E+09 3.63493E+10 2.10713E+08
 -1       625 2.63837E+11-4.65124E+07 1.00241E+11-2.15231E+09 3.38529E+10 2.17191E+08
 -1       626 2.44735E+11-2.58670E+07 9.29896E+10-2.21480E+09 3.12835E+10 2.23222E+08
 -1       627 2.25152E+11-8.01367E+07 8.55274E+10-2.27031E+09 2.86464E+10 2.28794E+08
 -1       628 2.05091E+11-3.77700E+07 7.79201E+10-2.31433E+09 2.59471E+10 2.33896E+08
 -1       629 1.84615E+11-1.39741E+07 7.01485E+10-2.36466E+09 2.31910E+10 2.38518E+08
 -1       630 1.63790E+11-3.86270E+07 6.22254E+10-2.40113E+09 2.03838E+10 2.42649E+08
 -1       631 1.42619E+11-4.16982E+07 5.41794E+10-2.43686E+09 1.75314E+10 2.46283E+08
 -1       632 1.21179E+11-1.72481E+07 4.60416E+10-2.46662E+09 1.46395E+10 2.49411E+08
 -1       633 9.95028E+10-1.07993E+07 3.78070E+10-2.48940E+09 1.17141E+10 2.52028E+08
 -1       634 7.76401E+10-2.55345E+07 2.94935E+10-2.50862E+09 8.76116E+09 2.54128E+08
 -1       635 5.56370E+10-4.99499E+06 2.11402E+10-2.52150E+09 5.78675E+09 2.55709E+08
 -1       636 3.35412E+10-1.26094E+06 1.27452E+10-2.52981E+09 2.79695E+09 2.56766E+08
 -1       637 1.14035E+10-4.90442E+06 4.33147E+09-2.53202E+09-2.02127E+08 2.57299E+08
 -1       638-1.07346E+10 1.04316E+07-4.07518E+09-2.52883E+09-3.20435E+09 2.57306E+08
 -1       639-3.28179E+10 6.04638E+06-1.24685E+10-2.52040E+09-6.20361E+09 2.56790E+08
 -1       640-5.48049E+10 1.37360E+07-2.08206E+10-2.50572E+09-9.19380E+09 2.55750E+08
 -1       641-7.66458E+10 1.82137E+07-2.91185E+10-2.48648E+09-1.21688E+10 2.54191E+08
 -1       642-9.82899E+10 4.13907E+07-3.73344E+10-2.46129E+09-1.51227E+10 2.52116E+08
 -1       643-1.19696E+11 1.52528E+07-4.54786E+10-2.43030E+09-1.80493E+10 2.49531E+08
 -1       644-1.40811E+11 1.43791E+07-5.35026E+10-2.39777E+09-2.09428E+10 2.46442E+08
 -1       645-1.61596E+11 7.23744E+07-6.13790E+10-2.35444E+09-2.37974E+10 2.42855E+08
 -1       646-1.81996E+11 2.57854E+07-6.91486E+10-2.31001E+09-2.66073E+10 2.38780E+08
 -1       647-2.01969E+11 3.70606E+07-7.67342E+10-2.25646E+09-2.93669E+10 2.34227E+08
 -1       648-2.21490E+11 5.99371E+07-8.41436E+10-2.19904E+09-3.20705E+10 2.29204E+08
 -1       649-2.40491E+11 7.51242E+07-9.13582E+10-2.14345E+09-3.47130E+10 2.23726E+08
 -1       650-2.58921E+11 4.26497E+07-9.83736E+10-2.07641E+09-3.72889E+10 2.17803E+08
 -1       651-2.76779E+11 4.18044E+07-1.05160E+11-2.00320E+09-3.97931E+10 2.11450E+08
 -1       652-2.93997E+11 1.12526E+08-1.11676E+11-1.92922E+09-4.22209E+10 2.04681E+08
 -1       653-3.10539E+11 4.62110E+07-1.17987E+11-1.84912E+09-4.45673E+10 1.97511E+08
 -1       654-3.26367E+11 6.22447E+07-1.23996E+11-1.76948E+09-4.68278E+10 1.89958E+08
 -1       655-3.41453E+11 8.33195E+07-1.29720E+11-1.67928E+09-4.89980E+10 1.82038E+08
 -1       656-3.55762E+11 1.36799E+08-1.35137E+11-1.58815E+09-5.10738E+10 1.73770E+08
 -1       657-3.69235E+11 3.75089E+07-1.40295E+11-1.49351E+09-5.30512E+10 1.65172E+08
 -1       658-3.81888E+11 4.50932E+07-1.45100E+11-1.39138E+09-5.49265E+10 1.56264E+08
 -1       659-3.93661E+11 1.43065E+08-1.49537E+11-1.29731E+09-5.66962E+10 1.47066E+08
 -1       660-4.04513E+11 1.06450E+08-1.53675E+11-1.18764E+09-5.83569E+10 1.37601E+08
 -1       661-4.14441E+11 7.71043E+07-1.57458E+11-1.08280E+09-5.99058E+10 1.27889E+08
 -1       662-4.23418E+11 6.35286E+07-1.60875E+11-9.67378E+08-6.13400E+10 1.17952E+08
 -1       663-4.31422E+11 1.65390E+08-1.63877E+11-8.55871E+08-6.26572E+10 1.07815E+08
 -1       664-4.38418E+11 6.66183E+07-1.66574E+11-7.38952E+08-6.38550E+10 9.74990E+07
 -1       665-4.44395E+11 8.44875E+07-1.68838E+11-6.26553E+08-6.49315E+10 8.70296E+07
 -1       666-4.49338E+11 1.24764E+08-1.70701E+11-5.03748E+08-6.58851E+10 7.64307E+07
 -1       667-4.53242E+11 1.37420E+08-1.72180E+11-3.83342E+08-6.67144E+10 6.57268E+07
 -1       668-4.56047E+11 8.08949E+07-1.73267E+11-2.63446E+08-6.74184E+10 5.49435E+07
 -1       669-4.57816E+11 6.43561E+07-1.73945E+11-1.30027E+08-6.79962E+10 4.41059E+07
 -1       670-4.58502E+11 2.19913E+08-1.74147E+11-1.77267E+07-6.84474E+10 3.32392E+07
 -1       671-4.58047E+11 3.49532E+07-1.74045E+11 1.11805E+08-6.87718E+10 2.23698E+07
 -1       672-4.56541E+11 7.06918E+07-1.73459E+11 2.37362E+08-6.89695E+10 1.15236E+07
 -1       673-4.53919E+11 1.61756E+08-1.72428E+11 3.64370E+08-6.90410E+10 7.26311E+05
 -1       674-4.50212E+11 1.29825E+08-1.71031E+11 4.94710E+08-6.89868E+10-9.99579E+06
 -1       675-4.45381E+11 9.04055E+07-1.69210E+11 6.07043E+08-6.88082E+10-2.06166E+07
 -1       676-4.39449E+11 7.71620E+07-1.66961E+11 7.43228E+08-6.85064E+10-3.11098E+07
 -1       677-4.32458E+11 1.41079E+08-1.64280E+11 8.64866E+08-6.80830E+10-4.14498E+07
 -1       678-4.24352E+11 1.26061E+08-1.61206E+11 9.89120E+08-6.75400E+10-5.16107E+07
 -1       679-4.15177E+11 8.67379E+07-1.57734E+11 1.11332E+09-6.68796E+10-6.15666E+07
 -1       680-4.04939E+11 7.38623E+07-1.53849E+11 1.22973E+09-6.61045E+10-7.12923E+07
 -1       681-3.93644E+11 1.65039E+08-1.49522E+11 1.35285E+09-6.52173E+10-8.07626E+07
 -1       682-3.81303E+11 7.15465E+07-1.44868E+11 1.46786E+09-6.42212E+10-8.99527E+07
 -1       683-3.67942E+11 7.69235E+07-1.39789E+11 1.58831E+09-6.31197E+10-9.88379E+07
 -1       684-3.53577E+11 1.42052E+08-1.34305E+11 1.70114E+09-6.19164E+10-1.07394E+08
 -1       685-3.38234E+11 9.67194E+07-1.28492E+11 1.81743E+09-6.06154E+10-1.15598E+08
 -1       686-3.21902E+11 6.16400E+07-1.22299E+11 1.91370E+09-5.92208E+10-1.23427E+08
 -1       687-3.04627E+11 8.47977E+07-1.15726E+11 2.03031E+09-5.77371E+10-1.30857E+08
 -1       688-2.86460E+11 1.36935E+08-1.08803E+11 2.13158E+09-5.61693E+10-1.37866E+08
 -1       689-2.67359E+11 5.91138E+07-1.01574E+11 2.23149E+09-5.45222E+10-1.44434E+08
 -1       690-2.47414E+11 7.28915E+07-9.39896E+10 2.33464E+09-5.28011E+10-1.50538E+08
 -1       691-2.26628E+11 1.01180E+08-8.60801E+10 2.42240E+09-5.10117E+10-1.56160E+08
 -1       692-2.05008E+11 8.06559E+07-7.78724E+10 2.51664E+09-4.91596E+10-1.61278E+08
 -1       693-1.82620E+11 7.13812E+07-6.93683E+10 2.60322E+09-4.72507E+10-1.65875E+08
 -1       694-1.59469E+11 5.91879E+07-6.05756E+10 2.68963E+09-4.52914E+10-1.69932E+08
 -1       695-1.35607E+11 8.17389E+07-5.14997E+10 2.77089E+09-4.32880E+10-1.73431E+08
 -1       696-1.11049E+11 6.87409E+07-4.21725E+10 2.84504E+09-4.12471E+10-1.76355E+08
 -1       697-8.58239E+10 5.99120E+07-3.25903E+10 2.91931E+09-3.91756E+10-1.78690E+08
 -1       698-5.99874E+10 5.42829E+07-2.27746E+10 2.99006E+09-3.70802E+10-1.80419E+08
 -1       699-3.35521E+10 5.64635E+07-1.27284E+10 3.05466E+09-3.49684E+10-1.81528E+08
 -1       700-6.56302E+09 5.70708E+07-2.47226E+09 3.11678E+09-3.28472E+10-1.82003E+08
 -1       701 2.09563E+10 4.53997E+07 7.98065E+09 3.17466E+09-3.07243E+10-1.81832E+08
 -1       702 4.89549E+10 5.19225E+07 1.86226E+10 3.22840E+09-2.86072E+10-1.81003E+08
 -1       703 7.74274E+10 2.79108E+07 2.94330E+10 3.27844E+09-2.65037E+10-1.79504E+08
 -1       704 1.06299E+11 5.25913E+07 4.04136E+10 3.32579E+09-2.44216E+10-1.77324E+08
 -1       705 1.35583E+11 3.46369E+07 5.15348E+10 3.36667E+09-2.23689E+10-1.74456E+08
 -1       706 1.65205E+11 3.87237E+07 6.27925E+10 3.40462E+09-2.03538E+10-1.70888E+08
 -1       707 1.95186E+11-2.12209E+06 7.41697E+10 3.44385E+09-1.83844E+10-1.66614E+08
 -1       708 2.25392E+11 5.93779E+07 8.56715E+10 3.47479E+09-1.64690E+10-1.61626E+08
 -1       709 2.55949E+11 1.85242E+07 9.72677E+10 3.50006E+09-1.46160E+10-1.55917E+08
 -1       710 2.86648E+11 1.29796E+07 1.08931E+11 3.52634E+09-1.28338E+10-1.49482E+08
 -1       711 3.17660E+11-1.91515E+07 1.20704E+11 3.54613E+09-1.11310E+10-1.42316E+08
 -1       712 3.48704E+11 9.75007E+07 1.32545E+11 3.56868E+09-9.51606E+09-1.34413E+08
 -1       713 3.80090E+11-3.98342E+07 1.44419E+11 3.58448E+09-7.99762E+09-1.25770E+08
 -1       714 4.11368E+11 3.01340E+07 1.56331E+11 3.59635E+09-6.58433E+09-1.16383E+08
 -1       715 4.43040E+11-5.35119E+07 1.68335E+11 3.60830E+09-5.28489E+09-1.06250E+08
 -1       716 4.74416E+11 1.39359E+08 1.80331E+11 3.60826E+09-4.10803E+09-9.53696E+07
 -1       717 5.06400E+11-8.20161E+07 1.92401E+11 3.62861E+09-3.06248E+09-8.37379E+07
 -1       718 5.37703E+11-3.76534E+08 2.04184E+11 3.62110E+09-2.15699E+09-7.13552E+07
 -1       719 5.69871E+11 2.14761E+09 2.17367E+11 3.66070E+09-1.40035E+09-5.82204E+07
 -1       720 6.01375E+11-8.43972E+09 2.25315E+11 3.50050E+09-8.01332E+08-4.43300E+07
 -1       721 6.32620E+11 3.13784E+10 2.52319E+11 4.11424E+09-3.68734E+08-2.96946E+07
 -1       722 6.68188E+11-1.15202E+11 2.10135E+11 1.84841E+09-1.11359E+08-1.42732E+07
 -1       723 6.86192E+11 4.20360E+11 4.20490E+11 1.01642E+10-2.75440E+07-6.35311E+06
 -1       724-2.71157E+08-1.43328E+08-1.57504E+08-6.07771E+05-8.92461E+10-3.58902E+08
 -1       725-9.56610E+08-1.38709E+08-4.16222E+08-1.63285E+08-8.71527E+10-3.58891E+08
 -1       726-3.04966E+09-1.34543E+08-1.21000E+09-3.18353E+08-8.29661E+10-3.58844E+08
 -1       727-6.47256E+09-1.24621E+08-2.50693E+09-4.66057E+08-7.87803E+10-3.58731E+08
 -1       728-1.11473E+10-1.22617E+08-4.28257E+09-6.05044E+08-7.45965E+10-3.58522E+08
 -1       729-1.70190E+10-1.03460E+08-6.50654E+09-7.38164E+08-7.04158E+10-3.58188E+08
 -1       730-2.40018E+10-1.20712E+08-9.16656E+09-8.62642E+08-6.62399E+10-3.57702E+08
 -1       731-3.20568E+10-8.58131E+07-1.22142E+10-9.78479E+08-6.20706E+10-3.57037E+08
 -1       732-4.10882E+10-1.01277E+08-1.56520E+10-1.08951E+09-5.79102E+10-3.56170E+08
 -1       733-5.10498E+10-8.41903E+07-1.94309E+10-1.18912E+09-5.37613E+10-3.55077E+08
 -1       734-6.18772E+10-6.63692E+07-2.35386E+10-1.28462E+09-4.96265E+10-3.53738E+08
 -1       735-7.34710E+10-9.63836E+07-2.79556E+10-1.37391E+09-4.55089E+10-3.52133E+08
 -1       736-8.58212E+10-5.58596E+07-3.26333E+10-1.44644E+09-4.14116E+10-3.50244E+08
 -1       737-9.88169E+10-4.08978E+07-3.75659E+10-1.52679E+09-3.73381E+10-3.48054E+08
 -1       738-1.12393E+11-7.58963E+07-4.27380E+10-1.58280E+09-3.32920E+10-3.45550E+08
 -1       739-1.26545E+11-5.77806E+07-4.81092E+10-1.64248E+09-2.92770E+10-3.42717E+08
 -1       740-1.41116E+11 6.30733E+06-5.36215E+10-1.69969E+09-2.52970E+10-3.39542E+08
 -1       741-1.56109E+11-9.88990E+07-5.93588E+10-1.73061E+09-2.13561E+10-3.36018E+08
 -1       742-1.71457E+11 2.40511E+07-6.51444E+10-1.77497E+09-1.74584E+10-3.32133E+08
 -1       743-1.87054E+11-5.14405E+07-7.10999E+10-1.79507E+09-1.36082E+10-3.27881E+08
 -1       744-2.02908E+11-3.99581E+06-7.71064E+10-1.82089E+09-9.80970E+09-3.23257E+08
 -1       745-2.18880E+11 2.57581E+07-8.31647E+10-1.83998E+09-6.06739E+09-3.18255E+08
 -1       746-2.34954E+11-8.28154E+07-8.93140E+10-1.84038E+09-2.38563E+09-3.12873E+08
 -1       747-2.51097E+11 7.51083E+07-9.53883E+10-1.84374E+09 1.23112E+09-3.07109E+08
 -1       748-2.67189E+11-3.20821E+07-1.01544E+11-1.83680E+09 4.77841E+09-3.00962E+08
 -1       749-2.83223E+11 2.84406E+07-1.07614E+11-1.82821E+09 8.25176E+09-2.94435E+08
 -1       750-2.99111E+11 1.83397E+07-1.13655E+11-1.80976E+09 1.16467E+10-2.87529E+08
 -1       751-3.14812E+11-1.77318E+06-1.19629E+11-1.78209E+09 1.49590E+10-2.80248E+08
 -1       752-3.30302E+11 5.05196E+07-1.25496E+11-1.74982E+09 1.81841E+10-2.72598E+08
 -1       753-3.45483E+11 5.66507E+07-1.31262E+11-1.72155E+09 2.13178E+10-2.64584E+08
 -1       754-3.60304E+11 1.53158E+07-1.36910E+11-1.67782E+09 2.43560E+10-2.56214E+08
 -1       755-3.74767E+11 1.64975E+07-1.42405E+11-1.62661E+09 2.72945E+10-2.47497E+08
 -1       756-3.88788E+11 1.07525E+08-1.47699E+11-1.57611E+09 3.01293E+10-2.38441E+08
 -1       757-4.02324E+11 1.27001E+07-1.52878E+11-1.51661E+09 3.28566E+10-2.29060E+08
 -1       758-4.15333E+11 6.97989E+07-1.57800E+11-1.45885E+09 3.54726E+10-2.19363E+08
 -1       759-4.27782E+11 5.22676E+07-1.62537E+11-1.38698E+09 3.79736E+10-2.09365E+08
 -1       760-4.39633E+11 7.34095E+07-1.67033E+11-1.32046E+09 4.03564E+10-1.99078E+08
 -1       761-4.50808E+11 6.78993E+07-1.71281E+11-1.24492E+09 4.26175E+10-1.88518E+08
 -1       762-4.61340E+11 3.84804E+07-1.75295E+11-1.15448E+09 4.47539E+10-1.77701E+08
 -1       763-4.71157E+11 1.05495E+08-1.78999E+11-1.08443E+09 4.67627E+10-1.66642E+08
 -1       764-4.80201E+11 1.03013E+08-1.82437E+11-9.92007E+08 4.86412E+10-1.55360E+08
 -1       765-4.88481E+11 5.62754E+07-1.85601E+11-9.04220E+08 5.03868E+10-1.43872E+08
 -1       766-4.95962E+11 4.19540E+07-1.88450E+11-8.05502E+08 5.19973E+10-1.32198E+08
 -1       767-5.02619E+11 1.62382E+08-1.90933E+11-7.11779E+08 5.34707E+10-1.20355E+08
 -1       768-5.08415E+11 4.64757E+07-1.93180E+11-6.10395E+08 5.48049E+10-1.08365E+08
 -1       769-5.13335E+11 6.69947E+07-1.95042E+11-5.15184E+08 5.59986E+10-9.62485E+07
 -1       770-5.17363E+11 1.14226E+08-1.96555E+11-4.08808E+08 5.70502E+10-8.40254E+07
 -1       771-5.20498E+11 1.22569E+08-1.97743E+11-3.04106E+08 5.79587E+10-7.17173E+07
 -1       772-5.22664E+11 9.55666E+07-1.98576E+11-2.00486E+08 5.87233E+10-5.93464E+07
 -1       773-5.23942E+11 2.28938E+07-1.99089E+11-7.79405E+07 5.93433E+10-4.69347E+07
 -1       774-5.24276E+11 1.57422E+08-1.99165E+11 9.61264E+06 5.98183E+10-3.45037E+07
 -1       775-5.23595E+11 7.60038E+07-1.98937E+11 1.25413E+08 6.01484E+10-2.20770E+07
 -1       776-5.22008E+11 7.19874E+07-1.98336E+11 2.40915E+08 6.03336E+10-9.67710E+06
 -1       777-5.19448E+11 1.21950E+08-1.97344E+11 3.48573E+08 6.03744E+10 2.67363E+06
 -1       778-5.15933E+11 1.24786E+08-1.96007E+11 4.64085E+08 6.02715E+10 1.49522E+07
 -1       779-5.11439E+11 7.29609E+07-1.94319E+11 5.59130E+08 6.00259E+10 2.71359E+07
 -1       780-5.05975E+11 5.95458E+07-1.92248E+11 6.80157E+08 5.96388E+10 3.92014E+07
 -1       781-4.99602E+11 1.26910E+08-1.89801E+11 7.85337E+08 5.91118E+10 5.11266E+07
 -1       782-4.92266E+11 1.22546E+08-1.87015E+11 8.93019E+08 5.84466E+10 6.28892E+07
 -1       783-4.83970E+11 6.31159E+07-1.83884E+11 9.95762E+08 5.76452E+10 7.44665E+07
 -1       784-4.74798E+11 5.30709E+07-1.80403E+11 1.11095E+09 5.67099E+10 8.58365E+07
 -1       785-4.64719E+11 1.59219E+08-1.76533E+11 1.20013E+09 5.56433E+10 9.69782E+07
 -1       786-4.53706E+11 7.49007E+07-1.72380E+11 1.30341E+09 5.44482E+10 1.07870E+08
 -1       787-4.41866E+11 4.10334E+07-1.67894E+11 1.40883E+09 5.31275E+10 1.18491E+08
 -1       788-4.29171E+11 8.01093E+07-1.63055E+11 1.49729E+09 5.16847E+10 1.28820E+08
 -1       789-4.15658E+11 1.34800E+08-1.57899E+11 1.59726E+09 5.01231E+10 1.38839E+08
 -1       790-4.01329E+11 5.23669E+07-1.52485E+11 1.67509E+09 4.84466E+10 1.48528E+08
 -1       791-3.86220E+11 3.67442E+07-1.46750E+11 1.77160E+09 4.66590E+10 1.57867E+08
 -1       792-3.70410E+11 1.38707E+08-1.40703E+11 1.85224E+09 4.47646E+10 1.66840E+08
 -1       793-3.53831E+11 3.17244E+07-1.34444E+11 1.93020E+09 4.27678E+10 1.75429E+08
 -1       794-3.36607E+11 4.88365E+07-1.27892E+11 2.01425E+09 4.06730E+10 1.83617E+08
 -1       795-3.18735E+11 8.59905E+07-1.21087E+11 2.07678E+09 3.84852E+10 1.91388E+08
 -1       796-3.00224E+11 6.72763E+07-1.14060E+11 2.14859E+09 3.62092E+10 1.98728E+08
 -1       797-2.81153E+11 4.19797E+07-1.06822E+11 2.21091E+09 3.38502E+10 2.05623E+08
 -1       798-2.61532E+11 3.31043E+07-9.93696E+10 2.27357E+09 3.14134E+10 2.12059E+08
 -1       799-2.41429E+11 6.08894E+07-9.17199E+10 2.32980E+09 2.89042E+10 2.18023E+08
 -1       800-2.20853E+11 6.62421E+07-8.38991E+10 2.37487E+09 2.63283E+10 2.23505E+08
 -1       801-1.99844E+11 1.51641E+07-7.59348E+10 2.42321E+09 2.36913E+10 2.28494E+08
 -1       802-1.78476E+11 9.06481E+06-6.78176E+10 2.46378E+09 2.09990E+10 2.32981E+08
 -1       803-1.56771E+11 6.82305E+07-5.95472E+10 2.49965E+09 1.82573E+10 2.36956E+08
 -1       804-1.34764E+11 7.86424E+06-5.12072E+10 2.52949E+09 1.54723E+10 2.40414E+08
 -1       805-1.12519E+11 1.59118E+07-4.27512E+10 2.55793E+09 1.26500E+10 2.43346E+08
 -1       806-9.00749E+10 2.48104E+07-3.42190E+10 2.57529E+09 9.79654E+09 2.45748E+08
 -1       807-6.74640E+10 9.52448E+06-2.56327E+10 2.59150E+09 6.91820E+09 2.47617E+08
 -1       808-4.47506E+10 5.98035E+06-1.70030E+10 2.60132E+09 4.02118E+09 2.48947E+08
 -1       809-2.19708E+10 3.23910E+04-8.34889E+09 2.60636E+09 1.11179E+09 2.49738E+08
 -1       810 8.27092E+08-3.01025E+06 3.13150E+08 2.60549E+09-1.80367E+09 2.49989E+08
 -1       811 2.35943E+10-6.10720E+06 8.96353E+09 2.60009E+09-4.71890E+09 2.49699E+08
 -1       812 4.62875E+10-1.04423E+07 1.75853E+10 2.58805E+09-7.62760E+09 2.48870E+08
 -1       813 6.88608E+10-1.58031E+07 2.61611E+10 2.57164E+09-1.05235E+10 2.47505E+08
 -1       814 9.12628E+10-3.84256E+07 3.46653E+10 2.54960E+09-1.34004E+10 2.45606E+08
 -1       815 1.13455E+11-1.08726E+07 4.31087E+10 2.52188E+09-1.62520E+10 2.43178E+08
 -1       816 1.35385E+11-1.86155E+07 5.14390E+10 2.49253E+09-1.90722E+10 2.40227E+08
 -1       817 1.57009E+11-4.69749E+07 5.96457E+10 2.45291E+09-2.18550E+10 2.36759E+08
 -1       818 1.78295E+11-5.36668E+07 6.77315E+10 2.41071E+09-2.45944E+10 2.32782E+08
 -1       819 1.99168E+11-2.96702E+07 7.56725E+10 2.36465E+09-2.72845E+10 2.28306E+08
 -1       820 2.19626E+11-3.01531E+07 8.34465E+10 2.30754E+09-2.99194E+10 2.23339E+08
 -1       821 2.39609E+11-9.31322E+07 9.10161E+10 2.25701E+09-3.24936E+10 2.17893E+08
 -1       822 2.59046E+11-3.00494E+07 9.84262E+10 2.19429E+09-3.50015E+10 2.11980E+08
 -1       823 2.77948E+11-4.78826E+07 1.05602E+11 2.12493E+09-3.74378E+10 2.05611E+08
 -1       824 2.96257E+11-7.91903E+07 1.12548E+11 2.05616E+09-3.97972E+10 1.98801E+08
 -1       825 3.13913E+11-8.42613E+07 1.19255E+11 1.98124E+09-4.20747E+10 1.91565E+08
 -1       826 3.30913E+11-5.53904E+07 1.25726E+11 1.90087E+09-4.42653E+10 1.83918E+08
 -1       827 3.47198E+11-4.94869E+07 1.31917E+11 1.82235E+09-4.63644E+10 1.75876E+08
 -1       828 3.62743E+11-1.17829E+08 1.37798E+11 1.73306E+09-4.83674E+10 1.67457E+08
 -1       829 3.77534E+11-8.91801E+07 1.43429E+11 1.64168E+09-5.02702E+10 1.58678E+08
 -1       830 3.91486E+11-3.55228E+07 1.48751E+11 1.55496E+09-5.20685E+10 1.49558E+08
 -1       831 4.04643E+11-7.75594E+07 1.53735E+11 1.44667E+09-5.37585E+10 1.40116E+08
 -1       832 4.16950E+11-1.56438E+08 1.58381E+11 1.35890E+09-5.53365E+10 1.30373E+08
 -1       833 4.28322E+11-4.71927E+07 1.62745E+11 1.25430E+09-5.67993E+10 1.20349E+08
 -1       834 4.38834E+11-7.79987E+07 1.66727E+11 1.14460E+09-5.81436E+10 1.10065E+08
 -1       835 4.48403E+11-1.11522E+08 1.70351E+11 1.03934E+09-5.93665E+10 9.95431E+07
 -1       836 4.57046E+11-1.27974E+08 1.73629E+11 9.25434E+08-6.04653E+10 8.88053E+07
 -1       837 4.64689E+11-7.71630E+07 1.76553E+11 8.27702E+08-6.14378E+10 7.78744E+07
 -1       838 4.71359E+11-5.15983E+07 1.79097E+11 7.03324E+08-6.22817E+10 6.67737E+07
 -1       839 4.77076E+11-1.86823E+08 1.81218E+11 5.92330E+08-6.29952E+10 5.55260E+07
 -1       840 4.81726E+11-5.27712E+07 1.83036E+11 4.79117E+08-6.35768E+10 4.41555E+07
 -1       841 4.85410E+11-7.17388E+07 1.84428E+11 3.52385E+08-6.40251E+10 3.26862E+07
 -1       842 4.88071E+11-1.72654E+08 1.85401E+11 2.48741E+08-6.43392E+10 2.11416E+07
 -1       843 4.89672E+11-9.27859E+07 1.86040E+11 1.22649E+08-6.45183E+10 9.54642E+06
 -1       844 4.90268E+11-5.25894E+07 1.86282E+11 1.39811E+07-6.45619E+10-2.07486E+06
 -1       845 4.89828E+11-1.13515E+08 1.86091E+11-1.12624E+08-6.44699E+10-1.36979E+07
 -1       846 4.88360E+11-1.13203E+08 1.85534E+11-2.27396E+08-6.42424E+10-2.52983E+07
 -1       847 4.85891E+11-1.37265E+08 1.84587E+11-3.49671E+08-6.38799E+10-3.68520E+07
 -1       848 4.82363E+11-7.87298E+07 1.83268E+11-4.51158E+08-6.33829E+10-4.83346E+07
 -1       849 4.77831E+11-5.19057E+07 1.81556E+11-5.78182E+08-6.27525E+10-5.97215E+07
 -1       850 4.72341E+11-1.83790E+08 1.79420E+11-6.89024E+08-6.19900E+10-7.09896E+07
 -1       851 4.65799E+11-5.09238E+07 1.76984E+11-7.98337E+08-6.10968E+10-8.21151E+07
 -1       852 4.58328E+11-7.34391E+07 1.74137E+11-9.19494E+08-6.00748E+10-9.30743E+07
 -1       853 4.49899E+11-1.26858E+08 1.70913E+11-1.01486E+09-5.89260E+10-1.03845E+08
 -1       854 4.40500E+11-1.02875E+08 1.67351E+11-1.12649E+09-5.76527E+10-1.14404E+08
 -1       855 4.30199E+11-1.03063E+08 1.63436E+11-1.22819E+09-5.62576E+10-1.24730E+08
 -1       856 4.18990E+11-2.20894E+07 1.59208E+11-1.33624E+09-5.47435E+10-1.34800E+08
 -1       857 4.06946E+11-1.31255E+08 1.54590E+11-1.43226E+09-5.31135E+10-1.44595E+08
 -1       858 3.94010E+11-7.89080E+07 1.49694E+11-1.51850E+09-5.13710E+10-1.54094E+08
 -1       859 3.80257E+11-4.67879E+07 1.44480E+11-1.61951E+09-4.95195E+10-1.63276E+08
 -1       860 3.65750E+11-1.03774E+08 1.38946E+11-1.70561E+09-4.75628E+10-1.72122E+08
 -1       861 3.50459E+11-9.24866E+07 1.33139E+11-1.79060E+09-4.55049E+10-1.80616E+08
 -1       862 3.34431E+11-4.56711E+07 1.27066E+11-1.86975E+09-4.33501E+10-1.88738E+08
 -1       863 3.17738E+11-4.96921E+07 1.20722E+11-1.95406E+09-4.11027E+10-1.96472E+08
 -1       864 3.00383E+11-8.39892E+07 1.14114E+11-2.01784E+09-3.87676E+10-2.03802E+08
 -1       865 2.82397E+11-6.63358E+07 1.07285E+11-2.08996E+09-3.63493E+10-2.10713E+08
 -1       866 2.63837E+11-4.65124E+07 1.00241E+11-2.15231E+09-3.38529E+10-2.17191E+08
 -1       867 2.44735E+11-2.58670E+07 9.29896E+10-2.21480E+09-3.12835E+10-2.23222E+08
 -1       868 2.25152E+11-8.01367E+07 8.55274E+10-2.27031E+09-2.86464E+10-2.28794E+08
 -1       869 2.05091E+11-3.77700E+07 7.79201E+10-2.31433E+09-2.59471E+10-2.33896E+08
 -1       870 1.84615E+11-1.39741E+07 7.01485E+10-2.36466E+09-2.31910E+10-2.38518E+08
 -1       871 1.63790E+11-3.86271E+07 6.22254E+10-2.40113E+09-2.03838E+10-2.42649E+08
 -1       872 1.42619E+11-4.16982E+07 5.41794E+10-2.43686E+09-1.75314E+10-2.46283E+08
 -1       873 1.21179E+11-1.72481E+07 4.60416E+10-2.46662E+09-1.46395E+10-2.49411E+08
 -1       874 9.95028E+10-1.07992E+07 3.78070E+10-2.48940E+09-1.17141E+10-2.52028E+08
 -1       875 7.76401E+10-2.55345E+07 2.94935E+10-2.50862E+09-8.76117E+09-2.54128E+08
 -1       876 5.56370E+10-4.99501E+06 2.11402E+10-2.52150E+09-5.78675E+09-2.55709E+08
 -1       877 3.35412E+10-1.26090E+06 1.27452E+10-2.52981E+09-2.79695E+09-2.56766E+08
 -1       878 1.14035E+10-4.90445E+06 4.33147E+09-2.53202E+09 2.02125E+08-2.57299E+08
 -1       879-1.07346E+10 1.04316E+07-4.07518E+09-2.52883E+09 3.20435E+09-2.57306E+08
 -1       880-3.28179E+10 6.04640E+06-1.24685E+10-2.52040E+09 6.20361E+09-2.56790E+08
 -1       881-5.48049E+10 1.37360E+07-2.08206E+10-2.50572E+09 9.19379E+09-2.55750E+08
 -1       882-7.66458E+10 1.82137E+07-2.91185E+10-2.48648E+09 1.21688E+10-2.54191E+08
 -1       883-9.82899E+10 4.13907E+07-3.73344E+10-2.46129E+09 1.51227E+10-2.52116E+08
 -1       884-1.19696E+11 1.52528E+07-4.54786E+10-2.43030E+09 1.80493E+10-2.49531E+08
 -1       885-1.40811E+11 1.43792E+07-5.35026E+10-2.39777E+09 2.09428E+10-2.46442E+08
 -1       886-1.61596E+11 7.23745E+07-6.13790E+10-2.35444E+09 2.37974E+10-2.42855E+08
 -1       887-1.81996E+11 2.57854E+07-6.91486E+10-2.31001E+09 2.66073E+10-2.38780E+08
 -1       888-2.01969E+11 3.70606E+07-7.67342E+10-2.25646E+09 2.93669E+10-2.34227E+08
 -1       889-2.21490E+11 5.99371E+07-8.41436E+10-2.19904E+09 3.20705E+10-2.29204E+08
 -1       890-2.40491E+11 7.51241E+07-9.13582E+10-2.14345E+09 3.47130E+10-2.23726E+08
 -1       891-2.58921E+11 4.26496E+07-9.83736E+10-2.07641E+09 3.72889E+10-2.17803E+08
 -1       892-2.76779E+11 4.18044E+07-1.05160E+11-2.00320E+09 3.97931E+10-2.11450E+08
 -1       893-2.93997E+11 1.12526E+08-1.11676E+11-1.92922E+09 4.22209E+10-2.04681E+08
 -1       894-3.10539E+11 4.62109E+07-1.17987E+11-1.84912E+09 4.45673E+10-1.97511E+08
 -1       895-3.26367E+11 6.22448E+07-1.23996E+11-1.76948E+09 4.68278E+10-1.89958E+08
 -1       896-3.41453E+11 8.33196E+07-1.29720E+11-1.67928E+09 4.89980E+10-1.82038E+08
 -1       897-3.55762E+11 1.36799E+08-1.35137E+11-1.58815E+09 5.10738E+10-1.73770E+08
 -1       898-3.69235E+11 3.75089E+07-1.40295E+11-1.49351E+09 5.30512E+10-1.65172E+08
 -1       899-3.81888E+11 4.50932E+07-1.45100E+11-1.39138E+09 5.49265E+10-1.56264E+08
 -1       900-3.93661E+11 1.43064E+08-1.49537E+11-1.29731E+09 5.66961E+10-1.47066E+08
 -1       901-4.04513E+11 1.06450E+08-1.53675E+11-1.18764E+09 5.83569E+10-1.37601E+08
 -1       902-4.14441E+11 7.71042E+07-1.57458E+11-1.08280E+09 5.99058E+10-1.27889E+08
 -1       903-4.23418E+11 6.35287E+07-1.60875E+11-9.67378E+08 6.13400E+10-1.17952E+08
 -1       904-4.31422E+11 1.65390E+08-1.63877E+11-8.55871E+08 6.26572E+10-1.07815E+08
 -1       905-4.38418E+11 6.66183E+07-1.66574E+11-7.38953E+08 6.38549E+10-9.74990E+07
 -1       906-4.44395E+11 8.44876E+07-1.68838E+11-6.26553E+08 6.49315E+10-8.70296E+07
 -1       907-4.49338E+11 1.24764E+08-1.70701E+11-5.03749E+08 6.58851E+10-7.64307E+07
 -1       908-4.53242E+11 1.37420E+08-1.72180E+11-3.83343E+08 6.67144E+10-6.57269E+07
 -1       909-4.56047E+11 8.08948E+07-1.73267E+11-2.63447E+08 6.74184E+10-5.49435E+07
 -1       910-4.57816E+11 6.43563E+07-1.73945E+11-1.30027E+08 6.79962E+10-4.41059E+07
 -1       911-4.58502E+11 2.19913E+08-1.74147E+11-1.77272E+07 6.84474E+10-3.32392E+07
 -1       912-4.58047E+11 3.49531E+07-1.74045E+11 1.11804E+08 6.87718E+10-2.23698E+07
 -1       913-4.56541E+11 7.06919E+07-1.73459E+11 2.37361E+08 6.89695E+10-1.15236E+07
 -1       914-4.53919E+11 1.61756E+08-1.72428E+11 3.64369E+08 6.90410E+10-7.26342E+05
 -1       915-4.50212E+11 1.29825E+08-1.71031E+11 4.94709E+08 6.89868E+10 9.99576E+06
 -1       916-4.45381E+11 9.04055E+07-1.69210E+11 6.07042E+08 6.88082E+10 2.06166E+07
 -1       917-4.39449E+11 7.71619E+07-1.66961E+11 7.43227E+08 6.85064E+10 3.11098E+07
 -1       918-4.32458E+11 1.41079E+08-1.64280E+11 8.64866E+08 6.80830E+10 4.14497E+07
 -1       919-4.24352E+11 1.26061E+08-1.61206E+11 9.89121E+08 6.75400E+10 5.16107E+07
 -1       920-4.15177E+11 8.67379E+07-1.57734E+11 1.11332E+09 6.68796E+10 6.15666E+07
 -1       921-4.04939E+11 7.38623E+07-1.53849E+11 1.22973E+09 6.61045E+10 7.12923E+07
 -1       922-3.93644E+11 1.65039E+08-1.49522E+11 1.35285E+09 6.52173E+10 8.07626E+07
 -1       923-3.81303E+11 7.15464E+07-1.44868E+11 1.46786E+09 6.42212E+10 8.99527E+07
 -1       924-3.67942E+11 7.69235E+07-1.39789E+11 1.58831E+09 6.31197E+10 9.88379E+07
 -1       925-3.53577E+11 1.42052E+08-1.34305E+11 1.70114E+09 6.19164E+10 1.07394E+08
 -1       926-3.38234E+11 9.67194E+07-1.28492E+11 1.81743E+09 6.06154E+10 1.15598E+08
 -1       927-3.21902E+11 6.16399E+07-1.22299E+11 1.91370E+09 5.92208E+10 1.23427E+08
 -1       928-3.04627E+11 8.47976E+07-1.15726E+11 2.03031E+09 5.77371E+10 1.30857E+08
 -1       929-2.86460E+11 1.36935E+08-1.08803E+11 2.13158E+09 5.61693E+10 1.37866E+08
 -1       930-2.67359E+11 5.91140E+07-1.01574E+11 2.23149E+09 5.45222E+10 1.44434E+08
 -1       931-2.47414E+11 7.28915E+07-9.39896E+10 2.33464E+09 5.28011E+10 1.50538E+08
 -1       932-2.26628E+11 1.01180E+08-8.60801E+10 2.42240E+09 5.10117E+10 1.56160E+08
 -1       933-2.05008E+11 8.06559E+07-7.78724E+10 2.51664E+09 4.91596E+10 1.61278E+08
 -1       934-1.82620E+11 7.13812E+07-6.93683E+10 2.60322E+09 4.72507E+10 1.65875E+08
 -1       935-1.59469E+11 5.91879E+07-6.05756E+10 2.68963E+09 4.52914E+10 1.69932E+08
 -1       936-1.35607E+11 8.17389E+07-5.14997E+10 2.77089E+09 4.32880E+10 1.73431E+08
 -1       937-1.11049E+11 6.87409E+07-4.21725E+10 2.84504E+09 4.12471E+10 1.76355E+08
 -1       938-8.58239E+10 5.99119E+07-3.25903E+10 2.91931E+09 3.91756E+10 1.78690E+08
 -1       939-5.99874E+10 5.42829E+07-2.27746E+10 2.99006E+09 3.70802E+10 1.80419E+08
 -1       940-3.35521E+10 5.64634E+07-1.27284E+10 3.05466E+09 3.49684E+10 1.81528E+08
 -1       941-6.56302E+09 5.70708E+07-2.47226E+09 3.11678E+09 3.28472E+10 1.82003E+08
 -1       942 2.09563E+10 4.53998E+07 7.98065E+09 3.17466E+09 3.07243E+10 1.81832E+08
 -1       943 4.89549E+10 5.19225E+07 1.86226E+10 3.22840E+09 2.86072E+10 1.81003E+08
 -1       944 7.74274E+10 2.79109E+07 2.94330E+10 3.27844E+09 2.65037E+10 1.79504E+08
 -1       945 1.06299E+11 5.25913E+07 4.04136E+10 3.32579E+09 2.44216E+10 1.77324E+08
 -1       946 1.35583E+11 3.46369E+07 5.15348E+10 3.36667E+09 2.23689E+10 1.74456E+08
 -1       947 1.65205E+11 3.87237E+07 6.27925E+10 3.40462E+09 2.03538E+10 1.70888E+08
 -1       948 1.95186E+11-2.12206E+06 7.41697E+10 3.44385E+09 1.83844E+10 1.66614E+08
 -1       949 2.25392E+11 5.93779E+07 8.56715E+10 3.47479E+09 1.64690E+10 1.61626E+08
 -1       950 2.55949E+11 1.85242E+07 9.72677E+10 3.50006E+09 1.46160E+10 1.55917E+08
 -1       951 2.86648E+11 1.29796E+07 1.08931E+11 3.52634E+09 1.28338E+10 1.49482E+08
 -1       952 3.17660E+11-1.91515E+07 1.20704E+11 3.54613E+09 1.11310E+10 1.42315E+08
 -1       953 3.48704E+11 9.75007E+07 1.32545E+11 3.56868E+09 9.51606E+09 1.34413E+08
 -1       954 3.80090E+11-3.98341E+07 1.44419E+11 3.58448E+09 7.99762E+09 1.25769E+08
 -1       955 4.11368E+11 3.01340E+07 1.56331E+11 3.59635E+09 6.58433E+09 1.16383E+08
 -1       956 4.43040E+11-5.35119E+07 1.68335E+11 3.60830E+09 5.28489E+09 1.06250E+08
 -1       957 4.74416E+11 1.39359E+08 1.80331E+11 3.60826E+09 4.10803E+09 9.53696E+07
 -1       958 5.06400E+11-8.20161E+07 1.92401E+11 3.62861E+09 3.06248E+09 8.37379E+07
 -1       959 5.37703E+11-3.76534E+08 2.04184E+11 3.62110E+09 2.15699E+09 7.13552E+07
 -1       960 5.69871E+11 2.14761E+09 2.17367E+11 3.66070E+09 1.40035E+09 5.82204E+07
 -1       961 6.01375E+11-8.43972E+09 2.25315E+11 3.50050E+09 8.01332E+08 4.43299E+07
 -1       962 6.32620E+11 3.13784E+10 2.52319E+11 4.11424E+09 3.68733E+08 2.96946E+07
 -1       963 6.68188E+11-1.15202E+11 2.10135E+11 1.84841E+09 1.11359E+08 1.42732E+07
 -1       964 6.86192E+11 4.20360E+11 4.20490E+11 1.01642E+10 2.75440E+07 6.35311E+06
 -1       965-2.12685E+04-1.13535E+04-1.24046E+04-2.22917E+07 8.92461E+10 2.87070E+04
 -1       966-7.65737E+04-1.09132E+04-3.32341E+04-2.23024E+08 8.71527E+10 2.87061E+04
 -1       967-2.43990E+05-1.08486E+04-9.68301E+04-4.38174E+08 8.29661E+10 2.87023E+04
 -1       968-5.17949E+05-9.52015E+03-2.00452E+05-6.38969E+08 7.87804E+10 2.86933E+04
 -1       969-8.91649E+05-9.90284E+03-3.42590E+05-8.33458E+08 7.45965E+10 2.86766E+04
 -1       970-1.36144E+06-8.40966E+03-5.20546E+05-1.01304E+09 7.04158E+10 2.86498E+04
 -1       971-1.92025E+06-8.86020E+03-7.33074E+05-1.18449E+09 6.62399E+10 2.86109E+04
 -1       972-2.56407E+06-7.42011E+03-9.77168E+05-1.34815E+09 6.20707E+10 2.85577E+04
 -1       973-3.28700E+06-7.50885E+03-1.25192E+06-1.49329E+09 5.79103E+10 2.84884E+04
 -1       974-4.08344E+06-6.88121E+03-1.55432E+06-1.63961E+09 5.37613E+10 2.84010E+04
 -1       975-4.94958E+06-5.75779E+03-1.88302E+06-1.76425E+09 4.96265E+10 2.82939E+04
 -1       976-5.87747E+06-6.32973E+03-2.23584E+06-1.88183E+09 4.55089E+10 2.81655E+04
 -1       977-6.86509E+06-4.58638E+03-2.61048E+06-2.00064E+09 4.14117E+10 2.80143E+04
 -1       978-7.90384E+06-5.29867E+03-3.00547E+06-2.08520E+09 3.73382E+10 2.78391E+04
 -1       979-8.99139E+06-4.01491E+03-3.41825E+06-2.18499E+09 3.32920E+10 2.76388E+04
 -1       980-1.01226E+07-3.54729E+03-3.84795E+06-2.26388E+09 2.92771E+10 2.74121E+04
 -1       981-1.12875E+07-3.28489E+03-4.29049E+06-2.31773E+09 2.52971E+10 2.71581E+04
 -1       982-1.24885E+07-2.88134E+03-4.74673E+06-2.39342E+09 2.13562E+10 2.68762E+04
 -1       983-1.37145E+07-1.86674E+03-5.21222E+06-2.43283E+09 1.74585E+10 2.65655E+04
 -1       984-1.49632E+07-2.18681E+03-5.68683E+06-2.47403E+09 1.36082E+10 2.62254E+04
 -1       985-1.62309E+07-8.82522E+02-6.16808E+06-2.50973E+09 9.80975E+09 2.58554E+04
 -1       986-1.75082E+07-7.42486E+02-6.65342E+06-2.50923E+09 6.06742E+09 2.54553E+04
 -1       987-1.87958E+07-7.71839E+02-7.14270E+06-2.54191E+09 2.38565E+09 2.50248E+04
 -1       988-2.00846E+07 9.27304E+02-7.63179E+06-2.53366E+09-1.23110E+09 2.45637E+04
 -1       989-2.13733E+07-2.97980E+02-8.12198E+06-2.52750E+09-4.77839E+09 2.40720E+04
 -1       990-2.26558E+07 1.96067E+03-8.60848E+06-2.51149E+09-8.25174E+09 2.35498E+04
 -1       991-2.39262E+07 7.72839E+02-9.09168E+06-2.48114E+09-1.16467E+10 2.29974E+04
 -1       992-2.51831E+07 2.09025E+03-9.56880E+06-2.45723E+09-1.49590E+10 2.24149E+04
 -1       993-2.64212E+07 2.44078E+03-1.00391E+07-2.41514E+09-1.81841E+10 2.18029E+04
 -1       994-2.76353E+07 2.45582E+03-1.05005E+07-2.35659E+09-2.13179E+10 2.11618E+04
 -1       995-2.88224E+07 3.28105E+03-1.09513E+07-2.29896E+09-2.43560E+10 2.04922E+04
 -1       996-2.99787E+07 3.35488E+03-1.13906E+07-2.24563E+09-2.72946E+10 1.97948E+04
 -1       997-3.10989E+07 3.71343E+03-1.18162E+07-2.16547E+09-3.01294E+10 1.90705E+04
 -1       998-3.21834E+07 4.28368E+03-1.22280E+07-2.08960E+09-3.28567E+10 1.83201E+04
 -1       999-3.32235E+07 4.53489E+03-1.26232E+07-2.00097E+09-3.54726E+10 1.75445E+04
 -1      1000-3.42190E+07 4.52685E+03-1.30015E+07-1.91159E+09-3.79737E+10 1.67446E+04
 -1      1001-3.51673E+07 5.66561E+03-1.33614E+07-1.81214E+09-4.03565E+10 1.59217E+04
 -1      1002-3.60609E+07 4.84226E+03-1.37013E+07-1.70032E+09-4.26176E+10 1.50769E+04
 -1      1003-3.69044E+07 5.74422E+03-1.40215E+07-1.61299E+09-4.47541E+10 1.42116E+04
 -1      1004-3.76885E+07 6.57484E+03-1.43191E+07-1.47533E+09-4.67629E+10 1.33270E+04
 -1      1005-3.84111E+07 5.11670E+03-1.45943E+07-1.36530E+09-4.86413E+10 1.24244E+04
 -1      1006-3.90756E+07 7.11658E+03-1.48461E+07-1.23275E+09-5.03870E+10 1.15054E+04
 -1      1007-3.96738E+07 6.55278E+03-1.50735E+07-1.11867E+09-5.19975E+10 1.05716E+04
 -1      1008-4.02038E+07 6.24225E+03-1.52751E+07-9.78360E+08-5.34708E+10 9.62432E+03
 -1      1009-4.06701E+07 7.35521E+03-1.54518E+07-8.43468E+08-5.48051E+10 8.66514E+03
 -1      1010-4.10635E+07 7.17872E+03-1.56014E+07-7.04341E+08-5.59988E+10 7.69572E+03
 -1      1011-4.13843E+07 6.92180E+03-1.57234E+07-5.62009E+08-5.70504E+10 6.71791E+03
 -1      1012-4.16349E+07 7.65346E+03-1.58183E+07-4.20368E+08-5.79590E+10 5.73341E+03
 -1      1013-4.18091E+07 6.90609E+03-1.58848E+07-2.61065E+08-5.87236E+10 4.74375E+03
 -1      1014-4.19128E+07 7.83768E+03-1.59239E+07-1.42864E+08-5.93436E+10 3.75075E+03
 -1      1015-4.19371E+07 8.19373E+03-1.59330E+07 3.63823E+07-5.98186E+10 2.75639E+03
 -1      1016-4.18834E+07 6.52829E+03-1.59132E+07 1.81326E+08-6.01487E+10 1.76234E+03
 -1      1017-4.17576E+07 8.49229E+03-1.58647E+07 3.19549E+08-6.03339E+10 7.70349E+02
 -1      1018-4.15509E+07 7.19446E+03-1.57866E+07 4.80369E+08-6.03747E+10-2.17642E+02
 -1      1019-4.12699E+07 7.52944E+03-1.56797E+07 6.20604E+08-6.02718E+10-1.19987E+03
 -1      1020-4.09120E+07 8.24177E+03-1.55434E+07 7.96580E+08-6.00262E+10-2.17452E+03
 -1      1021-4.04747E+07 6.88481E+03-1.53778E+07 9.21918E+08-5.96392E+10-3.13969E+03
 -1      1022-3.99637E+07 7.70948E+03-1.51833E+07 1.08056E+09-5.91122E+10-4.09366E+03
 -1      1023-3.93766E+07 7.53351E+03-1.49602E+07 1.22605E+09-5.84470E+10-5.03470E+03
 -1      1024-3.87147E+07 6.83165E+03-1.47090E+07 1.38081E+09-5.76456E+10-5.96081E+03
 -1      1025-3.79810E+07 7.59408E+03-1.44299E+07 1.50136E+09-5.67104E+10-6.87028E+03
 -1      1026-3.71726E+07 7.12106E+03-1.41229E+07 1.66415E+09-5.56438E+10-7.76157E+03
 -1      1027-3.62927E+07 6.18749E+03-1.37889E+07 1.80146E+09-5.44487E+10-8.63284E+03
 -1      1028-3.53475E+07 7.38009E+03-1.34293E+07 1.92197E+09-5.31280E+10-9.48248E+03
 -1      1029-3.43302E+07 6.53943E+03-1.30430E+07 2.06419E+09-5.16852E+10-1.03088E+04
 -1      1030-3.32482E+07 5.82794E+03-1.26321E+07 2.18030E+09-5.01236E+10-1.11102E+04
 -1      1031-3.21040E+07 6.88922E+03-1.21969E+07 2.32663E+09-4.84471E+10-1.18854E+04
 -1      1032-3.08954E+07 5.24782E+03-1.17383E+07 2.42372E+09-4.66595E+10-1.26325E+04
 -1      1033-2.96285E+07 6.20119E+03-1.12565E+07 2.54725E+09-4.47652E+10-1.33502E+04
 -1      1034-2.83046E+07 4.83798E+03-1.07539E+07 2.66252E+09-4.27683E+10-1.40373E+04
 -1      1035-2.69266E+07 5.60252E+03-1.02300E+07 2.74950E+09-4.06736E+10-1.46923E+04
 -1      1036-2.54959E+07 4.72961E+03-9.68666E+06 2.86659E+09-3.84858E+10-1.53140E+04
 -1      1037-2.40152E+07 4.56657E+03-9.12404E+06 2.95234E+09-3.62098E+10-1.59012E+04
 -1      1038-2.24907E+07 4.26336E+03-8.54486E+06 3.04598E+09-3.38508E+10-1.64526E+04
 -1      1039-2.09207E+07 4.13355E+03-7.94830E+06 3.12000E+09-3.14140E+10-1.69675E+04
 -1      1040-1.93127E+07 3.38394E+03-7.33753E+06 3.19558E+09-2.89048E+10-1.74448E+04
 -1      1041-1.76656E+07 3.66896E+03-6.71154E+06 3.27188E+09-2.63289E+10-1.78833E+04
 -1      1042-1.59872E+07 2.52434E+03-6.07417E+06 3.33339E+09-2.36919E+10-1.82825E+04
 -1      1043-1.42768E+07 3.33329E+03-5.42392E+06 3.38473E+09-2.09996E+10-1.86414E+04
 -1      1044-1.25405E+07 1.62212E+03-4.76475E+06 3.43644E+09-1.82579E+10-1.89594E+04
 -1      1045-1.07796E+07 2.57814E+03-4.09525E+06 3.48091E+09-1.54729E+10-1.92360E+04
 -1      1046-9.00217E+06 9.22773E+02-3.42048E+06 3.51034E+09-1.26506E+10-1.94706E+04
 -1      1047-7.20391E+06 2.10910E+03-2.73669E+06 3.54383E+09-9.79713E+09-1.96628E+04
 -1      1048-5.39822E+06-2.61503E+02-2.05143E+06 3.56279E+09-6.91877E+09-1.98122E+04
 -1      1049-3.57812E+06 1.88757E+03-1.35897E+06 3.57734E+09-4.02175E+09-1.99187E+04
 -1      1050-1.75977E+06-1.48312E+03-6.69279E+05 3.58304E+09-1.11236E+09-1.99819E+04
 -1      1051 6.83892E+04 1.71038E+03 2.66316E+04 3.58223E+09 1.80311E+09-2.00020E+04
 -1      1052 1.88440E+06-2.93572E+03 7.14954E+05 3.57358E+09 4.71835E+09-1.99789E+04
 -1      1053 3.70594E+06 1.93174E+03 1.40899E+06 3.55925E+09 7.62706E+09-1.99126E+04
 -1      1054 5.50405E+06-5.03770E+03 2.08961E+06 3.53607E+09 1.05230E+10-1.98032E+04
 -1      1055 7.30453E+06 2.83081E+03 2.77679E+06 3.50553E+09 1.33999E+10-1.96514E+04
 -1      1056 9.06996E+06-7.35171E+03 3.44379E+06 3.46924E+09 1.62515E+10-1.94573E+04
 -1      1057 1.08368E+07 3.64697E+03 4.11937E+06 3.42387E+09 1.90717E+10-1.92212E+04
 -1      1058 1.25508E+07-9.97363E+03 4.76551E+06 3.37339E+09 2.18545E+10-1.89439E+04
 -1      1059 1.42715E+07 5.67415E+03 5.42531E+06 3.31514E+09 2.45939E+10-1.86258E+04
 -1      1060 1.59204E+07-1.41101E+04 6.04437E+06 3.24611E+09 2.72840E+10-1.82677E+04
 -1      1061 1.75825E+07 9.04849E+03 6.68480E+06 3.18539E+09 2.99190E+10-1.78704E+04
 -1      1062 1.91491E+07-1.94205E+04 7.26930E+06 3.09548E+09 3.24932E+10-1.74347E+04
 -1      1063 2.07422E+07 1.38243E+04 7.88728E+06 3.01179E+09 3.50011E+10-1.69618E+04
 -1      1064 2.22098E+07-2.64237E+04 8.42966E+06 2.92892E+09 3.74374E+10-1.64524E+04
 -1      1065 2.37267E+07 2.04378E+04 9.02393E+06 2.82671E+09 3.97969E+10-1.59076E+04
 -1      1066 2.50750E+07-3.52716E+04 9.51510E+06 2.72459E+09 4.20744E+10-1.53286E+04
 -1      1067 2.65126E+07 3.01599E+04 1.00863E+07 2.61716E+09 4.42650E+10-1.47169E+04
 -1      1068 2.77235E+07-4.89285E+04 1.05164E+07 2.50216E+09 4.63641E+10-1.40737E+04
 -1      1069 2.90757E+07 4.50401E+04 1.10659E+07 2.38427E+09 4.83672E+10-1.34003E+04
 -1      1070 3.01268E+07-6.60761E+04 1.14231E+07 2.26140E+09 5.02700E+10-1.26979E+04
 -1      1071 3.14047E+07 6.32405E+04 1.19578E+07 2.12449E+09 5.20683E+10-1.19684E+04
 -1      1072 3.22623E+07-8.84475E+04 1.22261E+07 2.01300E+09 5.37583E+10-1.12132E+04
 -1      1073 3.34796E+07 8.68993E+04 1.27553E+07 1.85505E+09 5.53364E+10-1.04337E+04
 -1      1074 3.41075E+07-1.16062E+05 1.29167E+07 1.71630E+09 5.67992E+10-9.63178E+03
 -1      1075 3.52919E+07 1.22875E+05 1.34576E+07 1.58541E+09 5.81435E+10-8.80916E+03
 -1      1076 3.56428E+07-1.70662E+05 1.34794E+07 1.42765E+09 5.93665E+10-7.96738E+03
 -1      1077 3.68212E+07 2.18083E+05 1.40750E+07 1.28954E+09 6.04654E+10-7.10849E+03
 -1      1078 3.68905E+07-3.77621E+05 1.38749E+07 1.11064E+09 6.14378E+10-6.23360E+03
 -1      1079 3.79445E+07 7.15037E+05 1.46906E+07 9.82845E+08 6.22818E+10-5.34690E+03
 -1      1080 3.81476E+07-1.58575E+06 1.38935E+07 8.12834E+08 6.29954E+10-4.44350E+03
 -1      1081 3.91381E+07 3.27498E+06 1.61170E+07 6.48953E+08 6.35770E+10-3.23118E+03
 -1      1082 3.81705E+07-3.19705E+06 1.32899E+07 5.11430E+08 6.40254E+10-1.80284E+03
 -1      1083 3.91132E+07 1.42943E+06 1.54062E+07 3.25464E+08 6.43394E+10-8.90136E+02
 -1      1084 3.89238E+07-6.86802E+05 1.45301E+07 1.76263E+08 6.45186E+10-4.05986E+02
 -1      1085 3.94903E+07 3.67017E+05 1.51458E+07 4.64279E+06 6.45622E+10 8.31554E+01
 -1      1086 3.89283E+07-2.34838E+05 1.47035E+07-1.42857E+08 6.44703E+10 5.70982E+02
 -1      1087 3.92801E+07 1.67849E+05 1.49902E+07-3.12603E+08 6.42428E+10 1.05833E+03
 -1      1088 3.86861E+07-1.50548E+05 1.46435E+07-4.63422E+08 6.38803E+10 1.54347E+03
 -1      1089 3.87373E+07 1.08044E+05 1.47612E+07-6.47258E+08 6.33834E+10 2.02584E+03
 -1      1090 3.80921E+07-8.52413E+04 1.44426E+07-7.80712E+08 6.27530E+10 2.50401E+03
 -1      1091 3.78908E+07 5.88239E+04 1.44209E+07-9.46025E+08 6.19905E+10 2.97719E+03
 -1      1092 3.71694E+07-5.90619E+04 1.41019E+07-1.10950E+09 6.10974E+10 3.44445E+03
 -1      1093 3.67349E+07 5.28997E+04 1.39794E+07-1.23619E+09 6.00754E+10 3.90485E+03
 -1      1094 3.59297E+07-6.33207E+04 1.36292E+07-1.41157E+09 5.89266E+10 4.35730E+03
 -1      1095 3.52844E+07 4.17309E+04 1.34240E+07-1.54483E+09 5.76534E+10 4.80080E+03
 -1      1096 3.43701E+07-4.03722E+04 1.30453E+07-1.69818E+09 5.62583E+10 5.23443E+03
 -1      1097 3.35478E+07 3.80006E+04 1.27626E+07-1.82295E+09 5.47442E+10 5.65732E+03
 -1      1098 3.25264E+07-4.41533E+04 1.23433E+07-1.95970E+09 5.31143E+10 6.06864E+03
 -1      1099 3.15409E+07 1.94517E+04 1.19930E+07-2.10817E+09 5.13718E+10 6.46768E+03
 -1      1100 3.03950E+07-1.27379E+04 1.15453E+07-2.21558E+09 4.95203E+10 6.85327E+03
 -1      1101 2.92745E+07 6.10475E+03 1.11267E+07-2.34516E+09 4.75636E+10 7.22485E+03
 -1      1102 2.80200E+07-1.92101E+04 1.06403E+07-2.46078E+09 4.55057E+10 7.58167E+03
 -1      1103 2.67618E+07 1.42903E+04 1.01749E+07-2.57769E+09 4.33509E+10 7.92273E+03
 -1      1104 2.54067E+07-1.15130E+04 9.65019E+06-2.66828E+09 4.11037E+10 8.24762E+03
 -1      1105 2.40380E+07-2.38553E+03 9.13354E+06-2.78420E+09 3.87685E+10 8.55557E+03
 -1      1106 2.25812E+07-5.54473E+03 8.57876E+06-2.87154E+09 3.63502E+10 8.84585E+03
 -1      1107 2.11111E+07 1.65767E+03 8.02287E+06-2.96446E+09 3.38538E+10 9.11797E+03
 -1      1108 1.95703E+07 7.42596E+02 7.43701E+06-3.03927E+09 3.12845E+10 9.37121E+03
 -1      1109 1.80162E+07-7.01773E+03 6.84351E+06-3.11378E+09 2.86474E+10 9.60529E+03
 -1      1110 1.64020E+07-3.76220E+03 6.23134E+06-3.19293E+09 2.59481E+10 9.81967E+03
 -1      1111 1.47699E+07 5.29600E+03 5.61459E+06-3.24336E+09 2.31920E+10 1.00137E+04
 -1      1112 1.31006E+07-7.19859E+03 4.97550E+06-3.30339E+09 2.03849E+10 1.01872E+04
 -1      1113 1.14098E+07 2.06648E+03 4.33653E+06-3.34929E+09 1.75324E+10 1.03399E+04
 -1      1114 9.69227E+06-3.30797E+03 3.68182E+06-3.39009E+09 1.46405E+10 1.04713E+04
 -1      1115 7.96117E+06 8.47178E+02 3.02559E+06-3.42328E+09 1.17152E+10 1.05813E+04
 -1      1116 6.20961E+06-2.21927E+03 2.35883E+06-3.44853E+09 8.76222E+09 1.06696E+04
 -1      1117 4.45188E+06 7.47183E+02 1.69202E+06-3.46797E+09 5.78780E+09 1.07359E+04
 -1      1118 2.68253E+06-2.88937E+02 1.01927E+06-3.47721E+09 2.79800E+09 1.07803E+04
 -1      1119 9.13528E+05-2.90106E+02 3.47050E+05-3.48091E+09-2.01083E+08 1.08029E+04
 -1      1120-8.58900E+05 6.05889E+02-3.26129E+05-3.47664E+09-3.20332E+09 1.08033E+04
 -1      1121-2.62410E+06 2.76837E+02-9.97035E+05-3.46435E+09-6.20259E+09 1.07815E+04
 -1      1122-4.38360E+06-1.23937E+02-1.66579E+06-3.44668E+09-9.19279E+09 1.07378E+04
 -1      1123-6.13031E+06 1.98383E+03-2.32874E+06-3.41859E+09-1.21678E+10 1.06725E+04
 -1      1124-7.86146E+06 2.65667E+02-2.98724E+06-3.38458E+09-1.51217E+10 1.05854E+04
 -1      1125-9.57413E+06 1.88914E+03-3.63743E+06-3.34321E+09-1.80484E+10 1.04769E+04
 -1      1126-1.12634E+07 7.41970E+02-4.27979E+06-3.29389E+09-2.09419E+10 1.03472E+04
 -1      1127-1.29252E+07 3.90339E+03-4.91009E+06-3.23828E+09-2.37965E+10 1.01966E+04
 -1      1128-1.45577E+07 8.90631E+02-5.53157E+06-3.17214E+09-2.66064E+10 1.00255E+04
 -1      1129-1.61537E+07-2.51063E+03-6.13934E+06-3.10747E+09-2.93660E+10 9.83433E+03
 -1      1130-1.77175E+07 5.76384E+03-6.73044E+06-3.03057E+09-3.20697E+10 9.62353E+03
 -1      1131-1.92375E+07 7.97923E+03-7.30720E+06-2.94025E+09-3.47121E+10 9.39338E+03
 -1      1132-2.07094E+07-3.27878E+03-7.87082E+06-2.84996E+09-3.72881E+10 9.14479E+03
 -1      1133-2.21390E+07 1.30349E+03-8.41229E+06-2.76168E+09-3.97924E+10 8.87808E+03
 -1      1134-2.35164E+07 6.09756E+03-8.93390E+06-2.65279E+09-4.22202E+10 8.59379E+03
 -1      1135-2.48397E+07 2.25390E+03-9.43823E+06-2.54612E+09-4.45666E+10 8.29276E+03
 -1      1136-2.61065E+07 4.22141E+03-9.91884E+06-2.42943E+09-4.68271E+10 7.97548E+03
 -1      1137-2.73114E+07 8.48741E+02-1.03780E+07-2.31145E+09-4.89974E+10 7.64290E+03
 -1      1138-2.84579E+07 1.08674E+04-1.08099E+07-2.18458E+09-5.10733E+10 7.29570E+03
 -1      1139-2.95329E+07-5.76669E+03-1.12247E+07-2.04906E+09-5.30507E+10 6.93465E+03
 -1      1140-3.05481E+07 5.04067E+03-1.16063E+07-1.93047E+09-5.49260E+10 6.56064E+03
 -1      1141-3.14895E+07 1.09614E+04-1.19618E+07-1.77177E+09-5.66957E+10 6.17440E+03
 -1      1142-3.23559E+07 2.68855E+03-1.22942E+07-1.63625E+09-5.83565E+10 5.77679E+03
 -1      1143-3.31508E+07 2.52410E+03-1.25964E+07-1.48030E+09-5.99055E+10 5.36892E+03
 -1      1144-3.38682E+07-4.34249E+02-1.28701E+07-1.34098E+09-6.13397E+10 4.95177E+03
 -1      1145-3.45094E+07 1.00893E+04-1.31097E+07-1.17797E+09-6.26569E+10 4.52604E+03
 -1      1146-3.50689E+07 2.47836E+03-1.33252E+07-1.02060E+09-6.38548E+10 4.09281E+03
 -1      1147-3.55479E+07 6.33243E+03-1.35058E+07-8.58661E+08-6.49313E+10 3.65313E+03
 -1      1148-3.59408E+07 1.22466E+03-1.36570E+07-6.94567E+08-6.58850E+10 3.20803E+03
 -1      1149-3.62565E+07 1.34354E+04-1.37724E+07-5.29692E+08-6.67144E+10 2.75856E+03
 -1      1150-3.64766E+07-5.72740E+03-1.38633E+07-3.51849E+08-6.74184E+10 2.30565E+03
 -1      1151-3.66208E+07 2.82087E+03-1.39148E+07-2.06260E+08-6.79963E+10 1.85056E+03
 -1      1152-3.66783E+07 2.24748E+04-1.39292E+07-9.78411E+06-6.84476E+10 1.39418E+03
 -1      1153-3.66363E+07-9.79400E+03-1.39255E+07 1.56954E+08-6.87720E+10 9.37751E+02
 -1      1154-3.65202E+07 7.00689E+03-1.38750E+07 3.18406E+08-6.89698E+10 4.82264E+02
 -1      1155-3.63066E+07 1.18466E+03-1.37960E+07 5.00600E+08-6.90412E+10 2.87903E+01
 -1      1156-3.60146E+07 1.37594E+04-1.36803E+07 6.62884E+08-6.89872E+10-4.21423E+02
 -1      1157-3.56270E+07 6.01078E+03-1.35360E+07 8.59158E+08-6.88086E+10-8.67474E+02
 -1      1158-3.51488E+07-6.55843E+03-1.33590E+07 1.00740E+09-6.85068E+10-1.30812E+03
 -1      1159-3.45943E+07 1.36313E+04-1.31406E+07 1.18928E+09-6.80835E+10-1.74228E+03
 -1      1160-3.39425E+07 1.48880E+03-1.28975E+07 1.35753E+09-6.75405E+10-2.16897E+03
 -1      1161-3.32112E+07 6.32180E+03-1.26178E+07 1.52584E+09-6.68802E+10-2.58701E+03
 -1      1162-3.23913E+07 2.91837E+03-1.23075E+07 1.69336E+09-6.61051E+10-2.99543E+03
 -1      1163-3.14879E+07 9.65224E+03-1.19617E+07 1.85701E+09-6.52179E+10-3.39315E+03
 -1      1164-3.04999E+07 3.42847E+02-1.15898E+07 2.02570E+09-6.42219E+10-3.77904E+03
 -1      1165-2.94319E+07 2.65276E+03-1.11831E+07 2.17339E+09-6.31205E+10-4.15209E+03
 -1      1166-2.82814E+07 3.51970E+03-1.07456E+07 2.33781E+09-6.19172E+10-4.51137E+03
 -1      1167-2.70572E+07 1.01814E+04-1.02779E+07 2.48396E+09-6.06162E+10-4.85595E+03
 -1      1168-2.57503E+07 5.42032E+03-9.78302E+06 2.65081E+09-5.92216E+10-5.18470E+03
 -1      1169-2.43645E+07-5.49645E+03-9.26057E+06 2.78040E+09-5.77380E+10-5.49670E+03
 -1      1170-2.29163E+07 1.49429E+04-8.70249E+06 2.93053E+09-5.61702E+10-5.79102E+03
 -1      1171-2.13845E+07-4.73214E+03-8.12786E+06 3.07273E+09-5.45231E+10-6.06686E+03
 -1      1172-1.97913E+07 4.88331E+03-7.51882E+06 3.19435E+09-5.28021E+10-6.32316E+03
 -1      1173-1.81294E+07 8.65328E+03-6.88584E+06 3.33836E+09-5.10127E+10-6.55918E+03
 -1      1174-1.63978E+07 8.29916E+02-6.23081E+06 3.45699E+09-4.91606E+10-6.77415E+03
 -1      1175-1.46084E+07 4.08914E+03-5.54962E+06 3.58250E+09-4.72518E+10-6.96709E+03
 -1      1176-1.27550E+07-5.78749E+02-4.84711E+06 3.69310E+09-4.52925E+10-7.13742E+03
 -1      1177-1.08483E+07 6.18813E+03-4.11999E+06 3.80470E+09-4.32891E+10-7.28435E+03
 -1      1178-8.88314E+06 4.80430E+03-3.37374E+06 3.91415E+09-4.12482E+10-7.40716E+03
 -1      1179-6.86480E+06 1.32693E+02-2.60855E+06 4.01430E+09-3.91766E+10-7.50520E+03
 -1      1180-4.79831E+06 2.84081E+03-1.82225E+06 4.10763E+09-3.70813E+10-7.57780E+03
 -1      1181-2.68453E+06 2.84604E+03-1.01901E+06 4.19971E+09-3.49694E+10-7.62428E+03
 -1      1182-5.24453E+05 2.68779E+03-1.98242E+05 4.28348E+09-3.28483E+10-7.64423E+03
 -1      1183 1.67566E+06 1.40721E+03 6.37312E+05 4.36447E+09-3.07253E+10-7.63709E+03
 -1      1184 3.91644E+06 3.33678E+03 1.48954E+06 4.43706E+09-2.86082E+10-7.60225E+03
 -1      1185 6.19282E+06-5.58542E+02 2.35308E+06 4.50856E+09-2.65047E+10-7.53925E+03
 -1      1186 8.50387E+06 3.51750E+03 3.23283E+06 4.56760E+09-2.44225E+10-7.44764E+03
 -1      1187 1.08434E+07 3.28277E+03 4.12175E+06 4.63387E+09-2.23698E+10-7.32714E+03
 -1      1188 1.32167E+07 1.15510E+03 5.02279E+06 4.68212E+09-2.03547E+10-7.17737E+03
 -1      1189 1.56126E+07-5.86996E+03 5.93057E+06 4.73262E+09-1.83852E+10-6.99778E+03
 -1      1190 1.80300E+07 9.16031E+03 6.85492E+06 4.76677E+09-1.64698E+10-6.78820E+03
 -1      1191 2.04713E+07-1.07065E+03 7.77871E+06 4.82569E+09-1.46168E+10-6.54853E+03
 -1      1192 2.29320E+07 1.95243E+03 8.71490E+06 4.83789E+09-1.28345E+10-6.27829E+03
 -1      1193 2.54063E+07-2.48689E+03 9.65346E+06 4.89106E+09-1.11316E+10-5.97731E+03
 -1      1194 2.78985E+07 4.69971E+03 1.06032E+07 4.88817E+09-9.51665E+09-5.64542E+03
 -1      1195 3.03983E+07-2.63672E+03 1.15504E+07 4.94631E+09-7.99814E+09-5.28231E+03
 -1      1196 3.29130E+07-1.01711E+03 1.25066E+07 4.91863E+09-6.58478E+09-4.88814E+03
 -1      1197 3.54293E+07 3.91798E+03 1.34647E+07 4.98550E+09-5.28526E+09-4.46267E+03
 -1      1198 3.79589E+07 8.14543E+03 1.44275E+07 4.94211E+09-4.10832E+09-4.00559E+03
 -1      1199 4.05002E+07-1.80147E+04 1.53833E+07 5.02698E+09-3.06267E+09-3.51704E+03
 -1      1200 4.30184E+07-7.64300E+03 1.63441E+07 4.90614E+09-2.15710E+09-2.99707E+03
 -1      1201 4.55906E+07 1.00502E+05 1.73626E+07 5.09357E+09-1.40035E+09-2.44548E+03
 -1      1202 4.80285E+07-3.72607E+05 1.81092E+07 4.87459E+09-8.01246E+08-1.86203E+03
 -1      1203 5.09601E+07 1.33390E+06 1.98718E+07 5.12581E+09-3.68512E+08-1.24740E+03
 -1      1204 5.20539E+07-4.84181E+06 1.79406E+07 4.88379E+09-1.11045E+08-5.99912E+02
 -1      1205 5.13520E+07 1.76811E+07 2.62326E+07 5.73208E+09-2.73180E+07-2.67364E+02
 -1      1206-2.11587E+04-1.11986E+04-1.22875E+04-2.22920E+07-8.92461E+10-2.87143E+04
 -1      1207-7.66683E+04-1.09739E+04-3.33149E+04-2.23025E+08-8.71527E+10-2.87134E+04
 -1      1208-2.43966E+05-1.07504E+04-9.68008E+04-4.38174E+08-8.29661E+10-2.87097E+04
 -1      1209-5.17925E+05-9.55826E+03-2.00430E+05-6.38969E+08-7.87804E+10-2.87007E+04
 -1      1210-8.91663E+05-9.92177E+03-3.42602E+05-8.33457E+08-7.45965E+10-2.86839E+04
 -1      1211-1.36142E+06-8.36217E+03-5.20514E+05-1.01304E+09-7.04158E+10-2.86571E+04
 -1      1212-1.92019E+06-8.79596E+03-7.33001E+05-1.18449E+09-6.62399E+10-2.86182E+04
 -1      1213-2.56414E+06-7.50584E+03-9.77222E+05-1.34815E+09-6.20707E+10-2.85650E+04
 -1      1214-3.28696E+06-7.44010E+03-1.25187E+06-1.49329E+09-5.79103E+10-2.84957E+04
 -1      1215-4.08349E+06-6.95188E+03-1.55437E+06-1.63961E+09-5.37613E+10-2.84084E+04
 -1      1216-4.94974E+06-5.94401E+03-1.88317E+06-1.76425E+09-4.96265E+10-2.83012E+04
 -1      1217-5.87754E+06-6.42231E+03-2.23590E+06-1.88183E+09-4.55089E+10-2.81728E+04
 -1      1218-6.86505E+06-4.48935E+03-2.61042E+06-2.00064E+09-4.14117E+10-2.80217E+04
 -1      1219-7.90382E+06-5.24958E+03-3.00545E+06-2.08520E+09-3.73382E+10-2.78465E+04
 -1      1220-8.99138E+06-3.97667E+03-3.41823E+06-2.18499E+09-3.32920E+10-2.76461E+04
 -1      1221-1.01227E+07-3.56706E+03-3.84797E+06-2.26388E+09-2.92771E+10-2.74194E+04
 -1      1222-1.12875E+07-3.31129E+03-4.29053E+06-2.31773E+09-2.52971E+10-2.71655E+04
 -1      1223-1.24885E+07-2.81319E+03-4.74668E+06-2.39342E+09-2.13562E+10-2.68836E+04
 -1      1224-1.37144E+07-1.82250E+03-5.21217E+06-2.43283E+09-1.74585E+10-2.65729E+04
 -1      1225-1.49632E+07-2.22948E+03-5.68687E+06-2.47403E+09-1.36082E+10-2.62328E+04
 -1      1226-1.62309E+07-8.55992E+02-6.16805E+06-2.50973E+09-9.80975E+09-2.58629E+04
 -1      1227-1.75082E+07-6.64913E+02-6.65335E+06-2.50923E+09-6.06742E+09-2.54628E+04
 -1      1228-1.87959E+07-7.89014E+02-7.14273E+06-2.54191E+09-2.38565E+09-2.50323E+04
 -1      1229-2.00847E+07 8.32575E+02-7.63188E+06-2.53366E+09 1.23109E+09-2.45712E+04
 -1      1230-2.13733E+07-2.43623E+02-8.12196E+06-2.52750E+09 4.77839E+09-2.40795E+04
 -1      1231-2.26558E+07 2.00865E+03-8.60843E+06-2.51149E+09 8.25174E+09-2.35573E+04
 -1      1232-2.39262E+07 8.17511E+02-9.09164E+06-2.48114E+09 1.16467E+10-2.30048E+04
 -1      1233-2.51832E+07 2.01015E+03-9.56886E+06-2.45723E+09 1.49590E+10-2.24224E+04
 -1      1234-2.64212E+07 2.48715E+03-1.00391E+07-2.41514E+09 1.81841E+10-2.18104E+04
 -1      1235-2.76352E+07 2.51658E+03-1.05004E+07-2.35659E+09 2.13179E+10-2.11693E+04
 -1      1236-2.88224E+07 3.28015E+03-1.09513E+07-2.29896E+09 2.43560E+10-2.04997E+04
 -1      1237-2.99787E+07 3.35561E+03-1.13906E+07-2.24563E+09 2.72946E+10-1.98024E+04
 -1      1238-3.10989E+07 3.72596E+03-1.18162E+07-2.16547E+09 3.01294E+10-1.90780E+04
 -1      1239-3.21834E+07 4.24885E+03-1.22281E+07-2.08960E+09 3.28567E+10-1.83276E+04
 -1      1240-3.32234E+07 4.66220E+03-1.26231E+07-2.00097E+09 3.54726E+10-1.75520E+04
 -1      1241-3.42191E+07 4.41874E+03-1.30016E+07-1.91159E+09 3.79737E+10-1.67522E+04
 -1      1242-3.51673E+07 5.69663E+03-1.33614E+07-1.81214E+09 4.03565E+10-1.59292E+04
 -1      1243-3.60610E+07 4.72976E+03-1.37014E+07-1.70032E+09 4.26176E+10-1.50845E+04
 -1      1244-3.69044E+07 5.77067E+03-1.40215E+07-1.61299E+09 4.47540E+10-1.42193E+04
 -1      1245-3.76885E+07 6.60834E+03-1.43191E+07-1.47533E+09 4.67628E+10-1.33346E+04
 -1      1246-3.84112E+07 5.07099E+03-1.45943E+07-1.36530E+09 4.86413E+10-1.24321E+04
 -1      1247-3.90758E+07 7.02212E+03-1.48461E+07-1.23275E+09 5.03870E+10-1.15131E+04
 -1      1248-3.96737E+07 6.61694E+03-1.50735E+07-1.11867E+09 5.19975E+10-1.05793E+04
 -1      1249-4.02038E+07 6.21447E+03-1.52751E+07-9.78359E+08 5.34708E+10-9.63208E+03
 -1      1250-4.06701E+07 7.34327E+03-1.54519E+07-8.43467E+08 5.48051E+10-8.67293E+03
 -1      1251-4.10636E+07 7.20255E+03-1.56014E+07-7.04340E+08 5.59988E+10-7.70354E+03
 -1      1252-4.13843E+07 6.95730E+03-1.57234E+07-5.62009E+08 5.70504E+10-6.72575E+03
 -1      1253-4.16349E+07 7.65063E+03-1.58184E+07-4.20368E+08 5.79590E+10-5.74127E+03
 -1      1254-4.18090E+07 6.98474E+03-1.58848E+07-2.61065E+08 5.87236E+10-4.75163E+03
 -1      1255-4.19129E+07 7.73652E+03-1.59240E+07-1.42864E+08 5.93436E+10-3.75865E+03
 -1      1256-4.19371E+07 8.22325E+03-1.59330E+07 3.63827E+07 5.98186E+10-2.76430E+03
 -1      1257-4.18834E+07 6.52794E+03-1.59132E+07 1.81326E+08 6.01487E+10-1.77027E+03
 -1      1258-4.17576E+07 8.48646E+03-1.58647E+07 3.19549E+08 6.03339E+10-7.78304E+02
 -1      1259-4.15509E+07 7.19546E+03-1.57866E+07 4.80369E+08 6.03747E+10 2.09669E+02
 -1      1260-4.12700E+07 7.44660E+03-1.56798E+07 6.20604E+08 6.02718E+10 1.19188E+03
 -1      1261-4.09120E+07 8.25094E+03-1.55434E+07 7.96580E+08 6.00262E+10 2.16651E+03
 -1      1262-4.04747E+07 6.92716E+03-1.53778E+07 9.21918E+08 5.96392E+10 3.13166E+03
 -1      1263-3.99637E+07 7.74507E+03-1.51833E+07 1.08056E+09 5.91122E+10 4.08560E+03
 -1      1264-3.93766E+07 7.47626E+03-1.49603E+07 1.22605E+09 5.84470E+10 5.02662E+03
 -1      1265-3.87147E+07 6.89749E+03-1.47090E+07 1.38081E+09 5.76456E+10 5.95272E+03
 -1      1266-3.79810E+07 7.62283E+03-1.44299E+07 1.50136E+09 5.67103E+10 6.86216E+03
 -1      1267-3.71727E+07 7.11595E+03-1.41229E+07 1.66415E+09 5.56438E+10 7.75344E+03
 -1      1268-3.62927E+07 6.25426E+03-1.37889E+07 1.80146E+09 5.44486E+10 8.62468E+03
 -1      1269-3.53475E+07 7.37039E+03-1.34293E+07 1.92197E+09 5.31280E+10 9.47431E+03
 -1      1270-3.43303E+07 6.38594E+03-1.30431E+07 2.06419E+09 5.16852E+10 1.03006E+04
 -1      1271-3.32482E+07 5.84586E+03-1.26321E+07 2.18030E+09 5.01236E+10 1.11020E+04
 -1      1272-3.21040E+07 6.85520E+03-1.21969E+07 2.32663E+09 4.84471E+10 1.18771E+04
 -1      1273-3.08954E+07 5.26732E+03-1.17383E+07 2.42372E+09 4.66595E+10 1.26243E+04
 -1      1274-2.96285E+07 6.14656E+03-1.12565E+07 2.54725E+09 4.47651E+10 1.33420E+04
 -1      1275-2.83046E+07 4.84621E+03-1.07539E+07 2.66252E+09 4.27683E+10 1.40291E+04
 -1      1276-2.69266E+07 5.67168E+03-1.02299E+07 2.74950E+09 4.06736E+10 1.46840E+04
 -1      1277-2.54960E+07 4.67371E+03-9.68670E+06 2.86659E+09 3.84858E+10 1.53057E+04
 -1      1278-2.40152E+07 4.54827E+03-9.12405E+06 2.95234E+09 3.62098E+10 1.58929E+04
 -1      1279-2.24907E+07 4.27960E+03-8.54485E+06 3.04598E+09 3.38507E+10 1.64443E+04
 -1      1280-2.09208E+07 4.07548E+03-7.94836E+06 3.12000E+09 3.14139E+10 1.69592E+04
 -1      1281-1.93126E+07 3.45278E+03-7.33749E+06 3.19558E+09 2.89048E+10 1.74364E+04
 -1      1282-1.76656E+07 3.66949E+03-6.71152E+06 3.27188E+09 2.63289E+10 1.78749E+04
 -1      1283-1.59872E+07 2.48323E+03-6.07419E+06 3.33339E+09 2.36919E+10 1.82740E+04
 -1      1284-1.42768E+07 3.32994E+03-5.42392E+06 3.38473E+09 2.09996E+10 1.86329E+04
 -1      1285-1.25405E+07 1.57800E+03-4.76480E+06 3.43644E+09 1.82579E+10 1.89509E+04
 -1      1286-1.07796E+07 2.56244E+03-4.09527E+06 3.48091E+09 1.54729E+10 1.92275E+04
 -1      1287-9.00215E+06 9.96781E+02-3.42043E+06 3.51034E+09 1.26506E+10 1.94622E+04
 -1      1288-7.20394E+06 2.10616E+03-2.73669E+06 3.54383E+09 9.79713E+09 1.96543E+04
 -1      1289-5.39825E+06-2.69786E+02-2.05143E+06 3.56279E+09 6.91877E+09 1.98037E+04
 -1      1290-3.57817E+06 1.86510E+03-1.35899E+06 3.57734E+09 4.02175E+09 1.99102E+04
 -1      1291-1.75982E+06-1.51982E+03-6.69305E+05 3.58304E+09 1.11236E+09 1.99734E+04
 -1      1292 6.83712E+04 1.71863E+03 2.66405E+04 3.58224E+09-1.80311E+09 1.99935E+04
 -1      1293 1.88434E+06-2.98119E+03 7.14920E+05 3.57358E+09-4.71835E+09 1.99704E+04
 -1      1294 3.70592E+06 1.93470E+03 1.40899E+06 3.55925E+09-7.62706E+09 1.99040E+04
 -1      1295 5.50409E+06-4.94651E+03 2.08968E+06 3.53607E+09-1.05230E+10 1.97946E+04
 -1      1296 7.30453E+06 2.85692E+03 2.77681E+06 3.50553E+09-1.33999E+10 1.96428E+04
 -1      1297 9.06992E+06-7.36864E+03 3.44377E+06 3.46924E+09-1.62515E+10 1.94487E+04
 -1      1298 1.08368E+07 3.69204E+03 4.11940E+06 3.42387E+09-1.90717E+10 1.92126E+04
 -1      1299 1.25508E+07-1.00127E+04 4.76548E+06 3.37339E+09-2.18545E+10 1.89352E+04
 -1      1300 1.42715E+07 5.68193E+03 5.42532E+06 3.31514E+09-2.45939E+10 1.86172E+04
 -1      1301 1.59204E+07-1.40602E+04 6.04442E+06 3.24611E+09-2.72840E+10 1.82590E+04
 -1      1302 1.75825E+07 9.05387E+03 6.68480E+06 3.18539E+09-2.99190E+10 1.78617E+04
 -1      1303 1.91491E+07-1.94642E+04 7.26926E+06 3.09548E+09-3.24932E+10 1.74260E+04
 -1      1304 2.07422E+07 1.38462E+04 7.88729E+06 3.01179E+09-3.50011E+10 1.69531E+04
 -1      1305 2.22097E+07-2.64516E+04 8.42965E+06 2.92892E+09-3.74374E+10 1.64436E+04
 -1      1306 2.37267E+07 2.04411E+04 9.02393E+06 2.82671E+09-3.97969E+10 1.58988E+04
 -1      1307 2.50750E+07-3.52666E+04 9.51510E+06 2.72459E+09-4.20744E+10 1.53199E+04
 -1      1308 2.65126E+07 3.01801E+04 1.00863E+07 2.61716E+09-4.42650E+10 1.47081E+04
 -1      1309 2.77235E+07-4.88952E+04 1.05164E+07 2.50216E+09-4.63641E+10 1.40649E+04
 -1      1310 2.90757E+07 4.50463E+04 1.10659E+07 2.38427E+09-4.83672E+10 1.33915E+04
 -1      1311 3.01268E+07-6.60895E+04 1.14231E+07 2.26140E+09-5.02700E+10 1.26892E+04
 -1      1312 3.14048E+07 6.32482E+04 1.19578E+07 2.12449E+09-5.20683E+10 1.19596E+04
 -1      1313 3.22623E+07-8.84267E+04 1.22261E+07 2.01300E+09-5.37583E+10 1.12044E+04
 -1      1314 3.34796E+07 8.68132E+04 1.27552E+07 1.85505E+09-5.53364E+10 1.04250E+04
 -1      1315 3.41076E+07-1.15969E+05 1.29168E+07 1.71630E+09-5.67992E+10 9.62310E+03
 -1      1316 3.52919E+07 1.22785E+05 1.34576E+07 1.58541E+09-5.81435E+10 8.80050E+03
 -1      1317 3.56429E+07-1.70611E+05 1.34794E+07 1.42765E+09-5.93665E+10 7.95874E+03
 -1      1318 3.68213E+07 2.18057E+05 1.40749E+07 1.28954E+09-6.04654E+10 7.09989E+03
 -1      1319 3.68906E+07-3.77568E+05 1.38749E+07 1.11064E+09-6.14379E+10 6.22503E+03
 -1      1320 3.79445E+07 7.14920E+05 1.46906E+07 9.82845E+08-6.22818E+10 5.33839E+03
 -1      1321 3.81476E+07-1.58578E+06 1.38935E+07 8.12834E+08-6.29954E+10 4.43504E+03
 -1      1322 3.91382E+07 3.27501E+06 1.61170E+07 6.48953E+08-6.35770E+10 3.22277E+03
 -1      1323 3.81705E+07-3.19709E+06 1.32899E+07 5.11431E+08-6.40254E+10 1.79447E+03
 -1      1324 3.91133E+07 1.42942E+06 1.54062E+07 3.25464E+08-6.43395E+10 8.81809E+02
 -1      1325 3.89239E+07-6.86752E+05 1.45301E+07 1.76263E+08-6.45186E+10 3.97703E+02
 -1      1326 3.94903E+07 3.66926E+05 1.51457E+07 4.64282E+06-6.45622E+10-9.13885E+01
 -1      1327 3.89284E+07-2.34881E+05 1.47035E+07-1.42857E+08-6.44703E+10-5.79156E+02
 -1      1328 3.92802E+07 1.67891E+05 1.49903E+07-3.12603E+08-6.42428E+10-1.06645E+03
 -1      1329 3.86862E+07-1.50504E+05 1.46436E+07-4.63422E+08-6.38803E+10-1.55153E+03
 -1      1330 3.87374E+07 1.08032E+05 1.47612E+07-6.47258E+08-6.33834E+10-2.03384E+03
 -1      1331 3.80922E+07-8.52663E+04 1.44426E+07-7.80712E+08-6.27530E+10-2.51195E+03
 -1      1332 3.78909E+07 5.87455E+04 1.44209E+07-9.46025E+08-6.19905E+10-2.98507E+03
 -1      1333 3.71695E+07-5.90720E+04 1.41019E+07-1.10951E+09-6.10974E+10-3.45226E+03
 -1      1334 3.67350E+07 5.28933E+04 1.39794E+07-1.23619E+09-6.00754E+10-3.91260E+03
 -1      1335 3.59298E+07-6.33276E+04 1.36292E+07-1.41157E+09-5.89266E+10-4.36499E+03
 -1      1336 3.52846E+07 4.17686E+04 1.34240E+07-1.54483E+09-5.76534E+10-4.80843E+03
 -1      1337 3.43702E+07-4.03814E+04 1.30453E+07-1.69818E+09-5.62583E+10-5.24200E+03
 -1      1338 3.35479E+07 3.80458E+04 1.27627E+07-1.82295E+09-5.47442E+10-5.66483E+03
 -1      1339 3.25265E+07-4.40771E+04 1.23433E+07-1.95970E+09-5.31143E+10-6.07609E+03
 -1      1340 3.15410E+07 1.94194E+04 1.19929E+07-2.10817E+09-5.13718E+10-6.47506E+03
 -1      1341 3.03951E+07-1.27862E+04 1.15453E+07-2.21558E+09-4.95203E+10-6.86058E+03
 -1      1342 2.92746E+07 6.11312E+03 1.11267E+07-2.34516E+09-4.75636E+10-7.23210E+03
 -1      1343 2.80201E+07-1.91296E+04 1.06404E+07-2.46078E+09-4.55057E+10-7.58885E+03
 -1      1344 2.67619E+07 1.43528E+04 1.01750E+07-2.57769E+09-4.33509E+10-7.92985E+03
 -1      1345 2.54067E+07-1.15760E+04 9.65013E+06-2.66828E+09-4.11037E+10-8.25467E+03
 -1      1346 2.40381E+07-2.41471E+03 9.13353E+06-2.78420E+09-3.87685E+10-8.56255E+03
 -1      1347 2.25812E+07-5.57222E+03 8.57873E+06-2.87154E+09-3.63502E+10-8.85276E+03
 -1      1348 2.11112E+07 1.63758E+03 8.02283E+06-2.96446E+09-3.38538E+10-9.12481E+03
 -1      1349 1.95704E+07 7.32065E+02 7.43700E+06-3.03927E+09-3.12845E+10-9.37799E+03
 -1      1350 1.80163E+07-7.01883E+03 6.84352E+06-3.11378E+09-2.86474E+10-9.61200E+03
 -1      1351 1.64021E+07-3.76540E+03 6.23133E+06-3.19293E+09-2.59481E+10-9.82631E+03
 -1      1352 1.47700E+07 5.33303E+03 5.61460E+06-3.24336E+09-2.31920E+10-1.00203E+04
 -1      1353 1.31006E+07-7.23981E+03 4.97546E+06-3.30339E+09-2.03849E+10-1.01937E+04
 -1      1354 1.14099E+07 2.04724E+03 4.33652E+06-3.34929E+09-1.75324E+10-1.03463E+04
 -1      1355 9.69241E+06-3.26996E+03 3.68186E+06-3.39009E+09-1.46405E+10-1.04777E+04
 -1      1356 7.96127E+06 8.34842E+02 3.02558E+06-3.42328E+09-1.17152E+10-1.05876E+04
 -1      1357 6.20975E+06-2.19074E+03 2.35885E+06-3.44853E+09-8.76222E+09-1.06758E+04
 -1      1358 4.45199E+06 7.39697E+02 1.69202E+06-3.46797E+09-5.78780E+09-1.07421E+04
 -1      1359 2.68263E+06-2.93048E+02 1.01927E+06-3.47721E+09-2.79800E+09-1.07863E+04
 -1      1360 9.13625E+05-2.99307E+02 3.47044E+05-3.48091E+09 2.01082E+08-1.08088E+04
 -1      1361-8.58848E+05 5.15244E+02-3.26189E+05-3.47664E+09 3.20332E+09-1.08092E+04
 -1      1362-2.62395E+06 3.28098E+02-9.96994E+05-3.46435E+09 6.20259E+09-1.07873E+04
 -1      1363-4.38354E+06-1.83058E+02-1.66584E+06-3.44668E+09 9.19278E+09-1.07436E+04
 -1      1364-6.13022E+06 1.95810E+03-2.32876E+06-3.41859E+09 1.21678E+10-1.06782E+04
 -1      1365-7.86132E+06 2.99223E+02-2.98720E+06-3.38458E+09 1.51217E+10-1.05911E+04
 -1      1366-9.57406E+06 1.82787E+03-3.63747E+06-3.34321E+09 1.80483E+10-1.04825E+04
 -1      1367-1.12633E+07 7.03947E+02-4.27982E+06-3.29389E+09 2.09419E+10-1.03527E+04
 -1      1368-1.29251E+07 3.90061E+03-4.91008E+06-3.23828E+09 2.37965E+10-1.02020E+04
 -1      1369-1.45575E+07 9.52656E+02-5.53151E+06-3.17214E+09 2.66064E+10-1.00308E+04
 -1      1370-1.61536E+07-2.53343E+03-6.13934E+06-3.10747E+09 2.93660E+10-9.83958E+03
 -1      1371-1.77174E+07 5.74345E+03-6.73046E+06-3.03057E+09 3.20697E+10-9.62871E+03
 -1      1372-1.92375E+07 7.96293E+03-7.30723E+06-2.94025E+09 3.47121E+10-9.39851E+03
 -1      1373-2.07093E+07-3.25497E+03-7.87080E+06-2.84996E+09 3.72881E+10-9.14986E+03
 -1      1374-2.21388E+07 1.37312E+03-8.41225E+06-2.76168E+09 3.97924E+10-8.88308E+03
 -1      1375-2.35164E+07 6.02712E+03-8.93396E+06-2.65279E+09 4.22202E+10-8.59873E+03
 -1      1376-2.48396E+07 2.27746E+03-9.43820E+06-2.54612E+09 4.45666E+10-8.29764E+03
 -1      1377-2.61063E+07 4.33535E+03-9.91875E+06-2.42943E+09 4.68271E+10-7.98031E+03
 -1      1378-2.73113E+07 9.01250E+02-1.03780E+07-2.31145E+09 4.89974E+10-7.64768E+03
 -1      1379-2.84579E+07 1.07713E+04-1.08099E+07-2.18458E+09 5.10733E+10-7.30044E+03
 -1      1380-2.95328E+07-5.68797E+03-1.12247E+07-2.04906E+09 5.30507E+10-6.93934E+03
 -1      1381-3.05480E+07 4.98631E+03-1.16064E+07-1.93047E+09 5.49260E+10-6.56530E+03
 -1      1382-3.14895E+07 1.08520E+04-1.19619E+07-1.77177E+09 5.66957E+10-6.17903E+03
 -1      1383-3.23558E+07 2.82603E+03-1.22941E+07-1.63625E+09 5.83565E+10-5.78138E+03
 -1      1384-3.31509E+07 2.40181E+03-1.25964E+07-1.48030E+09 5.99054E+10-5.37348E+03
 -1      1385-3.38681E+07-3.67625E+02-1.28700E+07-1.34098E+09 6.13397E+10-4.95629E+03
 -1      1386-3.45094E+07 1.00505E+04-1.31098E+07-1.17797E+09 6.26569E+10-4.53053E+03
 -1      1387-3.50689E+07 2.42683E+03-1.33253E+07-1.02060E+09 6.38548E+10-4.09728E+03
 -1      1388-3.55479E+07 6.40127E+03-1.35058E+07-8.58661E+08 6.49313E+10-3.65757E+03
 -1      1389-3.59408E+07 1.25698E+03-1.36570E+07-6.94568E+08 6.58850E+10-3.21244E+03
 -1      1390-3.62564E+07 1.35179E+04-1.37723E+07-5.29692E+08 6.67144E+10-2.76293E+03
 -1      1391-3.64766E+07-5.82030E+03-1.38633E+07-3.51850E+08 6.74184E+10-2.30999E+03
 -1      1392-3.66207E+07 2.91393E+03-1.39148E+07-2.06260E+08 6.79963E+10-1.85487E+03
 -1      1393-3.66783E+07 2.25077E+04-1.39292E+07-9.78456E+06 6.84476E+10-1.39845E+03
 -1      1394-3.66363E+07-9.81282E+03-1.39255E+07 1.56954E+08 6.87720E+10-9.41967E+02
 -1      1395-3.65201E+07 7.03783E+03-1.38750E+07 3.18405E+08 6.89698E+10-4.86420E+02
 -1      1396-3.63065E+07 1.15115E+03-1.37961E+07 5.00599E+08 6.90412E+10-3.28848E+01
 -1      1397-3.60145E+07 1.38219E+04-1.36803E+07 6.62883E+08 6.89872E+10 4.17394E+02
 -1      1398-3.56269E+07 6.02556E+03-1.35359E+07 8.59157E+08 6.88086E+10 8.63518E+02
 -1      1399-3.51486E+07-6.46514E+03-1.33589E+07 1.00740E+09 6.85068E+10 1.30425E+03
 -1      1400-3.45942E+07 1.35776E+04-1.31407E+07 1.18928E+09 6.80835E+10 1.73850E+03
 -1      1401-3.39424E+07 1.43221E+03-1.28976E+07 1.35753E+09 6.75405E+10 2.16528E+03
 -1      1402-3.32110E+07 6.38287E+03-1.26178E+07 1.52584E+09 6.68802E+10 2.58342E+03
 -1      1403-3.23912E+07 2.85370E+03-1.23076E+07 1.69336E+09 6.61051E+10 2.99193E+03
 -1      1404-3.14877E+07 9.79067E+03-1.19616E+07 1.85701E+09 6.52179E+10 3.38975E+03
 -1      1405-3.04998E+07 1.80928E+02-1.15899E+07 2.02570E+09 6.42219E+10 3.77573E+03
 -1      1406-2.94317E+07 2.72040E+03-1.11830E+07 2.17339E+09 6.31205E+10 4.14887E+03
 -1      1407-2.82813E+07 3.43661E+03-1.07456E+07 2.33781E+09 6.19172E+10 4.50825E+03
 -1      1408-2.70571E+07 1.02447E+04-1.02778E+07 2.48396E+09 6.06162E+10 4.85292E+03
 -1      1409-2.57502E+07 5.42277E+03-9.78303E+06 2.65081E+09 5.92216E+10 5.18175E+03
 -1      1410-2.43645E+07-5.60619E+03-9.26066E+06 2.78040E+09 5.77380E+10 5.49383E+03
 -1      1411-2.29162E+07 1.50417E+04-8.70247E+06 2.93053E+09 5.61702E+10 5.78823E+03
 -1      1412-2.13842E+07-4.57967E+03-8.12779E+06 3.07273E+09 5.45231E+10 6.06416E+03
 -1      1413-1.97912E+07 4.86884E+03-7.51884E+06 3.19435E+09 5.28021E+10 6.32054E+03
 -1      1414-1.81292E+07 8.65284E+03-6.88585E+06 3.33836E+09 5.10127E+10 6.55667E+03
 -1      1415-1.63976E+07 8.09373E+02-6.23082E+06 3.45699E+09 4.91606E+10 6.77173E+03
 -1      1416-1.46083E+07 4.06413E+03-5.54962E+06 3.58250E+09 4.72518E+10 6.96477E+03
 -1      1417-1.27549E+07-6.24937E+02-4.84713E+06 3.69310E+09 4.52925E+10 7.13520E+03
 -1      1418-1.08482E+07 6.18705E+03-4.11999E+06 3.80470E+09 4.32891E+10 7.28222E+03
 -1      1419-8.88300E+06 4.80324E+03-3.37374E+06 3.91415E+09 4.12482E+10 7.40512E+03
 -1      1420-6.86467E+06 1.36059E+02-2.60855E+06 4.01430E+09 3.91766E+10 7.50325E+03
 -1      1421-4.79815E+06 2.88938E+03-1.82222E+06 4.10763E+09 3.70813E+10 7.57594E+03
 -1      1422-2.68445E+06 2.77767E+03-1.01906E+06 4.19971E+09 3.49694E+10 7.62251E+03
 -1      1423-5.24364E+05 2.65379E+03-1.98278E+05 4.28348E+09 3.28483E+10 7.64252E+03
 -1      1424 1.67579E+06 1.41850E+03 6.37315E+05 4.36447E+09 3.07253E+10 7.63547E+03
 -1      1425 3.91659E+06 3.36447E+03 1.48956E+06 4.43706E+09 2.86082E+10 7.60071E+03
 -1      1426 6.19294E+06-5.52673E+02 2.35308E+06 4.50856E+09 2.65047E+10 7.53779E+03
 -1      1427 8.50400E+06 3.53362E+03 3.23284E+06 4.56760E+09 2.44225E+10 7.44626E+03
 -1      1428 1.08435E+07 3.30357E+03 4.12176E+06 4.63386E+09 2.23698E+10 7.32584E+03
 -1      1429 1.32168E+07 1.14238E+03 5.02278E+06 4.68212E+09 2.03547E+10 7.17615E+03
 -1      1430 1.56127E+07-5.84003E+03 5.93058E+06 4.73262E+09 1.83852E+10 6.99664E+03
 -1      1431 1.80301E+07 9.14093E+03 6.85490E+06 4.76677E+09 1.64698E+10 6.78714E+03
 -1      1432 2.04714E+07-1.06058E+03 7.77872E+06 4.82569E+09 1.46168E+10 6.54754E+03
 -1      1433 2.29321E+07 1.96398E+03 8.71492E+06 4.83789E+09 1.28345E+10 6.27738E+03
 -1      1434 2.54064E+07-2.49523E+03 9.65344E+06 4.89106E+09 1.11316E+10 5.97648E+03
 -1      1435 2.78986E+07 4.67515E+03 1.06032E+07 4.88817E+09 9.51664E+09 5.64465E+03
 -1      1436 3.03984E+07-2.61391E+03 1.15504E+07 4.94631E+09 7.99814E+09 5.28161E+03
 -1      1437 3.29131E+07-1.00681E+03 1.25066E+07 4.91863E+09 6.58478E+09 4.88751E+03
 -1      1438 3.54295E+07 3.92263E+03 1.34647E+07 4.98550E+09 5.28526E+09 4.46211E+03
 -1      1439 3.79590E+07 8.12489E+03 1.44275E+07 4.94211E+09 4.10832E+09 4.00511E+03
 -1      1440 4.05003E+07-1.80214E+04 1.53833E+07 5.02698E+09 3.06267E+09 3.51662E+03
 -1      1441 4.30185E+07-7.62846E+03 1.63441E+07 4.90614E+09 2.15710E+09 2.99672E+03
 -1      1442 4.55907E+07 1.00500E+05 1.73626E+07 5.09357E+09 1.40035E+09 2.44520E+03
 -1      1443 4.80286E+07-3.72613E+05 1.81092E+07 4.87459E+09 8.01246E+08 1.86183E+03
 -1      1444 5.09603E+07 1.33390E+06 1.98718E+07 5.12581E+09 3.68512E+08 1.24727E+03
 -1      1445 5.20540E+07-4.84182E+06 1.79406E+07 4.88379E+09 1.11045E+08 5.99845E+02
 -1      1446 5.13522E+07 1.76811E+07 2.62326E+07 5.73209E+09 2.73180E+07 2.67331E+02
 -1      1447 2.71118E+08 1.43310E+08 1.57483E+08-6.11484E+05 8.92461E+10-3.58859E+08
 -1      1448 9.56458E+08 1.38693E+08 4.16157E+08-1.63296E+08 8.71527E+10-3.58848E+08
 -1      1449 3.04917E+09 1.34526E+08 1.20980E+09-3.18375E+08 8.29661E+10-3.58801E+08
 -1      1450 6.47153E+09 1.24607E+08 2.50653E+09-4.66090E+08 7.87804E+10-3.58688E+08
 -1      1451 1.11455E+10 1.22602E+08 4.28188E+09-6.05086E+08 7.45965E+10-3.58479E+08
 -1      1452 1.70163E+10 1.03446E+08 6.50550E+09-7.38216E+08 7.04158E+10-3.58145E+08
 -1      1453 2.39980E+10 1.20699E+08 9.16509E+09-8.62702E+08 6.62399E+10-3.57659E+08
 -1      1454 3.20516E+10 8.58014E+07 1.22122E+10-9.78548E+08 6.20706E+10-3.56994E+08
 -1      1455 4.10817E+10 1.01264E+08 1.56495E+10-1.08958E+09 5.79102E+10-3.56127E+08
 -1      1456 5.10417E+10 8.41828E+07 1.94278E+10-1.18920E+09 5.37613E+10-3.55035E+08
 -1      1457 6.18673E+10 6.63547E+07 2.35348E+10-1.28471E+09 4.96265E+10-3.53696E+08
 -1      1458 7.34593E+10 9.63783E+07 2.79511E+10-1.37400E+09 4.55089E+10-3.52091E+08
 -1      1459 8.58074E+10 5.58500E+07 3.26280E+10-1.44654E+09 4.14116E+10-3.50202E+08
 -1      1460 9.88010E+10 4.08887E+07 3.75599E+10-1.52690E+09 3.73381E+10-3.48013E+08
 -1      1461 1.12375E+11 7.58992E+07 4.27312E+10-1.58291E+09 3.32920E+10-3.45509E+08
 -1      1462 1.26525E+11 5.77588E+07 4.81015E+10-1.64259E+09 2.92770E+10-3.42676E+08
 -1      1463 1.41093E+11-6.30043E+06 5.36129E+10-1.69981E+09 2.52970E+10-3.39501E+08
 -1      1464 1.56084E+11 9.88897E+07 5.93493E+10-1.73073E+09 2.13561E+10-3.35977E+08
 -1      1465 1.71429E+11-2.40535E+07 6.51340E+10-1.77510E+09 1.74584E+10-3.32093E+08
 -1      1466 1.87024E+11 5.14435E+07 7.10885E+10-1.79520E+09 1.36082E+10-3.27842E+08
 -1      1467 2.02875E+11 3.98282E+06 7.70941E+10-1.82102E+09 9.80970E+09-3.23218E+08
 -1      1468 2.18845E+11-2.57509E+07 8.31514E+10-1.84011E+09 6.06739E+09-3.18217E+08
 -1      1469 2.34916E+11 8.28104E+07 8.92997E+10-1.84051E+09 2.38562E+09-3.12835E+08
 -1      1470 2.51057E+11-7.51028E+07 9.53730E+10-1.84387E+09-1.23112E+09-3.07072E+08
 -1      1471 2.67146E+11 3.20789E+07 1.01528E+11-1.83693E+09-4.77841E+09-3.00926E+08
 -1      1472 2.83177E+11-2.84402E+07 1.07597E+11-1.82834E+09-8.25176E+09-2.94400E+08
 -1      1473 2.99063E+11-1.83358E+07 1.13637E+11-1.80989E+09-1.16467E+10-2.87495E+08
 -1      1474 3.14762E+11 1.77957E+06 1.19610E+11-1.78222E+09-1.49590E+10-2.80215E+08
 -1      1475 3.30250E+11-5.05188E+07 1.25476E+11-1.74995E+09-1.81841E+10-2.72565E+08
 -1      1476 3.45428E+11-5.66506E+07 1.31241E+11-1.72167E+09-2.13178E+10-2.64552E+08
 -1      1477 3.60247E+11-1.53053E+07 1.36888E+11-1.67794E+09-2.43560E+10-2.56183E+08
 -1      1478 3.74707E+11-1.64959E+07 1.42382E+11-1.62673E+09-2.72945E+10-2.47467E+08
 -1      1479 3.88726E+11-1.07513E+08 1.47675E+11-1.57622E+09-3.01294E+10-2.38413E+08
 -1      1480 4.02260E+11-1.26996E+07 1.52854E+11-1.51672E+09-3.28566E+10-2.29032E+08
 -1      1481 4.15267E+11-6.97904E+07 1.57775E+11-1.45895E+09-3.54726E+10-2.19337E+08
 -1      1482 4.27713E+11-5.22581E+07 1.62511E+11-1.38707E+09-3.79737E+10-2.09339E+08
 -1      1483 4.39562E+11-7.34103E+07 1.67006E+11-1.32055E+09-4.03564E+10-1.99054E+08
 -1      1484 4.50736E+11-6.78779E+07 1.71254E+11-1.24501E+09-4.26175E+10-1.88495E+08
 -1      1485 4.61266E+11-3.84785E+07 1.75267E+11-1.15456E+09-4.47540E+10-1.77679E+08
 -1      1486 4.71081E+11-1.05490E+08 1.78971E+11-1.08450E+09-4.67627E+10-1.66622E+08
 -1      1487 4.80124E+11-1.02998E+08 1.82408E+11-9.92077E+08-4.86412E+10-1.55341E+08
 -1      1488 4.88403E+11-5.62664E+07 1.85572E+11-9.04284E+08-5.03868E+10-1.43855E+08
 -1      1489 4.95883E+11-4.19456E+07 1.88420E+11-8.05559E+08-5.19974E+10-1.32182E+08
 -1      1490 5.02538E+11-1.62366E+08 1.90903E+11-7.11830E+08-5.34707E+10-1.20341E+08
 -1      1491 5.08333E+11-4.64694E+07 1.93149E+11-6.10439E+08-5.48049E+10-1.08353E+08
 -1      1492 5.13252E+11-6.69895E+07 1.95010E+11-5.15219E+08-5.59986E+10-9.62370E+07
 -1      1493 5.17281E+11-1.14206E+08 1.96523E+11-4.08838E+08-5.70502E+10-8.40153E+07
 -1      1494 5.20414E+11-1.22565E+08 1.97711E+11-3.04128E+08-5.79588E+10-7.17087E+07
 -1      1495 5.22580E+11-9.55400E+07 1.98544E+11-2.00500E+08-5.87233E+10-5.93393E+07
 -1      1496 5.23858E+11-2.28927E+07 1.99057E+11-7.79483E+07-5.93433E+10-4.69291E+07
 -1      1497 5.24192E+11-1.57421E+08 1.99133E+11 9.61481E+06-5.98183E+10-3.44996E+07
 -1      1498 5.23511E+11-7.59774E+07 1.98905E+11 1.25421E+08-6.01484E+10-2.20743E+07
 -1      1499 5.21925E+11-7.19819E+07 1.98304E+11 2.40932E+08-6.03336E+10-9.67595E+06
 -1      1500 5.19365E+11-1.21930E+08 1.97312E+11 3.48598E+08-6.03744E+10 2.67330E+06
 -1      1501 5.15850E+11-1.24781E+08 1.95976E+11 4.64116E+08-6.02715E+10 1.49504E+07
 -1      1502 5.11357E+11-7.29532E+07 1.94288E+11 5.59170E+08-6.00259E+10 2.71326E+07
 -1      1503 5.05894E+11-5.95279E+07 1.92217E+11 6.80204E+08-5.96388E+10 3.91967E+07
 -1      1504 4.99522E+11-1.26899E+08 1.89770E+11 7.85392E+08-5.91118E+10 5.11204E+07
 -1      1505 4.92188E+11-1.22535E+08 1.86985E+11 8.93081E+08-5.84466E+10 6.28817E+07
 -1      1506 4.83892E+11-6.30993E+07 1.83855E+11 9.95832E+08-5.76452E+10 7.44576E+07
 -1      1507 4.74722E+11-5.30628E+07 1.80374E+11 1.11102E+09-5.67099E+10 8.58262E+07
 -1      1508 4.64645E+11-1.59215E+08 1.76505E+11 1.20022E+09-5.56433E+10 9.69666E+07
 -1      1509 4.53633E+11-7.48768E+07 1.72352E+11 1.30350E+09-5.44482E+10 1.07857E+08
 -1      1510 4.41796E+11-4.10314E+07 1.67867E+11 1.40892E+09-5.31276E+10 1.18476E+08
 -1      1511 4.29103E+11-8.00968E+07 1.63029E+11 1.49740E+09-5.16847E+10 1.28805E+08
 -1      1512 4.15591E+11-1.34789E+08 1.57873E+11 1.59737E+09-5.01231E+10 1.38822E+08
 -1      1513 4.01265E+11-5.23629E+07 1.52461E+11 1.67521E+09-4.84466E+10 1.48510E+08
 -1      1514 3.86158E+11-3.67282E+07 1.46726E+11 1.77172E+09-4.66590E+10 1.57848E+08
 -1      1515 3.70351E+11-1.38702E+08 1.40681E+11 1.85237E+09-4.47646E+10 1.66820E+08
 -1      1516 3.53775E+11-3.17107E+07 1.34422E+11 1.93033E+09-4.27678E+10 1.75408E+08
 -1      1517 3.36553E+11-4.88316E+07 1.27872E+11 2.01439E+09-4.06731E+10 1.83595E+08
 -1      1518 3.18684E+11-8.59870E+07 1.21067E+11 2.07693E+09-3.84852E+10 1.91365E+08
 -1      1519 3.00176E+11-6.72637E+07 1.14041E+11 2.14874E+09-3.62092E+10 1.98705E+08
 -1      1520 2.81108E+11-4.19763E+07 1.06805E+11 2.21107E+09-3.38502E+10 2.05598E+08
 -1      1521 2.61490E+11-3.30934E+07 9.93537E+10 2.27373E+09-3.14134E+10 2.12033E+08
 -1      1522 2.41390E+11-6.08880E+07 9.17052E+10 2.32996E+09-2.89042E+10 2.17997E+08
 -1      1523 2.20818E+11-6.62359E+07 8.38857E+10 2.37503E+09-2.63283E+10 2.23478E+08
 -1      1524 1.99812E+11-1.51592E+07 7.59227E+10 2.42338E+09-2.36913E+10 2.28467E+08
 -1      1525 1.78448E+11-9.06227E+06 6.78067E+10 2.46395E+09-2.09990E+10 2.32953E+08
 -1      1526 1.56746E+11-6.82259E+07 5.95376E+10 2.49982E+09-1.82573E+10 2.36928E+08
 -1      1527 1.34742E+11-7.85941E+06 5.11990E+10 2.52967E+09-1.54723E+10 2.40385E+08
 -1      1528 1.12501E+11-1.59114E+07 4.27444E+10 2.55811E+09-1.26500E+10 2.43317E+08
 -1      1529 9.00605E+10-2.48079E+07 3.42135E+10 2.57547E+09-9.79655E+09 2.45719E+08
 -1      1530 6.74533E+10-9.52406E+06 2.56286E+10 2.59168E+09-6.91820E+09 2.47587E+08
 -1      1531 4.47435E+10-5.97705E+06 1.70003E+10 2.60151E+09-4.02118E+09 2.48917E+08
 -1      1532 2.19673E+10-3.57668E+04 8.34756E+09 2.60654E+09-1.11179E+09 2.49709E+08
 -1      1533-8.26959E+08 3.01416E+06-3.13100E+08 2.60567E+09 1.80367E+09 2.49959E+08
 -1      1534-2.35906E+10 6.10145E+06-8.96210E+09 2.60027E+09 4.71890E+09 2.49669E+08
 -1      1535-4.62801E+10 1.04464E+07-1.75825E+10 2.58823E+09 7.62760E+09 2.48841E+08
 -1      1536-6.88497E+10 1.57947E+07-2.61569E+10 2.57182E+09 1.05235E+10 2.47475E+08
 -1      1537-9.12482E+10 3.84286E+07-3.46597E+10 2.54978E+09 1.34004E+10 2.45576E+08
 -1      1538-1.13437E+11 1.08613E+07-4.31018E+10 2.52206E+09 1.62520E+10 2.43149E+08
 -1      1539-1.35363E+11 1.86271E+07-5.14308E+10 2.49270E+09 1.90722E+10 2.40198E+08
 -1      1540-1.56984E+11 4.69515E+07-5.96361E+10 2.45308E+09 2.18550E+10 2.36731E+08
 -1      1541-1.78266E+11 5.36825E+07-6.77207E+10 2.41088E+09 2.45944E+10 2.32755E+08
 -1      1542-1.99136E+11 2.96394E+07-7.56604E+10 2.36481E+09 2.72845E+10 2.28279E+08
 -1      1543-2.19591E+11 3.01756E+07-8.34331E+10 2.30771E+09 2.99194E+10 2.23313E+08
 -1      1544-2.39571E+11 9.30973E+07-9.10016E+10 2.25717E+09 3.24936E+10 2.17867E+08
 -1      1545-2.59005E+11 3.00764E+07-9.84105E+10 2.19445E+09 3.50015E+10 2.11954E+08
 -1      1546-2.77904E+11 4.78311E+07-1.05585E+11 2.12508E+09 3.74378E+10 2.05586E+08
 -1      1547-2.96210E+11 7.92369E+07-1.12530E+11 2.05630E+09 3.97972E+10 1.98778E+08
 -1      1548-3.13862E+11 8.41853E+07-1.19236E+11 1.98137E+09 4.20747E+10 1.91542E+08
 -1      1549-3.30860E+11 5.54599E+07-1.25706E+11 1.90101E+09 4.42653E+10 1.83896E+08
 -1      1550-3.47143E+11 4.93934E+07-1.31895E+11 1.82247E+09 4.63644E+10 1.75855E+08
 -1      1551-3.62685E+11 1.17916E+08-1.37775E+11 1.73318E+09 4.83674E+10 1.67437E+08
 -1      1552-3.77474E+11 8.90500E+07-1.43406E+11 1.64179E+09 5.02702E+10 1.58659E+08
 -1      1553-3.91424E+11 3.56618E+07-1.48727E+11 1.55507E+09 5.20685E+10 1.49540E+08
 -1      1554-4.04579E+11 7.73681E+07-1.53710E+11 1.44677E+09 5.37585E+10 1.40100E+08
 -1      1555-4.16883E+11 1.56645E+08-1.58356E+11 1.35899E+09 5.53365E+10 1.30357E+08
 -1      1556-4.28253E+11 4.69265E+07-1.62718E+11 1.25438E+09 5.67993E+10 1.20334E+08
 -1      1557-4.38764E+11 7.82841E+07-1.66701E+11 1.14469E+09 5.81436E+10 1.10052E+08
 -1      1558-4.48330E+11 1.11159E+08-1.70323E+11 1.03940E+09 5.93665E+10 9.95311E+07
 -1      1559-4.56973E+11 1.28370E+08-1.73601E+11 9.25517E+08 6.04653E+10 8.87946E+07
 -1      1560-4.64614E+11 7.66820E+07-1.76524E+11 8.27746E+08 6.14378E+10 7.78650E+07
 -1      1561-4.71285E+11 5.21412E+07-1.79068E+11 7.03364E+08 6.22817E+10 6.67657E+07
 -1      1562-4.76998E+11 1.86182E+08-1.81189E+11 5.92467E+08 6.29952E+10 5.55193E+07
 -1      1563-4.81668E+11 4.44866E+07-1.83017E+11 4.78995E+08 6.35768E+10 4.41509E+07
 -1      1564-4.85387E+11 7.98101E+07-1.84417E+11 3.52389E+08 6.40251E+10 3.26840E+07
 -1      1565-4.88068E+11 1.73495E+08-1.85400E+11 2.48837E+08 6.43392E+10 2.11406E+07
 -1      1566-4.89668E+11 9.21512E+07-1.86039E+11 1.22637E+08 6.45183E+10 9.54600E+06
 -1      1567-4.90265E+11 5.30879E+07-1.86281E+11 1.39709E+07 6.45619E+10-2.07478E+06
 -1      1568-4.89823E+11 1.13104E+08-1.86090E+11-1.12611E+08 6.44699E+10-1.36973E+07
 -1      1569-4.88356E+11 1.13544E+08-1.85532E+11-2.27412E+08 6.42424E+10-2.52972E+07
 -1      1570-4.85887E+11 1.36963E+08-1.84585E+11-3.49665E+08 6.38799E+10-3.68504E+07
 -1      1571-4.82359E+11 7.89704E+07-1.83266E+11-4.51172E+08 6.33829E+10-4.83325E+07
 -1      1572-4.77827E+11 5.17094E+07-1.81555E+11-5.78184E+08 6.27525E+10-5.97189E+07
 -1      1573-4.72337E+11 1.83942E+08-1.79418E+11-6.89038E+08 6.19900E+10-7.09865E+07
 -1      1574-4.65795E+11 5.07878E+07-1.76983E+11-7.98344E+08 6.10968E+10-8.21115E+07
 -1      1575-4.58324E+11 7.35572E+07-1.74135E+11-9.19508E+08 6.00748E+10-9.30702E+07
 -1      1576-4.49895E+11 1.26742E+08-1.70912E+11-1.01487E+09 5.89260E+10-1.03840E+08
 -1      1577-4.40497E+11 1.02961E+08-1.67350E+11-1.12651E+09 5.76527E+10-1.14399E+08
 -1      1578-4.30195E+11 1.02986E+08-1.63435E+11-1.22820E+09 5.62576E+10-1.24724E+08
 -1      1579-4.18987E+11 2.21588E+07-1.59207E+11-1.33626E+09 5.47435E+10-1.34794E+08
 -1      1580-4.06943E+11 1.31186E+08-1.54588E+11-1.43228E+09 5.31135E+10-1.44589E+08
 -1      1581-3.94007E+11 7.89497E+07-1.49693E+11-1.51852E+09 5.13710E+10-1.54087E+08
 -1      1582-3.80254E+11 4.67570E+07-1.44479E+11-1.61953E+09 4.95195E+10-1.63268E+08
 -1      1583-3.65747E+11 1.03796E+08-1.38944E+11-1.70563E+09 4.75628E+10-1.72115E+08
 -1      1584-3.50456E+11 9.24551E+07-1.33138E+11-1.79063E+09 4.55049E+10-1.80608E+08
 -1      1585-3.34429E+11 4.56962E+07-1.27065E+11-1.86977E+09 4.33501E+10-1.88730E+08
 -1      1586-3.17736E+11 4.96721E+07-1.20721E+11-1.95409E+09 4.11027E+10-1.96463E+08
 -1      1587-3.00381E+11 8.39948E+07-1.14113E+11-2.01786E+09 3.87676E+10-2.03793E+08
 -1      1588-2.82394E+11 6.63241E+07-1.07285E+11-2.08999E+09 3.63493E+10-2.10704E+08
 -1      1589-2.63835E+11 4.65197E+07-1.00240E+11-2.15234E+09 3.38529E+10-2.17181E+08
 -1      1590-2.44733E+11 2.58634E+07-9.29888E+10-2.21483E+09 3.12835E+10-2.23212E+08
 -1      1591-2.25150E+11 8.01338E+07-8.55267E+10-2.27034E+09 2.86464E+10-2.28784E+08
 -1      1592-2.05089E+11 3.77633E+07-7.79195E+10-2.31436E+09 2.59471E+10-2.33886E+08
 -1      1593-1.84614E+11 1.39821E+07-7.01479E+10-2.36469E+09 2.31910E+10-2.38507E+08
 -1      1594-1.63788E+11 3.86180E+07-6.22249E+10-2.40116E+09 2.03838E+10-2.42638E+08
 -1      1595-1.42618E+11 4.17019E+07-5.41789E+10-2.43689E+09 1.75314E+10-2.46272E+08
 -1      1596-1.21178E+11 1.72435E+07-4.60412E+10-2.46665E+09 1.46395E+10-2.49400E+08
 -1      1597-9.95020E+10 1.08015E+07-3.78067E+10-2.48943E+09 1.17141E+10-2.52017E+08
 -1      1598-7.76395E+10 2.55313E+07-2.94933E+10-2.50866E+09 8.76116E+09-2.54117E+08
 -1      1599-5.56366E+10 4.99672E+06-2.11400E+10-2.52153E+09 5.78675E+09-2.55697E+08
 -1      1600-3.35409E+10 1.25988E+06-1.27451E+10-2.52984E+09 2.79695E+09-2.56755E+08
 -1      1601-1.14034E+10 4.90479E+06-4.33144E+09-2.53205E+09-2.02127E+08-2.57287E+08
 -1      1602 1.07345E+10-1.04316E+07 4.07515E+09-2.52886E+09-3.20435E+09-2.57295E+08
 -1      1603 3.28177E+10-6.04574E+06 1.24684E+10-2.52043E+09-6.20361E+09-2.56778E+08
 -1      1604 5.48045E+10-1.37366E+07 2.08205E+10-2.50576E+09-9.19380E+09-2.55739E+08
 -1      1605 7.66452E+10-1.82116E+07 2.91182E+10-2.48651E+09-1.21688E+10-2.54180E+08
 -1      1606 9.82891E+10-4.13906E+07 3.73341E+10-2.46133E+09-1.51227E+10-2.52105E+08
 -1      1607 1.19695E+11-1.52510E+07 4.54783E+10-2.43033E+09-1.80493E+10-2.49520E+08
 -1      1608 1.40810E+11-1.43789E+07 5.35022E+10-2.39780E+09-2.09428E+10-2.46431E+08
 -1      1609 1.61595E+11-7.23704E+07 6.13785E+10-2.35447E+09-2.37974E+10-2.42844E+08
 -1      1610 1.81994E+11-2.57849E+07 6.91480E+10-2.31004E+09-2.66073E+10-2.38770E+08
 -1      1611 2.01968E+11-3.70630E+07 7.67336E+10-2.25649E+09-2.93669E+10-2.34216E+08
 -1      1612 2.21489E+11-5.99319E+07 8.41429E+10-2.19907E+09-3.20705E+10-2.29194E+08
 -1      1613 2.40489E+11-7.51165E+07 9.13574E+10-2.14348E+09-3.47130E+10-2.23716E+08
 -1      1614 2.58918E+11-4.26531E+07 9.83728E+10-2.07644E+09-3.72889E+10-2.17793E+08
 -1      1615 2.76777E+11-4.18035E+07 1.05159E+11-2.00323E+09-3.97931E+10-2.11441E+08
 -1      1616 2.93994E+11-1.12520E+08 1.11675E+11-1.92924E+09-4.22209E+10-2.04672E+08
 -1      1617 3.10537E+11-4.62092E+07 1.17986E+11-1.84915E+09-4.45673E+10-1.97503E+08
 -1      1618 3.26364E+11-6.22411E+07 1.23995E+11-1.76950E+09-4.68278E+10-1.89950E+08
 -1      1619 3.41450E+11-8.33188E+07 1.29719E+11-1.67931E+09-4.89980E+10-1.82030E+08
 -1      1620 3.55759E+11-1.36789E+08 1.35136E+11-1.58817E+09-5.10738E+10-1.73762E+08
 -1      1621 3.69232E+11-3.75149E+07 1.40294E+11-1.49353E+09-5.30512E+10-1.65165E+08
 -1      1622 3.81885E+11-4.50891E+07 1.45099E+11-1.39139E+09-5.49265E+10-1.56257E+08
 -1      1623 3.93658E+11-1.43054E+08 1.49536E+11-1.29732E+09-5.66962E+10-1.47060E+08
 -1      1624 4.04510E+11-1.06448E+08 1.53673E+11-1.18766E+09-5.83569E+10-1.37595E+08
 -1      1625 4.14438E+11-7.71024E+07 1.57457E+11-1.08281E+09-5.99058E+10-1.27883E+08
 -1      1626 4.23415E+11-6.35296E+07 1.60874E+11-9.67391E+08-6.13400E+10-1.17947E+08
 -1      1627 4.31418E+11-1.65381E+08 1.63876E+11-8.55882E+08-6.26572E+10-1.07810E+08
 -1      1628 4.38415E+11-6.66165E+07 1.66572E+11-7.38962E+08-6.38550E+10-9.74947E+07
 -1      1629 4.44391E+11-8.44820E+07 1.68836E+11-6.26561E+08-6.49315E+10-8.70258E+07
 -1      1630 4.49334E+11-1.24763E+08 1.70700E+11-5.03755E+08-6.58851E+10-7.64273E+07
 -1      1631 4.53238E+11-1.37407E+08 1.72178E+11-3.83347E+08-6.67144E+10-6.57240E+07
 -1      1632 4.56043E+11-8.09009E+07 1.73266E+11-2.63450E+08-6.74184E+10-5.49410E+07
 -1      1633 4.57812E+11-6.43542E+07 1.73944E+11-1.30029E+08-6.79962E+10-4.41040E+07
 -1      1634 4.58499E+11-2.19891E+08 1.74146E+11-1.77270E+07-6.84474E+10-3.32378E+07
 -1      1635 4.58044E+11-3.49633E+07 1.74043E+11 1.11806E+08-6.87718E+10-2.23688E+07
 -1      1636 4.56537E+11-7.06859E+07 1.73457E+11 2.37365E+08-6.89695E+10-1.15231E+07
 -1      1637 4.53915E+11-1.61755E+08 1.72426E+11 3.64375E+08-6.90410E+10-7.26282E+05
 -1      1638 4.50209E+11-1.29812E+08 1.71030E+11 4.94717E+08-6.89868E+10 9.99535E+06
 -1      1639 4.45377E+11-9.04003E+07 1.69209E+11 6.07051E+08-6.88082E+10 2.06157E+07
 -1      1640 4.39445E+11-7.71687E+07 1.66960E+11 7.43238E+08-6.85064E+10 3.11084E+07
 -1      1641 4.32454E+11-1.41066E+08 1.64279E+11 8.64878E+08-6.80830E+10 4.14479E+07
 -1      1642 4.24349E+11-1.26060E+08 1.61205E+11 9.89133E+08-6.75400E+10 5.16084E+07
 -1      1643 4.15173E+11-8.67324E+07 1.57733E+11 1.11333E+09-6.68796E+10 6.15639E+07
 -1      1644 4.04936E+11-7.38601E+07 1.53848E+11 1.22974E+09-6.61045E+10 7.12892E+07
 -1      1645 3.93641E+11-1.65029E+08 1.49521E+11 1.35287E+09-6.52173E+10 8.07590E+07
 -1      1646 3.81300E+11-7.15466E+07 1.44867E+11 1.46788E+09-6.42212E+10 8.99487E+07
 -1      1647 3.67939E+11-7.69215E+07 1.39788E+11 1.58833E+09-6.31197E+10 9.88335E+07
 -1      1648 3.53574E+11-1.42048E+08 1.34304E+11 1.70116E+09-6.19164E+10 1.07390E+08
 -1      1649 3.38231E+11-9.67102E+07 1.28491E+11 1.81745E+09-6.06154E+10 1.15593E+08
 -1      1650 3.21900E+11-6.16353E+07 1.22298E+11 1.91373E+09-5.92208E+10 1.23421E+08
 -1      1651 3.04625E+11-8.48032E+07 1.15725E+11 2.03034E+09-5.77371E+10 1.30851E+08
 -1      1652 2.86458E+11-1.36921E+08 1.08802E+11 2.13161E+09-5.61693E+10 1.37860E+08
 -1      1653 2.67357E+11-5.91188E+07 1.01573E+11 2.23152E+09-5.45222E+10 1.44427E+08
 -1      1654 2.47412E+11-7.28872E+07 9.39888E+10 2.33467E+09-5.28011E+10 1.50532E+08
 -1      1655 2.26626E+11-1.01172E+08 8.60795E+10 2.42243E+09-5.10117E+10 1.56153E+08
 -1      1656 2.05006E+11-8.06552E+07 7.78717E+10 2.51667E+09-4.91596E+10 1.61271E+08
 -1      1657 1.82618E+11-7.13777E+07 6.93678E+10 2.60325E+09-4.72507E+10 1.65868E+08
 -1      1658 1.59467E+11-5.91886E+07 6.05751E+10 2.68966E+09-4.52914E+10 1.69924E+08
 -1      1659 1.35606E+11-8.17334E+07 5.14993E+10 2.77093E+09-4.32880E+10 1.73423E+08
 -1      1660 1.11048E+11-6.87363E+07 4.21721E+10 2.84508E+09-4.12471E+10 1.76348E+08
 -1      1661 8.58232E+10-5.99123E+07 3.25900E+10 2.91935E+09-3.91756E+10 1.78682E+08
 -1      1662 5.99870E+10-5.42801E+07 2.27744E+10 2.99010E+09-3.70802E+10 1.80411E+08
 -1      1663 3.35519E+10-5.64613E+07 1.27283E+10 3.05470E+09-3.49684E+10 1.81520E+08
 -1      1664 6.56296E+09-5.70679E+07 2.47224E+09 3.11682E+09-3.28472E+10 1.81995E+08
 -1      1665-2.09561E+10-4.53991E+07-7.98059E+09 3.17470E+09-3.07243E+10 1.81824E+08
 -1      1666-4.89545E+10-5.19188E+07-1.86224E+10 3.22844E+09-2.86072E+10 1.80995E+08
 -1      1667-7.74267E+10-2.79124E+07-2.94328E+10 3.27848E+09-2.65037E+10 1.79496E+08
 -1      1668-1.06298E+11-5.25870E+07-4.04133E+10 3.32583E+09-2.44216E+10 1.77317E+08
 -1      1669-1.35582E+11-3.46350E+07-5.15344E+10 3.36671E+09-2.23689E+10 1.74448E+08
 -1      1670-1.65203E+11-3.87214E+07-6.27920E+10 3.40466E+09-2.03538E+10 1.70881E+08
 -1      1671-1.95184E+11 2.11466E+06-7.41691E+10 3.44389E+09-1.83844E+10 1.66607E+08
 -1      1672-2.25390E+11-5.93673E+07-8.56708E+10 3.47484E+09-1.64690E+10 1.61619E+08
 -1      1673-2.55947E+11-1.85274E+07-9.72670E+10 3.50011E+09-1.46160E+10 1.55911E+08
 -1      1674-2.86645E+11-1.29754E+07-1.08930E+11 3.52638E+09-1.28338E+10 1.49476E+08
 -1      1675-3.17658E+11 1.91459E+07-1.20703E+11 3.54618E+09-1.11310E+10 1.42309E+08
 -1      1676-3.48702E+11-9.74922E+07-1.32544E+11 3.56872E+09-9.51606E+09 1.34407E+08
 -1      1677-3.80087E+11 3.98272E+07-1.44418E+11 3.58453E+09-7.99762E+09 1.25764E+08
 -1      1678-4.11365E+11-3.01300E+07-1.56330E+11 3.59640E+09-6.58433E+09 1.16378E+08
 -1      1679-4.43036E+11 5.35093E+07-1.68333E+11 3.60835E+09-5.28489E+09 1.06246E+08
 -1      1680-4.74412E+11-1.39343E+08-1.80329E+11 3.60831E+09-4.10803E+09 9.53654E+07
 -1      1681-5.06396E+11 8.19901E+07-1.92399E+11 3.62865E+09-3.06248E+09 8.37343E+07
 -1      1682-5.37699E+11 3.76534E+08-2.04183E+11 3.62116E+09-2.15699E+09 7.13521E+07
 -1      1683-5.69866E+11-2.14751E+09-2.17365E+11 3.66074E+09-1.40035E+09 5.82178E+07
 -1      1684-6.01370E+11 8.43933E+09-2.25314E+11 3.50055E+09-8.01332E+08 4.43280E+07
 -1      1685-6.32615E+11-3.13770E+10-2.52317E+11 4.11428E+09-3.68734E+08 2.96933E+07
 -1      1686-6.68181E+11 1.15197E+11-2.10134E+11 1.84842E+09-1.11359E+08 1.42726E+07
 -1      1687-6.86183E+11-4.20342E+11-4.20480E+11 1.01638E+10-2.75440E+07 6.35283E+06
 -1      1688 2.71118E+08 1.43310E+08 1.57483E+08-6.11817E+05-8.92461E+10 3.58859E+08
 -1      1689 9.56457E+08 1.38692E+08 4.16157E+08-1.63296E+08-8.71527E+10 3.58848E+08
 -1      1690 3.04917E+09 1.34526E+08 1.20980E+09-3.18375E+08-8.29661E+10 3.58801E+08
 -1      1691 6.47152E+09 1.24607E+08 2.50653E+09-4.66090E+08-7.87803E+10 3.58688E+08
 -1      1692 1.11455E+10 1.22602E+08 4.28188E+09-6.05086E+08-7.45965E+10 3.58479E+08
 -1      1693 1.70163E+10 1.03447E+08 6.50550E+09-7.38215E+08-7.04158E+10 3.58145E+08
 -1      1694 2.39980E+10 1.20699E+08 9.16509E+09-8.62702E+08-6.62399E+10 3.57659E+08
 -1      1695 3.20516E+10 8.58012E+07 1.22122E+10-9.78548E+08-6.20706E+10 3.56994E+08
 -1      1696 4.10817E+10 1.01265E+08 1.56495E+10-1.08958E+09-5.79102E+10 3.56127E+08
 -1      1697 5.10417E+10 8.41828E+07 1.94278E+10-1.18920E+09-5.37613E+10 3.55035E+08
 -1      1698 6.18673E+10 6.63546E+07 2.35348E+10-1.28471E+09-4.96265E+10 3.53696E+08
 -1      1699 7.34593E+10 9.63783E+07 2.79511E+10-1.37401E+09-4.55089E+10 3.52091E+08
 -1      1700 8.58074E+10 5.58501E+07 3.26280E+10-1.44654E+09-4.14116E+10 3.50202E+08
 -1      1701 9.88010E+10 4.08888E+07 3.75599E+10-1.52690E+09-3.73381E+10 3.48013E+08
 -1      1702 1.12375E+11 7.58993E+07 4.27312E+10-1.58291E+09-3.32920E+10 3.45509E+08
 -1      1703 1.26525E+11 5.77587E+07 4.81015E+10-1.64259E+09-2.92770E+10 3.42675E+08
 -1      1704 1.41093E+11-6.30049E+06 5.36129E+10-1.69981E+09-2.52970E+10 3.39501E+08
 -1      1705 1.56084E+11 9.88898E+07 5.93493E+10-1.73073E+09-2.13561E+10 3.35977E+08
 -1      1706 1.71429E+11-2.40535E+07 6.51340E+10-1.77510E+09-1.74584E+10 3.32093E+08
 -1      1707 1.87024E+11 5.14435E+07 7.10885E+10-1.79520E+09-1.36082E+10 3.27842E+08
 -1      1708 2.02875E+11 3.98284E+06 7.70941E+10-1.82102E+09-9.80970E+09 3.23218E+08
 -1      1709 2.18845E+11-2.57508E+07 8.31514E+10-1.84011E+09-6.06739E+09 3.18216E+08
 -1      1710 2.34916E+11 8.28104E+07 8.92997E+10-1.84051E+09-2.38563E+09 3.12835E+08
 -1      1711 2.51057E+11-7.51027E+07 9.53730E+10-1.84387E+09 1.23112E+09 3.07072E+08
 -1      1712 2.67146E+11 3.20789E+07 1.01528E+11-1.83693E+09 4.77841E+09 3.00926E+08
 -1      1713 2.83177E+11-2.84402E+07 1.07597E+11-1.82834E+09 8.25176E+09 2.94400E+08
 -1      1714 2.99063E+11-1.83358E+07 1.13637E+11-1.80989E+09 1.16467E+10 2.87495E+08
 -1      1715 3.14762E+11 1.77943E+06 1.19610E+11-1.78222E+09 1.49590E+10 2.80215E+08
 -1      1716 3.30250E+11-5.05188E+07 1.25476E+11-1.74995E+09 1.81841E+10 2.72565E+08
 -1      1717 3.45428E+11-5.66506E+07 1.31241E+11-1.72167E+09 2.13178E+10 2.64552E+08
 -1      1718 3.60247E+11-1.53053E+07 1.36888E+11-1.67794E+09 2.43560E+10 2.56183E+08
 -1      1719 3.74707E+11-1.64959E+07 1.42382E+11-1.62673E+09 2.72945E+10 2.47467E+08
 -1      1720 3.88726E+11-1.07513E+08 1.47675E+11-1.57622E+09 3.01293E+10 2.38413E+08
 -1      1721 4.02260E+11-1.26997E+07 1.52854E+11-1.51672E+09 3.28566E+10 2.29032E+08
 -1      1722 4.15267E+11-6.97904E+07 1.57775E+11-1.45895E+09 3.54726E+10 2.19337E+08
 -1      1723 4.27713E+11-5.22581E+07 1.62511E+11-1.38707E+09 3.79736E+10 2.09339E+08
 -1      1724 4.39562E+11-7.34102E+07 1.67006E+11-1.32055E+09 4.03564E+10 1.99054E+08
 -1      1725 4.50736E+11-6.78780E+07 1.71254E+11-1.24501E+09 4.26175E+10 1.88495E+08
 -1      1726 4.61266E+11-3.84784E+07 1.75267E+11-1.15456E+09 4.47539E+10 1.77679E+08
 -1      1727 4.71081E+11-1.05490E+08 1.78971E+11-1.08450E+09 4.67627E+10 1.66622E+08
 -1      1728 4.80124E+11-1.02998E+08 1.82408E+11-9.92077E+08 4.86412E+10 1.55341E+08
 -1      1729 4.88403E+11-5.62664E+07 1.85572E+11-9.04283E+08 5.03868E+10 1.43855E+08
 -1      1730 4.95883E+11-4.19455E+07 1.88420E+11-8.05558E+08 5.19973E+10 1.32182E+08
 -1      1731 5.02538E+11-1.62366E+08 1.90903E+11-7.11829E+08 5.34707E+10 1.20341E+08
 -1      1732 5.08333E+11-4.64694E+07 1.93149E+11-6.10438E+08 5.48049E+10 1.08352E+08
 -1      1733 5.13252E+11-6.69895E+07 1.95010E+11-5.15219E+08 5.59986E+10 9.62370E+07
 -1      1734 5.17281E+11-1.14206E+08 1.96523E+11-4.08837E+08 5.70502E+10 8.40153E+07
 -1      1735 5.20414E+11-1.22565E+08 1.97711E+11-3.04128E+08 5.79587E+10 7.17087E+07
 -1      1736 5.22580E+11-9.55400E+07 1.98544E+11-2.00500E+08 5.87233E+10 5.93393E+07
 -1      1737 5.23858E+11-2.28927E+07 1.99057E+11-7.79479E+07 5.93433E+10 4.69290E+07
 -1      1738 5.24192E+11-1.57421E+08 1.99133E+11 9.61524E+06 5.98183E+10 3.44996E+07
 -1      1739 5.23511E+11-7.59775E+07 1.98905E+11 1.25421E+08 6.01484E+10 2.20743E+07
 -1      1740 5.21925E+11-7.19819E+07 1.98304E+11 2.40931E+08 6.03336E+10 9.67593E+06
 -1      1741 5.19365E+11-1.21930E+08 1.97312E+11 3.48598E+08 6.03744E+10-2.67331E+06
 -1      1742 5.15850E+11-1.24781E+08 1.95976E+11 4.64116E+08 6.02715E+10-1.49504E+07
 -1      1743 5.11357E+11-7.29532E+07 1.94288E+11 5.59170E+08 6.00259E+10-2.71326E+07
 -1      1744 5.05894E+11-5.95279E+07 1.92217E+11 6.80204E+08 5.96388E+10-3.91967E+07
 -1      1745 4.99522E+11-1.26899E+08 1.89770E+11 7.85392E+08 5.91118E+10-5.11204E+07
 -1      1746 4.92188E+11-1.22535E+08 1.86985E+11 8.93081E+08 5.84466E+10-6.28817E+07
 -1      1747 4.83892E+11-6.30993E+07 1.83855E+11 9.95832E+08 5.76452E+10-7.44576E+07
 -1      1748 4.74722E+11-5.30628E+07 1.80374E+11 1.11102E+09 5.67099E+10-8.58262E+07
 -1      1749 4.64645E+11-1.59215E+08 1.76505E+11 1.20022E+09 5.56433E+10-9.69665E+07
 -1      1750 4.53633E+11-7.48768E+07 1.72352E+11 1.30350E+09 5.44482E+10-1.07857E+08
 -1      1751 4.41796E+11-4.10314E+07 1.67867E+11 1.40892E+09 5.31275E+10-1.18476E+08
 -1      1752 4.29103E+11-8.00969E+07 1.63029E+11 1.49740E+09 5.16847E+10-1.28805E+08
 -1      1753 4.15591E+11-1.34789E+08 1.57873E+11 1.59737E+09 5.01231E+10-1.38822E+08
 -1      1754 4.01265E+11-5.23630E+07 1.52461E+11 1.67521E+09 4.84466E+10-1.48510E+08
 -1      1755 3.86158E+11-3.67282E+07 1.46726E+11 1.77172E+09 4.66590E+10-1.57848E+08
 -1      1756 3.70351E+11-1.38702E+08 1.40681E+11 1.85237E+09 4.47646E+10-1.66820E+08
 -1      1757 3.53775E+11-3.17107E+07 1.34422E+11 1.93033E+09 4.27678E+10-1.75408E+08
 -1      1758 3.36553E+11-4.88316E+07 1.27872E+11 2.01439E+09 4.06730E+10-1.83595E+08
 -1      1759 3.18684E+11-8.59870E+07 1.21067E+11 2.07693E+09 3.84852E+10-1.91365E+08
 -1      1760 3.00176E+11-6.72638E+07 1.14041E+11 2.14874E+09 3.62092E+10-1.98705E+08
 -1      1761 2.81108E+11-4.19763E+07 1.06805E+11 2.21107E+09 3.38502E+10-2.05598E+08
 -1      1762 2.61490E+11-3.30934E+07 9.93537E+10 2.27373E+09 3.14134E+10-2.12033E+08
 -1      1763 2.41390E+11-6.08879E+07 9.17052E+10 2.32996E+09 2.89042E+10-2.17997E+08
 -1      1764 2.20818E+11-6.62359E+07 8.38857E+10 2.37503E+09 2.63283E+10-2.23478E+08
 -1      1765 1.99812E+11-1.51592E+07 7.59227E+10 2.42338E+09 2.36913E+10-2.28467E+08
 -1      1766 1.78448E+11-9.06230E+06 6.78067E+10 2.46395E+09 2.09990E+10-2.32953E+08
 -1      1767 1.56746E+11-6.82258E+07 5.95376E+10 2.49982E+09 1.82573E+10-2.36928E+08
 -1      1768 1.34742E+11-7.85944E+06 5.11990E+10 2.52967E+09 1.54723E+10-2.40385E+08
 -1      1769 1.12501E+11-1.59114E+07 4.27444E+10 2.55811E+09 1.26500E+10-2.43317E+08
 -1      1770 9.00604E+10-2.48078E+07 3.42135E+10 2.57547E+09 9.79654E+09-2.45719E+08
 -1      1771 6.74532E+10-9.52413E+06 2.56286E+10 2.59168E+09 6.91820E+09-2.47587E+08
 -1      1772 4.47435E+10-5.97705E+06 1.70003E+10 2.60151E+09 4.02118E+09-2.48917E+08
 -1      1773 2.19673E+10-3.57442E+04 8.34756E+09 2.60654E+09 1.11179E+09-2.49708E+08
 -1      1774-8.26964E+08 3.01416E+06-3.13100E+08 2.60567E+09-1.80367E+09-2.49959E+08
 -1      1775-2.35906E+10 6.10143E+06-8.96210E+09 2.60027E+09-4.71890E+09-2.49669E+08
 -1      1776-4.62801E+10 1.04464E+07-1.75825E+10 2.58823E+09-7.62760E+09-2.48841E+08
 -1      1777-6.88498E+10 1.57948E+07-2.61569E+10 2.57182E+09-1.05235E+10-2.47475E+08
 -1      1778-9.12482E+10 3.84286E+07-3.46597E+10 2.54978E+09-1.34004E+10-2.45576E+08
 -1      1779-1.13437E+11 1.08613E+07-4.31018E+10 2.52206E+09-1.62520E+10-2.43149E+08
 -1      1780-1.35363E+11 1.86271E+07-5.14308E+10 2.49270E+09-1.90722E+10-2.40198E+08
 -1      1781-1.56984E+11 4.69515E+07-5.96361E+10 2.45308E+09-2.18550E+10-2.36731E+08
 -1      1782-1.78266E+11 5.36825E+07-6.77207E+10 2.41088E+09-2.45944E+10-2.32755E+08
 -1      1783-1.99136E+11 2.96394E+07-7.56604E+10 2.36481E+09-2.72845E+10-2.28279E+08
 -1      1784-2.19591E+11 3.01756E+07-8.34331E+10 2.30771E+09-2.99194E+10-2.23313E+08
 -1      1785-2.39571E+11 9.30973E+07-9.10016E+10 2.25717E+09-3.24936E+10-2.17867E+08
 -1      1786-2.59005E+11 3.00765E+07-9.84105E+10 2.19445E+09-3.50015E+10-2.11954E+08
 -1      1787-2.77904E+11 4.78311E+07-1.05585E+11 2.12508E+09-3.74378E+10-2.05587E+08
 -1      1788-2.96210E+11 7.92370E+07-1.12530E+11 2.05630E+09-3.97972E+10-1.98778E+08
 -1      1789-3.13862E+11 8.41853E+07-1.19236E+11 1.98137E+09-4.20747E+10-1.91542E+08
 -1      1790-3.30860E+11 5.54599E+07-1.25706E+11 1.90101E+09-4.42653E+10-1.83896E+08
 -1      1791-3.47143E+11 4.93935E+07-1.31895E+11 1.82247E+09-4.63644E+10-1.75855E+08
 -1      1792-3.62685E+11 1.17916E+08-1.37775E+11 1.73318E+09-4.83674E+10-1.67437E+08
 -1      1793-3.77474E+11 8.90500E+07-1.43406E+11 1.64179E+09-5.02702E+10-1.58659E+08
 -1      1794-3.91424E+11 3.56618E+07-1.48727E+11 1.55507E+09-5.20685E+10-1.49540E+08
 -1      1795-4.04579E+11 7.73681E+07-1.53710E+11 1.44677E+09-5.37585E+10-1.40100E+08
 -1      1796-4.16883E+11 1.56645E+08-1.58356E+11 1.35899E+09-5.53365E+10-1.30357E+08
 -1      1797-4.28253E+11 4.69265E+07-1.62718E+11 1.25438E+09-5.67993E+10-1.20334E+08
 -1      1798-4.38764E+11 7.82841E+07-1.66701E+11 1.14469E+09-5.81436E+10-1.10052E+08
 -1      1799-4.48330E+11 1.11159E+08-1.70323E+11 1.03940E+09-5.93665E+10-9.95311E+07
 -1      1800-4.56973E+11 1.28370E+08-1.73601E+11 9.25517E+08-6.04653E+10-8.87946E+07
 -1      1801-4.64614E+11 7.66821E+07-1.76524E+11 8.27745E+08-6.14378E+10-7.78650E+07
 -1      1802-4.71285E+11 5.21412E+07-1.79068E+11 7.03364E+08-6.22817E+10-6.67657E+07
 -1      1803-4.76998E+11 1.86182E+08-1.81189E+11 5.92467E+08-6.29952E+10-5.55194E+07
 -1      1804-4.81668E+11 4.44867E+07-1.83017E+11 4.78995E+08-6.35768E+10-4.41509E+07
 -1      1805-4.85387E+11 7.98101E+07-1.84417E+11 3.52390E+08-6.40251E+10-3.26840E+07
 -1      1806-4.88068E+11 1.73495E+08-1.85400E+11 2.48838E+08-6.43392E+10-2.11406E+07
 -1      1807-4.89668E+11 9.21512E+07-1.86039E+11 1.22637E+08-6.45183E+10-9.54601E+06
 -1      1808-4.90265E+11 5.30878E+07-1.86281E+11 1.39710E+07-6.45619E+10 2.07476E+06
 -1      1809-4.89823E+11 1.13104E+08-1.86090E+11-1.12611E+08-6.44699E+10 1.36973E+07
 -1      1810-4.88356E+11 1.13544E+08-1.85532E+11-2.27412E+08-6.42424E+10 2.52972E+07
 -1      1811-4.85887E+11 1.36963E+08-1.84585E+11-3.49665E+08-6.38799E+10 3.68504E+07
 -1      1812-4.82359E+11 7.89704E+07-1.83266E+11-4.51172E+08-6.33829E+10 4.83324E+07
 -1      1813-4.77827E+11 5.17095E+07-1.81555E+11-5.78184E+08-6.27525E+10 5.97189E+07
 -1      1814-4.72337E+11 1.83942E+08-1.79418E+11-6.89037E+08-6.19900E+10 7.09865E+07
 -1      1815-4.65795E+11 5.07878E+07-1.76983E+11-7.98344E+08-6.10968E+10 8.21115E+07
 -1      1816-4.58324E+11 7.35571E+07-1.74135E+11-9.19508E+08-6.00748E+10 9.30702E+07
 -1      1817-4.49895E+11 1.26742E+08-1.70912E+11-1.01487E+09-5.89260E+10 1.03840E+08
 -1      1818-4.40497E+11 1.02961E+08-1.67350E+11-1.12651E+09-5.76527E+10 1.14399E+08
 -1      1819-4.30195E+11 1.02986E+08-1.63435E+11-1.22820E+09-5.62576E+10 1.24724E+08
 -1      1820-4.18987E+11 2.21589E+07-1.59207E+11-1.33626E+09-5.47435E+10 1.34794E+08
 -1      1821-4.06943E+11 1.31186E+08-1.54588E+11-1.43228E+09-5.31135E+10 1.44589E+08
 -1      1822-3.94007E+11 7.89497E+07-1.49693E+11-1.51852E+09-5.13710E+10 1.54087E+08
 -1      1823-3.80254E+11 4.67570E+07-1.44479E+11-1.61953E+09-4.95195E+10 1.63268E+08
 -1      1824-3.65747E+11 1.03796E+08-1.38944E+11-1.70563E+09-4.75628E+10 1.72115E+08
 -1      1825-3.50456E+11 9.24551E+07-1.33138E+11-1.79063E+09-4.55049E+10 1.80608E+08
 -1      1826-3.34429E+11 4.56963E+07-1.27065E+11-1.86977E+09-4.33501E+10 1.88730E+08
 -1      1827-3.17736E+11 4.96721E+07-1.20721E+11-1.95409E+09-4.11027E+10 1.96463E+08
 -1      1828-3.00381E+11 8.39948E+07-1.14113E+11-2.01786E+09-3.87676E+10 2.03793E+08
 -1      1829-2.82394E+11 6.63240E+07-1.07285E+11-2.08999E+09-3.63493E+10 2.10704E+08
 -1      1830-2.63835E+11 4.65197E+07-1.00240E+11-2.15234E+09-3.38529E+10 2.17181E+08
 -1      1831-2.44733E+11 2.58634E+07-9.29888E+10-2.21483E+09-3.12835E+10 2.23212E+08
 -1      1832-2.25150E+11 8.01338E+07-8.55267E+10-2.27034E+09-2.86464E+10 2.28784E+08
 -1      1833-2.05089E+11 3.77633E+07-7.79195E+10-2.31436E+09-2.59471E+10 2.33886E+08
 -1      1834-1.84614E+11 1.39821E+07-7.01479E+10-2.36469E+09-2.31910E+10 2.38507E+08
 -1      1835-1.63788E+11 3.86180E+07-6.22249E+10-2.40116E+09-2.03838E+10 2.42638E+08
 -1      1836-1.42618E+11 4.17020E+07-5.41789E+10-2.43689E+09-1.75314E+10 2.46272E+08
 -1      1837-1.21178E+11 1.72435E+07-4.60412E+10-2.46665E+09-1.46395E+10 2.49400E+08
 -1      1838-9.95020E+10 1.08015E+07-3.78067E+10-2.48943E+09-1.17141E+10 2.52017E+08
 -1      1839-7.76395E+10 2.55312E+07-2.94933E+10-2.50866E+09-8.76117E+09 2.54117E+08
 -1      1840-5.56366E+10 4.99668E+06-2.11400E+10-2.52153E+09-5.78675E+09 2.55697E+08
 -1      1841-3.35409E+10 1.25991E+06-1.27451E+10-2.52984E+09-2.79695E+09 2.56755E+08
 -1      1842-1.14034E+10 4.90478E+06-4.33144E+09-2.53205E+09 2.02125E+08 2.57287E+08
 -1      1843 1.07345E+10-1.04316E+07 4.07515E+09-2.52886E+09 3.20435E+09 2.57295E+08
 -1      1844 3.28177E+10-6.04564E+06 1.24684E+10-2.52043E+09 6.20361E+09 2.56778E+08
 -1      1845 5.48045E+10-1.37366E+07 2.08205E+10-2.50576E+09 9.19379E+09 2.55739E+08
 -1      1846 7.66452E+10-1.82116E+07 2.91182E+10-2.48651E+09 1.21688E+10 2.54180E+08
 -1      1847 9.82891E+10-4.13906E+07 3.73341E+10-2.46133E+09 1.51227E+10 2.52105E+08
 -1      1848 1.19695E+11-1.52511E+07 4.54783E+10-2.43033E+09 1.80493E+10 2.49520E+08
 -1      1849 1.40810E+11-1.43789E+07 5.35022E+10-2.39780E+09 2.09428E+10 2.46431E+08
 -1      1850 1.61595E+11-7.23704E+07 6.13785E+10-2.35447E+09 2.37974E+10 2.42844E+08
 -1      1851 1.81994E+11-2.57849E+07 6.91480E+10-2.31004E+09 2.66073E+10 2.38770E+08
 -1      1852 2.01968E+11-3.70631E+07 7.67336E+10-2.25649E+09 2.93669E+10 2.34216E+08
 -1      1853 2.21489E+11-5.99319E+07 8.41429E+10-2.19907E+09 3.20705E+10 2.29194E+08
 -1      1854 2.40489E+11-7.51165E+07 9.13574E+10-2.14348E+09 3.47130E+10 2.23716E+08
 -1      1855 2.58918E+11-4.26531E+07 9.83728E+10-2.07644E+09 3.72889E+10 2.17793E+08
 -1      1856 2.76777E+11-4.18033E+07 1.05159E+11-2.00323E+09 3.97931E+10 2.11441E+08
 -1      1857 2.93994E+11-1.12520E+08 1.11675E+11-1.92924E+09 4.22209E+10 2.04672E+08
 -1      1858 3.10537E+11-4.62091E+07 1.17986E+11-1.84915E+09 4.45673E+10 1.97503E+08
 -1      1859 3.26364E+11-6.22410E+07 1.23995E+11-1.76950E+09 4.68278E+10 1.89950E+08
 -1      1860 3.41450E+11-8.33189E+07 1.29719E+11-1.67931E+09 4.89980E+10 1.82030E+08
 -1      1861 3.55759E+11-1.36789E+08 1.35136E+11-1.58817E+09 5.10738E+10 1.73762E+08
 -1      1862 3.69232E+11-3.75148E+07 1.40294E+11-1.49353E+09 5.30512E+10 1.65165E+08
 -1      1863 3.81885E+11-4.50891E+07 1.45099E+11-1.39139E+09 5.49265E+10 1.56257E+08
 -1      1864 3.93658E+11-1.43054E+08 1.49536E+11-1.29732E+09 5.66961E+10 1.47060E+08
 -1      1865 4.04510E+11-1.06448E+08 1.53673E+11-1.18766E+09 5.83569E+10 1.37595E+08
 -1      1866 4.14438E+11-7.71024E+07 1.57457E+11-1.08281E+09 5.99058E+10 1.27883E+08
 -1      1867 4.23415E+11-6.35296E+07 1.60874E+11-9.67390E+08 6.13400E+10 1.17947E+08
 -1      1868 4.31418E+11-1.65381E+08 1.63876E+11-8.55882E+08 6.26572E+10 1.07810E+08
 -1      1869 4.38415E+11-6.66166E+07 1.66572E+11-7.38962E+08 6.38549E+10 9.74947E+07
 -1      1870 4.44391E+11-8.44820E+07 1.68836E+11-6.26561E+08 6.49315E+10 8.70258E+07
 -1      1871 4.49334E+11-1.24763E+08 1.70700E+11-5.03755E+08 6.58851E+10 7.64273E+07
 -1      1872 4.53238E+11-1.37407E+08 1.72178E+11-3.83348E+08 6.67144E+10 6.57240E+07
 -1      1873 4.56043E+11-8.09009E+07 1.73266E+11-2.63450E+08 6.74184E+10 5.49411E+07
 -1      1874 4.57812E+11-6.43541E+07 1.73944E+11-1.30029E+08 6.79962E+10 4.41040E+07
 -1      1875 4.58499E+11-2.19891E+08 1.74146E+11-1.77275E+07 6.84474E+10 3.32378E+07
 -1      1876 4.58044E+11-3.49633E+07 1.74043E+11 1.11806E+08 6.87718E+10 2.23688E+07
 -1      1877 4.56537E+11-7.06860E+07 1.73457E+11 2.37364E+08 6.89695E+10 1.15231E+07
 -1      1878 4.53915E+11-1.61755E+08 1.72426E+11 3.64374E+08 6.90410E+10 7.26305E+05
 -1      1879 4.50209E+11-1.29812E+08 1.71030E+11 4.94716E+08 6.89868E+10-9.99533E+06
 -1      1880 4.45377E+11-9.04003E+07 1.69209E+11 6.07050E+08 6.88082E+10-2.06157E+07
 -1      1881 4.39445E+11-7.71686E+07 1.66960E+11 7.43237E+08 6.85064E+10-3.11084E+07
 -1      1882 4.32454E+11-1.41066E+08 1.64279E+11 8.64878E+08 6.80830E+10-4.14479E+07
 -1      1883 4.24349E+11-1.26060E+08 1.61205E+11 9.89134E+08 6.75400E+10-5.16084E+07
 -1      1884 4.15173E+11-8.67324E+07 1.57733E+11 1.11333E+09 6.68796E+10-6.15639E+07
 -1      1885 4.04936E+11-7.38601E+07 1.53848E+11 1.22974E+09 6.61045E+10-7.12892E+07
 -1      1886 3.93641E+11-1.65029E+08 1.49521E+11 1.35287E+09 6.52173E+10-8.07590E+07
 -1      1887 3.81300E+11-7.15467E+07 1.44867E+11 1.46788E+09 6.42212E+10-8.99487E+07
 -1      1888 3.67939E+11-7.69214E+07 1.39788E+11 1.58833E+09 6.31197E+10-9.88336E+07
 -1      1889 3.53574E+11-1.42048E+08 1.34304E+11 1.70116E+09 6.19164E+10-1.07390E+08
 -1      1890 3.38231E+11-9.67100E+07 1.28491E+11 1.81746E+09 6.06154E+10-1.15593E+08
 -1      1891 3.21900E+11-6.16353E+07 1.22298E+11 1.91373E+09 5.92208E+10-1.23421E+08
 -1      1892 3.04625E+11-8.48032E+07 1.15725E+11 2.03034E+09 5.77371E+10-1.30851E+08
 -1      1893 2.86458E+11-1.36921E+08 1.08802E+11 2.13161E+09 5.61693E+10-1.37860E+08
 -1      1894 2.67357E+11-5.91188E+07 1.01573E+11 2.23152E+09 5.45222E+10-1.44428E+08
 -1      1895 2.47412E+11-7.28871E+07 9.39888E+10 2.33467E+09 5.28011E+10-1.50532E+08
 -1      1896 2.26626E+11-1.01172E+08 8.60795E+10 2.42243E+09 5.10117E+10-1.56153E+08
 -1      1897 2.05006E+11-8.06552E+07 7.78717E+10 2.51667E+09 4.91596E+10-1.61271E+08
 -1      1898 1.82618E+11-7.13777E+07 6.93678E+10 2.60325E+09 4.72507E+10-1.65868E+08
 -1      1899 1.59467E+11-5.91886E+07 6.05751E+10 2.68966E+09 4.52914E+10-1.69924E+08
 -1      1900 1.35606E+11-8.17334E+07 5.14993E+10 2.77093E+09 4.32880E+10-1.73423E+08
 -1      1901 1.11048E+11-6.87363E+07 4.21721E+10 2.84508E+09 4.12471E+10-1.76348E+08
 -1      1902 8.58232E+10-5.99123E+07 3.25900E+10 2.91935E+09 3.91756E+10-1.78682E+08
 -1      1903 5.99870E+10-5.42800E+07 2.27744E+10 2.99010E+09 3.70802E+10-1.80411E+08
 -1      1904 3.35519E+10-5.64613E+07 1.27283E+10 3.05470E+09 3.49684E+10-1.81520E+08
 -1      1905 6.56297E+09-5.70679E+07 2.47224E+09 3.11682E+09 3.28472E+10-1.81995E+08
 -1      1906-2.09561E+10-4.53991E+07-7.98059E+09 3.17470E+09 3.07243E+10-1.81824E+08
 -1      1907-4.89545E+10-5.19188E+07-1.86224E+10 3.22844E+09 2.86072E+10-1.80995E+08
 -1      1908-7.74267E+10-2.79124E+07-2.94328E+10 3.27848E+09 2.65037E+10-1.79496E+08
 -1      1909-1.06298E+11-5.25871E+07-4.04133E+10 3.32583E+09 2.44216E+10-1.77317E+08
 -1      1910-1.35582E+11-3.46350E+07-5.15344E+10 3.36671E+09 2.23689E+10-1.74448E+08
 -1      1911-1.65203E+11-3.87214E+07-6.27920E+10 3.40466E+09 2.03538E+10-1.70881E+08
 -1      1912-1.95184E+11 2.11471E+06-7.41691E+10 3.44389E+09 1.83844E+10-1.66607E+08
 -1      1913-2.25390E+11-5.93674E+07-8.56708E+10 3.47484E+09 1.64690E+10-1.61619E+08
 -1      1914-2.55947E+11-1.85274E+07-9.72670E+10 3.50011E+09 1.46160E+10-1.55911E+08
 -1      1915-2.86645E+11-1.29754E+07-1.08930E+11 3.52638E+09 1.28338E+10-1.49476E+08
 -1      1916-3.17658E+11 1.91458E+07-1.20703E+11 3.54618E+09 1.11310E+10-1.42309E+08
 -1      1917-3.48702E+11-9.74922E+07-1.32544E+11 3.56872E+09 9.51606E+09-1.34407E+08
 -1      1918-3.80087E+11 3.98272E+07-1.44418E+11 3.58453E+09 7.99762E+09-1.25764E+08
 -1      1919-4.11365E+11-3.01300E+07-1.56330E+11 3.59640E+09 6.58433E+09-1.16378E+08
 -1      1920-4.43036E+11 5.35093E+07-1.68333E+11 3.60834E+09 5.28489E+09-1.06246E+08
 -1      1921-4.74412E+11-1.39343E+08-1.80329E+11 3.60831E+09 4.10803E+09-9.53654E+07
 -1      1922-5.06396E+11 8.19901E+07-1.92399E+11 3.62865E+09 3.06248E+09-8.37342E+07
 -1      1923-5.37699E+11 3.76534E+08-2.04183E+11 3.62116E+09 2.15699E+09-7.13520E+07
 -1      1924-5.69866E+11-2.14751E+09-2.17365E+11 3.66074E+09 1.40035E+09-5.82178E+07
 -1      1925-6.01370E+11 8.43933E+09-2.25314E+11 3.50055E+09 8.01332E+08-4.43280E+07
 -1      1926-6.32615E+11-3.13770E+10-2.52317E+11 4.11428E+09 3.68733E+08-2.96933E+07
 -1      1927-6.68181E+11 1.15197E+11-2.10134E+11 1.84842E+09 1.11359E+08-1.42726E+07
 -1      1928-6.86183E+11-4.20342E+11-4.20480E+11 1.01638E+10 2.75440E+07-6.35283E+06
 -1      1929 4.59261E+08 2.28715E+08 2.61431E+08 2.10144E+07 8.92461E+10-5.38304E+08
 -1      1930 1.90651E+09 2.11923E+08 8.05004E+08-1.03619E+08 8.71527E+10-5.38287E+08
 -1      1931 6.10488E+09 2.13575E+08 2.40101E+09-1.98820E+08 8.29661E+10-5.38217E+08
 -1      1932 1.29414E+10 1.90277E+08 4.99005E+09-2.92287E+08 7.87803E+10-5.38047E+08
 -1      1933 2.22978E+10 1.85478E+08 8.54364E+09-3.78805E+08 7.45965E+10-5.37734E+08
 -1      1934 3.40257E+10 1.83517E+08 1.29995E+10-4.62113E+08 7.04158E+10-5.37234E+08
 -1      1935 4.80131E+10 1.58248E+08 1.83051E+10-5.39697E+08 6.62398E+10-5.36503E+08
 -1      1936 6.40965E+10 1.55448E+08 2.44158E+10-6.11907E+08 6.20705E+10-5.35506E+08
 -1      1937 8.21764E+10 1.53358E+08 3.12853E+10-6.82079E+08 5.79102E+10-5.34206E+08
 -1      1938 1.02093E+11 9.87092E+07 3.88330E+10-7.43618E+08 5.37612E+10-5.32567E+08
 -1      1939 1.23723E+11 1.83468E+08 4.70845E+10-8.05579E+08 4.96265E+10-5.30559E+08
 -1      1940 1.46955E+11 6.34770E+07 5.58669E+10-8.55758E+08 4.55088E+10-5.28151E+08
 -1      1941 1.71612E+11 1.26280E+08 6.52606E+10-9.08417E+08 4.14116E+10-5.25318E+08
 -1      1942 1.97604E+11 1.05935E+08 7.51299E+10-9.50224E+08 3.73381E+10-5.22034E+08
 -1      1943 2.24800E+11-2.16308E+07 8.54159E+10-9.96246E+08 3.32919E+10-5.18277E+08
 -1      1944 2.53027E+11 2.51977E+08 9.62460E+10-1.02800E+09 2.92769E+10-5.14029E+08
 -1      1945 2.82212E+11-6.18775E+07 1.07217E+11-1.05582E+09 2.52970E+10-5.09267E+08
 -1      1946 3.12210E+11 9.47570E+07 1.18676E+11-1.08933E+09 2.13561E+10-5.03980E+08
 -1      1947 3.42859E+11 4.50684E+07 1.30303E+11-1.10174E+09 1.74584E+10-4.98154E+08
 -1      1948 3.74099E+11-4.04243E+07 1.42142E+11-1.13353E+09 1.36081E+10-4.91777E+08
 -1      1949 4.05741E+11 1.54930E+08 1.54240E+11-1.13268E+09 9.80966E+09-4.84841E+08
 -1      1950 4.37717E+11-7.11472E+07 1.66305E+11-1.15117E+09 6.06736E+09-4.77339E+08
 -1      1951 4.69902E+11 3.54835E+07 1.78576E+11-1.14944E+09 2.38560E+09-4.69266E+08
 -1      1952 5.02115E+11-4.33048E+07 1.90787E+11-1.15391E+09-1.23115E+09-4.60621E+08
 -1      1953 5.34335E+11 1.68043E+07 2.03054E+11-1.15298E+09-4.77843E+09-4.51402E+08
 -1      1954 5.66377E+11 1.12142E+07 2.15227E+11-1.13832E+09-8.25178E+09-4.41612E+08
 -1      1955 5.98168E+11-5.77150E+07 2.27282E+11-1.13217E+09-1.16467E+10-4.31254E+08
 -1      1956 6.29593E+11-7.74763E+07 2.39216E+11-1.11427E+09-1.49590E+10-4.20334E+08
 -1      1957 6.60513E+11-9.16314E+06 2.50991E+11-1.10001E+09-1.81841E+10-4.08860E+08
 -1      1958 6.90872E+11-6.21883E+06 2.62529E+11-1.07098E+09-2.13178E+10-3.96840E+08
 -1      1959 7.20569E+11-1.22891E+08 2.73769E+11-1.04873E+09-2.43560E+10-3.84286E+08
 -1      1960 7.49464E+11-3.41055E+07 2.84784E+11-1.01628E+09-2.72945E+10-3.71211E+08
 -1      1961 7.77485E+11-1.42626E+08 2.95390E+11-9.86956E+08-3.01293E+10-3.57629E+08
 -1      1962 8.04565E+11-1.96370E+07 3.05727E+11-9.53196E+08-3.28566E+10-3.43558E+08
 -1      1963 8.30588E+11-9.73358E+07 3.15586E+11-9.07525E+08-3.54725E+10-3.29015E+08
 -1      1964 8.55477E+11-1.23359E+08 3.25034E+11-8.72488E+08-3.79736E+10-3.14018E+08
 -1      1965 8.79154E+11 5.20333E+06 3.34080E+11-8.19542E+08-4.03563E+10-2.98589E+08
 -1      1966 9.01559E+11-2.61063E+08 3.42493E+11-7.78131E+08-4.26174E+10-2.82751E+08
 -1      1967 9.22590E+11-3.55490E+07 3.50571E+11-7.28845E+08-4.47538E+10-2.66526E+08
 -1      1968 9.42181E+11-5.71825E+07 3.58007E+11-6.72249E+08-4.67626E+10-2.49940E+08
 -1      1969 9.60305E+11-1.99635E+08 3.64840E+11-6.17954E+08-4.86411E+10-2.33018E+08
 -1      1970 9.76878E+11-1.06727E+08 3.71173E+11-5.65440E+08-5.03867E+10-2.15788E+08
 -1      1971 9.91832E+11-1.17718E+08 3.76851E+11-5.03452E+08-5.19972E+10-1.98278E+08
 -1      1972 1.00512E+12-2.01935E+08 3.81868E+11-4.45297E+08-5.34705E+10-1.80516E+08
 -1      1973 1.01672E+12-8.58796E+07 3.86321E+11-3.89130E+08-5.48048E+10-1.62533E+08
 -1      1974 1.02657E+12-6.69366E+07 3.90071E+11-3.14368E+08-5.59984E+10-1.44359E+08
 -1      1975 1.03462E+12-2.43165E+08 3.93063E+11-2.55667E+08-5.70500E+10-1.26026E+08
 -1      1976 1.04085E+12-6.51574E+07 3.95499E+11-1.87890E+08-5.79585E+10-1.07565E+08
 -1      1977 1.04526E+12-3.18942E+08 3.97079E+11-1.27609E+08-5.87231E+10-8.90105E+07
 -1      1978 1.04777E+12-3.10344E+07 3.98142E+11-6.17827E+07-5.93430E+10-7.03940E+07
 -1      1979 1.04837E+12-2.77210E+06 3.98381E+11 1.89293E+07-5.98181E+10-5.17502E+07
 -1      1980 1.04712E+12-3.32542E+08 3.97779E+11 8.18355E+07-6.01481E+10-3.31117E+07
 -1      1981 1.04392E+12-7.36464E+07 3.96660E+11 1.50633E+08-6.03333E+10-1.45129E+07
 -1      1982 1.03878E+12-2.52743E+08 3.94639E+11 2.16172E+08-6.03740E+10 4.01165E+06
 -1      1983 1.03172E+12-7.31530E+07 3.92027E+11 2.84347E+08-6.02711E+10 2.24277E+07
 -1      1984 1.02276E+12-9.43835E+07 3.88611E+11 3.56999E+08-6.00255E+10 4.07010E+07
 -1      1985 1.01188E+12-2.28004E+08 3.84428E+11 4.26812E+08-5.96384E+10 5.87981E+07
 -1      1986 9.99070E+11-1.29385E+08 3.79597E+11 4.90827E+08-5.91114E+10 7.66845E+07
 -1      1987 9.84391E+11-1.31907E+08 3.74018E+11 5.58874E+08-5.84462E+10 9.43264E+07
 -1      1988 9.67876E+11-2.08196E+08 3.67714E+11 6.22461E+08-5.76448E+10 1.11691E+08
 -1      1989 9.49482E+11-1.04048E+08 3.60763E+11 6.88382E+08-5.67095E+10 1.28745E+08
 -1      1990 9.29278E+11-4.29097E+07 3.53109E+11 7.57218E+08-5.56429E+10 1.45455E+08
 -1      1991 9.07338E+11-2.97498E+08 3.44676E+11 8.16098E+08-5.44477E+10 1.61791E+08
 -1      1992 8.83641E+11-3.02972E+07 3.35772E+11 8.75867E+08-5.31271E+10 1.77721E+08
 -1      1993 8.58237E+11-1.55102E+08 3.26071E+11 9.40037E+08-5.16842E+10 1.93215E+08
 -1      1994 8.31185E+11-1.34025E+08 3.15799E+11 9.95638E+08-5.01226E+10 2.08241E+08
 -1      1995 8.02558E+11-4.96900E+07 3.04953E+11 1.05228E+09-4.84461E+10 2.22772E+08
 -1      1996 7.72380E+11-2.04356E+08 2.93427E+11 1.10973E+09-4.66585E+10 2.36781E+08
 -1      1997 7.40680E+11-5.48874E+07 2.81438E+11 1.15793E+09-4.47641E+10 2.50239E+08
 -1      1998 7.07602E+11-1.80578E+08 2.68820E+11 1.20650E+09-4.27672E+10 2.63121E+08
 -1      1999 6.73130E+11-5.58311E+07 2.55768E+11 1.25564E+09-4.06725E+10 2.75402E+08
 -1      2000 6.37354E+11-5.16931E+07 2.42175E+11 1.30223E+09-3.84847E+10 2.87058E+08
 -1      2001 6.00374E+11-1.49810E+08 2.28085E+11 1.34548E+09-3.62087E+10 2.98067E+08
 -1      2002 5.62230E+11-5.24759E+07 2.13627E+11 1.38221E+09-3.38496E+10 3.08408E+08
 -1      2003 5.23007E+11-1.28375E+08 1.98694E+11 1.42140E+09-3.14128E+10 3.18061E+08
 -1      2004 4.82771E+11-3.02152E+07 1.83441E+11 1.45334E+09-2.89037E+10 3.27007E+08
 -1      2005 4.41618E+11-6.71658E+07 1.67789E+11 1.48871E+09-2.63277E+10 3.35229E+08
 -1      2006 3.99644E+11-7.18791E+07 1.51838E+11 1.51337E+09-2.36907E+10 3.42712E+08
 -1      2007 3.56894E+11-2.34783E+07 1.35611E+11 1.54349E+09-2.09984E+10 3.49441E+08
 -1      2008 3.13471E+11-6.88701E+07 1.19093E+11 1.56287E+09-1.82567E+10 3.55403E+08
 -1      2009 2.69484E+11-4.75375E+07 1.02386E+11 1.58143E+09-1.54717E+10 3.60589E+08
 -1      2010 2.24992E+11-2.27486E+07 8.54884E+10 1.59825E+09-1.26494E+10 3.64987E+08
 -1      2011 1.80094E+11-9.08829E+06 6.84323E+10 1.61160E+09-9.79596E+09 3.68590E+08
 -1      2012 1.34893E+11-3.47949E+07 5.12463E+10 1.62062E+09-6.91762E+09 3.71392E+08
 -1      2013 8.94659E+10-5.27513E+06 3.39950E+10 1.62639E+09-4.02061E+09 3.73388E+08
 -1      2014 4.39113E+10-2.42167E+06 1.66854E+10 1.62930E+09-1.11122E+09 3.74574E+08
 -1      2015-1.67798E+09 3.89006E+06-6.36157E+08 1.62956E+09 1.80423E+09 3.74950E+08
 -1      2016-4.72118E+10 9.01074E+06-1.79371E+10 1.62551E+09 4.71944E+09 3.74516E+08
 -1      2017-9.25933E+10 2.42400E+07-3.51762E+10 1.61803E+09 7.62814E+09 3.73272E+08
 -1      2018-1.37731E+11 1.48092E+07-5.23321E+10 1.60748E+09 1.05240E+10 3.71224E+08
 -1      2019-1.82533E+11 7.21376E+07-6.93350E+10 1.59411E+09 1.34009E+10 3.68375E+08
 -1      2020-2.26910E+11 1.05345E+07-8.62218E+10 1.58052E+09 1.62525E+10 3.64734E+08
 -1      2021-2.70769E+11 1.57003E+07-1.02886E+11 1.55557E+09 1.90727E+10 3.60308E+08
 -1      2022-3.14015E+11 1.00189E+08-1.19288E+11 1.53283E+09 2.18555E+10 3.55106E+08
 -1      2023-3.56562E+11 3.41931E+07-1.35481E+11 1.50669E+09 2.45949E+10 3.49142E+08
 -1      2024-3.98340E+11 1.08645E+08-1.51328E+11 1.47834E+09 2.72849E+10 3.42428E+08
 -1      2025-4.39231E+11 5.22485E+07-1.66888E+11 1.44572E+09 2.99198E+10 3.34978E+08
 -1      2026-4.79162E+11 4.30035E+07-1.82065E+11 1.40824E+09 3.24940E+10 3.26810E+08
 -1      2027-5.18085E+11 1.29686E+08-1.96823E+11 1.37046E+09 3.50019E+10 3.17940E+08
 -1      2028-5.55871E+11 8.63832E+07-2.11198E+11 1.32810E+09 3.74382E+10 3.08388E+08
 -1      2029-5.92456E+11 8.29920E+07-2.25102E+11 1.28549E+09 3.97975E+10 2.98174E+08
 -1      2030-6.27789E+11 1.58865E+08-2.38500E+11 1.23794E+09 4.20750E+10 2.87321E+08
 -1      2031-6.61771E+11 7.62888E+07-2.51444E+11 1.19299E+09 4.42656E+10 2.75851E+08
 -1      2032-6.94347E+11 5.16214E+07-2.63832E+11 1.13476E+09 4.63646E+10 2.63790E+08
 -1      2033-7.25433E+11 2.43492E+08-2.75572E+11 1.08205E+09 4.83676E+10 2.51161E+08
 -1      2034-7.54979E+11 3.90709E+07-2.86877E+11 1.03100E+09 5.02703E+10 2.37994E+08
 -1      2035-7.82947E+11 1.55424E+08-2.97461E+11 9.67396E+08 5.20686E+10 2.24315E+08
 -1      2036-8.09219E+11 1.49016E+08-3.07446E+11 9.08776E+08 5.37586E+10 2.10154E+08
 -1      2037-8.33773E+11 5.57080E+07-3.16812E+11 8.44242E+08 5.53366E+10 1.95540E+08
 -1      2038-8.56608E+11 2.29970E+08-3.25424E+11 7.82038E+08 5.67994E+10 1.80505E+08
 -1      2039-8.77594E+11 9.70405E+07-3.33449E+11 7.14141E+08 5.81436E+10 1.65081E+08
 -1      2040-8.96731E+11 2.29944E+08-3.40670E+11 6.51771E+08 5.93665E+10 1.49299E+08
 -1      2041-9.13962E+11 8.78189E+07-3.47272E+11 5.81964E+08 6.04653E+10 1.33194E+08
 -1      2042-9.29300E+11 9.61147E+07-3.53098E+11 5.12459E+08 6.14377E+10 1.16799E+08
 -1      2043-9.42661E+11 2.47441E+08-3.58117E+11 4.35689E+08 6.22816E+10 1.00149E+08
 -1      2044-9.54008E+11 9.11836E+07-3.62489E+11 3.70989E+08 6.29951E+10 8.32794E+07
 -1      2045-9.63360E+11 2.81463E+08-3.65970E+11 2.99386E+08 6.35766E+10 6.62260E+07
 -1      2046-9.70761E+11 4.91664E+07-3.68870E+11 2.26960E+08 6.40249E+10 4.90241E+07
 -1      2047-9.75991E+11 1.83382E+08-3.70807E+11 1.49044E+08 6.43390E+10 3.17089E+07
 -1      2048-9.79257E+11 1.76060E+08-3.72051E+11 8.10622E+07 6.45180E+10 1.43170E+07
 -1      2049-9.80439E+11 8.41522E+07-3.72535E+11 8.99972E+05 6.45616E+10-3.11437E+06
 -1      2050-9.79557E+11 2.21923E+08-3.72147E+11-7.18117E+07 6.44696E+10-2.05485E+07
 -1      2051-9.76626E+11 2.14384E+08-3.71036E+11-1.41848E+08 6.42420E+10-3.79488E+07
 -1      2052-9.71623E+11 1.05376E+08-3.69177E+11-2.13135E+08 6.38795E+10-5.52784E+07
 -1      2053-9.64626E+11 8.75019E+07-3.66525E+11-2.89475E+08 6.33825E+10-7.25010E+07
 -1      2054-9.55589E+11 2.62341E+08-3.63024E+11-3.64094E+08 6.27521E+10-8.95812E+07
 -1      2055-9.44517E+11 8.30295E+07-3.58885E+11-4.31437E+08 6.19895E+10-1.06483E+08
 -1      2056-9.31525E+11 2.48450E+08-3.53885E+11-4.98989E+08 6.10962E+10-1.23170E+08
 -1      2057-9.16549E+11 8.98310E+07-3.48254E+11-5.70494E+08 6.00742E+10-1.39609E+08
 -1      2058-8.99647E+11 8.64170E+07-3.41833E+11-6.39025E+08 5.89253E+10-1.55764E+08
 -1      2059-8.80894E+11 2.14042E+08-3.34659E+11-7.08991E+08 5.76520E+10-1.71601E+08
 -1      2060-8.60293E+11 1.52168E+08-3.26854E+11-7.67205E+08 5.62569E+10-1.87089E+08
 -1      2061-8.37904E+11 1.70638E+08-3.18339E+11-8.30877E+08 5.47428E+10-2.02195E+08
 -1      2062-8.13735E+11 2.00518E+07-3.09212E+11-8.95417E+08 5.31128E+10-2.16887E+08
 -1      2063-7.87908E+11 1.49505E+08-2.99348E+11-9.56371E+08 5.13702E+10-2.31133E+08
 -1      2064-7.60447E+11 1.66034E+08-2.88907E+11-1.01440E+09 4.95186E+10-2.44906E+08
 -1      2065-7.31368E+11 1.07733E+08-2.77879E+11-1.06656E+09 4.75619E+10-2.58176E+08
 -1      2066-7.00800E+11 1.04071E+08-2.66264E+11-1.12026E+09 4.55040E+10-2.70915E+08
 -1      2067-6.68789E+11 1.55200E+08-2.54081E+11-1.16957E+09 4.33492E+10-2.83098E+08
 -1      2068-6.35372E+11 6.93763E+07-2.41415E+11-1.21782E+09 4.11018E+10-2.94698E+08
 -1      2069-6.00649E+11 5.10204E+07-2.28227E+11-1.26567E+09 3.87666E+10-3.05693E+08
 -1      2070-5.64698E+11 1.47193E+08-2.14529E+11-1.30880E+09 3.63483E+10-3.16059E+08
 -1      2071-5.27590E+11 5.66017E+07-2.00463E+11-1.34594E+09 3.38519E+10-3.25775E+08
 -1      2072-4.89397E+11 1.23142E+08-1.85924E+11-1.38446E+09 3.12825E+10-3.34821E+08
 -1      2073-4.50194E+11 2.95478E+07-1.71062E+11-1.41739E+09 2.86454E+10-3.43179E+08
 -1      2074-4.10095E+11 7.00881E+07-1.55810E+11-1.44961E+09 2.59461E+10-3.50832E+08
 -1      2075-3.69171E+11 7.10899E+07-1.40258E+11-1.47782E+09 2.31900E+10-3.57764E+08
 -1      2076-3.27487E+11 1.36687E+07-1.24440E+11-1.50303E+09 2.03828E+10-3.63961E+08
 -1      2077-2.85169E+11 9.20754E+07-1.08329E+11-1.52432E+09 1.75303E+10-3.69410E+08
 -1      2078-2.42288E+11 1.33435E+07-9.20645E+10-1.54075E+09 1.46384E+10-3.74103E+08
 -1      2079-1.98940E+11 1.96530E+07-7.55898E+10-1.55816E+09 1.17130E+10-3.78028E+08
 -1      2080-1.55217E+11 3.72373E+07-5.89683E+10-1.56869E+09 8.76011E+09-3.81178E+08
 -1      2081-1.11218E+11 9.91465E+06-4.22589E+10-1.57618E+09 5.78570E+09-3.83548E+08
 -1      2082-6.70326E+10 8.66822E+06-2.54691E+10-1.58156E+09 2.79590E+09-3.85134E+08
 -1      2083-2.27560E+10-1.72576E+06-8.64794E+09-1.58310E+09-2.03170E+08-3.85933E+08
 -1      2084 2.15098E+10-7.26425E+06 8.17097E+09-1.58106E+09-3.20538E+09-3.85945E+08
 -1      2085 6.56778E+10-1.46786E+07 2.49520E+10-1.57549E+09-6.20463E+09-3.85169E+08
 -1      2086 1.09645E+11-2.73974E+07 4.16545E+10-1.56599E+09-9.19481E+09-3.83610E+08
 -1      2087 1.53319E+11-1.70495E+07 5.82547E+10-1.55446E+09-1.21698E+10-3.81272E+08
 -1      2088 1.96604E+11-7.89363E+07 7.46793E+10-1.53790E+09-1.51236E+10-3.78159E+08
 -1      2089 2.39410E+11-1.40286E+07 9.09704E+10-1.52363E+09-1.80503E+10-3.74282E+08
 -1      2090 2.81640E+11-2.05961E+07 1.07016E+11-1.49571E+09-2.09438E+10-3.69648E+08
 -1      2091 3.23193E+11-1.01499E+08 1.22775E+11-1.47047E+09-2.37983E+10-3.64267E+08
 -1      2092 3.64001E+11-4.31842E+07 1.38304E+11-1.44370E+09-2.66082E+10-3.58155E+08
 -1      2093 4.03955E+11-1.15854E+08 1.53459E+11-1.40984E+09-2.93677E+10-3.51325E+08
 -1      2094 4.42962E+11-5.09673E+07 1.68306E+11-1.37841E+09-3.20714E+10-3.43792E+08
 -1      2095 4.80951E+11-5.37245E+07 1.82741E+11-1.33607E+09-3.47138E+10-3.35574E+08
 -1      2096 5.17850E+11-1.36356E+08 1.96731E+11-1.29649E+09-3.72896E+10-3.26690E+08
 -1      2097 5.53541E+11-7.51172E+07 2.10317E+11-1.25114E+09-3.97939E+10-3.17160E+08
 -1      2098 5.87959E+11-1.55205E+08 2.23366E+11-1.20589E+09-4.22216E+10-3.07007E+08
 -1      2099 6.21044E+11-7.31734E+07 2.35969E+11-1.15949E+09-4.45680E+10-2.96254E+08
 -1      2100 6.52706E+11-7.91236E+07 2.47998E+11-1.10165E+09-4.68284E+10-2.84924E+08
 -1      2101 6.82863E+11-1.66015E+08 2.59425E+11-1.04780E+09-4.89986E+10-2.73044E+08
 -1      2102 7.11459E+11-1.43187E+08 2.70300E+11-9.91330E+08-5.10744E+10-2.60642E+08
 -1      2103 7.38449E+11-1.62816E+08 2.80549E+11-9.38469E+08-5.30518E+10-2.47745E+08
 -1      2104 7.63723E+11-3.68696E+07 2.90201E+11-8.69875E+08-5.49270E+10-2.34384E+08
 -1      2105 7.87236E+11-1.55339E+08 2.99091E+11-8.04805E+08-5.66966E+10-2.20589E+08
 -1      2106 8.08965E+11-1.89372E+08 3.07335E+11-7.39576E+08-5.83573E+10-2.06390E+08
 -1      2107 8.28830E+11-1.35967E+08 3.14904E+11-6.75474E+08-5.99061E+10-1.91823E+08
 -1      2108 8.46775E+11-1.46005E+08 3.21719E+11-6.03447E+08-6.13403E+10-1.76918E+08
 -1      2109 8.62754E+11-2.13232E+08 3.27766E+11-5.33798E+08-6.26574E+10-1.61712E+08
 -1      2110 8.76754E+11-1.15822E+08 3.33122E+11-4.67462E+08-6.38551E+10-1.46240E+08
 -1      2111 8.88714E+11-9.95126E+07 3.37673E+11-3.84329E+08-6.49316E+10-1.30536E+08
 -1      2112 8.98590E+11-2.48448E+08 3.41370E+11-3.12949E+08-6.58852E+10-1.14638E+08
 -1      2113 9.06367E+11-1.12465E+08 3.44377E+11-2.37291E+08-6.67145E+10-9.85832E+07
 -1      2114 9.12042E+11-2.54051E+08 3.46479E+11-1.64007E+08-6.74184E+10-8.24085E+07
 -1      2115 9.15536E+11-1.06215E+08 3.47864E+11-8.56062E+07-6.79962E+10-6.61524E+07
 -1      2116 9.16847E+11-1.60958E+08 3.48341E+11-4.92558E+06-6.84473E+10-4.98536E+07
 -1      2117 9.16035E+11-2.13866E+08 3.48012E+11 6.75066E+07-6.87717E+10-3.35501E+07
 -1      2118 9.12987E+11-6.50924E+07 3.46910E+11 1.55188E+08-6.89693E+10-1.72809E+07
 -1      2119 9.07733E+11-3.23482E+08 3.44815E+11 2.29271E+08-6.90407E+10-1.08556E+06
 -1      2120 9.00285E+11-9.52911E+07 3.42072E+11 3.04859E+08-6.89865E+10 1.49968E+07
 -1      2121 8.90652E+11-1.16016E+08 3.38404E+11 3.86205E+08-6.88078E+10 3.09270E+07
 -1      2122 8.78821E+11-2.55485E+08 3.33855E+11 4.68924E+08-6.85059E+10 4.66665E+07
 -1      2123 8.64781E+11-1.19284E+08 3.28571E+11 5.40474E+08-6.80825E+10 6.21759E+07
 -1      2124 8.48587E+11-2.48153E+08 3.22369E+11 6.20731E+08-6.75395E+10 7.74165E+07
 -1      2125 8.30247E+11-1.06094E+08 3.15453E+11 6.91152E+08-6.68791E+10 9.23499E+07
 -1      2126 8.09758E+11-1.24221E+08 3.07661E+11 7.76030E+08-6.61038E+10 1.06938E+08
 -1      2127 7.87160E+11-2.17655E+08 2.99038E+11 8.48473E+08-6.52166E+10 1.21142E+08
 -1      2128 7.62498E+11-1.53774E+08 2.89691E+11 9.18913E+08-6.42205E+10 1.34927E+08
 -1      2129 7.35780E+11-1.33275E+08 2.79546E+11 9.94463E+08-6.31190E+10 1.48254E+08
 -1      2130 7.07037E+11-2.52372E+08 2.68578E+11 1.06408E+09-6.19157E+10 1.61089E+08
 -1      2131 6.76325E+11-7.39992E+07 2.56975E+11 1.12900E+09-6.06146E+10 1.73394E+08
 -1      2132 6.43695E+11-6.49336E+07 2.44579E+11 1.20594E+09-5.92199E+10 1.85136E+08
 -1      2133 6.09164E+11-2.54776E+08 2.31385E+11 1.27313E+09-5.77363E+10 1.96280E+08
 -1      2134 5.72777E+11-9.03571E+07 2.17621E+11 1.33322E+09-5.61683E+10 2.06794E+08
 -1      2135 5.34628E+11-1.90774E+08 2.03086E+11 1.39575E+09-5.45212E+10 2.16645E+08
 -1      2136 4.94721E+11-9.52300E+07 1.87958E+11 1.45818E+09-5.28002E+10 2.25801E+08
 -1      2137 4.53124E+11-9.87809E+07 1.72150E+11 1.51760E+09-5.10107E+10 2.34233E+08
 -1      2138 4.09919E+11-1.62889E+08 1.55707E+11 1.57621E+09-4.91585E+10 2.41910E+08
 -1      2139 3.65135E+11-9.85723E+07 1.38714E+11 1.62787E+09-4.72497E+10 2.48805E+08
 -1      2140 3.18849E+11-1.38478E+08 1.21110E+11 1.68254E+09-4.52904E+10 2.54889E+08
 -1      2141 2.71108E+11-9.01354E+07 1.02987E+11 1.73132E+09-4.32870E+10 2.60138E+08
 -1      2142 2.21992E+11-8.62711E+07 8.43243E+10 1.78147E+09-4.12461E+10 2.64524E+08
 -1      2143 1.71569E+11-1.23918E+08 6.51490E+10 1.82633E+09-3.91745E+10 2.68026E+08
 -1      2144 1.19883E+11-8.24102E+07 4.55243E+10 1.86972E+09-3.70792E+10 2.70619E+08
 -1      2145 6.70212E+10-8.02166E+07 2.54376E+10 1.91078E+09-3.49673E+10 2.72282E+08
 -1      2146 1.30389E+10-9.08447E+07 4.92028E+09 1.95028E+09-3.28462E+10 2.72995E+08
 -1      2147-4.19818E+10-7.39296E+07-1.59812E+10 1.98475E+09-3.07233E+10 2.72738E+08
 -1      2148-9.79964E+10-7.27226E+07-3.72663E+10 2.01982E+09-2.86062E+10 2.71494E+08
 -1      2149-1.54903E+11-6.19565E+07-5.88866E+10 2.04830E+09-2.65027E+10 2.69245E+08
 -1      2150-2.12683E+11-7.27448E+07-8.08473E+10 2.08140E+09-2.44206E+10 2.65976E+08
 -1      2151-2.71213E+11-2.18295E+07-1.03069E+11 2.10228E+09-2.23680E+10 2.61673E+08
 -1      2152-3.30484E+11-7.60992E+07-1.25613E+11 2.13558E+09-2.03529E+10 2.56322E+08
 -1      2153-3.90361E+11-6.73582E+07-1.48363E+11 2.14669E+09-1.83835E+10 2.49911E+08
 -1      2154-4.50902E+11-1.29928E+07-1.71348E+11 2.17715E+09-1.64682E+10 2.42429E+08
 -1      2155-5.11869E+11-4.38960E+07-1.94527E+11 2.18072E+09-1.46153E+10 2.33866E+08
 -1      2156-5.73408E+11-1.17964E+07-2.17899E+11 2.21452E+09-1.28331E+10 2.24213E+08
 -1      2157-6.35227E+11 8.83482E+06-2.41383E+11 2.20908E+09-1.11304E+10 2.13463E+08
 -1      2158-6.97584E+11-1.33544E+08-2.65133E+11 2.24952E+09-9.51547E+09 2.01609E+08
 -1      2159-7.60005E+11 2.87926E+07-2.88791E+11 2.21479E+09-7.99710E+09 1.88645E+08
 -1      2160-8.22970E+11-4.21908E+07-3.12745E+11 2.27363E+09-6.58388E+09 1.74565E+08
 -1      2161-8.85795E+11 9.34462E+07-3.36567E+11 2.22096E+09-5.28453E+09 1.59366E+08
 -1      2162-9.49252E+11-6.00483E+07-3.60739E+11 2.30784E+09-4.10774E+09 1.43045E+08
 -1      2163-1.01220E+12-2.56924E+08-3.84735E+11 2.20705E+09-3.06229E+09 1.25599E+08
 -1      2164-1.07603E+12 9.37994E+08-4.08534E+11 2.32421E+09-2.15688E+09 1.07025E+08
 -1      2165-1.13929E+12-3.42489E+09-4.34233E+11 2.24024E+09-1.40036E+09 8.73231E+07
 -1      2166-1.20212E+12 1.27743E+10-4.51953E+11 2.12572E+09-8.01418E+08 6.64884E+07
 -1      2167-1.27003E+12-4.70613E+10-5.00495E+11 3.11134E+09-3.68955E+08 4.45346E+07
 -1      2168-1.31544E+12 1.72651E+11-4.34261E+11-1.19444E+09-1.11672E+08 2.14084E+07
 -1      2169-1.32660E+12-6.30733E+11-7.43788E+11 1.45952E+10-2.77700E+07 9.53398E+06
 -1      2170 4.59260E+08 2.28715E+08 2.61431E+08 2.10141E+07-8.92461E+10 5.38304E+08
 -1      2171 1.90651E+09 2.11923E+08 8.05004E+08-1.03619E+08-8.71527E+10 5.38287E+08
 -1      2172 6.10488E+09 2.13575E+08 2.40101E+09-1.98820E+08-8.29660E+10 5.38217E+08
 -1      2173 1.29414E+10 1.90276E+08 4.99004E+09-2.92287E+08-7.87803E+10 5.38047E+08
 -1      2174 2.22978E+10 1.85478E+08 8.54363E+09-3.78805E+08-7.45965E+10 5.37733E+08
 -1      2175 3.40257E+10 1.83517E+08 1.29995E+10-4.62113E+08-7.04158E+10 5.37234E+08
 -1      2176 4.80131E+10 1.58248E+08 1.83051E+10-5.39697E+08-6.62398E+10 5.36503E+08
 -1      2177 6.40965E+10 1.55448E+08 2.44158E+10-6.11907E+08-6.20705E+10 5.35506E+08
 -1      2178 8.21764E+10 1.53358E+08 3.12853E+10-6.82079E+08-5.79102E+10 5.34206E+08
 -1      2179 1.02093E+11 9.87098E+07 3.88330E+10-7.43618E+08-5.37612E+10 5.32567E+08
 -1      2180 1.23723E+11 1.83469E+08 4.70845E+10-8.05579E+08-4.96265E+10 5.30559E+08
 -1      2181 1.46955E+11 6.34775E+07 5.58669E+10-8.55758E+08-4.55088E+10 5.28151E+08
 -1      2182 1.71612E+11 1.26279E+08 6.52606E+10-9.08417E+08-4.14116E+10 5.25318E+08
 -1      2183 1.97604E+11 1.05934E+08 7.51299E+10-9.50224E+08-3.73381E+10 5.22034E+08
 -1      2184 2.24800E+11-2.16312E+07 8.54159E+10-9.96247E+08-3.32919E+10 5.18277E+08
 -1      2185 2.53027E+11 2.51976E+08 9.62460E+10-1.02800E+09-2.92769E+10 5.14029E+08
 -1      2186 2.82212E+11-6.18785E+07 1.07217E+11-1.05582E+09-2.52970E+10 5.09267E+08
 -1      2187 3.12210E+11 9.47563E+07 1.18676E+11-1.08933E+09-2.13561E+10 5.03980E+08
 -1      2188 3.42859E+11 4.50674E+07 1.30303E+11-1.10174E+09-1.74584E+10 4.98154E+08
 -1      2189 3.74099E+11-4.04254E+07 1.42142E+11-1.13353E+09-1.36081E+10 4.91777E+08
 -1      2190 4.05741E+11 1.54929E+08 1.54240E+11-1.13268E+09-9.80966E+09 4.84841E+08
 -1      2191 4.37717E+11-7.11482E+07 1.66305E+11-1.15117E+09-6.06736E+09 4.77339E+08
 -1      2192 4.69902E+11 3.54824E+07 1.78576E+11-1.14944E+09-2.38560E+09 4.69266E+08
 -1      2193 5.02115E+11-4.33057E+07 1.90787E+11-1.15391E+09 1.23115E+09 4.60621E+08
 -1      2194 5.34335E+11 1.68033E+07 2.03054E+11-1.15298E+09 4.77843E+09 4.51402E+08
 -1      2195 5.66377E+11 1.12134E+07 2.15227E+11-1.13832E+09 8.25177E+09 4.41612E+08
 -1      2196 5.98168E+11-5.77158E+07 2.27282E+11-1.13217E+09 1.16467E+10 4.31254E+08
 -1      2197 6.29593E+11-7.74772E+07 2.39216E+11-1.11427E+09 1.49590E+10 4.20334E+08
 -1      2198 6.60513E+11-9.16368E+06 2.50991E+11-1.10001E+09 1.81841E+10 4.08859E+08
 -1      2199 6.90872E+11-6.21922E+06 2.62529E+11-1.07098E+09 2.13178E+10 3.96840E+08
 -1      2200 7.20569E+11-1.22892E+08 2.73769E+11-1.04873E+09 2.43560E+10 3.84286E+08
 -1      2201 7.49464E+11-3.41057E+07 2.84784E+11-1.01628E+09 2.72945E+10 3.71211E+08
 -1      2202 7.77485E+11-1.42626E+08 2.95390E+11-9.86956E+08 3.01293E+10 3.57629E+08
 -1      2203 8.04565E+11-1.96370E+07 3.05727E+11-9.53196E+08 3.28566E+10 3.43558E+08
 -1      2204 8.30588E+11-9.73357E+07 3.15586E+11-9.07526E+08 3.54725E+10 3.29014E+08
 -1      2205 8.55477E+11-1.23359E+08 3.25034E+11-8.72488E+08 3.79736E+10 3.14018E+08
 -1      2206 8.79154E+11 5.20317E+06 3.34080E+11-8.19542E+08 4.03563E+10 2.98589E+08
 -1      2207 9.01559E+11-2.61063E+08 3.42493E+11-7.78131E+08 4.26174E+10 2.82750E+08
 -1      2208 9.22590E+11-3.55491E+07 3.50571E+11-7.28845E+08 4.47538E+10 2.66526E+08
 -1      2209 9.42181E+11-5.71826E+07 3.58007E+11-6.72249E+08 4.67626E+10 2.49940E+08
 -1      2210 9.60305E+11-1.99635E+08 3.64840E+11-6.17953E+08 4.86411E+10 2.33018E+08
 -1      2211 9.76878E+11-1.06727E+08 3.71173E+11-5.65439E+08 5.03867E+10 2.15788E+08
 -1      2212 9.91832E+11-1.17717E+08 3.76851E+11-5.03452E+08 5.19972E+10 1.98277E+08
 -1      2213 1.00512E+12-2.01934E+08 3.81868E+11-4.45296E+08 5.34705E+10 1.80516E+08
 -1      2214 1.01672E+12-8.58776E+07 3.86321E+11-3.89129E+08 5.48047E+10 1.62533E+08
 -1      2215 1.02657E+12-6.69341E+07 3.90071E+11-3.14368E+08 5.59984E+10 1.44359E+08
 -1      2216 1.03462E+12-2.43162E+08 3.93063E+11-2.55666E+08 5.70500E+10 1.26026E+08
 -1      2217 1.04085E+12-6.51541E+07 3.95499E+11-1.87890E+08 5.79585E+10 1.07565E+08
 -1      2218 1.04526E+12-3.18938E+08 3.97079E+11-1.27608E+08 5.87231E+10 8.90104E+07
 -1      2219 1.04777E+12-3.10303E+07 3.98142E+11-6.17823E+07 5.93430E+10 7.03940E+07
 -1      2220 1.04837E+12-2.76779E+06 3.98381E+11 1.89298E+07 5.98180E+10 5.17501E+07
 -1      2221 1.04712E+12-3.32538E+08 3.97779E+11 8.18356E+07 6.01481E+10 3.31116E+07
 -1      2222 1.04392E+12-7.36418E+07 3.96660E+11 1.50633E+08 6.03332E+10 1.45128E+07
 -1      2223 1.03878E+12-2.52739E+08 3.94639E+11 2.16172E+08 6.03740E+10-4.01167E+06
 -1      2224 1.03172E+12-7.31486E+07 3.92027E+11 2.84347E+08 6.02711E+10-2.24277E+07
 -1      2225 1.02276E+12-9.43793E+07 3.88611E+11 3.56999E+08 6.00255E+10-4.07010E+07
 -1      2226 1.01188E+12-2.28000E+08 3.84428E+11 4.26812E+08 5.96384E+10-5.87981E+07
 -1      2227 9.99070E+11-1.29381E+08 3.79597E+11 4.90827E+08 5.91114E+10-7.66845E+07
 -1      2228 9.84391E+11-1.31903E+08 3.74018E+11 5.58874E+08 5.84462E+10-9.43264E+07
 -1      2229 9.67876E+11-2.08192E+08 3.67714E+11 6.22462E+08 5.76448E+10-1.11691E+08
 -1      2230 9.49482E+11-1.04044E+08 3.60763E+11 6.88382E+08 5.67095E+10-1.28745E+08
 -1      2231 9.29278E+11-4.29056E+07 3.53109E+11 7.57218E+08 5.56429E+10-1.45455E+08
 -1      2232 9.07338E+11-2.97494E+08 3.44676E+11 8.16098E+08 5.44477E+10-1.61791E+08
 -1      2233 8.83641E+11-3.02933E+07 3.35772E+11 8.75867E+08 5.31271E+10-1.77721E+08
 -1      2234 8.58237E+11-1.55099E+08 3.26071E+11 9.40037E+08 5.16842E+10-1.93214E+08
 -1      2235 8.31185E+11-1.34022E+08 3.15799E+11 9.95638E+08 5.01226E+10-2.08241E+08
 -1      2236 8.02558E+11-4.96871E+07 3.04953E+11 1.05228E+09 4.84461E+10-2.22772E+08
 -1      2237 7.72380E+11-2.04354E+08 2.93427E+11 1.10973E+09 4.66585E+10-2.36781E+08
 -1      2238 7.40680E+11-5.48855E+07 2.81438E+11 1.15793E+09 4.47641E+10-2.50239E+08
 -1      2239 7.07602E+11-1.80577E+08 2.68820E+11 1.20650E+09 4.27672E+10-2.63120E+08
 -1      2240 6.73130E+11-5.58304E+07 2.55768E+11 1.25564E+09 4.06725E+10-2.75402E+08
 -1      2241 6.37354E+11-5.16930E+07 2.42175E+11 1.30223E+09 3.84847E+10-2.87058E+08
 -1      2242 6.00374E+11-1.49811E+08 2.28085E+11 1.34548E+09 3.62087E+10-2.98067E+08
 -1      2243 5.62230E+11-5.24770E+07 2.13627E+11 1.38221E+09 3.38496E+10-3.08408E+08
 -1      2244 5.23007E+11-1.28376E+08 1.98694E+11 1.42140E+09 3.14128E+10-3.18060E+08
 -1      2245 4.82771E+11-3.02169E+07 1.83441E+11 1.45334E+09 2.89037E+10-3.27007E+08
 -1      2246 4.41618E+11-6.71679E+07 1.67789E+11 1.48871E+09 2.63277E+10-3.35229E+08
 -1      2247 3.99644E+11-7.18813E+07 1.51838E+11 1.51337E+09 2.36907E+10-3.42711E+08
 -1      2248 3.56894E+11-2.34807E+07 1.35611E+11 1.54349E+09 2.09984E+10-3.49441E+08
 -1      2249 3.13471E+11-6.88725E+07 1.19093E+11 1.56287E+09 1.82567E+10-3.55403E+08
 -1      2250 2.69484E+11-4.75401E+07 1.02386E+11 1.58143E+09 1.54717E+10-3.60589E+08
 -1      2251 2.24992E+11-2.27512E+07 8.54884E+10 1.59825E+09 1.26494E+10-3.64987E+08
 -1      2252 1.80094E+11-9.09085E+06 6.84323E+10 1.61160E+09 9.79596E+09-3.68590E+08
 -1      2253 1.34893E+11-3.47976E+07 5.12463E+10 1.62062E+09 6.91762E+09-3.71392E+08
 -1      2254 8.94659E+10-5.27784E+06 3.39950E+10 1.62639E+09 4.02061E+09-3.73388E+08
 -1      2255 4.39112E+10-2.42435E+06 1.66854E+10 1.62930E+09 1.11122E+09-3.74574E+08
 -1      2256-1.67800E+09 3.88740E+06-6.36160E+08 1.62956E+09-1.80423E+09-3.74950E+08
 -1      2257-4.72118E+10 9.00803E+06-1.79371E+10 1.62551E+09-4.71944E+09-3.74516E+08
 -1      2258-9.25933E+10 2.42374E+07-3.51762E+10 1.61803E+09-7.62814E+09-3.73272E+08
 -1      2259-1.37731E+11 1.48067E+07-5.23321E+10 1.60748E+09-1.05240E+10-3.71224E+08
 -1      2260-1.82533E+11 7.21351E+07-6.93350E+10 1.59411E+09-1.34009E+10-3.68375E+08
 -1      2261-2.26910E+11 1.05319E+07-8.62218E+10 1.58052E+09-1.62525E+10-3.64734E+08
 -1      2262-2.70769E+11 1.56977E+07-1.02886E+11 1.55557E+09-1.90727E+10-3.60308E+08
 -1      2263-3.14015E+11 1.00187E+08-1.19288E+11 1.53283E+09-2.18555E+10-3.55106E+08
 -1      2264-3.56562E+11 3.41904E+07-1.35481E+11 1.50669E+09-2.45949E+10-3.49142E+08
 -1      2265-3.98340E+11 1.08642E+08-1.51328E+11 1.47834E+09-2.72849E+10-3.42428E+08
 -1      2266-4.39231E+11 5.22457E+07-1.66888E+11 1.44572E+09-2.99198E+10-3.34978E+08
 -1      2267-4.79162E+11 4.30009E+07-1.82065E+11 1.40824E+09-3.24940E+10-3.26810E+08
 -1      2268-5.18085E+11 1.29683E+08-1.96823E+11 1.37046E+09-3.50019E+10-3.17940E+08
 -1      2269-5.55871E+11 8.63808E+07-2.11198E+11 1.32810E+09-3.74382E+10-3.08388E+08
 -1      2270-5.92456E+11 8.29901E+07-2.25102E+11 1.28549E+09-3.97975E+10-2.98174E+08
 -1      2271-6.27789E+11 1.58864E+08-2.38500E+11 1.23794E+09-4.20750E+10-2.87321E+08
 -1      2272-6.61771E+11 7.62875E+07-2.51444E+11 1.19299E+09-4.42656E+10-2.75851E+08
 -1      2273-6.94347E+11 5.16203E+07-2.63832E+11 1.13476E+09-4.63646E+10-2.63790E+08
 -1      2274-7.25433E+11 2.43491E+08-2.75572E+11 1.08205E+09-4.83676E+10-2.51161E+08
 -1      2275-7.54979E+11 3.90704E+07-2.86877E+11 1.03100E+09-5.02703E+10-2.37994E+08
 -1      2276-7.82947E+11 1.55424E+08-2.97461E+11 9.67396E+08-5.20686E+10-2.24315E+08
 -1      2277-8.09219E+11 1.49016E+08-3.07446E+11 9.08777E+08-5.37586E+10-2.10154E+08
 -1      2278-8.33773E+11 5.57087E+07-3.16812E+11 8.44242E+08-5.53366E+10-1.95541E+08
 -1      2279-8.56608E+11 2.29971E+08-3.25424E+11 7.82039E+08-5.67994E+10-1.80505E+08
 -1      2280-8.77594E+11 9.70416E+07-3.33449E+11 7.14141E+08-5.81436E+10-1.65081E+08
 -1      2281-8.96731E+11 2.29945E+08-3.40670E+11 6.51771E+08-5.93665E+10-1.49299E+08
 -1      2282-9.13962E+11 8.78201E+07-3.47272E+11 5.81964E+08-6.04653E+10-1.33194E+08
 -1      2283-9.29300E+11 9.61158E+07-3.53098E+11 5.12459E+08-6.14377E+10-1.16799E+08
 -1      2284-9.42661E+11 2.47442E+08-3.58117E+11 4.35689E+08-6.22816E+10-1.00149E+08
 -1      2285-9.54008E+11 9.11845E+07-3.62489E+11 3.70989E+08-6.29951E+10-8.32795E+07
 -1      2286-9.63360E+11 2.81464E+08-3.65970E+11 2.99386E+08-6.35767E+10-6.62260E+07
 -1      2287-9.70761E+11 4.91677E+07-3.68870E+11 2.26961E+08-6.40249E+10-4.90241E+07
 -1      2288-9.75991E+11 1.83384E+08-3.70807E+11 1.49045E+08-6.43390E+10-3.17090E+07
 -1      2289-9.79257E+11 1.76062E+08-3.72051E+11 8.10623E+07-6.45180E+10-1.43171E+07
 -1      2290-9.80439E+11 8.41539E+07-3.72535E+11 9.00007E+05-6.45616E+10 3.11435E+06
 -1      2291-9.79557E+11 2.21925E+08-3.72147E+11-7.18115E+07-6.44696E+10 2.05485E+07
 -1      2292-9.76626E+11 2.14386E+08-3.71036E+11-1.41847E+08-6.42420E+10 3.79487E+07
 -1      2293-9.71623E+11 1.05378E+08-3.69177E+11-2.13135E+08-6.38795E+10 5.52784E+07
 -1      2294-9.64626E+11 8.75042E+07-3.66525E+11-2.89475E+08-6.33825E+10 7.25010E+07
 -1      2295-9.55589E+11 2.62343E+08-3.63024E+11-3.64094E+08-6.27521E+10 8.95812E+07
 -1      2296-9.44517E+11 8.30318E+07-3.58885E+11-4.31437E+08-6.19895E+10 1.06483E+08
 -1      2297-9.31525E+11 2.48453E+08-3.53885E+11-4.98989E+08-6.10962E+10 1.23170E+08
 -1      2298-9.16549E+11 8.98328E+07-3.48254E+11-5.70495E+08-6.00742E+10 1.39609E+08
 -1      2299-8.99647E+11 8.64181E+07-3.41833E+11-6.39025E+08-5.89253E+10 1.55764E+08
 -1      2300-8.80894E+11 2.14043E+08-3.34659E+11-7.08992E+08-5.76520E+10 1.71601E+08
 -1      2301-8.60293E+11 1.52168E+08-3.26854E+11-7.67205E+08-5.62569E+10 1.87089E+08
 -1      2302-8.37904E+11 1.70637E+08-3.18339E+11-8.30877E+08-5.47428E+10 2.02195E+08
 -1      2303-8.13735E+11 2.00513E+07-3.09212E+11-8.95417E+08-5.31128E+10 2.16887E+08
 -1      2304-7.87908E+11 1.49504E+08-2.99348E+11-9.56371E+08-5.13702E+10 2.31133E+08
 -1      2305-7.60447E+11 1.66033E+08-2.88907E+11-1.01440E+09-4.95186E+10 2.44906E+08
 -1      2306-7.31368E+11 1.07732E+08-2.77879E+11-1.06656E+09-4.75619E+10 2.58176E+08
 -1      2307-7.00800E+11 1.04070E+08-2.66264E+11-1.12026E+09-4.55040E+10 2.70915E+08
 -1      2308-6.68789E+11 1.55199E+08-2.54081E+11-1.16957E+09-4.33492E+10 2.83098E+08
 -1      2309-6.35372E+11 6.93752E+07-2.41415E+11-1.21782E+09-4.11018E+10 2.94698E+08
 -1      2310-6.00649E+11 5.10195E+07-2.28227E+11-1.26567E+09-3.87666E+10 3.05693E+08
 -1      2311-5.64698E+11 1.47192E+08-2.14529E+11-1.30880E+09-3.63483E+10 3.16059E+08
 -1      2312-5.27590E+11 5.66011E+07-2.00463E+11-1.34594E+09-3.38519E+10 3.25775E+08
 -1      2313-4.89397E+11 1.23141E+08-1.85924E+11-1.38446E+09-3.12825E+10 3.34821E+08
 -1      2314-4.50194E+11 2.95471E+07-1.71062E+11-1.41739E+09-2.86454E+10 3.43179E+08
 -1      2315-4.10095E+11 7.00872E+07-1.55810E+11-1.44961E+09-2.59461E+10 3.50832E+08
 -1      2316-3.69171E+11 7.10890E+07-1.40258E+11-1.47782E+09-2.31900E+10 3.57764E+08
 -1      2317-3.27487E+11 1.36676E+07-1.24440E+11-1.50303E+09-2.03828E+10 3.63961E+08
 -1      2318-2.85169E+11 9.20743E+07-1.08329E+11-1.52432E+09-1.75303E+10 3.69410E+08
 -1      2319-2.42288E+11 1.33424E+07-9.20645E+10-1.54075E+09-1.46384E+10 3.74103E+08
 -1      2320-1.98940E+11 1.96520E+07-7.55898E+10-1.55816E+09-1.17130E+10 3.78028E+08
 -1      2321-1.55217E+11 3.72361E+07-5.89683E+10-1.56869E+09-8.76011E+09 3.81178E+08
 -1      2322-1.11218E+11 9.91357E+06-4.22589E+10-1.57618E+09-5.78570E+09 3.83548E+08
 -1      2323-6.70326E+10 8.66730E+06-2.54691E+10-1.58156E+09-2.79590E+09 3.85134E+08
 -1      2324-2.27560E+10-1.72679E+06-8.64794E+09-1.58310E+09 2.03168E+08 3.85933E+08
 -1      2325 2.15098E+10-7.26518E+06 8.17097E+09-1.58106E+09 3.20538E+09 3.85945E+08
 -1      2326 6.56778E+10-1.46794E+07 2.49520E+10-1.57549E+09 6.20463E+09 3.85169E+08
 -1      2327 1.09645E+11-2.73982E+07 4.16545E+10-1.56599E+09 9.19481E+09 3.83610E+08
 -1      2328 1.53319E+11-1.70502E+07 5.82547E+10-1.55446E+09 1.21698E+10 3.81272E+08
 -1      2329 1.96604E+11-7.89368E+07 7.46793E+10-1.53790E+09 1.51236E+10 3.78159E+08
 -1      2330 2.39410E+11-1.40291E+07 9.09704E+10-1.52363E+09 1.80503E+10 3.74282E+08
 -1      2331 2.81640E+11-2.05965E+07 1.07016E+11-1.49571E+09 2.09438E+10 3.69648E+08
 -1      2332 3.23193E+11-1.01499E+08 1.22775E+11-1.47047E+09 2.37983E+10 3.64267E+08
 -1      2333 3.64001E+11-4.31845E+07 1.38304E+11-1.44370E+09 2.66082E+10 3.58155E+08
 -1      2334 4.03955E+11-1.15854E+08 1.53459E+11-1.40984E+09 2.93677E+10 3.51325E+08
 -1      2335 4.42962E+11-5.09675E+07 1.68306E+11-1.37841E+09 3.20714E+10 3.43792E+08
 -1      2336 4.80951E+11-5.37248E+07 1.82741E+11-1.33607E+09 3.47138E+10 3.35574E+08
 -1      2337 5.17850E+11-1.36356E+08 1.96731E+11-1.29649E+09 3.72896E+10 3.26690E+08
 -1      2338 5.53541E+11-7.51170E+07 2.10317E+11-1.25114E+09 3.97939E+10 3.17160E+08
 -1      2339 5.87959E+11-1.55204E+08 2.23366E+11-1.20589E+09 4.22216E+10 3.07007E+08
 -1      2340 6.21044E+11-7.31731E+07 2.35969E+11-1.15949E+09 4.45680E+10 2.96253E+08
 -1      2341 6.52706E+11-7.91229E+07 2.47998E+11-1.10165E+09 4.68284E+10 2.84924E+08
 -1      2342 6.82863E+11-1.66014E+08 2.59425E+11-1.04780E+09 4.89986E+10 2.73044E+08
 -1      2343 7.11459E+11-1.43186E+08 2.70300E+11-9.91330E+08 5.10744E+10 2.60642E+08
 -1      2344 7.38449E+11-1.62815E+08 2.80549E+11-9.38469E+08 5.30518E+10 2.47745E+08
 -1      2345 7.63723E+11-3.68679E+07 2.90201E+11-8.69874E+08 5.49270E+10 2.34384E+08
 -1      2346 7.87236E+11-1.55337E+08 2.99091E+11-8.04805E+08 5.66966E+10 2.20589E+08
 -1      2347 8.08965E+11-1.89369E+08 3.07335E+11-7.39576E+08 5.83573E+10 2.06390E+08
 -1      2348 8.28830E+11-1.35964E+08 3.14904E+11-6.75473E+08 5.99061E+10 1.91823E+08
 -1      2349 8.46775E+11-1.46002E+08 3.21719E+11-6.03446E+08 6.13403E+10 1.76918E+08
 -1      2350 8.62754E+11-2.13228E+08 3.27766E+11-5.33798E+08 6.26574E+10 1.61712E+08
 -1      2351 8.76754E+11-1.15818E+08 3.33122E+11-4.67462E+08 6.38551E+10 1.46240E+08
 -1      2352 8.88714E+11-9.95096E+07 3.37673E+11-3.84330E+08 6.49316E+10 1.30536E+08
 -1      2353 8.98590E+11-2.48445E+08 3.41370E+11-3.12949E+08 6.58852E+10 1.14638E+08
 -1      2354 9.06367E+11-1.12463E+08 3.44377E+11-2.37291E+08 6.67145E+10 9.85832E+07
 -1      2355 9.12042E+11-2.54049E+08 3.46479E+11-1.64007E+08 6.74184E+10 8.24086E+07
 -1      2356 9.15537E+11-1.06214E+08 3.47864E+11-8.56065E+07 6.79962E+10 6.61524E+07
 -1      2357 9.16847E+11-1.60957E+08 3.48341E+11-4.92611E+06 6.84473E+10 4.98536E+07
 -1      2358 9.16035E+11-2.13866E+08 3.48012E+11 6.75060E+07 6.87717E+10 3.35501E+07
 -1      2359 9.12987E+11-6.50929E+07 3.46910E+11 1.55187E+08 6.89693E+10 1.72810E+07
 -1      2360 9.07733E+11-3.23483E+08 3.44815E+11 2.29270E+08 6.90407E+10 1.08561E+06
 -1      2361 9.00285E+11-9.52933E+07 3.42072E+11 3.04858E+08 6.89865E+10-1.49968E+07
 -1      2362 8.90652E+11-1.16019E+08 3.38404E+11 3.86204E+08 6.88078E+10-3.09270E+07
 -1      2363 8.78821E+11-2.55489E+08 3.33855E+11 4.68923E+08 6.85059E+10-4.66665E+07
 -1      2364 8.64781E+11-1.19288E+08 3.28571E+11 5.40474E+08 6.80825E+10-6.21759E+07
 -1      2365 8.48587E+11-2.48157E+08 3.22369E+11 6.20731E+08 6.75395E+10-7.74165E+07
 -1      2366 8.30247E+11-1.06097E+08 3.15453E+11 6.91153E+08 6.68791E+10-9.23499E+07
 -1      2367 8.09758E+11-1.24224E+08 3.07661E+11 7.76030E+08 6.61038E+10-1.06938E+08
 -1      2368 7.87160E+11-2.17657E+08 2.99038E+11 8.48473E+08 6.52166E+10-1.21142E+08
 -1      2369 7.62498E+11-1.53777E+08 2.89691E+11 9.18913E+08 6.42205E+10-1.34927E+08
 -1      2370 7.35780E+11-1.33277E+08 2.79546E+11 9.94464E+08 6.31190E+10-1.48254E+08
 -1      2371 7.07037E+11-2.52374E+08 2.68578E+11 1.06408E+09 6.19157E+10-1.61089E+08
 -1      2372 6.76325E+11-7.40006E+07 2.56975E+11 1.12900E+09 6.06146E+10-1.73394E+08
 -1      2373 6.43695E+11-6.49345E+07 2.44579E+11 1.20594E+09 5.92199E+10-1.85136E+08
 -1      2374 6.09164E+11-2.54777E+08 2.31385E+11 1.27313E+09 5.77363E+10-1.96280E+08
 -1      2375 5.72777E+11-9.03566E+07 2.17621E+11 1.33322E+09 5.61683E+10-2.06794E+08
 -1      2376 5.34628E+11-1.90773E+08 2.03086E+11 1.39575E+09 5.45212E+10-2.16645E+08
 -1      2377 4.94721E+11-9.52288E+07 1.87958E+11 1.45818E+09 5.28002E+10-2.25801E+08
 -1      2378 4.53124E+11-9.87796E+07 1.72150E+11 1.51760E+09 5.10107E+10-2.34233E+08
 -1      2379 4.09919E+11-1.62887E+08 1.55707E+11 1.57621E+09 4.91585E+10-2.41910E+08
 -1      2380 3.65135E+11-9.85708E+07 1.38714E+11 1.62787E+09 4.72497E+10-2.48805E+08
 -1      2381 3.18849E+11-1.38477E+08 1.21110E+11 1.68254E+09 4.52904E+10-2.54889E+08
 -1      2382 2.71108E+11-9.01338E+07 1.02987E+11 1.73132E+09 4.32870E+10-2.60138E+08
 -1      2383 2.21992E+11-8.62697E+07 8.43243E+10 1.78147E+09 4.12461E+10-2.64524E+08
 -1      2384 1.71569E+11-1.23917E+08 6.51490E+10 1.82633E+09 3.91745E+10-2.68026E+08
 -1      2385 1.19883E+11-8.24087E+07 4.55244E+10 1.86972E+09 3.70792E+10-2.70619E+08
 -1      2386 6.70212E+10-8.02151E+07 2.54376E+10 1.91078E+09 3.49673E+10-2.72282E+08
 -1      2387 1.30389E+10-9.08433E+07 4.92028E+09 1.95028E+09 3.28462E+10-2.72995E+08
 -1      2388-4.19818E+10-7.39284E+07-1.59812E+10 1.98475E+09 3.07233E+10-2.72738E+08
 -1      2389-9.79964E+10-7.27214E+07-3.72663E+10 2.01982E+09 2.86062E+10-2.71494E+08
 -1      2390-1.54903E+11-6.19554E+07-5.88866E+10 2.04830E+09 2.65027E+10-2.69245E+08
 -1      2391-2.12683E+11-7.27439E+07-8.08473E+10 2.08140E+09 2.44206E+10-2.65976E+08
 -1      2392-2.71213E+11-2.18287E+07-1.03069E+11 2.10228E+09 2.23680E+10-2.61673E+08
 -1      2393-3.30484E+11-7.60986E+07-1.25613E+11 2.13558E+09 2.03529E+10-2.56322E+08
 -1      2394-3.90361E+11-6.73576E+07-1.48363E+11 2.14669E+09 1.83835E+10-2.49911E+08
 -1      2395-4.50902E+11-1.29924E+07-1.71348E+11 2.17715E+09 1.64682E+10-2.42428E+08
 -1      2396-5.11869E+11-4.38957E+07-1.94527E+11 2.18072E+09 1.46153E+10-2.33866E+08
 -1      2397-5.73408E+11-1.17962E+07-2.17899E+11 2.21452E+09 1.28331E+10-2.24213E+08
 -1      2398-6.35227E+11 8.83489E+06-2.41383E+11 2.20908E+09 1.11304E+10-2.13463E+08
 -1      2399-6.97584E+11-1.33544E+08-2.65133E+11 2.24952E+09 9.51547E+09-2.01609E+08
 -1      2400-7.60005E+11 2.87925E+07-2.88791E+11 2.21479E+09 7.99710E+09-1.88645E+08
 -1      2401-8.22970E+11-4.21911E+07-3.12745E+11 2.27363E+09 6.58388E+09-1.74565E+08
 -1      2402-8.85795E+11 9.34457E+07-3.36567E+11 2.22096E+09 5.28453E+09-1.59366E+08
 -1      2403-9.49252E+11-6.00490E+07-3.60739E+11 2.30784E+09 4.10774E+09-1.43045E+08
 -1      2404-1.01220E+12-2.56925E+08-3.84735E+11 2.20705E+09 3.06229E+09-1.25599E+08
 -1      2405-1.07603E+12 9.37993E+08-4.08534E+11 2.32421E+09 2.15688E+09-1.07025E+08
 -1      2406-1.13929E+12-3.42489E+09-4.34233E+11 2.24024E+09 1.40036E+09-8.73231E+07
 -1      2407-1.20212E+12 1.27743E+10-4.51953E+11 2.12572E+09 8.01418E+08-6.64884E+07
 -1      2408-1.27003E+12-4.70613E+10-5.00495E+11 3.11134E+09 3.68955E+08-4.45346E+07
 -1      2409-1.31544E+12 1.72651E+11-4.34261E+11-1.19444E+09 1.11672E+08-2.14084E+07
 -1      2410-1.32660E+12-6.30734E+11-7.43788E+11 1.45952E+10 2.77700E+07-9.53398E+06
 -3
    1PSTEP                        15           1           1          
    1PGM                1.000000E+00                                  
    1PGK                8.100383E+06                                  
    1PHID                         -1                                  
    1PSUBC                         0                                  
    1PMODE                         4                                  
  100CL  104 452.9736312        2410                     2    4MODAL      1
 -4  TOSTRAIN    6    1
 -5  EXX         1    4    1    1
 -5  EYY         1    4    2    2
 -5  EZZ         1    4    3    3
 -5  EXY         1    4    1    2
 -5  EYZ         1    4    2    3
 -5  EZX         1    4    3    1
 -1         1-5.68141E-02 9.39288E-03 1.31302E-08 6.03669E-03 2.56316E+01 1.54610E-01
 -1         2-3.16351E-01 1.70331E-01 3.32532E-08-2.97556E-02 2.50303E+01 1.54605E-01
 -1         3-1.06375E+00 6.28231E-01 5.38948E-08-5.70940E-02 2.38279E+01 1.54584E-01
 -1         4-2.28364E+00 1.37850E+00 4.82311E-08-8.39345E-02 2.26258E+01 1.54536E-01
 -1         5-3.95020E+00 2.40047E+00 2.67627E-08-1.08779E-01 2.14242E+01 1.54446E-01
 -1         6-6.03873E+00 3.68076E+00-8.53047E-09-1.32702E-01 2.02235E+01 1.54302E-01
 -1         7-8.53215E+00 5.21179E+00-4.28508E-08-1.54982E-01 1.90241E+01 1.54092E-01
 -1         8-1.13963E+01 6.96758E+00-6.10996E-08-1.75718E-01 1.78267E+01 1.53806E-01
 -1         9-1.46160E+01 8.94112E+00-7.39055E-08-1.95869E-01 1.66319E+01 1.53432E-01
 -1        10-1.81684E+01 1.11245E+01-7.88261E-08-2.13540E-01 1.54403E+01 1.52962E-01
 -1        11-2.20107E+01 1.34700E+01-6.25388E-08-2.31333E-01 1.42528E+01 1.52385E-01
 -1        12-2.61605E+01 1.60268E+01-3.35280E-08-2.45743E-01 1.30702E+01 1.51694E-01
 -1        13-3.05443E+01 1.87066E+01-4.37995E-09-2.60865E-01 1.18934E+01 1.50880E-01
 -1        14-3.51748E+01 2.15469E+01 2.04590E-08-2.72870E-01 1.07235E+01 1.49937E-01
 -1        15-4.00313E+01 2.45377E+01 4.82116E-08-2.86086E-01 9.56147E+00 1.48858E-01
 -1        16-4.50276E+01 2.75696E+01 7.28774E-08-2.95205E-01 8.40836E+00 1.47637E-01
 -1        17-5.02587E+01 3.08106E+01 8.99310E-08-3.03193E-01 7.26531E+00 1.46270E-01
 -1        18-5.55831E+01 3.40565E+01 9.41920E-08-3.12817E-01 6.13348E+00 1.44751E-01
 -1        19-6.10460E+01 3.74103E+01 9.09627E-08-3.16380E-01 5.01406E+00 1.43078E-01
 -1        20-6.66181E+01 4.08350E+01 9.51310E-08-3.25510E-01 3.90826E+00 1.41246E-01
 -1        21-7.22312E+01 4.42535E+01 1.00418E-07-3.25266E-01 2.81734E+00 1.39254E-01
 -1        22-7.79496E+01 4.77835E+01 1.04587E-07-3.30573E-01 1.74255E+00 1.37099E-01
 -1        23-8.36690E+01 5.12771E+01 1.09065E-07-3.30078E-01 6.85145E-01 1.34781E-01
 -1        24-8.94136E+01 5.48067E+01 1.11085E-07-3.31361E-01-3.53587E-01 1.32298E-01
 -1        25-9.51442E+01 5.83123E+01 1.05471E-07-3.31094E-01-1.37237E+00 1.29650E-01
 -1        26-1.00850E+02 6.18103E+01 9.88284E-08-3.26884E-01-2.36992E+00 1.26838E-01
 -1        27-1.06519E+02 6.52921E+01 8.93698E-08-3.25118E-01-3.34496E+00 1.23863E-01
 -1        28-1.12117E+02 6.87252E+01 7.26687E-08-3.19980E-01-4.29623E+00 1.20727E-01
 -1        29-1.17615E+02 7.20876E+01 5.53363E-08-3.15883E-01-5.22249E+00 1.17431E-01
 -1        30-1.23021E+02 7.54004E+01 4.11593E-08-3.07547E-01-6.12250E+00 1.13979E-01
 -1        31-1.28321E+02 7.86621E+01 3.09403E-08-3.01157E-01-6.99506E+00 1.10373E-01
 -1        32-1.33457E+02 8.17999E+01 1.58353E-08-2.91838E-01-7.83900E+00 1.06618E-01
 -1        33-1.38458E+02 8.48773E+01-2.51690E-09-2.83419E-01-8.65316E+00 1.02717E-01
 -1        34-1.43267E+02 8.78108E+01-1.20137E-08-2.73724E-01-9.43643E+00 9.86754E-02
 -1        35-1.47909E+02 9.06646E+01-3.85292E-09-2.60609E-01-1.01877E+01 9.44983E-02
 -1        36-1.52344E+02 9.33855E+01 9.33817E-09-2.50547E-01-1.09060E+01 9.01910E-02
 -1        37-1.56546E+02 9.59467E+01 1.63272E-08-2.35343E-01-1.15904E+01 8.57597E-02
 -1        38-1.60564E+02 9.84393E+01 1.87122E-08-2.23451E-01-1.22398E+01 8.12105E-02
 -1        39-1.64284E+02 1.00694E+02 1.62465E-08-2.09298E-01-1.28533E+01 7.65505E-02
 -1        40-1.67775E+02 1.02836E+02 7.82961E-09-1.93046E-01-1.34303E+01 7.17868E-02
 -1        41-1.71018E+02 1.04840E+02-8.69880E-09-1.77454E-01-1.39698E+01 6.69266E-02
 -1        42-1.73959E+02 1.06632E+02-3.85729E-08-1.62374E-01-1.44711E+01 6.19778E-02
 -1        43-1.76623E+02 1.08266E+02-8.43719E-08-1.44573E-01-1.49336E+01 5.69485E-02
 -1        44-1.78998E+02 1.09731E+02-1.47052E-07-1.27873E-01-1.53568E+01 5.18470E-02
 -1        45-1.81051E+02 1.10976E+02-2.09084E-07-1.11744E-01-1.57400E+01 4.66820E-02
 -1        46-1.82803E+02 1.12048E+02-2.56241E-07-9.02752E-02-1.60828E+01 4.14622E-02
 -1        47-1.84255E+02 1.12958E+02-3.01356E-07-7.34181E-02-1.63848E+01 3.61966E-02
 -1        48-1.85346E+02 1.13606E+02-3.43864E-07-5.39552E-02-1.66457E+01 3.08945E-02
 -1        49-1.86159E+02 1.14133E+02-3.80294E-07-3.66448E-02-1.68653E+01 2.55652E-02
 -1        50-1.86575E+02 1.14356E+02-4.12159E-07-1.77416E-02-1.70434E+01 2.02183E-02
 -1        51-1.86679E+02 1.14416E+02-4.53107E-07 5.43563E-03-1.71798E+01 1.48635E-02
 -1        52-1.86491E+02 1.14338E+02-4.85658E-07 2.35006E-02-1.72746E+01 9.51021E-03
 -1        53-1.85893E+02 1.13942E+02-4.80565E-07 4.32564E-02-1.73278E+01 4.16833E-03
 -1        54-1.84997E+02 1.13413E+02-4.60287E-07 6.20768E-02-1.73395E+01-1.15221E-03
 -1        55-1.83721E+02 1.12611E+02-4.42281E-07 8.16544E-02-1.73099E+01-6.44161E-03
 -1        56-1.82127E+02 1.11637E+02-4.34824E-07 1.02517E-01-1.72394E+01-1.16900E-02
 -1        57-1.80205E+02 1.10474E+02-4.34414E-07 1.22566E-01-1.71282E+01-1.68878E-02
 -1        58-1.77913E+02 1.09058E+02-4.23552E-07 1.40948E-01-1.69768E+01-2.20250E-02
 -1        59-1.75299E+02 1.07456E+02-4.11216E-07 1.60489E-01-1.67858E+01-2.70921E-02
 -1        60-1.72367E+02 1.05668E+02-4.15230E-07 1.78748E-01-1.65556E+01-3.20794E-02
 -1        61-1.69080E+02 1.03641E+02-4.34663E-07 1.97679E-01-1.62870E+01-3.69776E-02
 -1        62-1.65476E+02 1.01426E+02-4.43264E-07 2.17446E-01-1.59807E+01-4.17771E-02
 -1        63-1.61597E+02 9.90765E+01-4.25918E-07 2.34354E-01-1.56374E+01-4.64690E-02
 -1        64-1.57348E+02 9.64428E+01-3.96403E-07 2.51518E-01-1.52581E+01-5.10444E-02
 -1        65-1.52838E+02 9.36924E+01-3.63693E-07 2.69945E-01-1.48437E+01-5.54943E-02
 -1        66-1.48019E+02 9.07363E+01-3.30072E-07 2.85912E-01-1.43953E+01-5.98103E-02
 -1        67-1.42912E+02 8.75970E+01-3.00922E-07 3.02176E-01-1.39138E+01-6.39839E-02
 -1        68-1.37556E+02 8.43311E+01-2.62775E-07 3.18676E-01-1.34004E+01-6.80072E-02
 -1        69-1.31895E+02 8.08449E+01-2.04401E-07 3.32516E-01-1.28563E+01-7.18726E-02
 -1        70-1.26019E+02 7.72573E+01-1.35994E-07 3.46463E-01-1.22828E+01-7.55725E-02
 -1        71-1.19867E+02 7.34729E+01-6.77520E-08 3.60576E-01-1.16812E+01-7.90999E-02
 -1        72-1.13496E+02 6.95677E+01-6.01728E-09 3.73954E-01-1.10528E+01-8.24477E-02
 -1        73-1.06922E+02 6.55493E+01 5.26296E-08 3.86375E-01-1.03992E+01-8.56096E-02
 -1        74-1.00119E+02 6.13690E+01 1.10306E-07 3.96921E-01-9.72164E+00-8.85797E-02
 -1        75-9.31431E+01 5.71020E+01 1.58501E-07 4.08176E-01-9.02179E+00-9.13521E-02
 -1        76-8.59676E+01 5.26932E+01 1.91431E-07 4.17348E-01-8.30116E+00-9.39216E-02
 -1        77-7.86439E+01 4.82086E+01 2.14464E-07 4.27503E-01-7.56135E+00-9.62831E-02
 -1        78-7.11703E+01 4.36285E+01 2.31810E-07 4.34586E-01-6.80399E+00-9.84323E-02
 -1        79-6.35527E+01 3.89543E+01 2.43835E-07 4.43234E-01-6.03076E+00-1.00365E-01
 -1        80-5.58256E+01 3.42234E+01 2.53134E-07 4.48800E-01-5.24334E+00-1.02078E-01
 -1        81-4.79908E+01 2.94190E+01 2.60420E-07 4.54131E-01-4.44348E+00-1.03567E-01
 -1        82-4.00656E+01 2.45589E+01 2.68849E-07 4.58961E-01-3.63291E+00-1.04830E-01
 -1        83-3.20694E+01 1.96564E+01 2.75929E-07 4.62795E-01-2.81341E+00-1.05865E-01
 -1        84-2.40235E+01 1.47280E+01 2.79676E-07 4.65384E-01-1.98675E+00-1.06670E-01
 -1        85-1.59313E+01 9.76492E+00 2.79940E-07 4.67041E-01-1.15472E+00-1.07243E-01
 -1        86-7.81930E+00 4.79274E+00 2.78564E-07 4.67877E-01-3.19145E-01-1.07584E-01
 -1        87 2.99214E-01-1.83821E-01 2.78919E-07 4.67953E-01 5.18176E-01-1.07692E-01
 -1        88 8.40773E+00-5.15413E+00 2.76374E-07 4.66788E-01 1.35543E+00-1.07567E-01
 -1        89 1.64902E+01-1.01096E+01 2.70768E-07 4.64642E-01 2.19081E+00-1.07210E-01
 -1        90 2.45266E+01-1.50341E+01 2.64158E-07 4.61610E-01 3.02251E+00-1.06621E-01
 -1        91 3.25105E+01-1.99338E+01 2.61467E-07 4.57773E-01 3.84875E+00-1.05803E-01
 -1        92 4.04058E+01-2.47660E+01 2.62101E-07 4.53868E-01 4.66773E+00-1.04758E-01
 -1        93 4.82160E+01-2.95535E+01 2.65791E-07 4.46706E-01 5.47771E+00-1.03486E-01
 -1        94 5.59259E+01-3.42883E+01 2.74619E-07 4.40172E-01 6.27692E+00-1.01992E-01
 -1        95 6.34948E+01-3.89200E+01 2.81652E-07 4.32668E-01 7.06367E+00-1.00279E-01
 -1        96 7.09421E+01-4.34927E+01 2.84921E-07 4.24525E-01 7.83625E+00-9.83508E-02
 -1        97 7.82172E+01-4.79454E+01 2.83528E-07 4.15161E-01 8.59300E+00-9.62112E-02
 -1        98 8.53265E+01-5.23017E+01 2.78837E-07 4.04394E-01 9.33230E+00-9.38651E-02
 -1        99 9.22667E+01-5.65650E+01 2.67829E-07 3.93551E-01 1.00526E+01-9.13175E-02
 -1       100 9.89904E+01-6.06811E+01 2.43398E-07 3.81378E-01 1.07523E+01-8.85740E-02
 -1       101 1.05504E+02-6.46732E+01 2.06184E-07 3.69153E-01 1.14299E+01-8.56405E-02
 -1       102 1.11804E+02-6.85429E+01 1.63221E-07 3.55485E-01 1.20840E+01-8.25232E-02
 -1       103 1.17846E+02-7.22368E+01 1.28570E-07 3.42592E-01 1.27131E+01-7.92289E-02
 -1       104 1.23644E+02-7.57877E+01 1.07751E-07 3.25854E-01 1.33160E+01-7.57647E-02
 -1       105 1.29200E+02-7.92144E+01 8.61802E-08 3.10735E-01 1.38912E+01-7.21376E-02
 -1       106 1.34439E+02-8.24026E+01 5.33068E-08 2.96053E-01 1.44377E+01-6.83558E-02
 -1       107 1.39432E+02-8.54756E+01 1.41807E-08 2.77817E-01 1.49542E+01-6.44269E-02
 -1       108 1.44109E+02-8.83417E+01-2.48147E-08 2.60950E-01 1.54395E+01-6.03595E-02
 -1       109 1.48471E+02-9.10048E+01-6.48789E-08 2.42457E-01 1.58927E+01-5.61624E-02
 -1       110 1.52557E+02-9.35280E+01-1.08463E-07 2.24548E-01 1.63128E+01-5.18441E-02
 -1       111 1.56279E+02-9.57946E+01-1.30743E-07 2.05105E-01 1.66989E+01-4.74138E-02
 -1       112 1.59701E+02-9.79069E+01-1.32817E-07 1.87131E-01 1.70501E+01-4.28811E-02
 -1       113 1.62754E+02-9.97621E+01-1.27961E-07 1.67160E-01 1.73657E+01-3.82555E-02
 -1       114 1.65486E+02-1.01437E+02-1.09687E-07 1.47110E-01 1.76450E+01-3.35467E-02
 -1       115 1.67882E+02-1.02923E+02-1.00523E-07 1.25180E-01 1.78873E+01-2.87645E-02
 -1       116 1.69884E+02-1.04133E+02-1.03154E-07 1.06433E-01 1.80922E+01-2.39192E-02
 -1       117 1.71576E+02-1.05189E+02-1.07560E-07 8.58053E-02 1.82593E+01-1.90209E-02
 -1       118 1.72858E+02-1.05952E+02-1.26045E-07 6.50258E-02 1.83880E+01-1.40800E-02
 -1       119 1.73810E+02-1.06549E+02-1.53018E-07 4.26988E-02 1.84782E+01-9.10686E-03
 -1       120 1.74390E+02-1.06904E+02-1.67561E-07 2.33502E-02 1.85296E+01-4.11188E-03
 -1       121 1.74591E+02-1.07016E+02-1.70087E-07 2.07478E-04 1.85421E+01 8.94450E-04
 -1       122 1.74449E+02-1.06945E+02-1.79232E-07-2.05837E-02 1.85157E+01 5.90156E-03
 -1       123 1.73926E+02-1.06623E+02-1.98305E-07-4.07721E-02 1.84504E+01 1.08989E-02
 -1       124 1.73023E+02-1.06058E+02-2.17234E-07-6.11840E-02 1.83462E+01 1.58760E-02
 -1       125 1.71775E+02-1.05291E+02-2.25232E-07-8.31608E-02 1.82035E+01 2.08224E-02
 -1       126 1.70185E+02-1.04336E+02-2.30160E-07-1.04547E-01 1.80224E+01 2.57279E-02
 -1       127 1.68194E+02-1.03096E+02-2.41974E-07-1.23925E-01 1.78034E+01 3.05820E-02
 -1       128 1.65899E+02-1.01707E+02-2.39444E-07-1.43295E-01 1.75469E+01 3.53746E-02
 -1       129 1.63215E+02-1.00045E+02-2.03647E-07-1.63857E-01 1.72534E+01 4.00959E-02
 -1       130 1.60205E+02-9.81996E+01-1.35147E-07-1.83517E-01 1.69234E+01 4.47356E-02
 -1       131 1.56879E+02-9.61757E+01-5.25198E-08-2.03630E-01 1.65577E+01 4.92842E-02
 -1       132 1.53204E+02-9.39164E+01 7.68967E-09-2.20333E-01 1.61570E+01 5.37324E-02
 -1       133 1.49220E+02-9.14762E+01 3.68808E-08-2.38633E-01 1.57222E+01 5.80708E-02
 -1       134 1.44899E+02-8.88116E+01 5.56612E-08-2.57158E-01 1.52540E+01 6.22902E-02
 -1       135 1.40315E+02-8.60160E+01 7.45455E-08-2.74673E-01 1.47536E+01 6.63818E-02
 -1       136 1.35427E+02-8.30219E+01 9.34728E-08-2.91332E-01 1.42218E+01 7.03373E-02
 -1       137 1.30242E+02-7.98380E+01 1.11062E-07-3.06319E-01 1.36598E+01 7.41484E-02
 -1       138 1.24799E+02-7.65012E+01 1.23667E-07-3.21735E-01 1.30688E+01 7.78072E-02
 -1       139 1.19104E+02-7.30168E+01 1.28098E-07-3.35903E-01 1.24499E+01 8.13061E-02
 -1       140 1.13145E+02-6.93546E+01 1.19304E-07-3.49755E-01 1.18045E+01 8.46379E-02
 -1       141 1.06960E+02-6.55617E+01 9.87594E-08-3.63501E-01 1.11338E+01 8.77955E-02
 -1       142 1.00569E+02-6.16553E+01 7.71155E-08-3.75886E-01 1.04393E+01 9.07725E-02
 -1       143 9.39513E+01-5.75894E+01 6.73392E-08-3.86553E-01 9.72229E+00 9.35630E-02
 -1       144 8.71577E+01-5.34330E+01 7.19411E-08-3.97616E-01 8.98436E+00 9.61612E-02
 -1       145 8.01668E+01-4.91378E+01 8.14141E-08-4.07075E-01 8.22699E+00 9.85616E-02
 -1       146 7.30311E+01-4.47688E+01 9.37460E-08-4.16327E-01 7.45173E+00 1.00759E-01
 -1       147 6.57441E+01-4.03027E+01 1.05356E-07-4.24428E-01 6.66018E+00 1.02750E-01
 -1       148 5.83153E+01-3.57432E+01 1.13979E-07-4.31668E-01 5.85396E+00 1.04530E-01
 -1       149 5.07885E+01-3.11387E+01 1.17361E-07-4.37784E-01 5.03473E+00 1.06095E-01
 -1       150 4.31444E+01-2.64448E+01 1.16208E-07-4.42501E-01 4.20417E+00 1.07443E-01
 -1       151 3.54263E+01-2.17151E+01 1.14744E-07-4.47503E-01 3.36400E+00 1.08570E-01
 -1       152 2.76427E+01-1.69464E+01 1.14876E-07-4.50527E-01 2.51591E+00 1.09475E-01
 -1       153 1.98050E+01-1.21396E+01 1.15469E-07-4.52678E-01 1.66166E+00 1.10156E-01
 -1       154 1.19371E+01-7.31724E+00 1.12786E-07-4.54222E-01 8.02984E-01 1.10611E-01
 -1       155 4.05185E+00-2.48320E+00 1.08972E-07-4.54666E-01-5.83506E-02 1.10841E-01
 -1       156-3.83093E+00 2.34880E+00 1.02231E-07-4.54078E-01-9.20588E-01 1.10844E-01
 -1       157-1.16965E+01 7.17044E+00 9.40317E-08-4.52480E-01-1.78197E+00 1.10621E-01
 -1       158-1.95268E+01 1.19711E+01 8.91643E-08-4.49752E-01-2.64076E+00 1.10173E-01
 -1       159-2.73025E+01 1.67357E+01 7.79269E-08-4.46439E-01-3.49518E+00 1.09502E-01
 -1       160-3.50167E+01 2.14706E+01 5.86845E-08-4.41682E-01-4.34352E+00 1.08608E-01
 -1       161-4.26319E+01 2.61308E+01 4.25050E-08-4.37584E-01-5.18405E+00 1.07494E-01
 -1       162-5.01524E+01 3.07409E+01 3.11564E-08-4.29566E-01-6.01507E+00 1.06163E-01
 -1       163-5.75602E+01 3.52901E+01 2.34210E-08-4.22318E-01-6.83491E+00 1.04618E-01
 -1       164-6.48204E+01 3.97334E+01 2.60696E-08-4.14628E-01-7.64190E+00 1.02863E-01
 -1       165-7.19428E+01 4.41068E+01 3.33091E-08-4.04903E-01-8.43444E+00 1.00901E-01
 -1       166-7.88813E+01 4.83523E+01 3.76520E-08-3.95878E-01-9.21093E+00 9.87376E-02
 -1       167-8.56462E+01 5.24988E+01 3.84012E-08-3.83717E-01-9.96982E+00 9.63774E-02
 -1       168-9.22257E+01 5.65406E+01 2.45903E-08-3.72351E-01-1.07096E+01 9.38259E-02
 -1       169-9.85741E+01 6.04248E+01-1.68312E-09-3.59326E-01-1.14288E+01 9.10890E-02
 -1       170-1.04712E+02 6.41954E+01-2.45734E-08-3.46331E-01-1.21261E+01 8.81729E-02
 -1       171-1.10594E+02 6.77915E+01-3.94217E-08-3.33004E-01-1.28000E+01 8.50845E-02
 -1       172-1.16232E+02 7.12480E+01-6.25976E-08-3.16393E-01-1.34492E+01 8.18306E-02
 -1       173-1.21612E+02 7.45548E+01-8.88069E-08-3.00926E-01-1.40724E+01 7.84187E-02
 -1       174-1.26701E+02 7.76715E+01-1.04782E-07-2.84709E-01-1.46686E+01 7.48568E-02
 -1       175-1.31509E+02 8.06205E+01-1.29511E-07-2.69527E-01-1.52365E+01 7.11529E-02
 -1       176-1.35996E+02 8.33565E+01-1.69509E-07-2.49827E-01-1.57751E+01 6.73155E-02
 -1       177-1.40196E+02 8.59437E+01-2.16308E-07-2.31139E-01-1.62833E+01 6.33534E-02
 -1       178-1.44069E+02 8.83212E+01-2.68961E-07-2.12406E-01-1.67603E+01 5.92757E-02
 -1       179-1.47600E+02 9.04797E+01-3.20831E-07-1.93995E-01-1.72051E+01 5.50917E-02
 -1       180-1.50797E+02 9.24399E+01-3.52361E-07-1.73309E-01-1.76170E+01 5.08112E-02
 -1       181-1.53649E+02 9.41958E+01-3.58836E-07-1.53306E-01-1.79953E+01 4.64440E-02
 -1       182-1.56131E+02 9.57063E+01-3.52980E-07-1.34255E-01-1.83392E+01 4.20002E-02
 -1       183-1.58259E+02 9.70087E+01-3.24195E-07-1.10379E-01-1.86484E+01 3.74902E-02
 -1       184-1.60034E+02 9.81130E+01-2.69388E-07-8.98786E-02-1.89223E+01 3.29243E-02
 -1       185-1.61404E+02 9.89376E+01-2.12255E-07-6.81496E-02-1.91604E+01 2.83132E-02
 -1       186-1.62430E+02 9.95821E+01-1.64792E-07-4.71027E-02-1.93626E+01 2.36679E-02
 -1       187-1.63036E+02 9.99372E+01-1.27248E-07-2.45860E-02-1.95286E+01 1.89991E-02
 -1       188-1.63276E+02 1.00090E+02-8.63385E-08-1.41462E-03-1.96581E+01 1.43180E-02
 -1       189-1.63137E+02 1.00011E+02-2.98711E-08 1.93878E-02-1.97513E+01 9.63564E-03
 -1       190-1.62578E+02 9.96516E+01 3.75709E-08 4.45698E-02-1.98080E+01 4.96311E-03
 -1       191-1.61670E+02 9.91242E+01 1.20543E-07 6.58464E-02-1.98285E+01 3.11773E-04
 -1       192-1.60319E+02 9.82707E+01 2.18339E-07 8.75553E-02-1.98130E+01-4.30712E-03
 -1       193-1.58606E+02 9.72232E+01 3.17335E-07 1.10918E-01-1.97617E+01-8.88229E-03
 -1       194-1.56515E+02 9.59568E+01 3.95372E-07 1.34675E-01-1.96750E+01-1.34027E-02
 -1       195-1.54000E+02 9.44002E+01 4.25288E-07 1.55223E-01-1.95534E+01-1.78570E-02
 -1       196-1.51130E+02 9.26559E+01 4.09473E-07 1.78273E-01-1.93974E+01-2.22341E-02
 -1       197-1.47849E+02 9.06290E+01 3.74486E-07 1.98498E-01-1.92077E+01-2.65230E-02
 -1       198-1.44203E+02 8.83962E+01 3.40139E-07 2.22875E-01-1.89851E+01-3.07127E-02
 -1       199-1.40189E+02 8.59465E+01 3.08693E-07 2.43681E-01-1.87303E+01-3.47923E-02
 -1       200-1.35791E+02 8.32436E+01 2.80842E-07 2.63911E-01-1.84442E+01-3.87512E-02
 -1       201-1.31031E+02 8.03241E+01 2.54625E-07 2.85609E-01-1.81278E+01-4.25789E-02
 -1       202-1.25926E+02 7.72084E+01 2.20361E-07 3.05603E-01-1.77822E+01-4.62649E-02
 -1       203-1.20438E+02 7.38248E+01 1.66289E-07 3.24247E-01-1.74086E+01-4.97991E-02
 -1       204-1.14626E+02 7.02621E+01 9.91161E-08 3.46344E-01-1.70080E+01-5.31713E-02
 -1       205-1.08498E+02 6.65272E+01 2.96222E-08 3.65641E-01-1.65819E+01-5.63720E-02
 -1       206-1.02001E+02 6.25268E+01-4.19018E-08 3.82899E-01-1.61316E+01-5.93916E-02
 -1       207-9.52192E+01 5.83813E+01-9.28372E-08 4.00858E-01-1.56585E+01-6.22207E-02
 -1       208-8.81027E+01 5.40090E+01-1.13891E-07 4.18789E-01-1.51642E+01-6.48505E-02
 -1       209-8.06961E+01 4.94699E+01-1.25082E-07 4.35854E-01-1.46503E+01-6.72721E-02
 -1       210-7.30098E+01 4.47661E+01-1.37145E-07 4.52687E-01-1.41184E+01-6.94769E-02
 -1       211-6.50284E+01 3.98671E+01-1.50605E-07 4.67523E-01-1.35702E+01-7.14571E-02
 -1       212-5.67907E+01 3.48226E+01-1.62436E-07 4.83225E-01-1.30074E+01-7.32046E-02
 -1       213-4.82845E+01 2.96038E+01-1.65736E-07 4.97234E-01-1.24321E+01-7.47120E-02
 -1       214-3.95384E+01 2.42428E+01-1.56643E-07 5.11637E-01-1.18459E+01-7.59718E-02
 -1       215-3.05638E+01 1.87464E+01-1.44841E-07 5.24520E-01-1.12510E+01-7.69774E-02
 -1       216-2.13560E+01 1.30983E+01-1.41755E-07 5.36982E-01-1.06492E+01-7.77222E-02
 -1       217-1.19429E+01 7.32873E+00-1.40717E-07 5.48775E-01-1.00426E+01-7.81999E-02
 -1       218-2.33169E+00 1.43920E+00-1.38609E-07 5.60119E-01-9.43345E+00-7.84046E-02
 -1       219 7.46740E+00-4.56858E+00-1.34288E-07 5.70019E-01-8.82375E+00-7.83309E-02
 -1       220 1.74417E+01-1.06820E+01-1.20932E-07 5.80091E-01-8.21573E+00-7.79734E-02
 -1       221 2.75759E+01-1.68945E+01-1.07326E-07 5.88269E-01-7.61159E+00-7.73276E-02
 -1       222 3.78634E+01-2.31985E+01-9.81995E-08 5.97775E-01-7.01362E+00-7.63888E-02
 -1       223 4.82910E+01-2.95953E+01-8.47140E-08 6.03773E-01-6.42410E+00-7.51528E-02
 -1       224 5.88392E+01-3.60543E+01-6.75245E-08 6.13338E-01-5.84537E+00-7.36160E-02
 -1       225 6.95021E+01-4.25906E+01-5.16891E-08 6.16527E-01-5.27977E+00-7.17748E-02
 -1       226 8.02882E+01-4.92074E+01-3.73109E-08 6.25274E-01-4.72968E+00-6.96259E-02
 -1       227 9.11410E+01-5.58557E+01-2.51014E-08 6.26302E-01-4.19751E+00-6.71666E-02
 -1       228 1.02102E+02-6.25775E+01-1.51128E-08 6.36009E-01-3.68569E+00-6.43943E-02
 -1       229 1.13112E+02-6.93280E+01-5.64055E-09 6.34446E-01-3.19665E+00-6.13070E-02
 -1       230 1.24200E+02-7.61080E+01 2.90218E-09 6.46059E-01-2.73285E+00-5.79025E-02
 -1       231 1.35333E+02-8.29493E+01 1.42616E-08 6.36084E-01-2.29677E+00-5.41791E-02
 -1       232 1.46537E+02-8.98084E+01 3.14187E-08 6.52984E-01-1.89089E+00-5.01354E-02
 -1       233 1.57739E+02-9.66890E+01 5.08591E-08 6.37857E-01-1.51772E+00-4.57703E-02
 -1       234 1.69022E+02-1.03587E+02 7.35186E-08 6.62809E-01-1.17975E+00-4.10828E-02
 -1       235 1.80210E+02-1.10423E+02 9.70512E-08 6.33862E-01-8.79492E-01-3.60723E-02
 -1       236 1.91705E+02-1.17601E+02 1.19518E-07 6.67510E-01-6.19458E-01-3.07378E-02
 -1       237 2.02494E+02-1.23728E+02 1.42619E-07 6.43398E-01-4.02184E-01-2.50793E-02
 -1       238 2.15450E+02-1.33470E+02 1.66062E-07 6.10500E-01-2.30168E-01-1.90956E-02
 -1       239 2.21011E+02-1.30226E+02 1.84868E-07 8.93583E-01-1.05964E-01-1.27904E-02
 -1       240 2.53077E+02-1.74306E+02 2.34729E-07-3.43060E-01-3.20723E-02-6.14851E-03
 -1       241 1.67385E+02-3.24690E+01 2.77772E-07 4.19176E+00-7.97556E-03-2.73817E-03
 -1       242-5.68140E-02 9.39287E-03-1.31302E-08 6.03658E-03-2.56316E+01-1.54609E-01
 -1       243-3.16351E-01 1.70331E-01-3.32532E-08-2.97557E-02-2.50303E+01-1.54605E-01
 -1       244-1.06375E+00 6.28231E-01-5.38948E-08-5.70940E-02-2.38279E+01-1.54584E-01
 -1       245-2.28364E+00 1.37850E+00-4.82311E-08-8.39345E-02-2.26258E+01-1.54536E-01
 -1       246-3.95020E+00 2.40047E+00-2.67627E-08-1.08779E-01-2.14242E+01-1.54446E-01
 -1       247-6.03873E+00 3.68076E+00 8.53047E-09-1.32702E-01-2.02235E+01-1.54302E-01
 -1       248-8.53215E+00 5.21179E+00 4.28508E-08-1.54982E-01-1.90241E+01-1.54092E-01
 -1       249-1.13964E+01 6.96758E+00 6.10996E-08-1.75718E-01-1.78267E+01-1.53806E-01
 -1       250-1.46160E+01 8.94112E+00 7.39055E-08-1.95869E-01-1.66318E+01-1.53432E-01
 -1       251-1.81684E+01 1.11245E+01 7.88261E-08-2.13540E-01-1.54403E+01-1.52962E-01
 -1       252-2.20107E+01 1.34700E+01 6.25388E-08-2.31334E-01-1.42528E+01-1.52385E-01
 -1       253-2.61605E+01 1.60268E+01 3.35280E-08-2.45743E-01-1.30702E+01-1.51694E-01
 -1       254-3.05443E+01 1.87066E+01 4.37995E-09-2.60865E-01-1.18934E+01-1.50880E-01
 -1       255-3.51748E+01 2.15469E+01-2.04590E-08-2.72870E-01-1.07235E+01-1.49937E-01
 -1       256-4.00313E+01 2.45377E+01-4.82116E-08-2.86086E-01-9.56147E+00-1.48858E-01
 -1       257-4.50276E+01 2.75696E+01-7.28774E-08-2.95205E-01-8.40836E+00-1.47637E-01
 -1       258-5.02587E+01 3.08106E+01-8.99310E-08-3.03193E-01-7.26531E+00-1.46270E-01
 -1       259-5.55831E+01 3.40565E+01-9.41920E-08-3.12817E-01-6.13348E+00-1.44751E-01
 -1       260-6.10460E+01 3.74103E+01-9.09627E-08-3.16380E-01-5.01406E+00-1.43078E-01
 -1       261-6.66181E+01 4.08350E+01-9.51310E-08-3.25510E-01-3.90826E+00-1.41246E-01
 -1       262-7.22312E+01 4.42535E+01-1.00418E-07-3.25266E-01-2.81734E+00-1.39254E-01
 -1       263-7.79496E+01 4.77835E+01-1.04587E-07-3.30573E-01-1.74255E+00-1.37099E-01
 -1       264-8.36690E+01 5.12771E+01-1.09065E-07-3.30078E-01-6.85146E-01-1.34781E-01
 -1       265-8.94136E+01 5.48067E+01-1.11085E-07-3.31361E-01 3.53586E-01-1.32298E-01
 -1       266-9.51442E+01 5.83123E+01-1.05471E-07-3.31094E-01 1.37237E+00-1.29650E-01
 -1       267-1.00850E+02 6.18103E+01-9.88284E-08-3.26884E-01 2.36992E+00-1.26838E-01
 -1       268-1.06519E+02 6.52921E+01-8.93698E-08-3.25118E-01 3.34495E+00-1.23863E-01
 -1       269-1.12117E+02 6.87252E+01-7.26687E-08-3.19980E-01 4.29623E+00-1.20727E-01
 -1       270-1.17615E+02 7.20876E+01-5.53363E-08-3.15883E-01 5.22249E+00-1.17431E-01
 -1       271-1.23021E+02 7.54004E+01-4.11593E-08-3.07547E-01 6.12250E+00-1.13979E-01
 -1       272-1.28321E+02 7.86621E+01-3.09403E-08-3.01157E-01 6.99506E+00-1.10373E-01
 -1       273-1.33457E+02 8.17999E+01-1.58353E-08-2.91838E-01 7.83900E+00-1.06618E-01
 -1       274-1.38458E+02 8.48773E+01 2.51690E-09-2.83418E-01 8.65316E+00-1.02717E-01
 -1       275-1.43267E+02 8.78108E+01 1.20137E-08-2.73724E-01 9.43643E+00-9.86754E-02
 -1       276-1.47909E+02 9.06646E+01 3.85292E-09-2.60609E-01 1.01877E+01-9.44983E-02
 -1       277-1.52344E+02 9.33855E+01-9.33817E-09-2.50547E-01 1.09060E+01-9.01910E-02
 -1       278-1.56546E+02 9.59467E+01-1.63272E-08-2.35343E-01 1.15904E+01-8.57596E-02
 -1       279-1.60564E+02 9.84393E+01-1.87122E-08-2.23451E-01 1.22398E+01-8.12105E-02
 -1       280-1.64284E+02 1.00694E+02-1.62465E-08-2.09298E-01 1.28533E+01-7.65505E-02
 -1       281-1.67775E+02 1.02836E+02-7.82961E-09-1.93046E-01 1.34303E+01-7.17868E-02
 -1       282-1.71018E+02 1.04840E+02 8.69880E-09-1.77454E-01 1.39698E+01-6.69266E-02
 -1       283-1.73959E+02 1.06632E+02 3.85729E-08-1.62374E-01 1.44711E+01-6.19778E-02
 -1       284-1.76623E+02 1.08266E+02 8.43719E-08-1.44573E-01 1.49336E+01-5.69485E-02
 -1       285-1.78998E+02 1.09731E+02 1.47052E-07-1.27873E-01 1.53568E+01-5.18470E-02
 -1       286-1.81051E+02 1.10976E+02 2.09084E-07-1.11744E-01 1.57400E+01-4.66820E-02
 -1       287-1.82803E+02 1.12048E+02 2.56241E-07-9.02751E-02 1.60828E+01-4.14622E-02
 -1       288-1.84255E+02 1.12958E+02 3.01356E-07-7.34180E-02 1.63848E+01-3.61966E-02
 -1       289-1.85346E+02 1.13606E+02 3.43864E-07-5.39550E-02 1.66457E+01-3.08945E-02
 -1       290-1.86159E+02 1.14133E+02 3.80294E-07-3.66447E-02 1.68653E+01-2.55652E-02
 -1       291-1.86575E+02 1.14356E+02 4.12159E-07-1.77415E-02 1.70434E+01-2.02183E-02
 -1       292-1.86679E+02 1.14416E+02 4.53107E-07 5.43577E-03 1.71798E+01-1.48635E-02
 -1       293-1.86491E+02 1.14338E+02 4.85658E-07 2.35007E-02 1.72746E+01-9.51020E-03
 -1       294-1.85893E+02 1.13942E+02 4.80565E-07 4.32564E-02 1.73278E+01-4.16832E-03
 -1       295-1.84997E+02 1.13413E+02 4.60287E-07 6.20768E-02 1.73395E+01 1.15221E-03
 -1       296-1.83721E+02 1.12611E+02 4.42281E-07 8.16544E-02 1.73099E+01 6.44160E-03
 -1       297-1.82127E+02 1.11637E+02 4.34824E-07 1.02517E-01 1.72394E+01 1.16900E-02
 -1       298-1.80205E+02 1.10474E+02 4.34414E-07 1.22566E-01 1.71282E+01 1.68877E-02
 -1       299-1.77913E+02 1.09058E+02 4.23552E-07 1.40948E-01 1.69768E+01 2.20250E-02
 -1       300-1.75299E+02 1.07456E+02 4.11216E-07 1.60489E-01 1.67858E+01 2.70921E-02
 -1       301-1.72367E+02 1.05668E+02 4.15230E-07 1.78749E-01 1.65556E+01 3.20794E-02
 -1       302-1.69080E+02 1.03641E+02 4.34663E-07 1.97679E-01 1.62870E+01 3.69776E-02
 -1       303-1.65476E+02 1.01426E+02 4.43264E-07 2.17446E-01 1.59807E+01 4.17771E-02
 -1       304-1.61597E+02 9.90765E+01 4.25918E-07 2.34354E-01 1.56374E+01 4.64690E-02
 -1       305-1.57348E+02 9.64428E+01 3.96403E-07 2.51518E-01 1.52581E+01 5.10444E-02
 -1       306-1.52838E+02 9.36924E+01 3.63693E-07 2.69945E-01 1.48437E+01 5.54943E-02
 -1       307-1.48019E+02 9.07363E+01 3.30072E-07 2.85912E-01 1.43953E+01 5.98102E-02
 -1       308-1.42912E+02 8.75970E+01 3.00922E-07 3.02176E-01 1.39137E+01 6.39838E-02
 -1       309-1.37556E+02 8.43311E+01 2.62775E-07 3.18676E-01 1.34004E+01 6.80072E-02
 -1       310-1.31895E+02 8.08449E+01 2.04401E-07 3.32516E-01 1.28563E+01 7.18726E-02
 -1       311-1.26019E+02 7.72573E+01 1.35994E-07 3.46463E-01 1.22828E+01 7.55725E-02
 -1       312-1.19867E+02 7.34729E+01 6.77520E-08 3.60575E-01 1.16812E+01 7.90998E-02
 -1       313-1.13496E+02 6.95677E+01 6.01728E-09 3.73953E-01 1.10528E+01 8.24476E-02
 -1       314-1.06922E+02 6.55493E+01-5.26296E-08 3.86375E-01 1.03992E+01 8.56096E-02
 -1       315-1.00119E+02 6.13690E+01-1.10306E-07 3.96921E-01 9.72164E+00 8.85796E-02
 -1       316-9.31431E+01 5.71020E+01-1.58501E-07 4.08176E-01 9.02178E+00 9.13521E-02
 -1       317-8.59676E+01 5.26932E+01-1.91431E-07 4.17348E-01 8.30115E+00 9.39216E-02
 -1       318-7.86439E+01 4.82086E+01-2.14464E-07 4.27503E-01 7.56135E+00 9.62831E-02
 -1       319-7.11703E+01 4.36285E+01-2.31810E-07 4.34586E-01 6.80399E+00 9.84323E-02
 -1       320-6.35527E+01 3.89543E+01-2.43835E-07 4.43234E-01 6.03076E+00 1.00365E-01
 -1       321-5.58256E+01 3.42234E+01-2.53134E-07 4.48800E-01 5.24334E+00 1.02078E-01
 -1       322-4.79908E+01 2.94190E+01-2.60420E-07 4.54131E-01 4.44348E+00 1.03567E-01
 -1       323-4.00656E+01 2.45589E+01-2.68849E-07 4.58961E-01 3.63291E+00 1.04830E-01
 -1       324-3.20694E+01 1.96564E+01-2.75929E-07 4.62795E-01 2.81341E+00 1.05865E-01
 -1       325-2.40235E+01 1.47280E+01-2.79676E-07 4.65383E-01 1.98675E+00 1.06670E-01
 -1       326-1.59313E+01 9.76492E+00-2.79940E-07 4.67041E-01 1.15472E+00 1.07243E-01
 -1       327-7.81930E+00 4.79274E+00-2.78564E-07 4.67877E-01 3.19144E-01 1.07584E-01
 -1       328 2.99216E-01-1.83822E-01-2.78919E-07 4.67953E-01-5.18176E-01 1.07692E-01
 -1       329 8.40773E+00-5.15413E+00-2.76374E-07 4.66788E-01-1.35543E+00 1.07567E-01
 -1       330 1.64902E+01-1.01096E+01-2.70768E-07 4.64642E-01-2.19081E+00 1.07210E-01
 -1       331 2.45266E+01-1.50341E+01-2.64158E-07 4.61610E-01-3.02251E+00 1.06621E-01
 -1       332 3.25105E+01-1.99338E+01-2.61467E-07 4.57773E-01-3.84875E+00 1.05803E-01
 -1       333 4.04058E+01-2.47660E+01-2.62101E-07 4.53868E-01-4.66773E+00 1.04758E-01
 -1       334 4.82160E+01-2.95535E+01-2.65791E-07 4.46706E-01-5.47771E+00 1.03486E-01
 -1       335 5.59259E+01-3.42883E+01-2.74619E-07 4.40172E-01-6.27692E+00 1.01992E-01
 -1       336 6.34948E+01-3.89200E+01-2.81652E-07 4.32668E-01-7.06367E+00 1.00279E-01
 -1       337 7.09421E+01-4.34927E+01-2.84921E-07 4.24525E-01-7.83625E+00 9.83507E-02
 -1       338 7.82172E+01-4.79454E+01-2.83528E-07 4.15161E-01-8.59300E+00 9.62112E-02
 -1       339 8.53265E+01-5.23017E+01-2.78837E-07 4.04394E-01-9.33230E+00 9.38651E-02
 -1       340 9.22667E+01-5.65650E+01-2.67829E-07 3.93551E-01-1.00526E+01 9.13175E-02
 -1       341 9.89904E+01-6.06811E+01-2.43398E-07 3.81378E-01-1.07523E+01 8.85740E-02
 -1       342 1.05504E+02-6.46732E+01-2.06184E-07 3.69153E-01-1.14299E+01 8.56405E-02
 -1       343 1.11804E+02-6.85429E+01-1.63221E-07 3.55485E-01-1.20840E+01 8.25232E-02
 -1       344 1.17846E+02-7.22368E+01-1.28570E-07 3.42592E-01-1.27131E+01 7.92290E-02
 -1       345 1.23644E+02-7.57877E+01-1.07751E-07 3.25854E-01-1.33160E+01 7.57647E-02
 -1       346 1.29200E+02-7.92144E+01-8.61802E-08 3.10735E-01-1.38912E+01 7.21376E-02
 -1       347 1.34439E+02-8.24026E+01-5.33068E-08 2.96053E-01-1.44377E+01 6.83558E-02
 -1       348 1.39432E+02-8.54756E+01-1.41807E-08 2.77817E-01-1.49542E+01 6.44270E-02
 -1       349 1.44109E+02-8.83417E+01 2.48147E-08 2.60950E-01-1.54395E+01 6.03596E-02
 -1       350 1.48471E+02-9.10048E+01 6.48789E-08 2.42457E-01-1.58927E+01 5.61624E-02
 -1       351 1.52557E+02-9.35280E+01 1.08463E-07 2.24548E-01-1.63128E+01 5.18441E-02
 -1       352 1.56279E+02-9.57946E+01 1.30743E-07 2.05105E-01-1.66989E+01 4.74138E-02
 -1       353 1.59701E+02-9.79069E+01 1.32817E-07 1.87131E-01-1.70501E+01 4.28811E-02
 -1       354 1.62754E+02-9.97621E+01 1.27961E-07 1.67160E-01-1.73657E+01 3.82555E-02
 -1       355 1.65486E+02-1.01437E+02 1.09687E-07 1.47110E-01-1.76450E+01 3.35467E-02
 -1       356 1.67882E+02-1.02923E+02 1.00523E-07 1.25180E-01-1.78873E+01 2.87645E-02
 -1       357 1.69884E+02-1.04133E+02 1.03154E-07 1.06433E-01-1.80922E+01 2.39192E-02
 -1       358 1.71576E+02-1.05189E+02 1.07560E-07 8.58054E-02-1.82593E+01 1.90209E-02
 -1       359 1.72858E+02-1.05952E+02 1.26045E-07 6.50259E-02-1.83880E+01 1.40800E-02
 -1       360 1.73810E+02-1.06549E+02 1.53018E-07 4.26989E-02-1.84782E+01 9.10686E-03
 -1       361 1.74390E+02-1.06904E+02 1.67561E-07 2.33502E-02-1.85296E+01 4.11188E-03
 -1       362 1.74591E+02-1.07016E+02 1.70087E-07 2.07489E-04-1.85421E+01-8.94449E-04
 -1       363 1.74449E+02-1.06945E+02 1.79232E-07-2.05837E-02-1.85157E+01-5.90156E-03
 -1       364 1.73926E+02-1.06623E+02 1.98305E-07-4.07720E-02-1.84504E+01-1.08989E-02
 -1       365 1.73023E+02-1.06058E+02 2.17234E-07-6.11839E-02-1.83462E+01-1.58760E-02
 -1       366 1.71775E+02-1.05291E+02 2.25232E-07-8.31608E-02-1.82035E+01-2.08224E-02
 -1       367 1.70185E+02-1.04336E+02 2.30160E-07-1.04547E-01-1.80224E+01-2.57279E-02
 -1       368 1.68194E+02-1.03096E+02 2.41974E-07-1.23925E-01-1.78034E+01-3.05820E-02
 -1       369 1.65899E+02-1.01707E+02 2.39444E-07-1.43295E-01-1.75469E+01-3.53746E-02
 -1       370 1.63215E+02-1.00045E+02 2.03647E-07-1.63858E-01-1.72534E+01-4.00959E-02
 -1       371 1.60205E+02-9.81996E+01 1.35147E-07-1.83517E-01-1.69234E+01-4.47356E-02
 -1       372 1.56879E+02-9.61757E+01 5.25198E-08-2.03630E-01-1.65577E+01-4.92842E-02
 -1       373 1.53204E+02-9.39164E+01-7.68967E-09-2.20333E-01-1.61570E+01-5.37324E-02
 -1       374 1.49220E+02-9.14762E+01-3.68808E-08-2.38633E-01-1.57222E+01-5.80708E-02
 -1       375 1.44899E+02-8.88116E+01-5.56612E-08-2.57158E-01-1.52540E+01-6.22902E-02
 -1       376 1.40315E+02-8.60160E+01-7.45455E-08-2.74673E-01-1.47536E+01-6.63818E-02
 -1       377 1.35427E+02-8.30219E+01-9.34728E-08-2.91333E-01-1.42218E+01-7.03373E-02
 -1       378 1.30242E+02-7.98380E+01-1.11062E-07-3.06319E-01-1.36598E+01-7.41485E-02
 -1       379 1.24799E+02-7.65012E+01-1.23667E-07-3.21735E-01-1.30688E+01-7.78072E-02
 -1       380 1.19104E+02-7.30168E+01-1.28098E-07-3.35903E-01-1.24499E+01-8.13061E-02
 -1       381 1.13145E+02-6.93546E+01-1.19304E-07-3.49755E-01-1.18045E+01-8.46379E-02
 -1       382 1.06960E+02-6.55617E+01-9.87594E-08-3.63501E-01-1.11338E+01-8.77955E-02
 -1       383 1.00569E+02-6.16553E+01-7.71155E-08-3.75886E-01-1.04393E+01-9.07726E-02
 -1       384 9.39513E+01-5.75894E+01-6.73392E-08-3.86553E-01-9.72229E+00-9.35630E-02
 -1       385 8.71577E+01-5.34330E+01-7.19411E-08-3.97616E-01-8.98436E+00-9.61612E-02
 -1       386 8.01668E+01-4.91378E+01-8.14141E-08-4.07075E-01-8.22699E+00-9.85616E-02
 -1       387 7.30311E+01-4.47688E+01-9.37460E-08-4.16327E-01-7.45173E+00-1.00759E-01
 -1       388 6.57441E+01-4.03027E+01-1.05356E-07-4.24428E-01-6.66018E+00-1.02750E-01
 -1       389 5.83153E+01-3.57432E+01-1.13979E-07-4.31668E-01-5.85396E+00-1.04530E-01
 -1       390 5.07885E+01-3.11387E+01-1.17361E-07-4.37784E-01-5.03473E+00-1.06095E-01
 -1       391 4.31444E+01-2.64448E+01-1.16208E-07-4.42501E-01-4.20417E+00-1.07443E-01
 -1       392 3.54263E+01-2.17151E+01-1.14744E-07-4.47503E-01-3.36400E+00-1.08570E-01
 -1       393 2.76427E+01-1.69464E+01-1.14876E-07-4.50527E-01-2.51591E+00-1.09475E-01
 -1       394 1.98050E+01-1.21396E+01-1.15469E-07-4.52678E-01-1.66166E+00-1.10156E-01
 -1       395 1.19371E+01-7.31724E+00-1.12786E-07-4.54222E-01-8.02984E-01-1.10611E-01
 -1       396 4.05185E+00-2.48320E+00-1.08972E-07-4.54666E-01 5.83502E-02-1.10841E-01
 -1       397-3.83093E+00 2.34880E+00-1.02231E-07-4.54078E-01 9.20587E-01-1.10844E-01
 -1       398-1.16965E+01 7.17044E+00-9.40317E-08-4.52480E-01 1.78197E+00-1.10621E-01
 -1       399-1.95268E+01 1.19711E+01-8.91643E-08-4.49752E-01 2.64076E+00-1.10173E-01
 -1       400-2.73025E+01 1.67357E+01-7.79269E-08-4.46439E-01 3.49518E+00-1.09502E-01
 -1       401-3.50167E+01 2.14706E+01-5.86845E-08-4.41682E-01 4.34352E+00-1.08608E-01
 -1       402-4.26319E+01 2.61308E+01-4.25050E-08-4.37584E-01 5.18405E+00-1.07494E-01
 -1       403-5.01524E+01 3.07409E+01-3.11564E-08-4.29566E-01 6.01507E+00-1.06163E-01
 -1       404-5.75602E+01 3.52901E+01-2.34210E-08-4.22318E-01 6.83491E+00-1.04618E-01
 -1       405-6.48204E+01 3.97334E+01-2.60696E-08-4.14628E-01 7.64190E+00-1.02863E-01
 -1       406-7.19428E+01 4.41068E+01-3.33091E-08-4.04903E-01 8.43444E+00-1.00901E-01
 -1       407-7.88813E+01 4.83523E+01-3.76520E-08-3.95878E-01 9.21093E+00-9.87376E-02
 -1       408-8.56462E+01 5.24988E+01-3.84012E-08-3.83717E-01 9.96982E+00-9.63774E-02
 -1       409-9.22257E+01 5.65406E+01-2.45903E-08-3.72351E-01 1.07096E+01-9.38259E-02
 -1       410-9.85741E+01 6.04248E+01 1.68312E-09-3.59325E-01 1.14288E+01-9.10889E-02
 -1       411-1.04712E+02 6.41954E+01 2.45734E-08-3.46331E-01 1.21261E+01-8.81729E-02
 -1       412-1.10594E+02 6.77915E+01 3.94217E-08-3.33004E-01 1.28000E+01-8.50845E-02
 -1       413-1.16232E+02 7.12480E+01 6.25976E-08-3.16393E-01 1.34492E+01-8.18306E-02
 -1       414-1.21612E+02 7.45548E+01 8.88069E-08-3.00926E-01 1.40724E+01-7.84187E-02
 -1       415-1.26701E+02 7.76715E+01 1.04782E-07-2.84709E-01 1.46686E+01-7.48568E-02
 -1       416-1.31509E+02 8.06205E+01 1.29511E-07-2.69527E-01 1.52365E+01-7.11529E-02
 -1       417-1.35996E+02 8.33565E+01 1.69509E-07-2.49827E-01 1.57751E+01-6.73155E-02
 -1       418-1.40196E+02 8.59437E+01 2.16308E-07-2.31139E-01 1.62833E+01-6.33534E-02
 -1       419-1.44069E+02 8.83212E+01 2.68961E-07-2.12405E-01 1.67603E+01-5.92757E-02
 -1       420-1.47600E+02 9.04797E+01 3.20831E-07-1.93995E-01 1.72051E+01-5.50917E-02
 -1       421-1.50797E+02 9.24399E+01 3.52361E-07-1.73309E-01 1.76170E+01-5.08112E-02
 -1       422-1.53649E+02 9.41958E+01 3.58836E-07-1.53306E-01 1.79953E+01-4.64440E-02
 -1       423-1.56131E+02 9.57063E+01 3.52980E-07-1.34255E-01 1.83392E+01-4.20002E-02
 -1       424-1.58259E+02 9.70087E+01 3.24195E-07-1.10379E-01 1.86484E+01-3.74902E-02
 -1       425-1.60034E+02 9.81130E+01 2.69388E-07-8.98787E-02 1.89223E+01-3.29243E-02
 -1       426-1.61404E+02 9.89376E+01 2.12255E-07-6.81498E-02 1.91604E+01-2.83133E-02
 -1       427-1.62430E+02 9.95821E+01 1.64792E-07-4.71028E-02 1.93626E+01-2.36679E-02
 -1       428-1.63036E+02 9.99372E+01 1.27248E-07-2.45861E-02 1.95286E+01-1.89991E-02
 -1       429-1.63276E+02 1.00090E+02 8.63385E-08-1.41477E-03 1.96581E+01-1.43180E-02
 -1       430-1.63137E+02 1.00011E+02 2.98711E-08 1.93876E-02 1.97513E+01-9.63565E-03
 -1       431-1.62578E+02 9.96516E+01-3.75709E-08 4.45696E-02 1.98080E+01-4.96313E-03
 -1       432-1.61670E+02 9.91242E+01-1.20543E-07 6.58461E-02 1.98285E+01-3.11789E-04
 -1       433-1.60319E+02 9.82707E+01-2.18339E-07 8.75550E-02 1.98130E+01 4.30710E-03
 -1       434-1.58606E+02 9.72232E+01-3.17335E-07 1.10917E-01 1.97617E+01 8.88227E-03
 -1       435-1.56515E+02 9.59568E+01-3.95372E-07 1.34674E-01 1.96750E+01 1.34027E-02
 -1       436-1.54000E+02 9.44002E+01-4.25288E-07 1.55223E-01 1.95534E+01 1.78570E-02
 -1       437-1.51130E+02 9.26559E+01-4.09473E-07 1.78273E-01 1.93974E+01 2.22341E-02
 -1       438-1.47849E+02 9.06289E+01-3.74486E-07 1.98498E-01 1.92077E+01 2.65230E-02
 -1       439-1.44203E+02 8.83962E+01-3.40139E-07 2.22875E-01 1.89851E+01 3.07127E-02
 -1       440-1.40189E+02 8.59465E+01-3.08693E-07 2.43681E-01 1.87303E+01 3.47923E-02
 -1       441-1.35791E+02 8.32436E+01-2.80842E-07 2.63911E-01 1.84442E+01 3.87512E-02
 -1       442-1.31031E+02 8.03241E+01-2.54625E-07 2.85609E-01 1.81278E+01 4.25789E-02
 -1       443-1.25926E+02 7.72084E+01-2.20361E-07 3.05603E-01 1.77822E+01 4.62649E-02
 -1       444-1.20438E+02 7.38248E+01-1.66289E-07 3.24247E-01 1.74086E+01 4.97991E-02
 -1       445-1.14626E+02 7.02621E+01-9.91161E-08 3.46344E-01 1.70080E+01 5.31713E-02
 -1       446-1.08498E+02 6.65272E+01-2.96222E-08 3.65642E-01 1.65819E+01 5.63720E-02
 -1       447-1.02001E+02 6.25268E+01 4.19018E-08 3.82899E-01 1.61316E+01 5.93916E-02
 -1       448-9.52192E+01 5.83813E+01 9.28372E-08 4.00858E-01 1.56585E+01 6.22207E-02
 -1       449-8.81027E+01 5.40090E+01 1.13891E-07 4.18789E-01 1.51642E+01 6.48505E-02
 -1       450-8.06961E+01 4.94699E+01 1.25082E-07 4.35854E-01 1.46503E+01 6.72721E-02
 -1       451-7.30098E+01 4.47661E+01 1.37145E-07 4.52687E-01 1.41184E+01 6.94769E-02
 -1       452-6.50284E+01 3.98671E+01 1.50605E-07 4.67523E-01 1.35702E+01 7.14571E-02
 -1       453-5.67907E+01 3.48226E+01 1.62436E-07 4.83225E-01 1.30074E+01 7.32046E-02
 -1       454-4.82845E+01 2.96038E+01 1.65736E-07 4.97234E-01 1.24321E+01 7.47120E-02
 -1       455-3.95384E+01 2.42428E+01 1.56643E-07 5.11637E-01 1.18459E+01 7.59718E-02
 -1       456-3.05638E+01 1.87464E+01 1.44841E-07 5.24520E-01 1.12510E+01 7.69774E-02
 -1       457-2.13560E+01 1.30983E+01 1.41755E-07 5.36982E-01 1.06492E+01 7.77222E-02
 -1       458-1.19429E+01 7.32873E+00 1.40717E-07 5.48775E-01 1.00426E+01 7.81999E-02
 -1       459-2.33169E+00 1.43920E+00 1.38609E-07 5.60119E-01 9.43345E+00 7.84046E-02
 -1       460 7.46740E+00-4.56858E+00 1.34288E-07 5.70019E-01 8.82375E+00 7.83309E-02
 -1       461 1.74417E+01-1.06820E+01 1.20932E-07 5.80091E-01 8.21572E+00 7.79734E-02
 -1       462 2.75759E+01-1.68945E+01 1.07326E-07 5.88269E-01 7.61159E+00 7.73276E-02
 -1       463 3.78634E+01-2.31985E+01 9.81995E-08 5.97775E-01 7.01362E+00 7.63888E-02
 -1       464 4.82910E+01-2.95953E+01 8.47140E-08 6.03773E-01 6.42410E+00 7.51528E-02
 -1       465 5.88392E+01-3.60543E+01 6.75245E-08 6.13338E-01 5.84537E+00 7.36160E-02
 -1       466 6.95021E+01-4.25906E+01 5.16891E-08 6.16527E-01 5.27977E+00 7.17748E-02
 -1       467 8.02882E+01-4.92074E+01 3.73109E-08 6.25274E-01 4.72968E+00 6.96258E-02
 -1       468 9.11410E+01-5.58557E+01 2.51014E-08 6.26302E-01 4.19751E+00 6.71665E-02
 -1       469 1.02102E+02-6.25775E+01 1.51128E-08 6.36009E-01 3.68569E+00 6.43943E-02
 -1       470 1.13112E+02-6.93280E+01 5.64055E-09 6.34446E-01 3.19665E+00 6.13070E-02
 -1       471 1.24200E+02-7.61080E+01-2.90218E-09 6.46059E-01 2.73285E+00 5.79025E-02
 -1       472 1.35333E+02-8.29493E+01-1.42616E-08 6.36084E-01 2.29677E+00 5.41791E-02
 -1       473 1.46537E+02-8.98084E+01-3.14187E-08 6.52984E-01 1.89089E+00 5.01354E-02
 -1       474 1.57739E+02-9.66890E+01-5.08591E-08 6.37857E-01 1.51772E+00 4.57703E-02
 -1       475 1.69022E+02-1.03587E+02-7.35186E-08 6.62809E-01 1.17975E+00 4.10828E-02
 -1       476 1.80210E+02-1.10423E+02-9.70512E-08 6.33862E-01 8.79492E-01 3.60723E-02
 -1       477 1.91705E+02-1.17601E+02-1.19518E-07 6.67510E-01 6.19458E-01 3.07378E-02
 -1       478 2.02494E+02-1.23728E+02-1.42619E-07 6.43398E-01 4.02184E-01 2.50793E-02
 -1       479 2.15450E+02-1.33470E+02-1.66062E-07 6.10500E-01 2.30168E-01 1.90956E-02
 -1       480 2.21011E+02-1.30226E+02-1.84868E-07 8.93583E-01 1.05964E-01 1.27904E-02
 -1       481 2.53077E+02-1.74306E+02-2.34729E-07-3.43060E-01 3.20723E-02 6.14851E-03
 -1       482 1.67385E+02-3.24690E+01-2.77772E-07 4.19177E+00 7.97556E-03 2.73817E-03
 -1       483-3.26411E-02 4.07136E-03 8.09942E-09-1.74457E-04 2.56316E+01 1.03077E-01
 -1       484-1.55200E-01 7.97018E-02 2.30205E-08-4.68955E-02 2.50303E+01 1.03074E-01
 -1       485-5.28352E-01 3.08871E-01 3.68740E-08-9.14313E-02 2.38279E+01 1.03060E-01
 -1       486-1.13893E+00 6.84201E-01 3.04746E-08-1.33852E-01 2.26258E+01 1.03028E-01
 -1       487-1.97156E+00 1.19474E+00 1.73297E-08-1.73769E-01 2.14242E+01 1.02968E-01
 -1       488-3.01919E+00 1.83897E+00-6.16604E-09-2.12001E-01 2.02235E+01 1.02872E-01
 -1       489-4.26070E+00 2.59797E+00-2.96674E-08-2.47752E-01 1.90241E+01 1.02732E-01
 -1       490-5.69881E+00 3.48328E+00-4.12980E-08-2.81020E-01 1.78267E+01 1.02541E-01
 -1       491-7.30530E+00 4.46618E+00-4.92236E-08-3.12908E-01 1.66319E+01 1.02292E-01
 -1       492-9.08097E+00 5.55640E+00-5.02082E-08-3.41516E-01 1.54403E+01 1.01978E-01
 -1       493-1.10109E+01 6.74123E+00-4.11915E-08-3.68945E-01 1.42528E+01 1.01594E-01
 -1       494-1.30721E+01 8.00119E+00-2.38808E-08-3.94588E-01 1.30702E+01 1.01133E-01
 -1       495-1.52756E+01 9.35626E+00-2.71447E-09-4.15419E-01 1.18935E+01 1.00590E-01
 -1       496-1.75913E+01 1.07772E+01 1.48510E-08-4.38496E-01 1.07235E+01 9.99615E-02
 -1       497-2.00049E+01 1.22526E+01 3.17396E-08-4.54580E-01 9.56149E+00 9.92423E-02
 -1       498-2.25269E+01 1.38004E+01 4.82816E-08-4.71720E-01 8.40838E+00 9.84285E-02
 -1       499-2.51284E+01 1.54020E+01 6.02916E-08-4.88152E-01 7.26533E+00 9.75168E-02
 -1       500-2.77866E+01 1.70195E+01 6.11481E-08-4.97033E-01 6.13350E+00 9.65046E-02
 -1       501-3.05330E+01 1.87164E+01 6.03780E-08-5.09774E-01 5.01407E+00 9.53888E-02
 -1       502-3.33020E+01 2.04052E+01 6.43144E-08-5.15545E-01 3.90828E+00 9.41677E-02
 -1       503-3.61302E+01 2.21439E+01 6.61849E-08-5.22961E-01 2.81736E+00 9.28396E-02
 -1       504-3.89776E+01 2.38924E+01 6.82650E-08-5.28444E-01 1.74256E+00 9.14030E-02
 -1       505-4.18279E+01 2.56273E+01 7.22574E-08-5.28559E-01 6.85153E-01 8.98574E-02
 -1       506-4.47196E+01 2.74172E+01 7.43498E-08-5.29523E-01-3.53579E-01 8.82018E-02
 -1       507-4.75733E+01 2.91543E+01 7.07481E-08-5.27530E-01-1.37236E+00 8.64366E-02
 -1       508-5.04350E+01 3.09149E+01 6.54637E-08-5.25064E-01-2.36991E+00 8.45620E-02
 -1       509-5.32631E+01 3.26472E+01 5.86271E-08-5.19765E-01-3.34495E+00 8.25786E-02
 -1       510-5.60567E+01 3.43572E+01 4.87487E-08-5.11819E-01-4.29623E+00 8.04876E-02
 -1       511-5.88206E+01 3.60570E+01 3.74762E-08-5.02551E-01-5.22249E+00 7.82904E-02
 -1       512-6.15245E+01 3.77148E+01 2.77168E-08-4.94431E-01-6.12250E+00 7.59887E-02
 -1       513-6.41591E+01 3.93250E+01 1.91546E-08-4.81872E-01-6.99507E+00 7.35849E-02
 -1       514-6.67345E+01 4.09036E+01 8.75503E-09-4.67164E-01-7.83901E+00 7.10813E-02
 -1       515-6.92411E+01 4.24501E+01-1.92302E-09-4.52659E-01-8.65317E+00 6.84806E-02
 -1       516-7.16410E+01 4.39104E+01-8.03128E-09-4.35573E-01-9.43645E+00 6.57862E-02
 -1       517-7.39637E+01 4.53403E+01-3.22339E-09-4.18983E-01-1.01878E+01 6.30013E-02
 -1       518-7.61785E+01 4.66958E+01 6.10124E-09-3.98340E-01-1.09061E+01 6.01297E-02
 -1       519-7.82910E+01 4.79930E+01 1.03298E-08-3.79237E-01-1.15904E+01 5.71753E-02
 -1       520-8.02803E+01 4.92116E+01 1.21366E-08-3.57543E-01-1.22398E+01 5.41425E-02
 -1       521-8.21525E+01 5.03558E+01 1.03541E-08-3.31568E-01-1.28534E+01 5.10358E-02
 -1       522-8.39078E+01 5.14391E+01 4.84419E-09-3.11449E-01-1.34303E+01 4.78598E-02
 -1       523-8.55180E+01 5.24257E+01-6.47254E-09-2.84905E-01-1.39698E+01 4.46195E-02
 -1       524-8.69872E+01 5.33210E+01-2.65351E-08-2.59693E-01-1.44711E+01 4.13202E-02
 -1       525-8.83179E+01 5.41350E+01-5.66457E-08-2.31341E-01-1.49337E+01 3.79673E-02
 -1       526-8.95163E+01 5.48829E+01-9.95845E-08-2.04424E-01-1.53568E+01 3.45662E-02
 -1       527-9.05357E+01 5.54948E+01-1.40463E-07-1.75306E-01-1.57400E+01 3.11227E-02
 -1       528-9.14140E+01 5.60354E+01-1.71215E-07-1.47961E-01-1.60828E+01 2.76427E-02
 -1       529-9.21365E+01 5.64835E+01-2.00439E-07-1.17410E-01-1.63849E+01 2.41322E-02
 -1       530-9.26955E+01 5.68270E+01-2.28814E-07-8.73397E-02-1.66458E+01 2.05973E-02
 -1       531-9.30783E+01 5.70586E+01-2.53166E-07-5.75799E-02-1.68654E+01 1.70443E-02
 -1       532-9.32980E+01 5.71852E+01-2.75179E-07-2.23847E-02-1.70434E+01 1.34797E-02
 -1       533-9.33721E+01 5.72456E+01-3.03164E-07 2.76064E-03-1.71799E+01 9.90951E-03
 -1       534-9.32420E+01 5.71568E+01-3.24246E-07 3.60188E-02-1.72747E+01 6.34053E-03
 -1       535-9.29590E+01 5.69829E+01-3.21213E-07 6.91909E-02-1.73279E+01 2.77927E-03
 -1       536-9.25086E+01 5.67123E+01-3.07992E-07 1.00110E-01-1.73396E+01-7.67868E-04
 -1       537-9.18829E+01 5.63292E+01-2.95796E-07 1.33286E-01-1.73100E+01-4.29430E-03
 -1       538-9.10770E+01 5.58295E+01-2.89657E-07 1.60583E-01-1.72395E+01-7.79344E-03
 -1       539-9.01028E+01 5.52309E+01-2.88481E-07 1.95342E-01-1.71283E+01-1.12587E-02
 -1       540-8.89753E+01 5.45474E+01-2.82372E-07 2.25550E-01-1.69770E+01-1.46836E-02
 -1       541-8.76686E+01 5.37460E+01-2.74669E-07 2.56476E-01-1.67859E+01-1.80618E-02
 -1       542-8.61847E+01 5.28299E+01-2.75609E-07 2.85984E-01-1.65557E+01-2.13868E-02
 -1       543-8.45504E+01 5.18271E+01-2.88623E-07 3.19065E-01-1.62871E+01-2.46523E-02
 -1       544-8.27674E+01 5.07461E+01-2.95884E-07 3.44679E-01-1.59808E+01-2.78522E-02
 -1       545-8.07971E+01 4.95291E+01-2.84949E-07 3.74340E-01-1.56376E+01-3.09803E-02
 -1       546-7.86852E+01 4.82310E+01-2.65111E-07 4.04616E-01-1.52583E+01-3.40306E-02
 -1       547-7.64289E+01 4.68524E+01-2.43005E-07 4.30024E-01-1.48439E+01-3.69973E-02
 -1       548-7.40286E+01 4.53873E+01-2.20922E-07 4.58735E-01-1.43954E+01-3.98747E-02
 -1       549-7.14682E+01 4.38089E+01-2.01835E-07 4.81087E-01-1.39139E+01-4.26573E-02
 -1       550-6.87761E+01 4.21572E+01-1.76510E-07 5.08805E-01-1.34005E+01-4.53396E-02
 -1       551-6.59720E+01 4.04499E+01-1.35934E-07 5.31966E-01-1.28564E+01-4.79166E-02
 -1       552-6.30082E+01 3.86215E+01-9.03479E-08 5.54354E-01-1.22829E+01-5.03833E-02
 -1       553-5.99431E+01 3.67448E+01-4.62875E-08 5.78496E-01-1.16813E+01-5.27349E-02
 -1       554-5.67648E+01 3.48009E+01-4.51573E-09 5.96454E-01-1.10530E+01-5.49669E-02
 -1       555-5.34666E+01 3.27773E+01 3.46209E-08 6.17078E-01-1.03993E+01-5.70750E-02
 -1       556-5.00680E+01 3.06915E+01 7.32444E-08 6.34976E-01-9.72180E+00-5.90551E-02
 -1       557-4.65732E+01 2.85485E+01 1.05893E-07 6.52973E-01-9.02195E+00-6.09034E-02
 -1       558-4.29966E+01 2.63595E+01 1.27049E-07 6.69120E-01-8.30132E+00-6.26164E-02
 -1       559-3.93334E+01 2.41149E+01 1.41827E-07 6.82063E-01-7.56151E+00-6.41909E-02
 -1       560-3.55867E+01 2.18129E+01 1.53541E-07 6.95949E-01-6.80416E+00-6.56238E-02
 -1       561-3.17813E+01 1.94799E+01 1.62684E-07 7.07600E-01-6.03093E+00-6.69123E-02
 -1       562-2.79229E+01 1.71216E+01 1.69273E-07 7.17901E-01-5.24351E+00-6.80541E-02
 -1       563-2.39975E+01 1.47090E+01 1.73154E-07 7.26471E-01-4.44365E+00-6.90470E-02
 -1       564-2.00374E+01 1.22828E+01 1.78845E-07 7.34639E-01-3.63308E+00-6.98892E-02
 -1       565-1.60418E+01 9.83486E+00 1.83916E-07 7.39625E-01-2.81358E+00-7.05792E-02
 -1       566-1.20140E+01 7.36447E+00 1.86111E-07 7.44281E-01-1.98691E+00-7.11157E-02
 -1       567-7.96916E+00 4.88499E+00 1.86887E-07 7.47102E-01-1.15489E+00-7.14979E-02
 -1       568-3.91223E+00 2.39782E+00 1.85840E-07 7.48548E-01-3.19308E-01-7.17251E-02
 -1       569 1.47603E-01-9.08014E-02 1.85473E-07 7.48298E-01 5.18016E-01-7.17970E-02
 -1       570 4.20198E+00-2.57609E+00 1.83812E-07 7.46748E-01 1.35527E+00-7.17139E-02
 -1       571 8.24330E+00-5.05350E+00 1.80227E-07 7.43289E-01 2.19065E+00-7.14758E-02
 -1       572 1.22634E+01-7.51802E+00 1.75932E-07 7.38576E-01 3.02236E+00-7.10836E-02
 -1       573 1.62549E+01-9.96693E+00 1.73432E-07 7.32248E-01 3.84860E+00-7.05381E-02
 -1       574 2.02035E+01-1.23840E+01 1.74374E-07 7.24286E-01 4.66759E+00-6.98409E-02
 -1       575 2.41092E+01-1.47787E+01 1.77038E-07 7.15856E-01 5.47756E+00-6.89934E-02
 -1       576 2.79629E+01-1.71438E+01 1.82627E-07 7.04478E-01 6.27678E+00-6.79974E-02
 -1       577 3.17538E+01-1.94680E+01 1.87543E-07 6.92357E-01 7.06353E+00-6.68553E-02
 -1       578 3.54680E+01-2.17417E+01 1.88809E-07 6.79129E-01 7.83612E+00-6.55697E-02
 -1       579 3.91109E+01-2.39746E+01 1.88789E-07 6.62728E-01 8.59288E+00-6.41433E-02
 -1       580 4.26761E+01-2.61667E+01 1.86879E-07 6.48216E-01 9.33219E+00-6.25791E-02
 -1       581 4.61303E+01-2.82767E+01 1.79037E-07 6.30203E-01 1.00525E+01-6.08807E-02
 -1       582 4.94979E+01-3.03428E+01 1.61514E-07 6.10282E-01 1.07522E+01-5.90517E-02
 -1       583 5.27616E+01-3.23465E+01 1.37218E-07 5.90530E-01 1.14298E+01-5.70959E-02
 -1       584 5.59059E+01-3.42743E+01 1.09243E-07 5.69012E-01 1.20839E+01-5.50177E-02
 -1       585 5.89299E+01-3.61245E+01 8.53823E-08 5.45932E-01 1.27130E+01-5.28215E-02
 -1       586 6.18291E+01-3.79008E+01 7.23425E-08 5.23379E-01 1.33159E+01-5.05118E-02
 -1       587 6.46045E+01-3.96094E+01 5.75978E-08 4.97736E-01 1.38912E+01-4.80938E-02
 -1       588 6.72352E+01-4.12186E+01 3.47140E-08 4.71492E-01 1.44376E+01-4.55724E-02
 -1       589 6.97137E+01-4.27317E+01 9.46655E-09 4.46585E-01 1.49541E+01-4.29532E-02
 -1       590 7.20611E+01-4.41751E+01-1.60571E-08 4.15485E-01 1.54395E+01-4.02415E-02
 -1       591 7.42610E+01-4.55322E+01-4.29623E-08 3.90276E-01 1.58927E+01-3.74432E-02
 -1       592 7.62741E+01-4.67539E+01-7.14333E-08 3.60237E-01 1.63128E+01-3.45643E-02
 -1       593 7.81493E+01-4.79066E+01-8.62290E-08 3.28731E-01 1.66989E+01-3.16108E-02
 -1       594 7.98568E+01-4.89569E+01-8.79112E-08 2.98500E-01 1.70501E+01-2.85889E-02
 -1       595 8.13976E+01-4.99031E+01-8.45770E-08 2.65786E-01 1.73657E+01-2.55049E-02
 -1       596 8.27531E+01-5.07282E+01-7.27581E-08 2.37717E-01 1.76450E+01-2.23656E-02
 -1       597 8.39380E+01-5.14516E+01-6.68972E-08 2.01995E-01 1.78874E+01-1.91775E-02
 -1       598 8.49706E+01-5.20995E+01-6.81861E-08 1.70118E-01 1.80923E+01-1.59471E-02
 -1       599 8.57841E+01-5.25832E+01-7.07554E-08 1.37603E-01 1.82593E+01-1.26815E-02
 -1       600 8.64421E+01-5.29886E+01-8.35387E-08 1.01205E-01 1.83881E+01-9.38749E-03
 -1       601 8.69270E+01-5.32970E+01-1.01779E-07 7.14386E-02 1.84783E+01-6.07188E-03
 -1       602 8.72034E+01-5.34576E+01-1.11043E-07 3.52249E-02 1.85297E+01-2.74174E-03
 -1       603 8.73051E+01-5.35154E+01-1.12745E-07 4.01536E-03 1.85422E+01 5.95901E-04
 -1       604 8.72334E+01-5.34782E+01-1.18547E-07-3.23458E-02 1.85158E+01 3.93405E-03
 -1       605 8.69719E+01-5.33180E+01-1.30310E-07-6.53083E-02 1.84505E+01 7.26570E-03
 -1       606 8.65350E+01-5.30528E+01-1.43024E-07-1.00426E-01 1.83464E+01 1.05839E-02
 -1       607 8.59003E+01-5.26573E+01-1.49164E-07-1.29573E-01 1.82036E+01 1.38817E-02
 -1       608 8.50904E+01-5.21579E+01-1.52563E-07-1.66054E-01 1.80226E+01 1.71521E-02
 -1       609 8.41272E+01-5.15823E+01-1.60999E-07-1.97888E-01 1.78036E+01 2.03883E-02
 -1       610 8.29479E+01-5.08447E+01-1.59581E-07-2.29283E-01 1.75471E+01 2.35835E-02
 -1       611 8.16199E+01-5.00333E+01-1.34516E-07-2.64079E-01 1.72535E+01 2.67310E-02
 -1       612 8.01249E+01-4.91229E+01-8.86557E-08-2.91469E-01 1.69236E+01 2.98243E-02
 -1       613 7.84487E+01-4.80929E+01-3.40440E-08-3.23529E-01 1.65579E+01 3.28569E-02
 -1       614 7.66143E+01-4.69686E+01 6.17094E-09-3.52736E-01 1.61572E+01 3.58225E-02
 -1       615 7.46097E+01-4.57310E+01 2.54907E-08-3.83770E-01 1.57224E+01 3.87148E-02
 -1       616 7.24770E+01-4.44360E+01 3.85750E-08-4.11347E-01 1.52542E+01 4.15278E-02
 -1       617 7.01679E+01-4.30149E+01 5.12398E-08-4.36114E-01 1.47538E+01 4.42558E-02
 -1       618 6.77155E+01-4.15082E+01 6.27281E-08-4.65125E-01 1.42220E+01 4.68929E-02
 -1       619 6.51384E+01-3.99351E+01 7.45770E-08-4.89853E-01 1.36601E+01 4.94337E-02
 -1       620 6.24143E+01-3.82642E+01 8.34664E-08-5.14263E-01 1.30690E+01 5.18730E-02
 -1       621 5.95553E+01-3.65067E+01 8.66724E-08-5.36993E-01 1.24502E+01 5.42057E-02
 -1       622 5.65833E+01-3.46856E+01 8.19175E-08-5.61208E-01 1.18047E+01 5.64269E-02
 -1       623 5.34968E+01-3.27977E+01 6.71472E-08-5.79524E-01 1.11341E+01 5.85321E-02
 -1       624 5.02921E+01-3.08315E+01 5.26243E-08-6.00239E-01 1.04395E+01 6.05169E-02
 -1       625 4.69851E+01-2.88025E+01 4.72089E-08-6.18146E-01 9.72257E+00 6.23774E-02
 -1       626 4.35815E+01-2.67141E+01 4.89240E-08-6.36094E-01 8.98464E+00 6.41095E-02
 -1       627 4.01004E+01-2.45865E+01 5.56570E-08-6.52036E-01 8.22727E+00 6.57098E-02
 -1       628 3.65235E+01-2.23896E+01 6.42627E-08-6.64677E-01 7.45202E+00 6.71752E-02
 -1       629 3.28749E+01-2.01507E+01 7.14008E-08-6.79131E-01 6.66047E+00 6.85025E-02
 -1       630 2.91693E+01-1.78823E+01 7.70440E-08-6.89607E-01 5.85426E+00 6.96890E-02
 -1       631 2.53999E+01-1.55723E+01 7.94638E-08-6.99867E-01 5.03503E+00 7.07325E-02
 -1       632 2.15796E+01-1.32281E+01 7.94265E-08-7.08414E-01 4.20447E+00 7.16310E-02
 -1       633 1.77191E+01-1.08613E+01 7.88596E-08-7.14957E-01 3.36430E+00 7.23826E-02
 -1       634 1.38277E+01-8.47790E+00 7.77861E-08-7.20478E-01 2.51621E+00 7.29858E-02
 -1       635 9.90752E+00-6.07291E+00 7.75769E-08-7.24177E-01 1.66196E+00 7.34397E-02
 -1       636 5.97263E+00-3.66079E+00 7.60501E-08-7.26563E-01 8.03286E-01 7.37434E-02
 -1       637 2.03110E+00-1.24541E+00 7.36596E-08-7.27199E-01-5.80510E-02 7.38964E-02
 -1       638-1.91259E+00 1.17339E+00 6.96671E-08-7.26281E-01-9.20292E-01 7.38986E-02
 -1       639-5.84437E+00 3.58271E+00 6.45311E-08-7.23861E-01-1.78168E+00 7.37502E-02
 -1       640-9.76031E+00 5.98365E+00 6.18776E-08-7.19646E-01-2.64047E+00 7.34517E-02
 -1       641-1.36499E+01 8.36808E+00 5.33746E-08-7.14119E-01-3.49490E+00 7.30039E-02
 -1       642-1.75065E+01 1.07344E+01 3.98304E-08-7.06886E-01-4.34324E+00 7.24081E-02
 -1       643-2.13152E+01 1.30659E+01 2.98364E-08-6.97985E-01-5.18378E+00 7.16656E-02
 -1       644-2.50750E+01 1.53701E+01 2.24695E-08-6.88641E-01-6.01480E+00 7.07783E-02
 -1       645-2.87824E+01 1.76489E+01 1.71482E-08-6.76197E-01-6.83464E+00 6.97482E-02
 -1       646-3.24098E+01 1.98669E+01 1.78860E-08-6.63436E-01-7.64164E+00 6.85779E-02
 -1       647-3.59676E+01 2.20488E+01 2.25052E-08-6.48057E-01-8.43419E+00 6.72701E-02
 -1       648-3.94461E+01 2.41833E+01 2.72392E-08-6.31567E-01-9.21069E+00 6.58277E-02
 -1       649-4.28312E+01 2.62597E+01 2.83046E-08-6.15600E-01-9.96959E+00 6.42542E-02
 -1       650-4.61092E+01 2.82652E+01 1.75995E-08-5.96347E-01-1.07094E+01 6.25532E-02
 -1       651-4.92891E+01 3.02141E+01 2.32561E-10-5.75322E-01-1.14286E+01 6.07286E-02
 -1       652-5.23627E+01 3.21058E+01-1.44538E-08-5.54072E-01-1.21259E+01 5.87845E-02
 -1       653-5.53011E+01 3.38993E+01-2.54154E-08-5.31070E-01-1.27998E+01 5.67254E-02
 -1       654-5.81211E+01 3.56295E+01-4.07089E-08-5.08196E-01-1.34490E+01 5.45561E-02
 -1       655-6.08097E+01 3.72797E+01-5.78649E-08-4.82292E-01-1.40723E+01 5.22815E-02
 -1       656-6.33634E+01 3.88509E+01-6.90092E-08-4.56118E-01-1.46684E+01 4.99068E-02
 -1       657-6.57517E+01 4.03036E+01-8.54341E-08-4.28937E-01-1.52364E+01 4.74375E-02
 -1       658-6.80056E+01 4.16858E+01-1.11953E-07-3.99604E-01-1.57749E+01 4.48792E-02
 -1       659-7.01126E+01 4.29882E+01-1.43816E-07-3.72588E-01-1.62832E+01 4.22376E-02
 -1       660-7.20411E+01 4.41661E+01-1.79424E-07-3.41092E-01-1.67602E+01 3.95191E-02
 -1       661-7.38057E+01 4.52443E+01-2.13867E-07-3.10980E-01-1.72050E+01 3.67297E-02
 -1       662-7.54027E+01 4.62216E+01-2.33902E-07-2.77832E-01-1.76169E+01 3.38760E-02
 -1       663-7.68389E+01 4.71132E+01-2.38291E-07-2.45807E-01-1.79952E+01 3.09644E-02
 -1       664-7.80740E+01 4.78592E+01-2.34338E-07-2.12228E-01-1.83392E+01 2.80018E-02
 -1       665-7.91401E+01 4.85146E+01-2.14322E-07-1.79946E-01-1.86484E+01 2.49950E-02
 -1       666-8.00247E+01 4.90613E+01-1.78173E-07-1.44677E-01-1.89223E+01 2.19510E-02
 -1       667-8.07213E+01 4.94896E+01-1.41096E-07-1.10096E-01-1.91604E+01 1.88768E-02
 -1       668-8.12146E+01 4.97857E+01-1.09946E-07-7.56620E-02-1.93626E+01 1.57798E-02
 -1       669-8.15277E+01 4.99758E+01-8.35925E-08-3.73438E-02-1.95286E+01 1.26673E-02
 -1       670-8.16670E+01 5.00784E+01-5.57329E-08-5.09112E-03-1.96582E+01 9.54633E-03
 -1       671-8.15658E+01 4.99958E+01-1.85915E-08 3.21104E-02-1.97513E+01 6.42462E-03
 -1       672-8.13014E+01 4.98378E+01 2.62480E-08 6.81705E-02-1.98081E+01 3.30958E-03
 -1       673-8.08445E+01 4.95678E+01 8.16379E-08 1.04647E-01-1.98286E+01 2.08597E-04
 -1       674-8.01810E+01 4.91576E+01 1.47108E-07 1.42081E-01-1.98131E+01-2.87080E-03
 -1       675-7.93164E+01 4.86233E+01 2.13337E-07 1.74343E-01-1.97618E+01-5.92112E-03
 -1       676-7.82587E+01 4.79736E+01 2.65627E-07 2.13456E-01-1.96751E+01-8.93476E-03
 -1       677-7.70208E+01 4.72220E+01 2.85408E-07 2.48390E-01-1.95535E+01-1.19044E-02
 -1       678-7.55758E+01 4.63347E+01 2.75064E-07 2.84076E-01-1.93975E+01-1.48226E-02
 -1       679-7.39377E+01 4.53263E+01 2.52342E-07 3.19746E-01-1.92079E+01-1.76820E-02
 -1       680-7.21134E+01 4.42067E+01 2.29323E-07 3.53179E-01-1.89853E+01-2.04752E-02
 -1       681-7.01120E+01 4.29902E+01 2.07880E-07 3.88540E-01-1.87305E+01-2.31951E-02
 -1       682-6.79044E+01 4.16268E+01 1.88394E-07 4.21571E-01-1.84444E+01-2.58345E-02
 -1       683-6.55258E+01 4.01695E+01 1.70349E-07 4.56164E-01-1.81280E+01-2.83863E-02
 -1       684-6.29750E+01 3.86133E+01 1.47715E-07 4.88569E-01-1.77825E+01-3.08437E-02
 -1       685-6.02379E+01 3.69308E+01 1.12215E-07 5.21968E-01-1.74088E+01-3.32000E-02
 -1       686-5.73261E+01 3.51422E+01 6.77926E-08 5.49617E-01-1.70083E+01-3.54483E-02
 -1       687-5.42526E+01 3.32610E+01 2.27083E-08 5.83108E-01-1.65822E+01-3.75821E-02
 -1       688-5.10234E+01 3.12876E+01-2.39775E-08 6.12193E-01-1.61319E+01-3.95953E-02
 -1       689-4.76136E+01 2.91891E+01-5.88967E-08 6.40886E-01-1.56588E+01-4.14815E-02
 -1       690-4.40636E+01 2.70148E+01-7.34554E-08 6.70510E-01-1.51645E+01-4.32347E-02
 -1       691-4.03654E+01 2.47513E+01-8.11102E-08 6.95716E-01-1.46506E+01-4.48492E-02
 -1       692-3.65134E+01 2.23882E+01-8.93568E-08 7.22780E-01-1.41187E+01-4.63192E-02
 -1       693-3.25259E+01 1.99431E+01-9.80382E-08 7.47647E-01-1.35705E+01-4.76394E-02
 -1       694-2.84022E+01 1.74144E+01-1.06431E-07 7.72464E-01-1.30077E+01-4.88045E-02
 -1       695-2.41558E+01 1.48142E+01-1.08891E-07 7.95802E-01-1.24324E+01-4.98094E-02
 -1       696-1.97814E+01 1.21317E+01-1.02590E-07 8.17098E-01-1.18462E+01-5.06494E-02
 -1       697-1.52887E+01 9.37717E+00-9.50511E-08 8.38429E-01-1.12513E+01-5.13199E-02
 -1       698-1.06876E+01 6.55647E+00-9.27538E-08 8.58747E-01-1.06495E+01-5.18165E-02
 -1       699-5.98061E+00 3.67181E+00-9.24530E-08 8.77301E-01-1.00429E+01-5.21349E-02
 -1       700-1.17487E+00 7.26426E-01-9.09298E-08 8.95141E-01-9.43375E+00-5.22715E-02
 -1       701 3.72662E+00-2.27901E+00-8.74118E-08 9.11764E-01-8.82405E+00-5.22224E-02
 -1       702 8.71147E+00-5.33351E+00-7.90876E-08 9.27198E-01-8.21602E+00-5.19841E-02
 -1       703 1.37840E+01-8.44517E+00-6.98292E-08 9.41570E-01-7.61188E+00-5.15536E-02
 -1       704 1.89224E+01-1.15917E+01-6.31957E-08 9.55169E-01-7.01390E+00-5.09277E-02
 -1       705 2.41388E+01-1.47909E+01-5.47159E-08 9.66909E-01-6.42437E+00-5.01038E-02
 -1       706 2.94129E+01-1.80229E+01-4.31133E-08 9.77809E-01-5.84562E+00-4.90792E-02
 -1       707 3.47559E+01-2.13022E+01-3.24860E-08 9.89076E-01-5.28001E+00-4.78517E-02
 -1       708 4.01278E+01-2.45879E+01-2.35417E-08 9.97964E-01-4.72991E+00-4.64191E-02
 -1       709 4.55734E+01-2.79301E+01-1.53312E-08 1.00522E+00-4.19773E+00-4.47796E-02
 -1       710 5.10403E+01-3.12813E+01-8.34487E-09 1.01277E+00-3.68589E+00-4.29314E-02
 -1       711 5.65661E+01-3.46717E+01-2.28429E-09 1.01845E+00-3.19683E+00-4.08731E-02
 -1       712 6.20812E+01-3.80390E+01 3.24690E-09 1.02493E+00-2.73302E+00-3.86034E-02
 -1       713 6.76849E+01-4.14887E+01 1.12674E-08 1.02947E+00-2.29692E+00-3.61211E-02
 -1       714 7.32467E+01-4.48898E+01 2.22637E-08 1.03287E+00-1.89102E+00-3.34253E-02
 -1       715 7.88955E+01-4.83613E+01 3.50282E-08 1.03631E+00-1.51783E+00-3.05152E-02
 -1       716 8.44614E+01-5.17512E+01 5.04865E-08 1.03630E+00-1.17983E+00-2.73902E-02
 -1       717 9.01809E+01-5.52813E+01 6.60269E-08 1.04214E+00-8.79547E-01-2.40496E-02
 -1       718 9.57870E+01-5.87500E+01 8.09812E-08 1.03998E+00-6.19490E-01-2.04933E-02
 -1       719 1.01239E+02-6.18112E+01 9.64907E-08 1.05136E+00-4.02183E-01-1.67209E-02
 -1       720 1.08005E+02-6.71346E+01 1.12168E-07 1.00535E+00-2.30143E-01-1.27316E-02
 -1       721 1.09223E+02-6.34545E+01 1.24688E-07 1.18161E+00-1.05901E-01-8.52832E-03
 -1       722 1.31553E+02-9.34369E+01 1.58007E-07 5.30864E-01-3.19823E-02-4.09927E-03
 -1       723 7.63100E+01-3.72837E-02 1.86803E-07 2.91918E+00-7.91065E-03-1.82462E-03
 -1       724-3.26411E-02 4.07136E-03-8.09942E-09-1.74552E-04-2.56316E+01-1.03077E-01
 -1       725-1.55200E-01 7.97018E-02-2.30205E-08-4.68956E-02-2.50303E+01-1.03074E-01
 -1       726-5.28352E-01 3.08871E-01-3.68740E-08-9.14313E-02-2.38279E+01-1.03060E-01
 -1       727-1.13893E+00 6.84201E-01-3.04746E-08-1.33852E-01-2.26258E+01-1.03028E-01
 -1       728-1.97156E+00 1.19474E+00-1.73297E-08-1.73769E-01-2.14242E+01-1.02968E-01
 -1       729-3.01919E+00 1.83897E+00 6.16604E-09-2.12001E-01-2.02235E+01-1.02872E-01
 -1       730-4.26070E+00 2.59797E+00 2.96674E-08-2.47751E-01-1.90241E+01-1.02732E-01
 -1       731-5.69881E+00 3.48328E+00 4.12980E-08-2.81020E-01-1.78267E+01-1.02541E-01
 -1       732-7.30530E+00 4.46618E+00 4.92236E-08-3.12908E-01-1.66319E+01-1.02292E-01
 -1       733-9.08098E+00 5.55640E+00 5.02082E-08-3.41516E-01-1.54403E+01-1.01978E-01
 -1       734-1.10109E+01 6.74123E+00 4.11915E-08-3.68945E-01-1.42528E+01-1.01594E-01
 -1       735-1.30721E+01 8.00120E+00 2.38808E-08-3.94588E-01-1.30702E+01-1.01133E-01
 -1       736-1.52756E+01 9.35626E+00 2.71447E-09-4.15419E-01-1.18935E+01-1.00590E-01
 -1       737-1.75913E+01 1.07772E+01-1.48510E-08-4.38496E-01-1.07235E+01-9.99615E-02
 -1       738-2.00049E+01 1.22526E+01-3.17396E-08-4.54581E-01-9.56149E+00-9.92423E-02
 -1       739-2.25269E+01 1.38004E+01-4.82816E-08-4.71720E-01-8.40838E+00-9.84285E-02
 -1       740-2.51284E+01 1.54020E+01-6.02916E-08-4.88152E-01-7.26533E+00-9.75168E-02
 -1       741-2.77866E+01 1.70195E+01-6.11481E-08-4.97033E-01-6.13350E+00-9.65046E-02
 -1       742-3.05330E+01 1.87164E+01-6.03780E-08-5.09774E-01-5.01407E+00-9.53888E-02
 -1       743-3.33020E+01 2.04052E+01-6.43144E-08-5.15545E-01-3.90828E+00-9.41677E-02
 -1       744-3.61302E+01 2.21439E+01-6.61849E-08-5.22961E-01-2.81736E+00-9.28396E-02
 -1       745-3.89776E+01 2.38924E+01-6.82650E-08-5.28444E-01-1.74256E+00-9.14030E-02
 -1       746-4.18279E+01 2.56273E+01-7.22574E-08-5.28559E-01-6.85154E-01-8.98574E-02
 -1       747-4.47196E+01 2.74172E+01-7.43498E-08-5.29523E-01 3.53579E-01-8.82018E-02
 -1       748-4.75733E+01 2.91543E+01-7.07481E-08-5.27530E-01 1.37236E+00-8.64366E-02
 -1       749-5.04350E+01 3.09149E+01-6.54637E-08-5.25064E-01 2.36991E+00-8.45620E-02
 -1       750-5.32631E+01 3.26472E+01-5.86271E-08-5.19765E-01 3.34495E+00-8.25786E-02
 -1       751-5.60567E+01 3.43572E+01-4.87487E-08-5.11819E-01 4.29623E+00-8.04876E-02
 -1       752-5.88206E+01 3.60570E+01-3.74762E-08-5.02551E-01 5.22249E+00-7.82903E-02
 -1       753-6.15245E+01 3.77148E+01-2.77168E-08-4.94431E-01 6.12250E+00-7.59887E-02
 -1       754-6.41591E+01 3.93250E+01-1.91546E-08-4.81872E-01 6.99507E+00-7.35848E-02
 -1       755-6.67345E+01 4.09036E+01-8.75503E-09-4.67164E-01 7.83901E+00-7.10812E-02
 -1       756-6.92411E+01 4.24501E+01 1.92302E-09-4.52659E-01 8.65317E+00-6.84806E-02
 -1       757-7.16410E+01 4.39104E+01 8.03128E-09-4.35573E-01 9.43645E+00-6.57861E-02
 -1       758-7.39637E+01 4.53403E+01 3.22339E-09-4.18983E-01 1.01878E+01-6.30013E-02
 -1       759-7.61785E+01 4.66958E+01-6.10124E-09-3.98341E-01 1.09061E+01-6.01297E-02
 -1       760-7.82910E+01 4.79930E+01-1.03298E-08-3.79237E-01 1.15904E+01-5.71753E-02
 -1       761-8.02803E+01 4.92116E+01-1.21366E-08-3.57543E-01 1.22398E+01-5.41425E-02
 -1       762-8.21525E+01 5.03558E+01-1.03541E-08-3.31568E-01 1.28534E+01-5.10358E-02
 -1       763-8.39078E+01 5.14391E+01-4.84419E-09-3.11449E-01 1.34303E+01-4.78597E-02
 -1       764-8.55180E+01 5.24257E+01 6.47254E-09-2.84905E-01 1.39698E+01-4.46195E-02
 -1       765-8.69872E+01 5.33210E+01 2.65351E-08-2.59693E-01 1.44711E+01-4.13202E-02
 -1       766-8.83179E+01 5.41350E+01 5.66457E-08-2.31341E-01 1.49337E+01-3.79673E-02
 -1       767-8.95163E+01 5.48829E+01 9.95845E-08-2.04424E-01 1.53568E+01-3.45661E-02
 -1       768-9.05357E+01 5.54948E+01 1.40463E-07-1.75306E-01 1.57400E+01-3.11227E-02
 -1       769-9.14140E+01 5.60354E+01 1.71215E-07-1.47961E-01 1.60828E+01-2.76427E-02
 -1       770-9.21365E+01 5.64835E+01 2.00439E-07-1.17410E-01 1.63849E+01-2.41322E-02
 -1       771-9.26955E+01 5.68270E+01 2.28814E-07-8.73396E-02 1.66458E+01-2.05973E-02
 -1       772-9.30783E+01 5.70586E+01 2.53166E-07-5.75798E-02 1.68654E+01-1.70443E-02
 -1       773-9.32980E+01 5.71852E+01 2.75179E-07-2.23846E-02 1.70434E+01-1.34797E-02
 -1       774-9.33721E+01 5.72456E+01 3.03164E-07 2.76076E-03 1.71799E+01-9.90950E-03
 -1       775-9.32420E+01 5.71568E+01 3.24246E-07 3.60188E-02 1.72747E+01-6.34053E-03
 -1       776-9.29590E+01 5.69829E+01 3.21213E-07 6.91909E-02 1.73278E+01-2.77927E-03
 -1       777-9.25086E+01 5.67123E+01 3.07992E-07 1.00110E-01 1.73396E+01 7.67868E-04
 -1       778-9.18829E+01 5.63292E+01 2.95796E-07 1.33286E-01 1.73100E+01 4.29429E-03
 -1       779-9.10770E+01 5.58295E+01 2.89657E-07 1.60583E-01 1.72395E+01 7.79344E-03
 -1       780-9.01028E+01 5.52309E+01 2.88481E-07 1.95342E-01 1.71283E+01 1.12587E-02
 -1       781-8.89753E+01 5.45474E+01 2.82372E-07 2.25549E-01 1.69770E+01 1.46836E-02
 -1       782-8.76686E+01 5.37460E+01 2.74669E-07 2.56476E-01 1.67859E+01 1.80618E-02
 -1       783-8.61847E+01 5.28299E+01 2.75609E-07 2.85984E-01 1.65557E+01 2.13868E-02
 -1       784-8.45504E+01 5.18271E+01 2.88623E-07 3.19065E-01 1.62871E+01 2.46523E-02
 -1       785-8.27674E+01 5.07461E+01 2.95884E-07 3.44679E-01 1.59808E+01 2.78522E-02
 -1       786-8.07971E+01 4.95291E+01 2.84949E-07 3.74339E-01 1.56376E+01 3.09803E-02
 -1       787-7.86852E+01 4.82310E+01 2.65111E-07 4.04616E-01 1.52583E+01 3.40306E-02
 -1       788-7.64289E+01 4.68524E+01 2.43005E-07 4.30024E-01 1.48439E+01 3.69973E-02
 -1       789-7.40286E+01 4.53873E+01 2.20922E-07 4.58735E-01 1.43954E+01 3.98747E-02
 -1       790-7.14682E+01 4.38089E+01 2.01835E-07 4.81087E-01 1.39139E+01 4.26573E-02
 -1       791-6.87761E+01 4.21572E+01 1.76510E-07 5.08805E-01 1.34005E+01 4.53396E-02
 -1       792-6.59720E+01 4.04499E+01 1.35934E-07 5.31966E-01 1.28564E+01 4.79166E-02
 -1       793-6.30082E+01 3.86215E+01 9.03479E-08 5.54354E-01 1.22829E+01 5.03833E-02
 -1       794-5.99431E+01 3.67448E+01 4.62875E-08 5.78495E-01 1.16813E+01 5.27349E-02
 -1       795-5.67648E+01 3.48009E+01 4.51573E-09 5.96453E-01 1.10530E+01 5.49669E-02
 -1       796-5.34666E+01 3.27773E+01-3.46209E-08 6.17078E-01 1.03993E+01 5.70750E-02
 -1       797-5.00680E+01 3.06915E+01-7.32444E-08 6.34976E-01 9.72180E+00 5.90551E-02
 -1       798-4.65732E+01 2.85485E+01-1.05893E-07 6.52973E-01 9.02195E+00 6.09034E-02
 -1       799-4.29966E+01 2.63595E+01-1.27049E-07 6.69120E-01 8.30132E+00 6.26164E-02
 -1       800-3.93334E+01 2.41149E+01-1.41827E-07 6.82063E-01 7.56151E+00 6.41909E-02
 -1       801-3.55867E+01 2.18129E+01-1.53541E-07 6.95949E-01 6.80416E+00 6.56238E-02
 -1       802-3.17813E+01 1.94799E+01-1.62684E-07 7.07600E-01 6.03092E+00 6.69123E-02
 -1       803-2.79229E+01 1.71216E+01-1.69273E-07 7.17900E-01 5.24351E+00 6.80540E-02
 -1       804-2.39975E+01 1.47090E+01-1.73154E-07 7.26471E-01 4.44365E+00 6.90470E-02
 -1       805-2.00374E+01 1.22828E+01-1.78845E-07 7.34639E-01 3.63308E+00 6.98892E-02
 -1       806-1.60418E+01 9.83486E+00-1.83916E-07 7.39625E-01 2.81358E+00 7.05791E-02
 -1       807-1.20140E+01 7.36447E+00-1.86111E-07 7.44281E-01 1.98691E+00 7.11157E-02
 -1       808-7.96915E+00 4.88499E+00-1.86887E-07 7.47102E-01 1.15489E+00 7.14979E-02
 -1       809-3.91222E+00 2.39782E+00-1.85840E-07 7.48548E-01 3.19307E-01 7.17251E-02
 -1       810 1.47604E-01-9.08017E-02-1.85473E-07 7.48298E-01-5.18016E-01 7.17970E-02
 -1       811 4.20198E+00-2.57609E+00-1.83812E-07 7.46748E-01-1.35527E+00 7.17139E-02
 -1       812 8.24330E+00-5.05351E+00-1.80227E-07 7.43289E-01-2.19065E+00 7.14758E-02
 -1       813 1.22634E+01-7.51803E+00-1.75932E-07 7.38576E-01-3.02236E+00 7.10836E-02
 -1       814 1.62549E+01-9.96693E+00-1.73432E-07 7.32248E-01-3.84860E+00 7.05381E-02
 -1       815 2.02035E+01-1.23840E+01-1.74374E-07 7.24286E-01-4.66759E+00 6.98409E-02
 -1       816 2.41092E+01-1.47787E+01-1.77038E-07 7.15856E-01-5.47756E+00 6.89934E-02
 -1       817 2.79629E+01-1.71438E+01-1.82627E-07 7.04478E-01-6.27678E+00 6.79974E-02
 -1       818 3.17538E+01-1.94680E+01-1.87543E-07 6.92357E-01-7.06353E+00 6.68553E-02
 -1       819 3.54680E+01-2.17417E+01-1.88809E-07 6.79129E-01-7.83612E+00 6.55697E-02
 -1       820 3.91109E+01-2.39746E+01-1.88789E-07 6.62728E-01-8.59288E+00 6.41433E-02
 -1       821 4.26761E+01-2.61667E+01-1.86879E-07 6.48216E-01-9.33219E+00 6.25791E-02
 -1       822 4.61303E+01-2.82767E+01-1.79037E-07 6.30203E-01-1.00525E+01 6.08807E-02
 -1       823 4.94979E+01-3.03428E+01-1.61514E-07 6.10282E-01-1.07522E+01 5.90517E-02
 -1       824 5.27616E+01-3.23465E+01-1.37218E-07 5.90530E-01-1.14298E+01 5.70959E-02
 -1       825 5.59059E+01-3.42743E+01-1.09243E-07 5.69012E-01-1.20839E+01 5.50177E-02
 -1       826 5.89299E+01-3.61245E+01-8.53823E-08 5.45932E-01-1.27130E+01 5.28215E-02
 -1       827 6.18291E+01-3.79008E+01-7.23425E-08 5.23379E-01-1.33159E+01 5.05118E-02
 -1       828 6.46045E+01-3.96094E+01-5.75978E-08 4.97736E-01-1.38912E+01 4.80938E-02
 -1       829 6.72352E+01-4.12186E+01-3.47140E-08 4.71492E-01-1.44376E+01 4.55724E-02
 -1       830 6.97137E+01-4.27317E+01-9.46655E-09 4.46585E-01-1.49541E+01 4.29532E-02
 -1       831 7.20611E+01-4.41751E+01 1.60571E-08 4.15485E-01-1.54395E+01 4.02415E-02
 -1       832 7.42610E+01-4.55322E+01 4.29623E-08 3.90276E-01-1.58927E+01 3.74432E-02
 -1       833 7.62741E+01-4.67539E+01 7.14333E-08 3.60237E-01-1.63128E+01 3.45643E-02
 -1       834 7.81493E+01-4.79066E+01 8.62290E-08 3.28731E-01-1.66989E+01 3.16108E-02
 -1       835 7.98568E+01-4.89569E+01 8.79112E-08 2.98500E-01-1.70501E+01 2.85889E-02
 -1       836 8.13976E+01-4.99031E+01 8.45770E-08 2.65786E-01-1.73657E+01 2.55049E-02
 -1       837 8.27531E+01-5.07282E+01 7.27581E-08 2.37717E-01-1.76450E+01 2.23656E-02
 -1       838 8.39380E+01-5.14516E+01 6.68972E-08 2.01995E-01-1.78874E+01 1.91775E-02
 -1       839 8.49706E+01-5.20995E+01 6.81861E-08 1.70118E-01-1.80923E+01 1.59471E-02
 -1       840 8.57841E+01-5.25832E+01 7.07554E-08 1.37603E-01-1.82593E+01 1.26815E-02
 -1       841 8.64421E+01-5.29886E+01 8.35387E-08 1.01205E-01-1.83881E+01 9.38749E-03
 -1       842 8.69270E+01-5.32970E+01 1.01779E-07 7.14387E-02-1.84783E+01 6.07188E-03
 -1       843 8.72034E+01-5.34576E+01 1.11043E-07 3.52249E-02-1.85297E+01 2.74174E-03
 -1       844 8.73051E+01-5.35154E+01 1.12745E-07 4.01537E-03-1.85422E+01-5.95902E-04
 -1       845 8.72334E+01-5.34782E+01 1.18547E-07-3.23457E-02-1.85158E+01-3.93406E-03
 -1       846 8.69719E+01-5.33180E+01 1.30310E-07-6.53083E-02-1.84505E+01-7.26570E-03
 -1       847 8.65350E+01-5.30528E+01 1.43024E-07-1.00426E-01-1.83464E+01-1.05839E-02
 -1       848 8.59003E+01-5.26573E+01 1.49164E-07-1.29573E-01-1.82036E+01-1.38817E-02
 -1       849 8.50904E+01-5.21579E+01 1.52563E-07-1.66054E-01-1.80226E+01-1.71521E-02
 -1       850 8.41272E+01-5.15823E+01 1.60999E-07-1.97888E-01-1.78036E+01-2.03883E-02
 -1       851 8.29479E+01-5.08447E+01 1.59581E-07-2.29283E-01-1.75471E+01-2.35835E-02
 -1       852 8.16199E+01-5.00333E+01 1.34516E-07-2.64079E-01-1.72535E+01-2.67310E-02
 -1       853 8.01249E+01-4.91229E+01 8.86557E-08-2.91469E-01-1.69236E+01-2.98243E-02
 -1       854 7.84487E+01-4.80929E+01 3.40440E-08-3.23529E-01-1.65579E+01-3.28570E-02
 -1       855 7.66143E+01-4.69686E+01-6.17094E-09-3.52736E-01-1.61572E+01-3.58225E-02
 -1       856 7.46097E+01-4.57310E+01-2.54907E-08-3.83770E-01-1.57224E+01-3.87148E-02
 -1       857 7.24770E+01-4.44360E+01-3.85750E-08-4.11347E-01-1.52542E+01-4.15278E-02
 -1       858 7.01679E+01-4.30149E+01-5.12398E-08-4.36114E-01-1.47538E+01-4.42558E-02
 -1       859 6.77155E+01-4.15082E+01-6.27281E-08-4.65125E-01-1.42220E+01-4.68929E-02
 -1       860 6.51384E+01-3.99351E+01-7.45770E-08-4.89853E-01-1.36601E+01-4.94337E-02
 -1       861 6.24143E+01-3.82642E+01-8.34664E-08-5.14263E-01-1.30690E+01-5.18730E-02
 -1       862 5.95553E+01-3.65067E+01-8.66724E-08-5.36993E-01-1.24502E+01-5.42057E-02
 -1       863 5.65833E+01-3.46856E+01-8.19175E-08-5.61208E-01-1.18047E+01-5.64269E-02
 -1       864 5.34968E+01-3.27977E+01-6.71472E-08-5.79524E-01-1.11341E+01-5.85321E-02
 -1       865 5.02921E+01-3.08315E+01-5.26243E-08-6.00239E-01-1.04395E+01-6.05169E-02
 -1       866 4.69851E+01-2.88025E+01-4.72089E-08-6.18146E-01-9.72257E+00-6.23774E-02
 -1       867 4.35815E+01-2.67141E+01-4.89240E-08-6.36094E-01-8.98464E+00-6.41095E-02
 -1       868 4.01004E+01-2.45865E+01-5.56570E-08-6.52036E-01-8.22727E+00-6.57098E-02
 -1       869 3.65235E+01-2.23896E+01-6.42627E-08-6.64677E-01-7.45202E+00-6.71752E-02
 -1       870 3.28749E+01-2.01507E+01-7.14008E-08-6.79131E-01-6.66048E+00-6.85025E-02
 -1       871 2.91693E+01-1.78823E+01-7.70440E-08-6.89607E-01-5.85426E+00-6.96890E-02
 -1       872 2.53999E+01-1.55723E+01-7.94638E-08-6.99867E-01-5.03503E+00-7.07326E-02
 -1       873 2.15796E+01-1.32281E+01-7.94265E-08-7.08414E-01-4.20447E+00-7.16310E-02
 -1       874 1.77191E+01-1.08613E+01-7.88596E-08-7.14957E-01-3.36430E+00-7.23826E-02
 -1       875 1.38277E+01-8.47790E+00-7.77861E-08-7.20478E-01-2.51621E+00-7.29858E-02
 -1       876 9.90753E+00-6.07291E+00-7.75769E-08-7.24176E-01-1.66196E+00-7.34397E-02
 -1       877 5.97263E+00-3.66079E+00-7.60501E-08-7.26563E-01-8.03286E-01-7.37434E-02
 -1       878 2.03110E+00-1.24541E+00-7.36596E-08-7.27199E-01 5.80505E-02-7.38964E-02
 -1       879-1.91259E+00 1.17339E+00-6.96671E-08-7.26281E-01 9.20292E-01-7.38986E-02
 -1       880-5.84437E+00 3.58270E+00-6.45311E-08-7.23860E-01 1.78168E+00-7.37502E-02
 -1       881-9.76031E+00 5.98365E+00-6.18776E-08-7.19646E-01 2.64047E+00-7.34517E-02
 -1       882-1.36499E+01 8.36808E+00-5.33746E-08-7.14119E-01 3.49490E+00-7.30039E-02
 -1       883-1.75065E+01 1.07344E+01-3.98304E-08-7.06886E-01 4.34324E+00-7.24080E-02
 -1       884-2.13152E+01 1.30659E+01-2.98364E-08-6.97985E-01 5.18378E+00-7.16656E-02
 -1       885-2.50750E+01 1.53701E+01-2.24695E-08-6.88641E-01 6.01480E+00-7.07783E-02
 -1       886-2.87824E+01 1.76489E+01-1.71482E-08-6.76197E-01 6.83464E+00-6.97482E-02
 -1       887-3.24098E+01 1.98669E+01-1.78860E-08-6.63436E-01 7.64164E+00-6.85779E-02
 -1       888-3.59676E+01 2.20488E+01-2.25052E-08-6.48057E-01 8.43419E+00-6.72701E-02
 -1       889-3.94461E+01 2.41833E+01-2.72392E-08-6.31567E-01 9.21069E+00-6.58277E-02
 -1       890-4.28312E+01 2.62597E+01-2.83046E-08-6.15600E-01 9.96959E+00-6.42542E-02
 -1       891-4.61092E+01 2.82652E+01-1.75995E-08-5.96347E-01 1.07094E+01-6.25532E-02
 -1       892-4.92891E+01 3.02141E+01-2.32561E-10-5.75322E-01 1.14286E+01-6.07286E-02
 -1       893-5.23627E+01 3.21058E+01 1.44538E-08-5.54072E-01 1.21259E+01-5.87845E-02
 -1       894-5.53011E+01 3.38993E+01 2.54154E-08-5.31070E-01 1.27998E+01-5.67254E-02
 -1       895-5.81211E+01 3.56295E+01 4.07089E-08-5.08196E-01 1.34490E+01-5.45561E-02
 -1       896-6.08097E+01 3.72797E+01 5.78649E-08-4.82292E-01 1.40723E+01-5.22815E-02
 -1       897-6.33634E+01 3.88509E+01 6.90092E-08-4.56118E-01 1.46684E+01-4.99068E-02
 -1       898-6.57517E+01 4.03036E+01 8.54341E-08-4.28937E-01 1.52364E+01-4.74375E-02
 -1       899-6.80056E+01 4.16858E+01 1.11953E-07-3.99604E-01 1.57749E+01-4.48792E-02
 -1       900-7.01126E+01 4.29882E+01 1.43816E-07-3.72588E-01 1.62832E+01-4.22376E-02
 -1       901-7.20411E+01 4.41661E+01 1.79424E-07-3.41092E-01 1.67602E+01-3.95191E-02
 -1       902-7.38057E+01 4.52443E+01 2.13867E-07-3.10980E-01 1.72050E+01-3.67297E-02
 -1       903-7.54027E+01 4.62216E+01 2.33902E-07-2.77832E-01 1.76169E+01-3.38760E-02
 -1       904-7.68389E+01 4.71132E+01 2.38291E-07-2.45807E-01 1.79952E+01-3.09644E-02
 -1       905-7.80740E+01 4.78592E+01 2.34338E-07-2.12228E-01 1.83392E+01-2.80018E-02
 -1       906-7.91401E+01 4.85146E+01 2.14322E-07-1.79947E-01 1.86484E+01-2.49950E-02
 -1       907-8.00247E+01 4.90613E+01 1.78173E-07-1.44677E-01 1.89223E+01-2.19510E-02
 -1       908-8.07213E+01 4.94896E+01 1.41096E-07-1.10096E-01 1.91604E+01-1.88768E-02
 -1       909-8.12146E+01 4.97857E+01 1.09946E-07-7.56621E-02 1.93626E+01-1.57798E-02
 -1       910-8.15277E+01 4.99758E+01 8.35925E-08-3.73439E-02 1.95286E+01-1.26673E-02
 -1       911-8.16670E+01 5.00784E+01 5.57329E-08-5.09126E-03 1.96582E+01-9.54634E-03
 -1       912-8.15658E+01 4.99958E+01 1.85915E-08 3.21102E-02 1.97513E+01-6.42463E-03
 -1       913-8.13014E+01 4.98378E+01-2.62480E-08 6.81703E-02 1.98081E+01-3.30959E-03
 -1       914-8.08445E+01 4.95678E+01-8.16379E-08 1.04647E-01 1.98286E+01-2.08606E-04
 -1       915-8.01810E+01 4.91576E+01-1.47108E-07 1.42081E-01 1.98131E+01 2.87079E-03
 -1       916-7.93164E+01 4.86233E+01-2.13337E-07 1.74343E-01 1.97618E+01 5.92111E-03
 -1       917-7.82587E+01 4.79736E+01-2.65627E-07 2.13456E-01 1.96751E+01 8.93476E-03
 -1       918-7.70208E+01 4.72220E+01-2.85408E-07 2.48390E-01 1.95535E+01 1.19044E-02
 -1       919-7.55758E+01 4.63347E+01-2.75064E-07 2.84076E-01 1.93975E+01 1.48226E-02
 -1       920-7.39377E+01 4.53263E+01-2.52342E-07 3.19746E-01 1.92079E+01 1.76820E-02
 -1       921-7.21134E+01 4.42067E+01-2.29323E-07 3.53179E-01 1.89853E+01 2.04752E-02
 -1       922-7.01120E+01 4.29902E+01-2.07880E-07 3.88540E-01 1.87305E+01 2.31951E-02
 -1       923-6.79044E+01 4.16268E+01-1.88394E-07 4.21571E-01 1.84444E+01 2.58345E-02
 -1       924-6.55258E+01 4.01695E+01-1.70349E-07 4.56164E-01 1.81280E+01 2.83863E-02
 -1       925-6.29750E+01 3.86133E+01-1.47715E-07 4.88569E-01 1.77825E+01 3.08437E-02
 -1       926-6.02379E+01 3.69308E+01-1.12215E-07 5.21968E-01 1.74088E+01 3.32000E-02
 -1       927-5.73261E+01 3.51422E+01-6.77926E-08 5.49617E-01 1.70083E+01 3.54483E-02
 -1       928-5.42526E+01 3.32610E+01-2.27083E-08 5.83108E-01 1.65822E+01 3.75821E-02
 -1       929-5.10234E+01 3.12876E+01 2.39775E-08 6.12193E-01 1.61319E+01 3.95953E-02
 -1       930-4.76136E+01 2.91891E+01 5.88967E-08 6.40886E-01 1.56588E+01 4.14815E-02
 -1       931-4.40636E+01 2.70148E+01 7.34554E-08 6.70510E-01 1.51645E+01 4.32347E-02
 -1       932-4.03654E+01 2.47513E+01 8.11102E-08 6.95716E-01 1.46506E+01 4.48492E-02
 -1       933-3.65134E+01 2.23882E+01 8.93568E-08 7.22780E-01 1.41187E+01 4.63192E-02
 -1       934-3.25259E+01 1.99431E+01 9.80382E-08 7.47647E-01 1.35704E+01 4.76394E-02
 -1       935-2.84022E+01 1.74144E+01 1.06431E-07 7.72464E-01 1.30077E+01 4.88045E-02
 -1       936-2.41558E+01 1.48142E+01 1.08891E-07 7.95802E-01 1.24324E+01 4.98094E-02
 -1       937-1.97814E+01 1.21317E+01 1.02590E-07 8.17098E-01 1.18462E+01 5.06494E-02
 -1       938-1.52887E+01 9.37717E+00 9.50511E-08 8.38429E-01 1.12513E+01 5.13199E-02
 -1       939-1.06876E+01 6.55647E+00 9.27538E-08 8.58747E-01 1.06495E+01 5.18165E-02
 -1       940-5.98061E+00 3.67181E+00 9.24530E-08 8.77301E-01 1.00429E+01 5.21349E-02
 -1       941-1.17487E+00 7.26426E-01 9.09298E-08 8.95141E-01 9.43375E+00 5.22715E-02
 -1       942 3.72662E+00-2.27901E+00 8.74118E-08 9.11764E-01 8.82405E+00 5.22224E-02
 -1       943 8.71146E+00-5.33351E+00 7.90876E-08 9.27198E-01 8.21601E+00 5.19841E-02
 -1       944 1.37840E+01-8.44517E+00 6.98292E-08 9.41570E-01 7.61188E+00 5.15536E-02
 -1       945 1.89224E+01-1.15917E+01 6.31957E-08 9.55169E-01 7.01390E+00 5.09277E-02
 -1       946 2.41388E+01-1.47909E+01 5.47159E-08 9.66909E-01 6.42437E+00 5.01038E-02
 -1       947 2.94129E+01-1.80229E+01 4.31133E-08 9.77809E-01 5.84562E+00 4.90792E-02
 -1       948 3.47559E+01-2.13022E+01 3.24860E-08 9.89076E-01 5.28001E+00 4.78517E-02
 -1       949 4.01278E+01-2.45879E+01 2.35417E-08 9.97964E-01 4.72991E+00 4.64191E-02
 -1       950 4.55734E+01-2.79301E+01 1.53312E-08 1.00522E+00 4.19773E+00 4.47796E-02
 -1       951 5.10403E+01-3.12813E+01 8.34487E-09 1.01277E+00 3.68589E+00 4.29314E-02
 -1       952 5.65661E+01-3.46717E+01 2.28429E-09 1.01845E+00 3.19683E+00 4.08731E-02
 -1       953 6.20812E+01-3.80390E+01-3.24690E-09 1.02493E+00 2.73302E+00 3.86034E-02
 -1       954 6.76849E+01-4.14887E+01-1.12674E-08 1.02947E+00 2.29692E+00 3.61211E-02
 -1       955 7.32467E+01-4.48898E+01-2.22637E-08 1.03287E+00 1.89102E+00 3.34253E-02
 -1       956 7.88955E+01-4.83613E+01-3.50282E-08 1.03631E+00 1.51783E+00 3.05152E-02
 -1       957 8.44614E+01-5.17512E+01-5.04865E-08 1.03630E+00 1.17983E+00 2.73902E-02
 -1       958 9.01809E+01-5.52813E+01-6.60269E-08 1.04214E+00 8.79547E-01 2.40496E-02
 -1       959 9.57870E+01-5.87500E+01-8.09812E-08 1.03998E+00 6.19490E-01 2.04933E-02
 -1       960 1.01239E+02-6.18112E+01-9.64907E-08 1.05136E+00 4.02183E-01 1.67209E-02
 -1       961 1.08005E+02-6.71346E+01-1.12168E-07 1.00535E+00 2.30143E-01 1.27316E-02
 -1       962 1.09223E+02-6.34545E+01-1.24688E-07 1.18161E+00 1.05901E-01 8.52832E-03
 -1       963 1.31553E+02-9.34369E+01-1.58007E-07 5.30864E-01 3.19823E-02 4.09927E-03
 -1       964 7.63100E+01-3.72837E-02-1.86803E-07 2.91918E+00 7.91065E-03 1.82462E-03
 -1       965-2.54743E-06 3.00164E-07-1.71877E-09-6.40220E-03 2.56316E+01 8.24468E-06
 -1       966-1.24449E-05 6.41285E-06 2.27534E-09-6.40528E-02 2.50303E+01 8.24441E-06
 -1       967-4.22626E-05 2.46957E-05 1.74395E-09-1.25844E-01 2.38279E+01 8.24333E-06
 -1       968-9.11883E-05 5.48330E-05-2.90012E-09-1.83513E-01 2.26258E+01 8.24075E-06
 -1       969-1.57690E-04 9.55479E-05-5.27602E-11-2.39370E-01 2.14242E+01 8.23593E-06
 -1       970-2.41506E-04 1.47085E-04-4.46188E-10-2.90946E-01 2.02235E+01 8.22824E-06
 -1       971-3.40960E-04 2.07992E-04-2.84282E-09-3.40188E-01 1.90242E+01 8.21706E-06
 -1       972-4.55760E-04 2.78512E-04-4.47384E-10-3.87191E-01 1.78267E+01 8.20179E-06
 -1       973-5.84479E-04 3.57395E-04-9.36460E-10-4.28874E-01 1.66319E+01 8.18188E-06
 -1       974-7.26364E-04 4.44426E-04 3.05422E-10-4.70898E-01 1.54403E+01 8.15680E-06
 -1       975-8.80718E-04 5.39153E-04 2.82650E-09-5.06693E-01 1.42528E+01 8.12602E-06
 -1       976-1.04588E-03 6.40318E-04-1.01996E-10-5.40463E-01 1.30702E+01 8.08914E-06
 -1       977-1.22193E-03 7.48415E-04-1.26315E-09-5.74586E-01 1.18935E+01 8.04573E-06
 -1       978-1.40682E-03 8.61653E-04 1.58245E-10-5.98872E-01 1.07236E+01 7.99542E-06
 -1       979-1.60061E-03 9.80572E-04-2.57701E-10-6.27530E-01 9.56150E+00 7.93787E-06
 -1       980-1.80209E-03 1.10411E-03-7.73252E-10-6.50187E-01 8.40840E+00 7.87276E-06
 -1       981-2.00954E-03 1.23129E-03 8.59496E-10-6.65653E-01 7.26535E+00 7.79984E-06
 -1       982-2.22344E-03 1.36244E-03-8.80823E-10-6.87393E-01 6.13351E+00 7.71886E-06
 -1       983-2.44186E-03 1.49642E-03-1.81017E-09-6.98711E-01 5.01409E+00 7.62962E-06
 -1       984-2.66417E-03 1.63263E-03 4.14512E-10-7.10543E-01 3.90829E+00 7.53195E-06
 -1       985-2.89005E-03 1.77122E-03-1.74002E-09-7.20796E-01 2.81737E+00 7.42570E-06
 -1       986-3.11751E-03 1.91065E-03-3.03161E-09-7.20654E-01 1.74257E+00 7.31080E-06
 -1       987-3.34678E-03 2.05117E-03 5.01049E-10-7.30039E-01 6.85161E-01 7.18716E-06
 -1       988-3.57646E-03 2.19212E-03 1.58767E-09-7.27669E-01-3.53572E-01 7.05472E-06
 -1       989-3.80580E-03 2.33255E-03-8.37505E-11-7.25899E-01-1.37236E+00 6.91349E-06
 -1       990-4.03441E-03 2.47292E-03-1.57173E-09-7.21303E-01-2.36991E+00 6.76353E-06
 -1       991-4.26050E-03 2.61136E-03-8.89083E-10-7.12585E-01-3.34495E+00 6.60486E-06
 -1       992-4.48445E-03 2.74877E-03 7.03747E-10-7.05720E-01-4.29623E+00 6.43759E-06
 -1       993-4.70494E-03 2.88395E-03-2.67787E-10-6.93629E-01-5.22249E+00 6.26182E-06
 -1       994-4.92113E-03 3.01645E-03-9.46304E-10-6.76814E-01-6.12251E+00 6.07768E-06
 -1       995-5.13261E-03 3.14616E-03-1.89298E-09-6.60262E-01-6.99508E+00 5.88538E-06
 -1       996-5.33851E-03 3.27236E-03-2.53925E-09-6.44946E-01-7.83902E+00 5.68509E-06
 -1       997-5.53801E-03 3.39468E-03-6.65196E-10-6.21924E-01-8.65319E+00 5.47706E-06
 -1       998-5.73118E-03 3.51314E-03-1.38422E-10-6.00136E-01-9.43647E+00 5.26155E-06
 -1       999-5.91642E-03 3.62670E-03-1.48824E-09-5.74681E-01-1.01878E+01 5.03879E-06
 -1      1000-6.09369E-03 3.73535E-03-1.44947E-09-5.49010E-01-1.09061E+01 4.80906E-06
 -1      1001-6.26266E-03 3.83904E-03-1.25015E-09-5.20449E-01-1.15904E+01 4.57271E-06
 -1      1002-6.42169E-03 3.93641E-03-1.07074E-09-4.88333E-01-1.22398E+01 4.33010E-06
 -1      1003-6.57198E-03 4.02863E-03-1.14720E-09-4.63252E-01-1.28534E+01 4.08159E-06
 -1      1004-6.71170E-03 4.11435E-03-1.58854E-09-4.23716E-01-1.34303E+01 3.82752E-06
 -1      1005-6.84022E-03 4.19296E-03-2.31839E-09-3.92115E-01-1.39698E+01 3.56830E-06
 -1      1006-6.95876E-03 4.26584E-03-2.15887E-09-3.54046E-01-1.44712E+01 3.30436E-06
 -1      1007-7.06520E-03 4.33102E-03-2.25120E-09-3.21282E-01-1.49337E+01 3.03616E-06
 -1      1008-7.15955E-03 4.38881E-03-1.89188E-09-2.80986E-01-1.53569E+01 2.76411E-06
 -1      1009-7.24270E-03 4.43989E-03-8.15556E-10-2.42245E-01-1.57401E+01 2.48864E-06
 -1      1010-7.31274E-03 4.48280E-03-6.71226E-10-2.02287E-01-1.60829E+01 2.21022E-06
 -1      1011-7.36983E-03 4.51776E-03-1.33545E-10-1.61410E-01-1.63849E+01 1.92939E-06
 -1      1012-7.41453E-03 4.54524E-03-5.78847E-10-1.20730E-01-1.66459E+01 1.64664E-06
 -1      1013-7.44546E-03 4.56412E-03-1.88512E-10-7.49781E-02-1.68655E+01 1.36241E-06
 -1      1014-7.46404E-03 4.57560E-03 1.16639E-10-4.10308E-02-1.70435E+01 1.07722E-06
 -1      1015-7.46841E-03 4.57832E-03-1.35967E-09 1.04490E-02-1.71800E+01 7.91636E-07
 -1      1016-7.45865E-03 4.57216E-03-2.24675E-09 5.20771E-02-1.72747E+01 5.06144E-07
 -1      1017-7.43647E-03 4.55878E-03-2.40364E-09 9.17747E-02-1.73279E+01 2.21245E-07
 -1      1018-7.39953E-03 4.53600E-03-2.29186E-09 1.37962E-01-1.73397E+01-6.25071E-08
 -1      1019-7.34953E-03 4.50539E-03-2.29646E-09 1.78238E-01-1.73101E+01-3.44605E-07
 -1      1020-7.28587E-03 4.46645E-03-8.13195E-10 2.28778E-01-1.72396E+01-6.24524E-07
 -1      1021-7.20786E-03 4.41849E-03 8.02103E-10 2.64776E-01-1.71284E+01-9.01723E-07
 -1      1022-7.11696E-03 4.36286E-03-3.48736E-10 3.10337E-01-1.69771E+01-1.17570E-06
 -1      1023-7.01239E-03 4.29875E-03-1.33510E-09 3.52123E-01-1.67860E+01-1.44597E-06
 -1      1024-6.89446E-03 4.22639E-03 8.22109E-10 3.96570E-01-1.65559E+01-1.71195E-06
 -1      1025-6.76389E-03 4.14645E-03 1.09795E-09 4.31193E-01-1.62873E+01-1.97315E-06
 -1      1026-6.61991E-03 4.05815E-03-5.40291E-10 4.77946E-01-1.59809E+01-2.22913E-06
 -1      1027-6.46312E-03 3.96196E-03-1.20359E-09 5.17380E-01-1.56377E+01-2.47936E-06
 -1      1028-6.29494E-03 3.85901E-03-1.69112E-09 5.51991E-01-1.52584E+01-2.72338E-06
 -1      1029-6.11371E-03 3.74784E-03-1.78396E-09 5.92838E-01-1.48440E+01-2.96069E-06
 -1      1030-5.92096E-03 3.62962E-03-1.11062E-09 6.26184E-01-1.43955E+01-3.19085E-06
 -1      1031-5.71733E-03 3.50494E-03-2.00014E-09 6.68209E-01-1.39140E+01-3.41348E-06
 -1      1032-5.50195E-03 3.37275E-03-2.36166E-09 6.96094E-01-1.34007E+01-3.62808E-06
 -1      1033-5.27645E-03 3.23464E-03 1.08405E-10 7.31573E-01-1.28566E+01-3.83420E-06
 -1      1034-5.04056E-03 3.08992E-03-1.27212E-09 7.64678E-01-1.22831E+01-4.03154E-06
 -1      1035-4.79529E-03 2.93967E-03-3.09082E-09 7.89660E-01-1.16815E+01-4.21963E-06
 -1      1036-4.54044E-03 2.78337E-03-1.14306E-09 8.23288E-01-1.10532E+01-4.39819E-06
 -1      1037-4.27675E-03 2.62174E-03-1.18015E-09 8.47915E-01-1.03995E+01-4.56684E-06
 -1      1038-4.00527E-03 2.45531E-03-1.16853E-09 8.74807E-01-9.72197E+00-4.72521E-06
 -1      1039-3.72569E-03 2.28395E-03 8.11474E-10 8.96066E-01-9.02211E+00-4.87309E-06
 -1      1040-3.43927E-03 2.10832E-03-6.28180E-10 9.17772E-01-8.30149E+00-5.01015E-06
 -1      1041-3.14601E-03 1.92861E-03-2.10401E-09 9.39687E-01-7.56168E+00-5.13610E-06
 -1      1042-2.84702E-03 1.74523E-03-1.43029E-09 9.57353E-01-6.80432E+00-5.25074E-06
 -1      1043-2.54256E-03 1.55871E-03-6.57583E-10 9.72097E-01-6.03109E+00-5.35381E-06
 -1      1044-2.23319E-03 1.36891E-03 4.23386E-10 9.86947E-01-5.24368E+00-5.44514E-06
 -1      1045-1.91974E-03 1.17690E-03-3.71342E-10 9.99720E-01-4.44382E+00-5.52459E-06
 -1      1046-1.60307E-03 9.82629E-04-9.87802E-10 1.00817E+00-3.63325E+00-5.59198E-06
 -1      1047-1.28299E-03 7.86584E-04-6.31929E-10 1.01779E+00-2.81375E+00-5.64717E-06
 -1      1048-9.61203E-04 5.89096E-04-9.57774E-10 1.02323E+00-1.98708E+00-5.69009E-06
 -1      1049-6.37342E-04 3.90839E-04-9.61586E-12 1.02741E+00-1.15505E+00-5.72066E-06
 -1      1050-3.13190E-04 1.91791E-04-6.43723E-10 1.02905E+00-3.19471E-01-5.73883E-06
 -1      1051 1.19915E-05-7.15869E-06-1.31250E-09 1.02882E+00 5.17855E-01-5.74461E-06
 -1      1052 3.35866E-04-2.06179E-04-6.29812E-10 1.02634E+00 1.35511E+00-5.73797E-06
 -1      1053 6.59687E-04-4.04108E-04-1.35379E-09 1.02222E+00 2.19050E+00-5.71890E-06
 -1      1054 9.80626E-04-6.01588E-04-1.81208E-09 1.01556E+00 3.02221E+00-5.68749E-06
 -1      1055 1.30037E-03-7.96685E-04-1.53176E-09 1.00679E+00 3.84846E+00-5.64390E-06
 -1      1056 1.61584E-03-9.91171E-04-4.60423E-10 9.96369E-01 4.66745E+00-5.58816E-06
 -1      1057 1.92925E-03-1.18204E-03-6.50606E-10 9.83339E-01 5.47742E+00-5.52035E-06
 -1      1058 2.23594E-03-1.37152E-03-9.35315E-10 9.68841E-01 6.27664E+00-5.44069E-06
 -1      1059 2.54062E-03-1.55653E-03-1.01848E-09 9.52112E-01 7.06340E+00-5.34935E-06
 -1      1060 2.83639E-03-1.74000E-03-1.87764E-09 9.32286E-01 7.83599E+00-5.24650E-06
 -1      1061 3.12984E-03-1.91728E-03-3.16575E-10 9.14846E-01 8.59276E+00-5.13239E-06
 -1      1062 3.41190E-03-2.09333E-03 3.21835E-10 8.89025E-01 9.33207E+00-5.00727E-06
 -1      1063 3.69194E-03-2.26126E-03-8.67850E-10 8.64987E-01 1.00524E+01-4.87144E-06
 -1      1064 3.95765E-03-2.42860E-03-1.39434E-09 8.41190E-01 1.07521E+01-4.72513E-06
 -1      1065 4.22266E-03-2.58581E-03-3.09734E-10 8.11834E-01 1.14297E+01-4.56866E-06
 -1      1066 4.46882E-03-2.74288E-03 1.29851E-10 7.82505E-01 1.20838E+01-4.40240E-06
 -1      1067 4.71767E-03-2.88812E-03-5.23692E-10 7.51650E-01 1.27129E+01-4.22671E-06
 -1      1068 4.94192E-03-3.03436E-03 5.35265E-10 7.18624E-01 1.33158E+01-4.04197E-06
 -1      1069 5.17243E-03-3.16519E-03 5.51718E-10 6.84764E-01 1.38911E+01-3.84857E-06
 -1      1070 5.37172E-03-3.29969E-03 3.76354E-10 6.49477E-01 1.44376E+01-3.64686E-06
 -1      1071 5.58517E-03-3.41614E-03 8.37853E-10 6.10156E-01 1.49541E+01-3.43733E-06
 -1      1072 5.75442E-03-3.53673E-03 5.80293E-10 5.78136E-01 1.54394E+01-3.22043E-06
 -1      1073 5.95205E-03-3.63837E-03 8.13161E-10 5.32773E-01 1.58927E+01-2.99657E-06
 -1      1074 6.08600E-03-3.74303E-03 1.13944E-09 4.92923E-01 1.63128E+01-2.76626E-06
 -1      1075 6.27083E-03-3.82975E-03 1.57885E-09 4.55332E-01 1.66989E+01-2.53000E-06
 -1      1076 6.36534E-03-3.92031E-03 2.46904E-09 4.10023E-01 1.70501E+01-2.28824E-06
 -1      1077 6.53275E-03-3.97970E-03 2.26701E-09 3.70356E-01 1.73657E+01-2.04157E-06
 -1      1078 6.61010E-03-4.09333E-03 1.50308E-09 3.18976E-01 1.76450E+01-1.79029E-06
 -1      1079 6.67853E-03-4.01380E-03 1.31840E-09 2.82274E-01 1.78874E+01-1.53563E-06
 -1      1080 6.96579E-03-4.44565E-03 1.67511E-09 2.33446E-01 1.80923E+01-1.27618E-06
 -1      1081 6.61169E-03-3.68823E-03 2.36035E-09 1.86380E-01 1.82594E+01-9.27998E-07
 -1      1082 7.14572E-03-4.73506E-03 2.10985E-09 1.46883E-01 1.83881E+01-5.17776E-07
 -1      1083 6.80867E-03-4.01414E-03 2.43049E-09 9.34736E-02 1.84783E+01-2.55648E-07
 -1      1084 7.00589E-03-4.37029E-03 2.81746E-09 5.06230E-02 1.85298E+01-1.16600E-07
 -1      1085 6.99176E-03-4.24447E-03 2.05540E-09 1.33341E-03 1.85423E+01 2.38823E-08
 -1      1086 6.95739E-03-4.29031E-03 2.95858E-09-4.10288E-02 1.85159E+01 1.63987E-07
 -1      1087 6.97607E-03-4.25700E-03 4.65814E-09-8.97799E-02 1.84506E+01 3.03953E-07
 -1      1088 6.90506E-03-4.24887E-03 4.56704E-09-1.33095E-01 1.83465E+01 4.43285E-07
 -1      1089 6.88594E-03-4.20841E-03 3.26115E-09-1.85893E-01 1.82038E+01 5.81822E-07
 -1      1090 6.79216E-03-4.17242E-03 2.31100E-09-2.24221E-01 1.80227E+01 7.19155E-07
 -1      1091 6.74059E-03-4.12479E-03 2.04738E-09-2.71699E-01 1.78037E+01 8.55053E-07
 -1      1092 6.62499E-03-4.06705E-03 1.30351E-09-3.18651E-01 1.75472E+01 9.89247E-07
 -1      1093 6.53541E-03-3.99969E-03 2.37846E-09-3.55035E-01 1.72537E+01 1.12148E-06
 -1      1094 6.40471E-03-3.93251E-03 3.90685E-09-4.05404E-01 1.69238E+01 1.25142E-06
 -1      1095 6.27835E-03-3.84338E-03 4.09465E-09-4.43675E-01 1.65581E+01 1.37879E-06
 -1      1096 6.12451E-03-3.75822E-03 4.30328E-09-4.87718E-01 1.61574E+01 1.50333E-06
 -1      1097 5.96952E-03-3.65452E-03 3.49189E-09-5.23553E-01 1.57226E+01 1.62479E-06
 -1      1098 5.79661E-03-3.55767E-03 4.00504E-09-5.62829E-01 1.52545E+01 1.74292E-06
 -1      1099 5.61419E-03-3.43880E-03 3.91738E-09-6.05467E-01 1.47540E+01 1.85752E-06
 -1      1100 5.41367E-03-3.31947E-03 2.84951E-09-6.36317E-01 1.42223E+01 1.96826E-06
 -1      1101 5.21209E-03-3.19383E-03 3.40573E-09-6.73532E-01 1.36603E+01 2.07498E-06
 -1      1102 4.99145E-03-3.06142E-03 3.10668E-09-7.06739E-01 1.30693E+01 2.17746E-06
 -1      1103 4.76376E-03-2.91814E-03 3.96573E-09-7.40315E-01 1.24504E+01 2.27542E-06
 -1      1104 4.52528E-03-2.77484E-03 5.31925E-09-7.66333E-01 1.18050E+01 2.36872E-06
 -1      1105 4.28057E-03-2.62384E-03 3.88638E-09-7.99626E-01 1.11343E+01 2.45717E-06
 -1      1106 4.02151E-03-2.46541E-03 4.82332E-09-8.24709E-01 1.04398E+01 2.54053E-06
 -1      1107 3.75895E-03-2.30369E-03 5.99518E-09-8.51395E-01 9.72285E+00 2.61869E-06
 -1      1108 3.48469E-03-2.13570E-03 4.07463E-09-8.72881E-01 8.98492E+00 2.69142E-06
 -1      1109 3.20881E-03-1.96747E-03 3.84058E-09-8.94280E-01 8.22756E+00 2.75865E-06
 -1      1110 2.92102E-03-1.79072E-03 4.40282E-09-9.17013E-01 7.45231E+00 2.82022E-06
 -1      1111 2.62941E-03-1.61099E-03 4.86175E-09-9.31496E-01 6.66077E+00 2.87595E-06
 -1      1112 2.33353E-03-1.43103E-03 5.20149E-09-9.48735E-01 5.85456E+00 2.92579E-06
 -1      1113 2.03145E-03-1.24486E-03 3.69077E-09-9.61918E-01 5.03533E+00 2.96963E-06
 -1      1114 1.72621E-03-1.05837E-03 3.94131E-09-9.73637E-01 4.20478E+00 3.00737E-06
 -1      1115 1.41751E-03-8.68704E-04 4.88225E-09-9.83168E-01 3.36460E+00 3.03897E-06
 -1      1116 1.10595E-03-6.78091E-04 3.44423E-09-9.90422E-01 2.51652E+00 3.06432E-06
 -1      1117 7.92639E-04-4.85730E-04 3.81156E-09-9.96005E-01 1.66226E+00 3.08337E-06
 -1      1118 4.77693E-04-2.92814E-04 3.86137E-09-9.98657E-01 8.03587E-01 3.09611E-06
 -1      1119 1.62697E-04-9.97523E-05 4.07051E-09-9.99721E-01-5.77513E-02 3.10259E-06
 -1      1120-1.53008E-04 9.38433E-05 4.71621E-09-9.98494E-01-9.19996E-01 3.10272E-06
 -1      1121-4.67292E-04 2.86433E-04 3.93140E-09-9.94965E-01-1.78139E+00 3.09645E-06
 -1      1122-7.80553E-04 4.78386E-04 5.49979E-09-9.89889E-01-2.64018E+00 3.08391E-06
 -1      1123-1.09181E-03 6.69391E-04 4.89206E-09-9.81822E-01-3.49461E+00 3.06515E-06
 -1      1124-1.39988E-03 8.58017E-04 3.56413E-09-9.72054E-01-4.34296E+00 3.04015E-06
 -1      1125-1.70502E-03 1.04522E-03 4.56111E-09-9.60174E-01-5.18350E+00 3.00898E-06
 -1      1126-2.00570E-03 1.22938E-03 4.97742E-09-9.46009E-01-6.01453E+00 2.97172E-06
 -1      1127-2.30196E-03 1.41131E-03 3.61813E-09-9.30036E-01-6.83437E+00 2.92847E-06
 -1      1128-2.59231E-03 1.58893E-03 3.18516E-09-9.11040E-01-7.64138E+00 2.87932E-06
 -1      1129-2.87612E-03 1.76250E-03 3.14246E-09-8.92468E-01-8.43393E+00 2.82443E-06
 -1      1130-3.15549E-03 1.93465E-03 4.47731E-09-8.70382E-01-9.21044E+00 2.76389E-06
 -1      1131-3.42639E-03 2.10093E-03 5.39082E-09-8.44441E-01-9.96936E+00 2.69779E-06
 -1      1132-3.68726E-03 2.25957E-03 3.10841E-09-8.18512E-01-1.07092E+01 2.62639E-06
 -1      1133-3.94231E-03 2.41639E-03 4.23018E-09-7.93158E-01-1.14284E+01 2.54979E-06
 -1      1134-4.18811E-03 2.56758E-03 4.69985E-09-7.61883E-01-1.21257E+01 2.46814E-06
 -1      1135-4.42332E-03 2.71132E-03 2.10720E-09-7.31248E-01-1.27996E+01 2.38169E-06
 -1      1136-4.64909E-03 2.84991E-03 2.03418E-09-6.97734E-01-1.34488E+01 2.29056E-06
 -1      1137-4.86328E-03 2.98081E-03 3.57356E-09-6.63852E-01-1.40721E+01 2.19505E-06
 -1      1138-5.06853E-03 3.10773E-03 3.48026E-09-6.27414E-01-1.46683E+01 2.09533E-06
 -1      1139-5.25814E-03 3.22209E-03 2.53365E-09-5.88493E-01-1.52362E+01 1.99164E-06
 -1      1140-5.44008E-03 3.33480E-03 1.23777E-09-5.54433E-01-1.57748E+01 1.88422E-06
 -1      1141-5.60836E-03 3.43860E-03 8.37014E-10-5.08854E-01-1.62831E+01 1.77329E-06
 -1      1142-5.76174E-03 3.53169E-03 1.30762E-09-4.69933E-01-1.67600E+01 1.65910E-06
 -1      1143-5.90326E-03 3.61841E-03 1.50352E-09-4.25145E-01-1.72049E+01 1.54196E-06
 -1      1144-6.03067E-03 3.69617E-03 2.60431E-09-3.85129E-01-1.76168E+01 1.42215E-06
 -1      1145-6.14600E-03 3.76802E-03 2.14015E-09-3.38315E-01-1.79951E+01 1.29988E-06
 -1      1146-6.24480E-03 3.82773E-03 2.19894E-09-2.93116E-01-1.83391E+01 1.17546E-06
 -1      1147-6.33052E-03 3.88070E-03 3.96897E-09-2.46608E-01-1.86483E+01 1.04918E-06
 -1      1148-6.39992E-03 3.92267E-03 3.65088E-09-1.99480E-01-1.89222E+01 9.21350E-07
 -1      1149-6.45746E-03 3.95929E-03 1.74892E-09-1.52128E-01-1.91604E+01 7.92259E-07
 -1      1150-6.49456E-03 3.97990E-03 1.11632E-09-1.01051E-01-1.93626E+01 6.62185E-07
 -1      1151-6.52117E-03 3.99716E-03 3.11775E-09-5.92380E-02-1.95286E+01 5.31483E-07
 -1      1152-6.53356E-03 4.00694E-03 4.05217E-09-2.81000E-03-1.96582E+01 4.00411E-07
 -1      1153-6.52256E-03 3.99661E-03 3.82255E-09 4.50774E-02-1.97514E+01 2.69323E-07
 -1      1154-6.50371E-03 3.98692E-03 3.75605E-09 9.14465E-02-1.98082E+01 1.38507E-07
 -1      1155-6.46505E-03 3.96258E-03 4.23862E-09 1.43773E-01-1.98287E+01 8.26860E-09
 -1      1156-6.41443E-03 3.93295E-03 4.61371E-09 1.90381E-01-1.98132E+01-1.21033E-07
 -1      1157-6.34456E-03 3.88927E-03 4.66967E-09 2.46751E-01-1.97619E+01-2.49139E-07
 -1      1158-6.25804E-03 3.83484E-03 5.46140E-09 2.89328E-01-1.96752E+01-3.75693E-07
 -1      1159-6.16151E-03 3.77792E-03 5.19329E-09 3.41562E-01-1.95536E+01-5.00384E-07
 -1      1160-6.04411E-03 3.70462E-03 5.10463E-09 3.89885E-01-1.93977E+01-6.22931E-07
 -1      1161-5.91442E-03 3.62567E-03 5.65898E-09 4.38221E-01-1.92081E+01-7.42992E-07
 -1      1162-5.76806E-03 3.53558E-03 6.35252E-09 4.86335E-01-1.89854E+01-8.60289E-07
 -1      1163-5.60794E-03 3.43819E-03 6.19317E-09 5.33335E-01-1.87306E+01-9.74517E-07
 -1      1164-5.43099E-03 3.32871E-03 4.66559E-09 5.81783E-01-1.84446E+01-1.08534E-06
 -1      1165-5.24107E-03 3.21256E-03 3.28867E-09 6.24199E-01-1.81283E+01-1.19248E-06
 -1      1166-5.03630E-03 3.08716E-03 3.57329E-09 6.71422E-01-1.77827E+01-1.29567E-06
 -1      1167-4.81905E-03 2.95474E-03 5.37204E-09 7.13394E-01-1.74090E+01-1.39463E-06
 -1      1168-4.58581E-03 2.81125E-03 5.87539E-09 7.61315E-01-1.70085E+01-1.48905E-06
 -1      1169-4.33786E-03 2.65807E-03 7.23904E-09 7.98534E-01-1.65824E+01-1.57866E-06
 -1      1170-4.08222E-03 2.50366E-03 8.28714E-09 8.41650E-01-1.61321E+01-1.66319E-06
 -1      1171-3.80730E-03 2.33298E-03 6.64991E-09 8.82491E-01-1.56591E+01-1.74241E-06
 -1      1172-3.52467E-03 2.16082E-03 6.30249E-09 9.17420E-01-1.51648E+01-1.81602E-06
 -1      1173-3.22915E-03 1.98011E-03 6.50526E-09 9.58781E-01-1.46509E+01-1.88380E-06
 -1      1174-2.91995E-03 1.78974E-03 5.34904E-09 9.92851E-01-1.41190E+01-1.94554E-06
 -1      1175-2.60169E-03 1.59503E-03 4.98410E-09 1.02890E+00-1.35707E+01-2.00095E-06
 -1      1176-2.27116E-03 1.39193E-03 5.32475E-09 1.06066E+00-1.30080E+01-2.04987E-06
 -1      1177-1.93238E-03 1.18505E-03 5.42023E-09 1.09271E+00-1.24327E+01-2.09207E-06
 -1      1178-1.58230E-03 9.70326E-04 5.31900E-09 1.12415E+00-1.18465E+01-2.12734E-06
 -1      1179-1.22239E-03 7.49221E-04 5.13777E-09 1.15291E+00-1.12516E+01-2.15550E-06
 -1      1180-8.54721E-04 5.24174E-04 5.18350E-09 1.17971E+00-1.06498E+01-2.17635E-06
 -1      1181-4.78332E-04 2.93484E-04 5.25568E-09 1.20616E+00-1.00432E+01-2.18970E-06
 -1      1182-9.36820E-05 5.77132E-05 5.91064E-09 1.23022E+00-9.43405E+00-2.19543E-06
 -1      1183 2.98220E-04-1.82627E-04 5.28819E-09 1.25348E+00-8.82434E+00-2.19338E-06
 -1      1184 6.97013E-04-4.26833E-04 4.43914E-09 1.27433E+00-8.21631E+00-2.18337E-06
 -1      1185 1.10278E-03-6.75963E-04 5.19049E-09 1.29486E+00-7.61216E+00-2.16528E-06
 -1      1186 1.51385E-03-9.27457E-04 5.31614E-09 1.31182E+00-7.01417E+00-2.13897E-06
 -1      1187 1.93046E-03-1.18282E-03 5.11699E-09 1.33085E+00-6.42464E+00-2.10436E-06
 -1      1188 2.35329E-03-1.44221E-03 5.29952E-09 1.34471E+00-5.84588E+00-2.06135E-06
 -1      1189 2.78068E-03-1.70494E-03 5.22730E-09 1.35921E+00-5.28026E+00-2.00977E-06
 -1      1190 3.20951E-03-1.96610E-03 5.01278E-09 1.36902E+00-4.73015E+00-1.94958E-06
 -1      1191 3.64533E-03-2.23436E-03 4.43199E-09 1.38594E+00-4.19795E+00-1.88074E-06
 -1      1192 4.08315E-03-2.50236E-03 4.11930E-09 1.38945E+00-3.68609E+00-1.80313E-06
 -1      1193 4.52422E-03-2.77319E-03 4.69150E-09 1.40472E+00-3.19702E+00-1.71669E-06
 -1      1194 4.96721E-03-3.04390E-03 4.48267E-09 1.40389E+00-2.73319E+00-1.62137E-06
 -1      1195 5.41314E-03-3.31803E-03 4.24662E-09 1.42059E+00-2.29707E+00-1.51708E-06
 -1      1196 5.86075E-03-3.59219E-03 4.04016E-09 1.41263E+00-1.89115E+00-1.40388E-06
 -1      1197 6.30828E-03-3.86593E-03 3.91675E-09 1.43184E+00-1.51793E+00-1.28168E-06
 -1      1198 6.75824E-03-4.14124E-03 4.57515E-09 1.41938E+00-1.17991E+00-1.15041E-06
 -1      1199 7.21362E-03-4.42326E-03 4.19761E-09 1.44375E+00-8.79603E-01-1.01010E-06
 -1      1200 7.66088E-03-4.69623E-03 3.90471E-09 1.40905E+00-6.19522E-01-8.60760E-07
 -1      1201 8.10710E-03-4.95770E-03 4.26572E-09 1.46288E+00-4.02182E-01-7.02343E-07
 -1      1202 8.59283E-03-5.30800E-03 4.31496E-09 1.39999E+00-2.30118E-01-5.34777E-07
 -1      1203 8.92862E-03-5.32408E-03 4.20514E-09 1.47214E+00-1.05837E-01-3.58255E-07
 -1      1204 9.79737E-03-6.54313E-03 4.55618E-09 1.40263E+00-3.18922E-02-1.72295E-07
 -1      1205 7.21433E-03-2.45600E-03 5.00482E-09 1.64626E+00-7.84574E-03-7.67872E-08
 -1      1206-2.54610E-06 3.14466E-07 1.71877E-09-6.40229E-03-2.56316E+01-8.24677E-06
 -1      1207-1.24534E-05 6.41410E-06-2.27534E-09-6.40529E-02-2.50303E+01-8.24651E-06
 -1      1208-4.22678E-05 2.47120E-05-1.74395E-09-1.25844E-01-2.38279E+01-8.24544E-06
 -1      1209-9.11819E-05 5.48213E-05 2.90012E-09-1.83513E-01-2.26258E+01-8.24286E-06
 -1      1210-1.57691E-04 9.55460E-05 5.27602E-11-2.39370E-01-2.14242E+01-8.23803E-06
 -1      1211-2.41508E-04 1.47091E-04 4.46188E-10-2.90946E-01-2.02235E+01-8.23035E-06
 -1      1212-3.40959E-04 2.07995E-04 2.84282E-09-3.40187E-01-1.90242E+01-8.21917E-06
 -1      1213-4.55763E-04 2.78504E-04 4.47384E-10-3.87191E-01-1.78267E+01-8.20389E-06
 -1      1214-5.84479E-04 3.57401E-04 9.36460E-10-4.28874E-01-1.66319E+01-8.18399E-06
 -1      1215-7.26366E-04 4.44419E-04-3.05422E-10-4.70898E-01-1.54403E+01-8.15891E-06
 -1      1216-8.80723E-04 5.39139E-04-2.82650E-09-5.06693E-01-1.42528E+01-8.12813E-06
 -1      1217-1.04588E-03 6.40309E-04 1.01996E-10-5.40463E-01-1.30702E+01-8.09126E-06
 -1      1218-1.22193E-03 7.48426E-04 1.26315E-09-5.74586E-01-1.18935E+01-8.04785E-06
 -1      1219-1.40682E-03 8.61660E-04-1.58245E-10-5.98872E-01-1.07235E+01-7.99754E-06
 -1      1220-1.60061E-03 9.80578E-04 2.57701E-10-6.27530E-01-9.56150E+00-7.93999E-06
 -1      1221-1.80210E-03 1.10412E-03 7.73252E-10-6.50187E-01-8.40840E+00-7.87489E-06
 -1      1222-2.00955E-03 1.23129E-03-8.59496E-10-6.65653E-01-7.26535E+00-7.80197E-06
 -1      1223-2.22344E-03 1.36244E-03 8.80823E-10-6.87393E-01-6.13351E+00-7.72099E-06
 -1      1224-2.44186E-03 1.49642E-03 1.81017E-09-6.98711E-01-5.01409E+00-7.63175E-06
 -1      1225-2.66417E-03 1.63263E-03-4.14512E-10-7.10543E-01-3.90829E+00-7.53408E-06
 -1      1226-2.89005E-03 1.77122E-03 1.74002E-09-7.20796E-01-2.81737E+00-7.42784E-06
 -1      1227-3.11751E-03 1.91066E-03 3.03161E-09-7.20654E-01-1.74257E+00-7.31293E-06
 -1      1228-3.34679E-03 2.05117E-03-5.01049E-10-7.30039E-01-6.85162E-01-7.18930E-06
 -1      1229-3.57646E-03 2.19212E-03-1.58767E-09-7.27669E-01 3.53571E-01-7.05686E-06
 -1      1230-3.80580E-03 2.33256E-03 8.37505E-11-7.25899E-01 1.37236E+00-6.91564E-06
 -1      1231-4.03441E-03 2.47293E-03 1.57173E-09-7.21303E-01 2.36991E+00-6.76568E-06
 -1      1232-4.26050E-03 2.61136E-03 8.89083E-10-7.12585E-01 3.34495E+00-6.60701E-06
 -1      1233-4.48446E-03 2.74876E-03-7.03747E-10-7.05720E-01 4.29623E+00-6.43974E-06
 -1      1234-4.70495E-03 2.88395E-03 2.67787E-10-6.93629E-01 5.22249E+00-6.26398E-06
 -1      1235-4.92113E-03 3.01645E-03 9.46304E-10-6.76814E-01 6.12251E+00-6.07984E-06
 -1      1236-5.13261E-03 3.14615E-03 1.89298E-09-6.60262E-01 6.99508E+00-5.88754E-06
 -1      1237-5.33851E-03 3.27236E-03 2.53925E-09-6.44946E-01 7.83902E+00-5.68725E-06
 -1      1238-5.53802E-03 3.39468E-03 6.65196E-10-6.21924E-01 8.65319E+00-5.47922E-06
 -1      1239-5.73119E-03 3.51314E-03 1.38422E-10-6.00136E-01 9.43646E+00-5.26372E-06
 -1      1240-5.91642E-03 3.62671E-03 1.48824E-09-5.74681E-01 1.01878E+01-5.04096E-06
 -1      1241-6.09369E-03 3.73534E-03 1.44947E-09-5.49010E-01 1.09061E+01-4.81124E-06
 -1      1242-6.26267E-03 3.83904E-03 1.25015E-09-5.20449E-01 1.15904E+01-4.57489E-06
 -1      1243-6.42170E-03 3.93640E-03 1.07074E-09-4.88333E-01 1.22398E+01-4.33229E-06
 -1      1244-6.57199E-03 4.02863E-03 1.14720E-09-4.63252E-01 1.28534E+01-4.08378E-06
 -1      1245-6.71171E-03 4.11436E-03 1.58854E-09-4.23716E-01 1.34303E+01-3.82972E-06
 -1      1246-6.84023E-03 4.19296E-03 2.31839E-09-3.92115E-01 1.39698E+01-3.57050E-06
 -1      1247-6.95877E-03 4.26583E-03 2.15887E-09-3.54046E-01 1.44712E+01-3.30658E-06
 -1      1248-7.06521E-03 4.33102E-03 2.25120E-09-3.21282E-01 1.49337E+01-3.03839E-06
 -1      1249-7.15956E-03 4.38881E-03 1.89188E-09-2.80986E-01 1.53569E+01-2.76634E-06
 -1      1250-7.24271E-03 4.43990E-03 8.15556E-10-2.42244E-01 1.57401E+01-2.49087E-06
 -1      1251-7.31275E-03 4.48281E-03 6.71226E-10-2.02287E-01 1.60829E+01-2.21246E-06
 -1      1252-7.36984E-03 4.51777E-03 1.33545E-10-1.61409E-01 1.63849E+01-1.93164E-06
 -1      1253-7.41453E-03 4.54524E-03 5.78847E-10-1.20730E-01 1.66459E+01-1.64890E-06
 -1      1254-7.44547E-03 4.56413E-03 1.88512E-10-7.49780E-02 1.68655E+01-1.36467E-06
 -1      1255-7.46404E-03 4.57560E-03-1.16639E-10-4.10307E-02 1.70435E+01-1.07949E-06
 -1      1256-7.46842E-03 4.57833E-03 1.35967E-09 1.04491E-02 1.71800E+01-7.93910E-07
 -1      1257-7.45866E-03 4.57216E-03 2.24675E-09 5.20771E-02 1.72747E+01-5.08424E-07
 -1      1258-7.43648E-03 4.55878E-03 2.40364E-09 9.17746E-02 1.73279E+01-2.23529E-07
 -1      1259-7.39953E-03 4.53600E-03 2.29186E-09 1.37962E-01 1.73397E+01 6.02171E-08
 -1      1260-7.34954E-03 4.50538E-03 2.29646E-09 1.78238E-01 1.73101E+01 3.42309E-07
 -1      1261-7.28587E-03 4.46645E-03 8.13195E-10 2.28778E-01 1.72396E+01 6.22223E-07
 -1      1262-7.20787E-03 4.41850E-03-8.02103E-10 2.64776E-01 1.71284E+01 8.99417E-07
 -1      1263-7.11697E-03 4.36287E-03 3.48736E-10 3.10337E-01 1.69771E+01 1.17339E-06
 -1      1264-7.01240E-03 4.29875E-03 1.33510E-09 3.52123E-01 1.67860E+01 1.44365E-06
 -1      1265-6.89446E-03 4.22641E-03-8.22109E-10 3.96570E-01 1.65559E+01 1.70962E-06
 -1      1266-6.76390E-03 4.14646E-03-1.09795E-09 4.31193E-01 1.62873E+01 1.97082E-06
 -1      1267-6.61991E-03 4.05816E-03 5.40291E-10 4.77946E-01 1.59809E+01 2.22679E-06
 -1      1268-6.46313E-03 3.96197E-03 1.20359E-09 5.17380E-01 1.56377E+01 2.47701E-06
 -1      1269-6.29495E-03 3.85901E-03 1.69112E-09 5.51991E-01 1.52584E+01 2.72103E-06
 -1      1270-6.11371E-03 3.74782E-03 1.78396E-09 5.92838E-01 1.48440E+01 2.95834E-06
 -1      1271-5.92096E-03 3.62963E-03 1.11062E-09 6.26184E-01 1.43955E+01 3.18849E-06
 -1      1272-5.71734E-03 3.50493E-03 2.00014E-09 6.68209E-01 1.39140E+01 3.41112E-06
 -1      1273-5.50196E-03 3.37275E-03 2.36166E-09 6.96094E-01 1.34007E+01 3.62571E-06
 -1      1274-5.27646E-03 3.23464E-03-1.08405E-10 7.31573E-01 1.28566E+01 3.83183E-06
 -1      1275-5.04057E-03 3.08992E-03 1.27212E-09 7.64678E-01 1.22831E+01 4.02916E-06
 -1      1276-4.79529E-03 2.93968E-03 3.09082E-09 7.89660E-01 1.16815E+01 4.21725E-06
 -1      1277-4.54044E-03 2.78337E-03 1.14306E-09 8.23287E-01 1.10531E+01 4.39580E-06
 -1      1278-4.27675E-03 2.62174E-03 1.18015E-09 8.47915E-01 1.03995E+01 4.56444E-06
 -1      1279-4.00527E-03 2.45532E-03 1.16853E-09 8.74807E-01 9.72196E+00 4.72281E-06
 -1      1280-3.72570E-03 2.28394E-03-8.11474E-10 8.96066E-01 9.02211E+00 4.87069E-06
 -1      1281-3.43927E-03 2.10833E-03 6.28180E-10 9.17772E-01 8.30148E+00 5.00774E-06
 -1      1282-3.14602E-03 1.92861E-03 2.10401E-09 9.39687E-01 7.56168E+00 5.13369E-06
 -1      1283-2.84703E-03 1.74523E-03 1.43029E-09 9.57353E-01 6.80432E+00 5.24832E-06
 -1      1284-2.54256E-03 1.55871E-03 6.57583E-10 9.72097E-01 6.03109E+00 5.35139E-06
 -1      1285-2.23319E-03 1.36891E-03-4.23386E-10 9.86947E-01 5.24368E+00 5.44272E-06
 -1      1286-1.91974E-03 1.17690E-03 3.71342E-10 9.99719E-01 4.44382E+00 5.52216E-06
 -1      1287-1.60307E-03 9.82638E-04 9.87802E-10 1.00817E+00 3.63325E+00 5.58955E-06
 -1      1288-1.28300E-03 7.86586E-04 6.31929E-10 1.01779E+00 2.81374E+00 5.64473E-06
 -1      1289-9.61208E-04 5.89097E-04 9.57774E-10 1.02323E+00 1.98708E+00 5.68765E-06
 -1      1290-6.37348E-04 3.90840E-04 9.61586E-12 1.02741E+00 1.15505E+00 5.71821E-06
 -1      1291-3.13195E-04 1.91789E-04 6.43723E-10 1.02905E+00 3.19470E-01 5.73637E-06
 -1      1292 1.19864E-05-7.15625E-06 1.31250E-09 1.02882E+00-5.17855E-01 5.74215E-06
 -1      1293 3.35860E-04-2.06181E-04 6.29812E-10 1.02634E+00-1.35511E+00 5.73551E-06
 -1      1294 6.59682E-04-4.04107E-04 1.35379E-09 1.02222E+00-2.19050E+00 5.71644E-06
 -1      1295 9.80622E-04-6.01578E-04 1.81208E-09 1.01556E+00-3.02221E+00 5.68502E-06
 -1      1296 1.30036E-03-7.96681E-04 1.53176E-09 1.00679E+00-3.84846E+00 5.64142E-06
 -1      1297 1.61583E-03-9.91170E-04 4.60423E-10 9.96369E-01-4.66745E+00 5.58569E-06
 -1      1298 1.92925E-03-1.18203E-03 6.50606E-10 9.83339E-01-5.47742E+00 5.51787E-06
 -1      1299 2.23594E-03-1.37153E-03 9.35315E-10 9.68841E-01-6.27664E+00 5.43821E-06
 -1      1300 2.54062E-03-1.55652E-03 1.01848E-09 9.52112E-01-7.06340E+00 5.34687E-06
 -1      1301 2.83639E-03-1.74000E-03 1.87764E-09 9.32286E-01-7.83599E+00 5.24401E-06
 -1      1302 3.12983E-03-1.91728E-03 3.16575E-10 9.14846E-01-8.59276E+00 5.12989E-06
 -1      1303 3.41190E-03-2.09333E-03-3.21835E-10 8.89025E-01-9.33207E+00 5.00477E-06
 -1      1304 3.69193E-03-2.26126E-03 8.67850E-10 8.64987E-01-1.00524E+01 4.86893E-06
 -1      1305 3.95765E-03-2.42860E-03 1.39434E-09 8.41190E-01-1.07521E+01 4.72263E-06
 -1      1306 4.22266E-03-2.58581E-03 3.09734E-10 8.11834E-01-1.14297E+01 4.56615E-06
 -1      1307 4.46882E-03-2.74287E-03-1.29851E-10 7.82505E-01-1.20838E+01 4.39989E-06
 -1      1308 4.71767E-03-2.88812E-03 5.23692E-10 7.51650E-01-1.27129E+01 4.22419E-06
 -1      1309 4.94192E-03-3.03435E-03-5.35265E-10 7.18624E-01-1.33158E+01 4.03945E-06
 -1      1310 5.17243E-03-3.16519E-03-5.51718E-10 6.84765E-01-1.38911E+01 3.84606E-06
 -1      1311 5.37172E-03-3.29969E-03-3.76354E-10 6.49477E-01-1.44376E+01 3.64434E-06
 -1      1312 5.58517E-03-3.41614E-03-8.37853E-10 6.10156E-01-1.49541E+01 3.43482E-06
 -1      1313 5.75442E-03-3.53673E-03-5.80293E-10 5.78137E-01-1.54394E+01 3.21792E-06
 -1      1314 5.95206E-03-3.63838E-03-8.13161E-10 5.32773E-01-1.58927E+01 2.99407E-06
 -1      1315 6.08600E-03-3.74302E-03-1.13944E-09 4.92923E-01-1.63128E+01 2.76376E-06
 -1      1316 6.27083E-03-3.82976E-03-1.57885E-09 4.55332E-01-1.66989E+01 2.52751E-06
 -1      1317 6.36535E-03-3.92031E-03-2.46904E-09 4.10023E-01-1.70501E+01 2.28576E-06
 -1      1318 6.53276E-03-3.97971E-03-2.26701E-09 3.70356E-01-1.73657E+01 2.03909E-06
 -1      1319 6.61011E-03-4.09333E-03-1.50308E-09 3.18976E-01-1.76450E+01 1.78783E-06
 -1      1320 6.67854E-03-4.01382E-03-1.31840E-09 2.82274E-01-1.78874E+01 1.53319E-06
 -1      1321 6.96581E-03-4.44566E-03-1.67511E-09 2.33447E-01-1.80923E+01 1.27375E-06
 -1      1322 6.61171E-03-3.68824E-03-2.36035E-09 1.86380E-01-1.82594E+01 9.25583E-07
 -1      1323 7.14573E-03-4.73507E-03-2.10985E-09 1.46883E-01-1.83881E+01 5.15373E-07
 -1      1324 6.80869E-03-4.01415E-03-2.43049E-09 9.34737E-02-1.84783E+01 2.53256E-07
 -1      1325 7.00591E-03-4.37029E-03-2.81746E-09 5.06230E-02-1.85298E+01 1.14221E-07
 -1      1326 6.99178E-03-4.24449E-03-2.05540E-09 1.33342E-03-1.85423E+01-2.62469E-08
 -1      1327 6.95741E-03-4.29033E-03-2.95858E-09-4.10287E-02-1.85159E+01-1.66334E-07
 -1      1328 6.97609E-03-4.25700E-03-4.65814E-09-8.97799E-02-1.84506E+01-3.06284E-07
 -1      1329 6.90507E-03-4.24887E-03-4.56704E-09-1.33095E-01-1.83465E+01-4.45600E-07
 -1      1330 6.88596E-03-4.20842E-03-3.26115E-09-1.85893E-01-1.82038E+01-5.84119E-07
 -1      1331 6.79218E-03-4.17243E-03-2.31100E-09-2.24221E-01-1.80227E+01-7.21434E-07
 -1      1332 6.74061E-03-4.12481E-03-2.04738E-09-2.71699E-01-1.78037E+01-8.57314E-07
 -1      1333 6.62501E-03-4.06706E-03-1.30351E-09-3.18651E-01-1.75472E+01-9.91491E-07
 -1      1334 6.53543E-03-3.99970E-03-2.37846E-09-3.55035E-01-1.72537E+01-1.12370E-06
 -1      1335 6.40473E-03-3.93252E-03-3.90685E-09-4.05404E-01-1.69238E+01-1.25363E-06
 -1      1336 6.27837E-03-3.84339E-03-4.09465E-09-4.43675E-01-1.65581E+01-1.38099E-06
 -1      1337 6.12453E-03-3.75823E-03-4.30328E-09-4.87718E-01-1.61574E+01-1.50551E-06
 -1      1338 5.96954E-03-3.65452E-03-3.49189E-09-5.23553E-01-1.57226E+01-1.62694E-06
 -1      1339 5.79663E-03-3.55767E-03-4.00504E-09-5.62829E-01-1.52545E+01-1.74506E-06
 -1      1340 5.61422E-03-3.43881E-03-3.91738E-09-6.05467E-01-1.47540E+01-1.85964E-06
 -1      1341 5.41369E-03-3.31949E-03-2.84951E-09-6.36317E-01-1.42223E+01-1.97036E-06
 -1      1342 5.21211E-03-3.19384E-03-3.40573E-09-6.73532E-01-1.36603E+01-2.07707E-06
 -1      1343 4.99148E-03-3.06142E-03-3.10668E-09-7.06739E-01-1.30693E+01-2.17952E-06
 -1      1344 4.76378E-03-2.91814E-03-3.96573E-09-7.40315E-01-1.24504E+01-2.27746E-06
 -1      1345 4.52530E-03-2.77486E-03-5.31925E-09-7.66333E-01-1.18050E+01-2.37075E-06
 -1      1346 4.28059E-03-2.62385E-03-3.88638E-09-7.99626E-01-1.11343E+01-2.45917E-06
 -1      1347 4.02153E-03-2.46542E-03-4.82332E-09-8.24709E-01-1.04398E+01-2.54252E-06
 -1      1348 3.75897E-03-2.30370E-03-5.99518E-09-8.51395E-01-9.72285E+00-2.62065E-06
 -1      1349 3.48471E-03-2.13571E-03-4.07463E-09-8.72881E-01-8.98492E+00-2.69337E-06
 -1      1350 3.20883E-03-1.96748E-03-3.84058E-09-8.94280E-01-8.22756E+00-2.76057E-06
 -1      1351 2.92104E-03-1.79073E-03-4.40282E-09-9.17013E-01-7.45231E+00-2.82213E-06
 -1      1352 2.62943E-03-1.61099E-03-4.86175E-09-9.31496E-01-6.66077E+00-2.87784E-06
 -1      1353 2.33355E-03-1.43104E-03-5.20149E-09-9.48735E-01-5.85456E+00-2.92765E-06
 -1      1354 2.03148E-03-1.24487E-03-3.69077E-09-9.61918E-01-5.03533E+00-2.97147E-06
 -1      1355 1.72623E-03-1.05838E-03-3.94131E-09-9.73637E-01-4.20478E+00-3.00919E-06
 -1      1356 1.41753E-03-8.68713E-04-4.88225E-09-9.83168E-01-3.36460E+00-3.04077E-06
 -1      1357 1.10598E-03-6.78098E-04-3.44423E-09-9.90422E-01-2.51652E+00-3.06611E-06
 -1      1358 7.92662E-04-4.85741E-04-3.81156E-09-9.96005E-01-1.66226E+00-3.08513E-06
 -1      1359 4.77715E-04-2.92824E-04-3.86137E-09-9.98657E-01-8.03588E-01-3.09785E-06
 -1      1360 1.62718E-04-9.97615E-05-4.07051E-09-9.99721E-01 5.77508E-02-3.10431E-06
 -1      1361-1.52985E-04 9.38250E-05-4.71621E-09-9.98494E-01 9.19996E-01-3.10442E-06
 -1      1362-4.67266E-04 2.86428E-04-3.93140E-09-9.94965E-01 1.78139E+00-3.09813E-06
 -1      1363-7.80531E-04 4.78373E-04-5.49979E-09-9.89889E-01 2.64018E+00-3.08557E-06
 -1      1364-1.09179E-03 6.69380E-04-4.89206E-09-9.81822E-01 3.49461E+00-3.06678E-06
 -1      1365-1.39985E-03 8.58010E-04-3.56413E-09-9.72054E-01 4.34296E+00-3.04176E-06
 -1      1366-1.70500E-03 1.04520E-03-4.56111E-09-9.60174E-01 5.18350E+00-3.01057E-06
 -1      1367-2.00568E-03 1.22937E-03-4.97742E-09-9.46009E-01 6.01453E+00-2.97330E-06
 -1      1368-2.30193E-03 1.41130E-03-3.61813E-09-9.30036E-01 6.83437E+00-2.93002E-06
 -1      1369-2.59228E-03 1.58893E-03-3.18516E-09-9.11040E-01 7.64138E+00-2.88085E-06
 -1      1370-2.87610E-03 1.76249E-03-3.14246E-09-8.92468E-01 8.43393E+00-2.82594E-06
 -1      1371-3.15547E-03 1.93464E-03-4.47731E-09-8.70382E-01 9.21044E+00-2.76537E-06
 -1      1372-3.42638E-03 2.10092E-03-5.39082E-09-8.44441E-01 9.96935E+00-2.69926E-06
 -1      1373-3.68724E-03 2.25956E-03-3.10841E-09-8.18512E-01 1.07092E+01-2.62785E-06
 -1      1374-3.94229E-03 2.41640E-03-4.23018E-09-7.93158E-01 1.14284E+01-2.55123E-06
 -1      1375-4.18809E-03 2.56757E-03-4.69985E-09-7.61883E-01 1.21257E+01-2.46956E-06
 -1      1376-4.42330E-03 2.71131E-03-2.10720E-09-7.31248E-01 1.27996E+01-2.38309E-06
 -1      1377-4.64908E-03 2.84992E-03-2.03418E-09-6.97733E-01 1.34488E+01-2.29195E-06
 -1      1378-4.86326E-03 2.98081E-03-3.57356E-09-6.63852E-01 1.40721E+01-2.19642E-06
 -1      1379-5.06852E-03 3.10771E-03-3.48026E-09-6.27414E-01 1.46683E+01-2.09669E-06
 -1      1380-5.25813E-03 3.22209E-03-2.53365E-09-5.88493E-01 1.52362E+01-1.99299E-06
 -1      1381-5.44007E-03 3.33479E-03-1.23777E-09-5.54433E-01 1.57748E+01-1.88556E-06
 -1      1382-5.60835E-03 3.43858E-03-8.37014E-10-5.08854E-01 1.62831E+01-1.77462E-06
 -1      1383-5.76173E-03 3.53170E-03-1.30762E-09-4.69932E-01 1.67600E+01-1.66042E-06
 -1      1384-5.90325E-03 3.61839E-03-1.50352E-09-4.25145E-01 1.72049E+01-1.54327E-06
 -1      1385-6.03066E-03 3.69617E-03-2.60431E-09-3.85129E-01 1.76168E+01-1.42345E-06
 -1      1386-6.14599E-03 3.76802E-03-2.14015E-09-3.38315E-01 1.79951E+01-1.30117E-06
 -1      1387-6.24479E-03 3.82772E-03-2.19894E-09-2.93116E-01 1.83391E+01-1.17674E-06
 -1      1388-6.33051E-03 3.88070E-03-3.96897E-09-2.46608E-01 1.86483E+01-1.05046E-06
 -1      1389-6.39991E-03 3.92267E-03-3.65088E-09-1.99480E-01 1.89222E+01-9.22615E-07
 -1      1390-6.45745E-03 3.95930E-03-1.74892E-09-1.52128E-01 1.91604E+01-7.93516E-07
 -1      1391-6.49455E-03 3.97988E-03-1.11632E-09-1.01051E-01 1.93626E+01-6.63432E-07
 -1      1392-6.52116E-03 3.99716E-03-3.11775E-09-5.92381E-02 1.95286E+01-5.32720E-07
 -1      1393-6.53355E-03 4.00694E-03-4.05217E-09-2.81013E-03 1.96582E+01-4.01637E-07
 -1      1394-6.52254E-03 3.99660E-03-3.82255E-09 4.50773E-02 1.97514E+01-2.70534E-07
 -1      1395-6.50369E-03 3.98692E-03-3.75605E-09 9.14463E-02 1.98082E+01-1.39700E-07
 -1      1396-6.46503E-03 3.96257E-03-4.23862E-09 1.43772E-01 1.98287E+01-9.44454E-09
 -1      1397-6.41441E-03 3.93295E-03-4.61371E-09 1.90380E-01 1.98132E+01 1.19876E-07
 -1      1398-6.34454E-03 3.88926E-03-4.66967E-09 2.46751E-01 1.97619E+01 2.48003E-07
 -1      1399-6.25801E-03 3.83484E-03-5.46140E-09 2.89327E-01 1.96752E+01 3.74581E-07
 -1      1400-6.16148E-03 3.77790E-03-5.19329E-09 3.41562E-01 1.95536E+01 4.99297E-07
 -1      1401-6.04408E-03 3.70460E-03-5.10463E-09 3.89885E-01 1.93977E+01 6.21871E-07
 -1      1402-5.91439E-03 3.62566E-03-5.65898E-09 4.38221E-01 1.92081E+01 7.41959E-07
 -1      1403-5.76803E-03 3.53556E-03-6.35252E-09 4.86335E-01 1.89854E+01 8.59283E-07
 -1      1404-5.60791E-03 3.43820E-03-6.19317E-09 5.33335E-01 1.87306E+01 9.73538E-07
 -1      1405-5.43096E-03 3.32867E-03-4.66559E-09 5.81783E-01 1.84446E+01 1.08439E-06
 -1      1406-5.24104E-03 3.21255E-03-3.28867E-09 6.24199E-01 1.81283E+01 1.19156E-06
 -1      1407-5.03628E-03 3.08713E-03-3.57329E-09 6.71422E-01 1.77827E+01 1.29477E-06
 -1      1408-4.81902E-03 2.95474E-03-5.37204E-09 7.13394E-01 1.74090E+01 1.39376E-06
 -1      1409-4.58578E-03 2.81124E-03-5.87539E-09 7.61315E-01 1.70085E+01 1.48820E-06
 -1      1410-4.33783E-03 2.65805E-03-7.23904E-09 7.98534E-01 1.65824E+01 1.57783E-06
 -1      1411-4.08219E-03 2.50367E-03-8.28714E-09 8.41651E-01 1.61321E+01 1.66239E-06
 -1      1412-3.80727E-03 2.33299E-03-6.64991E-09 8.82491E-01 1.56591E+01 1.74163E-06
 -1      1413-3.52464E-03 2.16081E-03-6.30249E-09 9.17420E-01 1.51648E+01 1.81527E-06
 -1      1414-3.22911E-03 1.98010E-03-6.50526E-09 9.58781E-01 1.46509E+01 1.88308E-06
 -1      1415-2.91992E-03 1.78972E-03-5.34904E-09 9.92851E-01 1.41190E+01 1.94485E-06
 -1      1416-2.60166E-03 1.59502E-03-4.98410E-09 1.02890E+00 1.35707E+01 2.00029E-06
 -1      1417-2.27113E-03 1.39191E-03-5.32475E-09 1.06066E+00 1.30080E+01 2.04924E-06
 -1      1418-1.93235E-03 1.18504E-03-5.42023E-09 1.09271E+00 1.24327E+01 2.09146E-06
 -1      1419-1.58227E-03 9.70316E-04-5.31900E-09 1.12415E+00 1.18465E+01 2.12676E-06
 -1      1420-1.22237E-03 7.49211E-04-5.13777E-09 1.15291E+00 1.12516E+01 2.15494E-06
 -1      1421-8.54694E-04 5.24169E-04-5.18350E-09 1.17971E+00 1.06498E+01 2.17582E-06
 -1      1422-4.78307E-04 2.93468E-04-5.25568E-09 1.20616E+00 1.00432E+01 2.18919E-06
 -1      1423-9.36580E-05 5.77019E-05-5.91064E-09 1.23022E+00 9.43405E+00 2.19494E-06
 -1      1424 2.98247E-04-1.82635E-04-5.28819E-09 1.25348E+00 8.82434E+00 2.19291E-06
 -1      1425 6.97039E-04-4.26841E-04-4.43914E-09 1.27433E+00 8.21630E+00 2.18293E-06
 -1      1426 1.10280E-03-6.75971E-04-5.19049E-09 1.29486E+00 7.61216E+00 2.16486E-06
 -1      1427 1.51388E-03-9.27464E-04-5.31614E-09 1.31182E+00 7.01417E+00 2.13857E-06
 -1      1428 1.93048E-03-1.18283E-03-5.11699E-09 1.33085E+00 6.42464E+00 2.10399E-06
 -1      1429 2.35331E-03-1.44222E-03-5.29952E-09 1.34471E+00 5.84588E+00 2.06100E-06
 -1      1430 2.78071E-03-1.70495E-03-5.22730E-09 1.35921E+00 5.28026E+00 2.00944E-06
 -1      1431 3.20953E-03-1.96611E-03-5.01278E-09 1.36902E+00 4.73014E+00 1.94927E-06
 -1      1432 3.64535E-03-2.23436E-03-4.43199E-09 1.38594E+00 4.19795E+00 1.88046E-06
 -1      1433 4.08318E-03-2.50237E-03-4.11930E-09 1.38945E+00 3.68609E+00 1.80287E-06
 -1      1434 4.52424E-03-2.77320E-03-4.69150E-09 1.40472E+00 3.19702E+00 1.71645E-06
 -1      1435 4.96723E-03-3.04391E-03-4.48267E-09 1.40389E+00 2.73319E+00 1.62115E-06
 -1      1436 5.41316E-03-3.31803E-03-4.24662E-09 1.42059E+00 2.29707E+00 1.51688E-06
 -1      1437 5.86078E-03-3.59220E-03-4.04016E-09 1.41263E+00 1.89115E+00 1.40370E-06
 -1      1438 6.30830E-03-3.86594E-03-3.91675E-09 1.43184E+00 1.51793E+00 1.28152E-06
 -1      1439 6.75826E-03-4.14125E-03-4.57515E-09 1.41938E+00 1.17991E+00 1.15027E-06
 -1      1440 7.21364E-03-4.42327E-03-4.19761E-09 1.44375E+00 8.79603E-01 1.00998E-06
 -1      1441 7.66090E-03-4.69624E-03-3.90471E-09 1.40905E+00 6.19522E-01 8.60660E-07
 -1      1442 8.10712E-03-4.95771E-03-4.26572E-09 1.46288E+00 4.02182E-01 7.02263E-07
 -1      1443 8.59285E-03-5.30801E-03-4.31496E-09 1.39999E+00 2.30118E-01 5.34718E-07
 -1      1444 8.92864E-03-5.32409E-03-4.20514E-09 1.47214E+00 1.05837E-01 3.58216E-07
 -1      1445 9.79739E-03-6.54314E-03-4.55618E-09 1.40263E+00 3.18922E-02 1.72276E-07
 -1      1446 7.21435E-03-2.45600E-03-5.00482E-09 1.64626E+00 7.84574E-03 7.67777E-08
 -1      1447 3.26361E-02-4.07035E-03-1.15820E-08-1.75619E-04 2.56316E+01-1.03065E-01
 -1      1448 1.55175E-01-7.96881E-02-1.90438E-08-4.68987E-02 2.50303E+01-1.03061E-01
 -1      1449 5.28267E-01-3.08821E-01-3.45109E-08-9.14377E-02 2.38279E+01-1.03048E-01
 -1      1450 1.13875E+00-6.84090E-01-3.53124E-08-1.33861E-01 2.26258E+01-1.03016E-01
 -1      1451 1.97124E+00-1.19455E+00-1.67353E-08-1.73781E-01 2.14242E+01-1.02955E-01
 -1      1452 3.01871E+00-1.83867E+00 5.25238E-09-2.12016E-01 2.02235E+01-1.02860E-01
 -1      1453 4.26001E+00-2.59756E+00 2.52759E-08-2.47769E-01 1.90241E+01-1.02720E-01
 -1      1454 5.69790E+00-3.48272E+00 4.11719E-08-2.81040E-01 1.78267E+01-1.02529E-01
 -1      1455 7.30413E+00-4.46547E+00 4.82228E-08-3.12930E-01 1.66319E+01-1.02280E-01
 -1      1456 9.07952E+00-5.55551E+00 5.00818E-08-3.41540E-01 1.54403E+01-1.01966E-01
 -1      1457 1.10091E+01-6.74016E+00 4.30401E-08-3.68971E-01 1.42528E+01-1.01582E-01
 -1      1458 1.30700E+01-7.99991E+00 2.30534E-08-3.94615E-01 1.30702E+01-1.01121E-01
 -1      1459 1.52732E+01-9.35476E+00 2.13881E-09-4.15448E-01 1.18935E+01-1.00578E-01
 -1      1460 1.75885E+01-1.07755E+01-1.61060E-08-4.38526E-01 1.07235E+01-9.99495E-02
 -1      1461 2.00017E+01-1.22506E+01-3.36043E-08-4.54613E-01 9.56149E+00-9.92304E-02
 -1      1462 2.25233E+01-1.37982E+01-4.69345E-08-4.71753E-01 8.40838E+00-9.84167E-02
 -1      1463 2.51243E+01-1.53995E+01-5.73988E-08-4.88185E-01 7.26533E+00-9.75051E-02
 -1      1464 2.77821E+01-1.70168E+01-6.39510E-08-4.97068E-01 6.13350E+00-9.64930E-02
 -1      1465 3.05281E+01-1.87135E+01-6.44129E-08-5.09809E-01 5.01407E+00-9.53774E-02
 -1      1466 3.32967E+01-2.04019E+01-6.47471E-08-5.15582E-01 3.90828E+00-9.41565E-02
 -1      1467 3.61244E+01-2.21403E+01-6.90494E-08-5.22998E-01 2.81736E+00-9.28284E-02
 -1      1468 3.89714E+01-2.38886E+01-7.12273E-08-5.28481E-01 1.74256E+00-9.13920E-02
 -1      1469 4.18212E+01-2.56232E+01-7.15512E-08-5.28596E-01 6.85153E-01-8.98466E-02
 -1      1470 4.47125E+01-2.74128E+01-7.30138E-08-5.29560E-01-3.53579E-01-8.81913E-02
 -1      1471 4.75657E+01-2.91496E+01-7.10609E-08-5.27567E-01-1.37236E+00-8.64263E-02
 -1      1472 5.04269E+01-3.09100E+01-6.86388E-08-5.25101E-01-2.36991E+00-8.45518E-02
 -1      1473 5.32546E+01-3.26419E+01-5.95132E-08-5.19801E-01-3.34495E+00-8.25687E-02
 -1      1474 5.60478E+01-3.43517E+01-4.67200E-08-5.11854E-01-4.29623E+00-8.04780E-02
 -1      1475 5.88112E+01-3.60512E+01-3.95498E-08-5.02586E-01-5.22249E+00-7.82810E-02
 -1      1476 6.15146E+01-3.77088E+01-3.13232E-08-4.94466E-01-6.12250E+00-7.59796E-02
 -1      1477 6.41488E+01-3.93187E+01-2.15226E-08-4.81906E-01-6.99507E+00-7.35760E-02
 -1      1478 6.67238E+01-4.08971E+01-1.16181E-08-4.67197E-01-7.83901E+00-7.10727E-02
 -1      1479 6.92301E+01-4.24433E+01 1.39646E-09-4.52691E-01-8.65317E+00-6.84724E-02
 -1      1480 7.16296E+01-4.39034E+01 8.66922E-09-4.35603E-01-9.43645E+00-6.57783E-02
 -1      1481 7.39518E+01-4.53331E+01 1.43741E-09-4.19012E-01-1.01878E+01-6.29937E-02
 -1      1482 7.61663E+01-4.66884E+01-9.07169E-09-3.98369E-01-1.09061E+01-6.01225E-02
 -1      1483 7.82785E+01-4.79853E+01-1.33929E-08-3.79263E-01-1.15904E+01-5.71684E-02
 -1      1484 8.02675E+01-4.92038E+01-1.43561E-08-3.57568E-01-1.22398E+01-5.41360E-02
 -1      1485 8.21394E+01-5.03478E+01-1.23427E-08-3.31591E-01-1.28534E+01-5.10297E-02
 -1      1486 8.38944E+01-5.14309E+01-8.97211E-09-3.11470E-01-1.34303E+01-4.78540E-02
 -1      1487 8.55043E+01-5.24173E+01 1.81113E-09-2.84925E-01-1.39698E+01-4.46141E-02
 -1      1488 8.69733E+01-5.33125E+01 2.24872E-08-2.59711E-01-1.44711E+01-4.13153E-02
 -1      1489 8.83038E+01-5.41263E+01 5.26327E-08-2.31357E-01-1.49337E+01-3.79627E-02
 -1      1490 8.95020E+01-5.48741E+01 9.72737E-08-2.04438E-01-1.53568E+01-3.45620E-02
 -1      1491 9.05212E+01-5.54859E+01 1.39218E-07-1.75319E-01-1.57400E+01-3.11189E-02
 -1      1492 9.13994E+01-5.60264E+01 1.70073E-07-1.47971E-01-1.60828E+01-2.76394E-02
 -1      1493 9.21218E+01-5.64744E+01 1.99183E-07-1.17419E-01-1.63849E+01-2.41293E-02
 -1      1494 9.26807E+01-5.68179E+01 2.26684E-07-8.73459E-02-1.66458E+01-2.05948E-02
 -1      1495 9.30634E+01-5.70495E+01 2.52321E-07-5.75838E-02-1.68654E+01-1.70423E-02
 -1      1496 9.32831E+01-5.71760E+01 2.75423E-07-2.23868E-02-1.70434E+01-1.34781E-02
 -1      1497 9.33572E+01-5.72364E+01 3.01372E-07 2.76138E-03-1.71799E+01-9.90832E-03
 -1      1498 9.32271E+01-5.71476E+01 3.20106E-07 3.60211E-02-1.72747E+01-6.33977E-03
 -1      1499 9.29442E+01-5.69738E+01 3.16500E-07 6.91957E-02-1.73279E+01-2.77894E-03
 -1      1500 9.24938E+01-5.67033E+01 3.04364E-07 1.00118E-01-1.73396E+01 7.67774E-04
 -1      1501 9.18682E+01-5.63202E+01 2.92827E-07 1.33295E-01-1.73100E+01 4.29378E-03
 -1      1502 9.10624E+01-5.58206E+01 2.87988E-07 1.60594E-01-1.72395E+01 7.79251E-03
 -1      1503 9.00883E+01-5.52221E+01 2.88159E-07 1.95355E-01-1.71283E+01 1.12573E-02
 -1      1504 8.89611E+01-5.45386E+01 2.80945E-07 2.25565E-01-1.69770E+01 1.46818E-02
 -1      1505 8.76545E+01-5.37374E+01 2.72904E-07 2.56494E-01-1.67859E+01 1.80597E-02
 -1      1506 8.61709E+01-5.28215E+01 2.75685E-07 2.86004E-01-1.65557E+01 2.13843E-02
 -1      1507 8.45369E+01-5.18188E+01 2.88510E-07 3.19087E-01-1.62871E+01 2.46494E-02
 -1      1508 8.27542E+01-5.07380E+01 2.94537E-07 3.44704E-01-1.59808E+01 2.78489E-02
 -1      1509 8.07842E+01-4.95212E+01 2.82840E-07 3.74366E-01-1.56376E+01 3.09766E-02
 -1      1510 7.86726E+01-4.82232E+01 2.62189E-07 4.04644E-01-1.52583E+01 3.40265E-02
 -1      1511 7.64167E+01-4.68449E+01 2.39540E-07 4.30055E-01-1.48439E+01 3.69928E-02
 -1      1512 7.40167E+01-4.53801E+01 2.19034E-07 4.58767E-01-1.43954E+01 3.98699E-02
 -1      1513 7.14567E+01-4.38019E+01 1.99015E-07 4.81121E-01-1.39139E+01 4.26522E-02
 -1      1514 6.87651E+01-4.21504E+01 1.73168E-07 5.08840E-01-1.34005E+01 4.53341E-02
 -1      1515 6.59615E+01-4.04434E+01 1.35397E-07 5.32003E-01-1.28564E+01 4.79108E-02
 -1      1516 6.29982E+01-3.86153E+01 8.71545E-08 5.54393E-01-1.22829E+01 5.03773E-02
 -1      1517 5.99336E+01-3.67389E+01 4.07266E-08 5.78536E-01-1.16813E+01 5.27285E-02
 -1      1518 5.67558E+01-3.47953E+01 1.70561E-09 5.96496E-01-1.10530E+01 5.49603E-02
 -1      1519 5.34580E+01-3.27721E+01-3.64468E-08 6.17121E-01-1.03993E+01 5.70681E-02
 -1      1520 5.00599E+01-3.06866E+01-7.45493E-08 6.35020E-01-9.72180E+00 5.90480E-02
 -1      1521 4.65657E+01-2.85440E+01-1.05682E-07 6.53018E-01-9.02195E+00 6.08961E-02
 -1      1522 4.29897E+01-2.63553E+01-1.28833E-07 6.69167E-01-8.30132E+00 6.26089E-02
 -1      1523 3.93271E+01-2.41111E+01-1.44250E-07 6.82111E-01-7.56151E+00 6.41832E-02
 -1      1524 3.55810E+01-2.18094E+01-1.55802E-07 6.95998E-01-6.80416E+00 6.56159E-02
 -1      1525 3.17762E+01-1.94767E+01-1.64660E-07 7.07649E-01-6.03093E+00 6.69043E-02
 -1      1526 2.79184E+01-1.71189E+01-1.69547E-07 7.17951E-01-5.24351E+00 6.80459E-02
 -1      1527 2.39936E+01-1.47067E+01-1.74197E-07 7.26522E-01-4.44365E+00 6.90387E-02
 -1      1528 2.00342E+01-1.22808E+01-1.80794E-07 7.34690E-01-3.63308E+00 6.98808E-02
 -1      1529 1.60393E+01-9.83328E+00-1.85947E-07 7.39676E-01-2.81358E+00 7.05707E-02
 -1      1530 1.20121E+01-7.36330E+00-1.87299E-07 7.44333E-01-1.98691E+00 7.11072E-02
 -1      1531 7.96788E+00-4.88420E+00-1.87483E-07 7.47155E-01-1.15489E+00 7.14893E-02
 -1      1532 3.91160E+00-2.39744E+00-1.88290E-07 7.48601E-01-3.19308E-01 7.17165E-02
 -1      1533-1.47581E-01 9.07881E-02-1.87298E-07 7.48350E-01 5.18016E-01 7.17884E-02
 -1      1534-4.20131E+00 2.57567E+00-1.84859E-07 7.46800E-01 1.35527E+00 7.17053E-02
 -1      1535-8.24198E+00 5.05270E+00-1.83138E-07 7.43341E-01 2.19065E+00 7.14672E-02
 -1      1536-1.22614E+01 7.51682E+00-1.79509E-07 7.38628E-01 3.02236E+00 7.10750E-02
 -1      1537-1.62523E+01 9.96533E+00-1.75391E-07 7.32300E-01 3.84860E+00 7.05297E-02
 -1      1538-2.02002E+01 1.23820E+01-1.75653E-07 7.24337E-01 4.66759E+00 6.98326E-02
 -1      1539-2.41054E+01 1.47763E+01-1.79758E-07 7.15906E-01 5.47756E+00 6.89851E-02
 -1      1540-2.79584E+01 1.71410E+01-1.84333E-07 7.04527E-01 6.27678E+00 6.79892E-02
 -1      1541-3.17487E+01 1.94649E+01-1.88403E-07 6.92406E-01 7.06353E+00 6.68473E-02
 -1      1542-3.54623E+01 2.17382E+01-1.90432E-07 6.79176E-01 7.83612E+00 6.55618E-02
 -1      1543-3.91047E+01 2.39707E+01-1.89913E-07 6.62775E-01 8.59288E+00 6.41356E-02
 -1      1544-4.26692E+01 2.61625E+01-1.88716E-07 6.48261E-01 9.33219E+00 6.25716E-02
 -1      1545-4.61229E+01 2.82722E+01-1.81959E-07 6.30247E-01 1.00525E+01 6.08734E-02
 -1      1546-4.94900E+01 3.03379E+01-1.63466E-07 6.10325E-01 1.07522E+01 5.90446E-02
 -1      1547-5.27532E+01 3.23414E+01-1.37980E-07 5.90571E-01 1.14298E+01 5.70891E-02
 -1      1548-5.58969E+01 3.42688E+01-1.09464E-07 5.69052E-01 1.20839E+01 5.50111E-02
 -1      1549-5.89205E+01 3.61187E+01-8.51269E-08 5.45971E-01 1.27130E+01 5.28151E-02
 -1      1550-6.18192E+01 3.78947E+01-7.21824E-08 5.23416E-01 1.33159E+01 5.05058E-02
 -1      1551-6.45942E+01 3.96031E+01-5.74123E-08 4.97771E-01 1.38912E+01 4.80880E-02
 -1      1552-6.72244E+01 4.12120E+01-3.33045E-08 4.71525E-01 1.44376E+01 4.55669E-02
 -1      1553-6.97026E+01 4.27249E+01-7.26145E-09 4.46616E-01 1.49541E+01 4.29480E-02
 -1      1554-7.20495E+01 4.41680E+01 1.76525E-08 4.15513E-01 1.54395E+01 4.02367E-02
 -1      1555-7.42492E+01 4.55250E+01 4.41992E-08 3.90304E-01 1.58927E+01 3.74387E-02
 -1      1556-7.62619E+01 4.67464E+01 7.32374E-08 3.60260E-01 1.63128E+01 3.45601E-02
 -1      1557-7.81369E+01 4.78991E+01 8.95310E-08 3.28757E-01 1.66989E+01 3.16070E-02
 -1      1558-7.98439E+01 4.89489E+01 9.25969E-08 2.98517E-01 1.70501E+01 2.85854E-02
 -1      1559-8.13847E+01 4.98952E+01 8.92023E-08 2.65809E-01 1.73657E+01 2.55019E-02
 -1      1560-8.27397E+01 5.07200E+01 7.67031E-08 2.37729E-01 1.76450E+01 2.23629E-02
 -1      1561-8.39247E+01 5.14435E+01 7.03627E-08 2.02007E-01 1.78874E+01 1.91752E-02
 -1      1562-8.49568E+01 5.20910E+01 7.23589E-08 1.70157E-01 1.80923E+01 1.59452E-02
 -1      1563-8.57728E+01 5.25754E+01 7.60876E-08 1.37568E-01 1.82593E+01 1.26802E-02
 -1      1564-8.64389E+01 5.29876E+01 8.78665E-08 1.01207E-01 1.83881E+01 9.38686E-03
 -1      1565-8.69265E+01 5.32968E+01 1.06983E-07 7.14663E-02 1.84783E+01 6.07161E-03
 -1      1566-8.72025E+01 5.34569E+01 1.17376E-07 3.52213E-02 1.85297E+01 2.74162E-03
 -1      1567-8.73046E+01 5.35152E+01 1.17602E-07 4.01247E-03 1.85422E+01-5.95877E-04
 -1      1568-8.72325E+01 5.34777E+01 1.24620E-07-3.23419E-02 1.85158E+01-3.93388E-03
 -1      1569-8.69713E+01 5.33176E+01 1.38873E-07-6.53130E-02 1.84505E+01-7.26539E-03
 -1      1570-8.65342E+01 5.30523E+01 1.51359E-07-1.00424E-01 1.83464E+01-1.05835E-02
 -1      1571-8.58997E+01 5.26570E+01 1.56351E-07-1.29577E-01 1.82036E+01-1.38811E-02
 -1      1572-8.50896E+01 5.21575E+01 1.58486E-07-1.66055E-01 1.80226E+01-1.71513E-02
 -1      1573-8.41266E+01 5.15819E+01 1.66541E-07-1.97892E-01 1.78036E+01-2.03874E-02
 -1      1574-8.29472E+01 5.08442E+01 1.63687E-07-2.29285E-01 1.75471E+01-2.35825E-02
 -1      1575-8.16193E+01 5.00329E+01 1.39258E-07-2.64083E-01 1.72535E+01-2.67298E-02
 -1      1576-8.01242E+01 4.91225E+01 9.59636E-08-2.91472E-01 1.69236E+01-2.98230E-02
 -1      1577-7.84481E+01 4.80925E+01 4.12514E-08-3.23533E-01 1.65579E+01-3.28555E-02
 -1      1578-7.66137E+01 4.69682E+01 1.69231E-09-3.52740E-01 1.61572E+01-3.58209E-02
 -1      1579-7.46091E+01 4.57307E+01-1.69709E-08-3.83775E-01 1.57224E+01-3.87131E-02
 -1      1580-7.24764E+01 4.44356E+01-3.07951E-08-4.11352E-01 1.52542E+01-4.15260E-02
 -1      1581-7.01673E+01 4.30145E+01-4.44771E-08-4.36119E-01 1.47538E+01-4.42539E-02
 -1      1582-6.77149E+01 4.15079E+01-5.62061E-08-4.65131E-01 1.42220E+01-4.68908E-02
 -1      1583-6.51379E+01 3.99348E+01-6.72578E-08-4.89859E-01 1.36601E+01-4.94315E-02
 -1      1584-6.24138E+01 3.82639E+01-7.64788E-08-5.14269E-01 1.30690E+01-5.18707E-02
 -1      1585-5.95548E+01 3.65064E+01-7.85375E-08-5.37000E-01 1.24502E+01-5.42033E-02
 -1      1586-5.65828E+01 3.46853E+01-7.20915E-08-5.61215E-01 1.18047E+01-5.64244E-02
 -1      1587-5.34963E+01 3.27974E+01-5.85874E-08-5.79532E-01 1.11341E+01-5.85295E-02
 -1      1588-5.02916E+01 3.08313E+01-4.32955E-08-6.00247E-01 1.04395E+01-6.05143E-02
 -1      1589-4.69848E+01 2.88023E+01-3.69729E-08-6.18154E-01 9.72257E+00-6.23746E-02
 -1      1590-4.35811E+01 2.67139E+01-3.93869E-08-6.36102E-01 8.98464E+00-6.41067E-02
 -1      1591-4.01000E+01 2.45863E+01-4.73778E-08-6.52044E-01 8.22727E+00-6.57069E-02
 -1      1592-3.65232E+01 2.23894E+01-5.59958E-08-6.64685E-01 7.45202E+00-6.71722E-02
 -1      1593-3.28747E+01 2.01506E+01-6.17494E-08-6.79140E-01 6.66047E+00-6.84995E-02
 -1      1594-2.91691E+01 1.78821E+01-6.63951E-08-6.89616E-01 5.85426E+00-6.96860E-02
 -1      1595-2.53997E+01 1.55722E+01-7.07540E-08-6.99876E-01 5.03503E+00-7.07294E-02
 -1      1596-2.15794E+01 1.32280E+01-7.25032E-08-7.08423E-01 4.20447E+00-7.16279E-02
 -1      1597-1.77190E+01 1.08612E+01-7.10513E-08-7.14967E-01 3.36430E+00-7.23794E-02
 -1      1598-1.38276E+01 8.47784E+00-7.00568E-08-7.20488E-01 2.51621E+00-7.29826E-02
 -1      1599-9.90745E+00 6.07286E+00-6.88779E-08-7.24186E-01 1.66196E+00-7.34365E-02
 -1      1600-5.97258E+00 3.66076E+00-6.72885E-08-7.26572E-01 8.03286E-01-7.37402E-02
 -1      1601-2.03108E+00 1.24540E+00-6.35251E-08-7.27208E-01-5.80510E-02-7.38931E-02
 -1      1602 1.91257E+00-1.17338E+00-6.03649E-08-7.26291E-01-9.20292E-01-7.38954E-02
 -1      1603 5.84432E+00-3.58268E+00-5.81510E-08-7.23870E-01-1.78168E+00-7.37470E-02
 -1      1604 9.76023E+00-5.98360E+00-5.18488E-08-7.19656E-01-2.64047E+00-7.34485E-02
 -1      1605 1.36498E+01-8.36801E+00-4.32640E-08-7.14128E-01-3.49490E+00-7.30007E-02
 -1      1606 1.75063E+01-1.07343E+01-3.23045E-08-7.06895E-01-4.34324E+00-7.24049E-02
 -1      1607 2.13151E+01-1.30658E+01-2.02785E-08-6.97994E-01-5.18378E+00-7.16625E-02
 -1      1608 2.50748E+01-1.53700E+01-1.27144E-08-6.88650E-01-6.01480E+00-7.07752E-02
 -1      1609 2.87822E+01-1.76487E+01-1.06102E-08-6.76205E-01-6.83464E+00-6.97451E-02
 -1      1610 3.24095E+01-1.98668E+01-1.03890E-08-6.63445E-01-7.64164E+00-6.85749E-02
 -1      1611 3.59673E+01-2.20486E+01-1.49612E-08-6.48066E-01-8.43419E+00-6.72671E-02
 -1      1612 3.94458E+01-2.41831E+01-2.01883E-08-6.31575E-01-9.21069E+00-6.58248E-02
 -1      1613 4.28308E+01-2.62595E+01-1.90649E-08-6.15608E-01-9.96959E+00-6.42513E-02
 -1      1614 4.61089E+01-2.82650E+01-9.95191E-09-5.96355E-01-1.07094E+01-6.25504E-02
 -1      1615 4.92887E+01-3.02138E+01 7.70852E-09-5.75329E-01-1.14286E+01-6.07259E-02
 -1      1616 5.23623E+01-3.21055E+01 2.23128E-08-5.54080E-01-1.21259E+01-5.87819E-02
 -1      1617 5.53006E+01-3.38991E+01 3.08258E-08-5.31076E-01-1.27998E+01-5.67229E-02
 -1      1618 5.81206E+01-3.56292E+01 4.57939E-08-5.08202E-01-1.34490E+01-5.45537E-02
 -1      1619 6.08092E+01-3.72794E+01 6.37833E-08-4.82298E-01-1.40723E+01-5.22792E-02
 -1      1620 6.33629E+01-3.88505E+01 7.48492E-08-4.56124E-01-1.46684E+01-4.99046E-02
 -1      1621 6.57512E+01-4.03033E+01 9.00474E-08-4.28942E-01-1.52364E+01-4.74354E-02
 -1      1622 6.80050E+01-4.16855E+01 1.15545E-07-3.99610E-01-1.57749E+01-4.48772E-02
 -1      1623 7.01121E+01-4.29878E+01 1.46594E-07-3.72593E-01-1.62832E+01-4.22358E-02
 -1      1624 7.20405E+01-4.41657E+01 1.82460E-07-3.41097E-01-1.67602E+01-3.95173E-02
 -1      1625 7.38051E+01-4.52440E+01 2.17080E-07-3.10984E-01-1.72050E+01-3.67281E-02
 -1      1626 7.54021E+01-4.62213E+01 2.38452E-07-2.77835E-01-1.76169E+01-3.38745E-02
 -1      1627 7.68383E+01-4.71128E+01 2.43349E-07-2.45810E-01-1.79952E+01-3.09631E-02
 -1      1628 7.80734E+01-4.78588E+01 2.39103E-07-2.12231E-01-1.83392E+01-2.80006E-02
 -1      1629 7.91395E+01-4.85142E+01 2.19791E-07-1.79949E-01-1.86484E+01-2.49939E-02
 -1      1630 8.00241E+01-4.90609E+01 1.82402E-07-1.44679E-01-1.89223E+01-2.19500E-02
 -1      1631 8.07207E+01-4.94892E+01 1.43527E-07-1.10098E-01-1.91604E+01-1.88760E-02
 -1      1632 8.12140E+01-4.97853E+01 1.12369E-07-7.56630E-02-1.93626E+01-1.57791E-02
 -1      1633 8.15271E+01-4.99754E+01 8.89370E-08-3.73443E-02-1.95286E+01-1.26667E-02
 -1      1634 8.16663E+01-5.00780E+01 6.26907E-08-5.09122E-03-1.96582E+01-9.54591E-03
 -1      1635 8.15651E+01-4.99954E+01 2.52299E-08 3.21108E-02-1.97513E+01-6.42434E-03
 -1      1636 8.13008E+01-4.98374E+01-1.99266E-08 6.81714E-02-1.98081E+01-3.30944E-03
 -1      1637 8.08438E+01-4.95674E+01-7.43092E-08 1.04649E-01-1.98286E+01-2.08589E-04
 -1      1638 8.01804E+01-4.91572E+01-1.38345E-07 1.42083E-01-1.98131E+01 2.87067E-03
 -1      1639 7.93157E+01-4.86229E+01-2.03668E-07 1.74346E-01-1.97618E+01 5.92085E-03
 -1      1640 7.82581E+01-4.79732E+01-2.54586E-07 2.13458E-01-1.96751E+01 8.93437E-03
 -1      1641 7.70202E+01-4.72216E+01-2.74678E-07 2.48394E-01-1.95535E+01 1.19039E-02
 -1      1642 7.55752E+01-4.63343E+01-2.64773E-07 2.84080E-01-1.93975E+01 1.48220E-02
 -1      1643 7.39371E+01-4.53259E+01-2.42183E-07 3.19750E-01-1.92079E+01 1.76812E-02
 -1      1644 7.21128E+01-4.42064E+01-2.17895E-07 3.53184E-01-1.89853E+01 2.04743E-02
 -1      1645 7.01115E+01-4.29899E+01-1.96564E-07 3.88545E-01-1.87305E+01 2.31941E-02
 -1      1646 6.79038E+01-4.16264E+01-1.78340E-07 4.21576E-01-1.84444E+01 2.58333E-02
 -1      1647 6.55252E+01-4.01692E+01-1.61394E-07 4.56169E-01-1.81280E+01 2.83851E-02
 -1      1648 6.29745E+01-3.86130E+01-1.39330E-07 4.88576E-01-1.77825E+01 3.08424E-02
 -1      1649 6.02375E+01-3.69305E+01-1.01715E-07 5.21975E-01-1.74088E+01 3.31985E-02
 -1      1650 5.73256E+01-3.51419E+01-5.67053E-08 5.49624E-01-1.70083E+01 3.54467E-02
 -1      1651 5.42521E+01-3.32607E+01-9.41305E-09 5.83115E-01-1.65822E+01 3.75805E-02
 -1      1652 5.10230E+01-3.12874E+01 3.81174E-08 6.12200E-01-1.61319E+01 3.95935E-02
 -1      1653 4.76133E+01-2.91889E+01 7.09251E-08 6.40894E-01-1.56588E+01 4.14797E-02
 -1      1654 4.40632E+01-2.70146E+01 8.53227E-08 6.70518E-01-1.51645E+01 4.32328E-02
 -1      1655 4.03651E+01-2.47511E+01 9.30991E-08 6.95725E-01-1.46506E+01 4.48472E-02
 -1      1656 3.65131E+01-2.23880E+01 9.98132E-08 7.22790E-01-1.41187E+01 4.63172E-02
 -1      1657 3.25256E+01-1.99430E+01 1.07682E-07 7.47656E-01-1.35705E+01 4.76373E-02
 -1      1658 2.84019E+01-1.74142E+01 1.16539E-07 7.72474E-01-1.30077E+01 4.88023E-02
 -1      1659 2.41556E+01-1.48141E+01 1.19142E-07 7.95812E-01-1.24324E+01 4.98072E-02
 -1      1660 1.97812E+01-1.21316E+01 1.13467E-07 8.17109E-01-1.18462E+01 5.06472E-02
 -1      1661 1.52886E+01-9.37710E+00 1.05966E-07 8.38440E-01-1.12513E+01 5.13176E-02
 -1      1662 1.06875E+01-6.55642E+00 1.02712E-07 8.58758E-01-1.06495E+01 5.18142E-02
 -1      1663 5.98056E+00-3.67178E+00 1.02554E-07 8.77313E-01-1.00429E+01 5.21326E-02
 -1      1664 1.17486E+00-7.26420E-01 1.01885E-07 8.95153E-01-9.43375E+00 5.22692E-02
 -1      1665-3.72659E+00 2.27899E+00 9.72117E-08 9.11776E-01-8.82405E+00 5.22201E-02
 -1      1666-8.71140E+00 5.33347E+00 8.83994E-08 9.27210E-01-8.21602E+00 5.19818E-02
 -1      1667-1.37839E+01 8.44510E+00 8.01622E-08 9.41582E-01-7.61188E+00 5.15513E-02
 -1      1668-1.89222E+01 1.15916E+01 7.35006E-08 9.55182E-01-7.01390E+00 5.09255E-02
 -1      1669-2.41386E+01 1.47908E+01 6.50407E-08 9.66922E-01-6.42437E+00 5.01016E-02
 -1      1670-2.94126E+01 1.80228E+01 5.32592E-08 9.77822E-01-5.84562E+00 4.90771E-02
 -1      1671-3.47556E+01 2.13020E+01 4.20472E-08 9.89089E-01-5.28001E+00 4.78496E-02
 -1      1672-4.01275E+01 2.45877E+01 3.32677E-08 9.97977E-01-4.72991E+00 4.64171E-02
 -1      1673-4.55731E+01 2.79298E+01 2.45529E-08 1.00523E+00-4.19773E+00 4.47776E-02
 -1      1674-5.10399E+01 3.12811E+01 1.66418E-08 1.01278E+00-3.68589E+00 4.29295E-02
 -1      1675-5.65657E+01 3.46714E+01 1.14453E-08 1.01846E+00-3.19683E+00 4.08713E-02
 -1      1676-6.20808E+01 3.80387E+01 5.91559E-09 1.02494E+00-2.73302E+00 3.86017E-02
 -1      1677-6.76843E+01 4.14884E+01-3.09732E-09 1.02948E+00-2.29692E+00 3.61195E-02
 -1      1678-7.32461E+01 4.48894E+01-1.40185E-08 1.03289E+00-1.89102E+00 3.34238E-02
 -1      1679-7.88949E+01 4.83609E+01-2.70209E-08 1.03632E+00-1.51783E+00 3.05138E-02
 -1      1680-8.44607E+01 5.17507E+01-4.15923E-08 1.03631E+00-1.17983E+00 2.73890E-02
 -1      1681-9.01801E+01 5.52808E+01-5.72612E-08 1.04215E+00-8.79547E-01 2.40485E-02
 -1      1682-9.57862E+01 5.87495E+01-7.30420E-08 1.04000E+00-6.19490E-01 2.04924E-02
 -1      1683-1.01239E+02 6.18107E+01-8.81032E-08 1.05137E+00-4.02183E-01 1.67202E-02
 -1      1684-1.08004E+02 6.71340E+01-1.03505E-07 1.00536E+00-2.30143E-01 1.27310E-02
 -1      1685-1.09222E+02 6.34542E+01-1.16161E-07 1.18163E+00-1.05901E-01 8.52795E-03
 -1      1686-1.31551E+02 9.34353E+01-1.48847E-07 5.30867E-01-3.19823E-02 4.09909E-03
 -1      1687-7.63104E+01 3.96039E-02-1.76797E-07 2.91905E+00-7.91065E-03 1.82454E-03
 -1      1688 3.26361E-02-4.07032E-03 1.15820E-08-1.75714E-04-2.56316E+01 1.03065E-01
 -1      1689 1.55175E-01-7.96880E-02 1.90438E-08-4.68988E-02-2.50303E+01 1.03061E-01
 -1      1690 5.28267E-01-3.08821E-01 3.45109E-08-9.14377E-02-2.38279E+01 1.03048E-01
 -1      1691 1.13875E+00-6.84090E-01 3.53124E-08-1.33861E-01-2.26258E+01 1.03016E-01
 -1      1692 1.97124E+00-1.19455E+00 1.67353E-08-1.73781E-01-2.14242E+01 1.02955E-01
 -1      1693 3.01871E+00-1.83867E+00-5.25238E-09-2.12016E-01-2.02235E+01 1.02860E-01
 -1      1694 4.26001E+00-2.59756E+00-2.52759E-08-2.47769E-01-1.90241E+01 1.02720E-01
 -1      1695 5.69790E+00-3.48272E+00-4.11719E-08-2.81040E-01-1.78267E+01 1.02529E-01
 -1      1696 7.30413E+00-4.46547E+00-4.82228E-08-3.12930E-01-1.66319E+01 1.02280E-01
 -1      1697 9.07952E+00-5.55551E+00-5.00818E-08-3.41540E-01-1.54403E+01 1.01966E-01
 -1      1698 1.10091E+01-6.74016E+00-4.30401E-08-3.68971E-01-1.42528E+01 1.01582E-01
 -1      1699 1.30700E+01-7.99991E+00-2.30534E-08-3.94615E-01-1.30702E+01 1.01121E-01
 -1      1700 1.52732E+01-9.35476E+00-2.13881E-09-4.15449E-01-1.18935E+01 1.00578E-01
 -1      1701 1.75885E+01-1.07755E+01 1.61060E-08-4.38526E-01-1.07235E+01 9.99495E-02
 -1      1702 2.00017E+01-1.22506E+01 3.36043E-08-4.54613E-01-9.56149E+00 9.92304E-02
 -1      1703 2.25233E+01-1.37982E+01 4.69345E-08-4.71753E-01-8.40838E+00 9.84167E-02
 -1      1704 2.51243E+01-1.53995E+01 5.73988E-08-4.88185E-01-7.26533E+00 9.75051E-02
 -1      1705 2.77821E+01-1.70168E+01 6.39510E-08-4.97068E-01-6.13350E+00 9.64930E-02
 -1      1706 3.05281E+01-1.87135E+01 6.44129E-08-5.09809E-01-5.01407E+00 9.53773E-02
 -1      1707 3.32967E+01-2.04019E+01 6.47471E-08-5.15582E-01-3.90828E+00 9.41564E-02
 -1      1708 3.61244E+01-2.21403E+01 6.90494E-08-5.22998E-01-2.81736E+00 9.28284E-02
 -1      1709 3.89714E+01-2.38886E+01 7.12273E-08-5.28481E-01-1.74256E+00 9.13920E-02
 -1      1710 4.18212E+01-2.56232E+01 7.15512E-08-5.28596E-01-6.85154E-01 8.98466E-02
 -1      1711 4.47125E+01-2.74128E+01 7.30138E-08-5.29560E-01 3.53579E-01 8.81912E-02
 -1      1712 4.75657E+01-2.91496E+01 7.10609E-08-5.27567E-01 1.37236E+00 8.64263E-02
 -1      1713 5.04269E+01-3.09100E+01 6.86388E-08-5.25101E-01 2.36991E+00 8.45518E-02
 -1      1714 5.32546E+01-3.26419E+01 5.95132E-08-5.19801E-01 3.34495E+00 8.25687E-02
 -1      1715 5.60478E+01-3.43517E+01 4.67200E-08-5.11854E-01 4.29623E+00 8.04779E-02
 -1      1716 5.88112E+01-3.60512E+01 3.95498E-08-5.02586E-01 5.22249E+00 7.82809E-02
 -1      1717 6.15146E+01-3.77088E+01 3.13232E-08-4.94466E-01 6.12250E+00 7.59796E-02
 -1      1718 6.41488E+01-3.93187E+01 2.15226E-08-4.81906E-01 6.99507E+00 7.35760E-02
 -1      1719 6.67238E+01-4.08971E+01 1.16181E-08-4.67197E-01 7.83901E+00 7.10727E-02
 -1      1720 6.92301E+01-4.24433E+01-1.39646E-09-4.52691E-01 8.65317E+00 6.84724E-02
 -1      1721 7.16296E+01-4.39034E+01-8.66922E-09-4.35603E-01 9.43645E+00 6.57782E-02
 -1      1722 7.39518E+01-4.53331E+01-1.43741E-09-4.19012E-01 1.01878E+01 6.29937E-02
 -1      1723 7.61663E+01-4.66884E+01 9.07169E-09-3.98369E-01 1.09061E+01 6.01225E-02
 -1      1724 7.82785E+01-4.79853E+01 1.33929E-08-3.79263E-01 1.15904E+01 5.71684E-02
 -1      1725 8.02675E+01-4.92038E+01 1.43561E-08-3.57568E-01 1.22398E+01 5.41360E-02
 -1      1726 8.21394E+01-5.03478E+01 1.23427E-08-3.31591E-01 1.28534E+01 5.10297E-02
 -1      1727 8.38944E+01-5.14309E+01 8.97211E-09-3.11470E-01 1.34303E+01 4.78540E-02
 -1      1728 8.55043E+01-5.24173E+01-1.81113E-09-2.84925E-01 1.39698E+01 4.46141E-02
 -1      1729 8.69733E+01-5.33125E+01-2.24872E-08-2.59711E-01 1.44711E+01 4.13153E-02
 -1      1730 8.83038E+01-5.41263E+01-5.26327E-08-2.31357E-01 1.49337E+01 3.79627E-02
 -1      1731 8.95020E+01-5.48741E+01-9.72737E-08-2.04438E-01 1.53568E+01 3.45620E-02
 -1      1732 9.05212E+01-5.54859E+01-1.39218E-07-1.75318E-01 1.57400E+01 3.11189E-02
 -1      1733 9.13994E+01-5.60264E+01-1.70073E-07-1.47971E-01 1.60828E+01 2.76393E-02
 -1      1734 9.21218E+01-5.64744E+01-1.99183E-07-1.17418E-01 1.63849E+01 2.41293E-02
 -1      1735 9.26807E+01-5.68179E+01-2.26684E-07-8.73458E-02 1.66458E+01 2.05948E-02
 -1      1736 9.30634E+01-5.70495E+01-2.52321E-07-5.75837E-02 1.68654E+01 1.70423E-02
 -1      1737 9.32831E+01-5.71760E+01-2.75423E-07-2.23867E-02 1.70434E+01 1.34781E-02
 -1      1738 9.33572E+01-5.72364E+01-3.01372E-07 2.76150E-03 1.71799E+01 9.90831E-03
 -1      1739 9.32271E+01-5.71476E+01-3.20106E-07 3.60211E-02 1.72747E+01 6.33976E-03
 -1      1740 9.29442E+01-5.69738E+01-3.16500E-07 6.91957E-02 1.73278E+01 2.77893E-03
 -1      1741 9.24938E+01-5.67033E+01-3.04364E-07 1.00117E-01 1.73396E+01-7.67778E-04
 -1      1742 9.18682E+01-5.63202E+01-2.92827E-07 1.33295E-01 1.73100E+01-4.29378E-03
 -1      1743 9.10624E+01-5.58206E+01-2.87988E-07 1.60594E-01 1.72395E+01-7.79251E-03
 -1      1744 9.00883E+01-5.52221E+01-2.88159E-07 1.95355E-01 1.71283E+01-1.12573E-02
 -1      1745 8.89611E+01-5.45386E+01-2.80945E-07 2.25565E-01 1.69770E+01-1.46818E-02
 -1      1746 8.76545E+01-5.37374E+01-2.72904E-07 2.56494E-01 1.67859E+01-1.80597E-02
 -1      1747 8.61709E+01-5.28215E+01-2.75685E-07 2.86004E-01 1.65557E+01-2.13843E-02
 -1      1748 8.45369E+01-5.18188E+01-2.88510E-07 3.19087E-01 1.62871E+01-2.46494E-02
 -1      1749 8.27542E+01-5.07380E+01-2.94537E-07 3.44704E-01 1.59808E+01-2.78489E-02
 -1      1750 8.07842E+01-4.95212E+01-2.82840E-07 3.74366E-01 1.56376E+01-3.09766E-02
 -1      1751 7.86726E+01-4.82232E+01-2.62189E-07 4.04644E-01 1.52583E+01-3.40265E-02
 -1      1752 7.64167E+01-4.68449E+01-2.39540E-07 4.30055E-01 1.48439E+01-3.69928E-02
 -1      1753 7.40167E+01-4.53801E+01-2.19034E-07 4.58767E-01 1.43954E+01-3.98699E-02
 -1      1754 7.14567E+01-4.38019E+01-1.99015E-07 4.81121E-01 1.39139E+01-4.26521E-02
 -1      1755 6.87651E+01-4.21504E+01-1.73168E-07 5.08840E-01 1.34005E+01-4.53341E-02
 -1      1756 6.59615E+01-4.04434E+01-1.35397E-07 5.32003E-01 1.28564E+01-4.79108E-02
 -1      1757 6.29982E+01-3.86153E+01-8.71545E-08 5.54393E-01 1.22829E+01-5.03773E-02
 -1      1758 5.99336E+01-3.67389E+01-4.07266E-08 5.78535E-01 1.16813E+01-5.27285E-02
 -1      1759 5.67558E+01-3.47953E+01-1.70561E-09 5.96495E-01 1.10530E+01-5.49603E-02
 -1      1760 5.34580E+01-3.27721E+01 3.64468E-08 6.17121E-01 1.03993E+01-5.70681E-02
 -1      1761 5.00599E+01-3.06866E+01 7.45493E-08 6.35020E-01 9.72180E+00-5.90480E-02
 -1      1762 4.65657E+01-2.85440E+01 1.05682E-07 6.53018E-01 9.02195E+00-6.08961E-02
 -1      1763 4.29897E+01-2.63553E+01 1.28833E-07 6.69167E-01 8.30132E+00-6.26089E-02
 -1      1764 3.93271E+01-2.41111E+01 1.44250E-07 6.82111E-01 7.56151E+00-6.41832E-02
 -1      1765 3.55810E+01-2.18094E+01 1.55802E-07 6.95998E-01 6.80416E+00-6.56159E-02
 -1      1766 3.17762E+01-1.94767E+01 1.64660E-07 7.07649E-01 6.03092E+00-6.69043E-02
 -1      1767 2.79184E+01-1.71189E+01 1.69547E-07 7.17951E-01 5.24351E+00-6.80459E-02
 -1      1768 2.39936E+01-1.47067E+01 1.74197E-07 7.26522E-01 4.44365E+00-6.90387E-02
 -1      1769 2.00342E+01-1.22808E+01 1.80794E-07 7.34690E-01 3.63308E+00-6.98808E-02
 -1      1770 1.60393E+01-9.83328E+00 1.85947E-07 7.39676E-01 2.81358E+00-7.05707E-02
 -1      1771 1.20121E+01-7.36330E+00 1.87299E-07 7.44333E-01 1.98691E+00-7.11071E-02
 -1      1772 7.96788E+00-4.88420E+00 1.87483E-07 7.47155E-01 1.15489E+00-7.14893E-02
 -1      1773 3.91160E+00-2.39744E+00 1.88290E-07 7.48601E-01 3.19307E-01-7.17165E-02
 -1      1774-1.47582E-01 9.07885E-02 1.87298E-07 7.48350E-01-5.18016E-01-7.17884E-02
 -1      1775-4.20131E+00 2.57567E+00 1.84859E-07 7.46800E-01-1.35527E+00-7.17053E-02
 -1      1776-8.24198E+00 5.05270E+00 1.83138E-07 7.43341E-01-2.19065E+00-7.14672E-02
 -1      1777-1.22614E+01 7.51682E+00 1.79509E-07 7.38628E-01-3.02236E+00-7.10750E-02
 -1      1778-1.62523E+01 9.96534E+00 1.75391E-07 7.32300E-01-3.84860E+00-7.05297E-02
 -1      1779-2.02002E+01 1.23820E+01 1.75653E-07 7.24337E-01-4.66759E+00-6.98326E-02
 -1      1780-2.41054E+01 1.47763E+01 1.79758E-07 7.15906E-01-5.47756E+00-6.89851E-02
 -1      1781-2.79584E+01 1.71410E+01 1.84333E-07 7.04527E-01-6.27678E+00-6.79892E-02
 -1      1782-3.17487E+01 1.94649E+01 1.88403E-07 6.92406E-01-7.06353E+00-6.68473E-02
 -1      1783-3.54623E+01 2.17382E+01 1.90432E-07 6.79176E-01-7.83612E+00-6.55618E-02
 -1      1784-3.91047E+01 2.39707E+01 1.89913E-07 6.62775E-01-8.59288E+00-6.41356E-02
 -1      1785-4.26692E+01 2.61625E+01 1.88716E-07 6.48261E-01-9.33219E+00-6.25716E-02
 -1      1786-4.61229E+01 2.82722E+01 1.81959E-07 6.30247E-01-1.00525E+01-6.08734E-02
 -1      1787-4.94900E+01 3.03379E+01 1.63466E-07 6.10325E-01-1.07522E+01-5.90446E-02
 -1      1788-5.27532E+01 3.23414E+01 1.37980E-07 5.90571E-01-1.14298E+01-5.70891E-02
 -1      1789-5.58969E+01 3.42688E+01 1.09464E-07 5.69052E-01-1.20839E+01-5.50111E-02
 -1      1790-5.89205E+01 3.61187E+01 8.51269E-08 5.45971E-01-1.27130E+01-5.28151E-02
 -1      1791-6.18192E+01 3.78947E+01 7.21824E-08 5.23416E-01-1.33159E+01-5.05058E-02
 -1      1792-6.45942E+01 3.96031E+01 5.74123E-08 4.97771E-01-1.38912E+01-4.80880E-02
 -1      1793-6.72244E+01 4.12120E+01 3.33045E-08 4.71525E-01-1.44376E+01-4.55669E-02
 -1      1794-6.97026E+01 4.27249E+01 7.26145E-09 4.46617E-01-1.49541E+01-4.29480E-02
 -1      1795-7.20495E+01 4.41680E+01-1.76525E-08 4.15513E-01-1.54395E+01-4.02367E-02
 -1      1796-7.42492E+01 4.55250E+01-4.41992E-08 3.90304E-01-1.58927E+01-3.74387E-02
 -1      1797-7.62619E+01 4.67464E+01-7.32374E-08 3.60260E-01-1.63128E+01-3.45601E-02
 -1      1798-7.81369E+01 4.78991E+01-8.95310E-08 3.28757E-01-1.66989E+01-3.16070E-02
 -1      1799-7.98439E+01 4.89489E+01-9.25969E-08 2.98517E-01-1.70501E+01-2.85854E-02
 -1      1800-8.13847E+01 4.98952E+01-8.92023E-08 2.65809E-01-1.73657E+01-2.55019E-02
 -1      1801-8.27397E+01 5.07200E+01-7.67031E-08 2.37729E-01-1.76450E+01-2.23629E-02
 -1      1802-8.39247E+01 5.14435E+01-7.03627E-08 2.02007E-01-1.78874E+01-1.91752E-02
 -1      1803-8.49568E+01 5.20910E+01-7.23589E-08 1.70157E-01-1.80923E+01-1.59452E-02
 -1      1804-8.57728E+01 5.25754E+01-7.60876E-08 1.37568E-01-1.82593E+01-1.26802E-02
 -1      1805-8.64389E+01 5.29876E+01-8.78665E-08 1.01207E-01-1.83881E+01-9.38687E-03
 -1      1806-8.69265E+01 5.32968E+01-1.06983E-07 7.14663E-02-1.84783E+01-6.07161E-03
 -1      1807-8.72025E+01 5.34569E+01-1.17376E-07 3.52213E-02-1.85297E+01-2.74162E-03
 -1      1808-8.73046E+01 5.35152E+01-1.17602E-07 4.01247E-03-1.85422E+01 5.95873E-04
 -1      1809-8.72325E+01 5.34777E+01-1.24620E-07-3.23419E-02-1.85158E+01 3.93388E-03
 -1      1810-8.69713E+01 5.33176E+01-1.38873E-07-6.53129E-02-1.84505E+01 7.26538E-03
 -1      1811-8.65342E+01 5.30523E+01-1.51359E-07-1.00424E-01-1.83464E+01 1.05835E-02
 -1      1812-8.58997E+01 5.26570E+01-1.56351E-07-1.29577E-01-1.82036E+01 1.38811E-02
 -1      1813-8.50896E+01 5.21575E+01-1.58486E-07-1.66055E-01-1.80226E+01 1.71513E-02
 -1      1814-8.41266E+01 5.15819E+01-1.66541E-07-1.97892E-01-1.78036E+01 2.03874E-02
 -1      1815-8.29472E+01 5.08442E+01-1.63687E-07-2.29285E-01-1.75471E+01 2.35825E-02
 -1      1816-8.16193E+01 5.00329E+01-1.39258E-07-2.64084E-01-1.72535E+01 2.67298E-02
 -1      1817-8.01242E+01 4.91225E+01-9.59636E-08-2.91473E-01-1.69236E+01 2.98230E-02
 -1      1818-7.84481E+01 4.80925E+01-4.12514E-08-3.23534E-01-1.65579E+01 3.28555E-02
 -1      1819-7.66137E+01 4.69682E+01-1.69231E-09-3.52740E-01-1.61572E+01 3.58209E-02
 -1      1820-7.46092E+01 4.57307E+01 1.69709E-08-3.83775E-01-1.57224E+01 3.87131E-02
 -1      1821-7.24764E+01 4.44356E+01 3.07951E-08-4.11352E-01-1.52542E+01 4.15260E-02
 -1      1822-7.01673E+01 4.30145E+01 4.44771E-08-4.36119E-01-1.47538E+01 4.42539E-02
 -1      1823-6.77149E+01 4.15079E+01 5.62061E-08-4.65131E-01-1.42220E+01 4.68908E-02
 -1      1824-6.51379E+01 3.99348E+01 6.72578E-08-4.89860E-01-1.36601E+01 4.94315E-02
 -1      1825-6.24138E+01 3.82639E+01 7.64788E-08-5.14269E-01-1.30690E+01 5.18707E-02
 -1      1826-5.95548E+01 3.65064E+01 7.85375E-08-5.37000E-01-1.24502E+01 5.42033E-02
 -1      1827-5.65828E+01 3.46853E+01 7.20915E-08-5.61215E-01-1.18047E+01 5.64244E-02
 -1      1828-5.34963E+01 3.27974E+01 5.85874E-08-5.79532E-01-1.11341E+01 5.85295E-02
 -1      1829-5.02916E+01 3.08313E+01 4.32955E-08-6.00247E-01-1.04395E+01 6.05143E-02
 -1      1830-4.69848E+01 2.88023E+01 3.69729E-08-6.18154E-01-9.72257E+00 6.23746E-02
 -1      1831-4.35811E+01 2.67139E+01 3.93869E-08-6.36102E-01-8.98464E+00 6.41067E-02
 -1      1832-4.01000E+01 2.45863E+01 4.73778E-08-6.52044E-01-8.22727E+00 6.57069E-02
 -1      1833-3.65232E+01 2.23894E+01 5.59958E-08-6.64685E-01-7.45202E+00 6.71722E-02
 -1      1834-3.28747E+01 2.01506E+01 6.17494E-08-6.79140E-01-6.66048E+00 6.84995E-02
 -1      1835-2.91691E+01 1.78821E+01 6.63951E-08-6.89616E-01-5.85426E+00 6.96860E-02
 -1      1836-2.53997E+01 1.55722E+01 7.07540E-08-6.99876E-01-5.03503E+00 7.07294E-02
 -1      1837-2.15794E+01 1.32280E+01 7.25032E-08-7.08423E-01-4.20447E+00 7.16279E-02
 -1      1838-1.77190E+01 1.08612E+01 7.10513E-08-7.14967E-01-3.36430E+00 7.23794E-02
 -1      1839-1.38276E+01 8.47784E+00 7.00568E-08-7.20488E-01-2.51621E+00 7.29826E-02
 -1      1840-9.90745E+00 6.07286E+00 6.88779E-08-7.24186E-01-1.66196E+00 7.34365E-02
 -1      1841-5.97258E+00 3.66076E+00 6.72885E-08-7.26572E-01-8.03286E-01 7.37402E-02
 -1      1842-2.03108E+00 1.24540E+00 6.35251E-08-7.27208E-01 5.80505E-02 7.38931E-02
 -1      1843 1.91257E+00-1.17338E+00 6.03649E-08-7.26291E-01 9.20292E-01 7.38954E-02
 -1      1844 5.84432E+00-3.58268E+00 5.81510E-08-7.23870E-01 1.78168E+00 7.37470E-02
 -1      1845 9.76023E+00-5.98360E+00 5.18488E-08-7.19656E-01 2.64047E+00 7.34485E-02
 -1      1846 1.36498E+01-8.36801E+00 4.32640E-08-7.14128E-01 3.49490E+00 7.30007E-02
 -1      1847 1.75063E+01-1.07343E+01 3.23045E-08-7.06895E-01 4.34324E+00 7.24049E-02
 -1      1848 2.13151E+01-1.30658E+01 2.02785E-08-6.97994E-01 5.18378E+00 7.16625E-02
 -1      1849 2.50748E+01-1.53700E+01 1.27144E-08-6.88650E-01 6.01480E+00 7.07752E-02
 -1      1850 2.87822E+01-1.76487E+01 1.06102E-08-6.76205E-01 6.83464E+00 6.97451E-02
 -1      1851 3.24095E+01-1.98668E+01 1.03890E-08-6.63445E-01 7.64164E+00 6.85749E-02
 -1      1852 3.59673E+01-2.20486E+01 1.49612E-08-6.48066E-01 8.43419E+00 6.72671E-02
 -1      1853 3.94458E+01-2.41831E+01 2.01883E-08-6.31575E-01 9.21069E+00 6.58248E-02
 -1      1854 4.28308E+01-2.62595E+01 1.90649E-08-6.15608E-01 9.96959E+00 6.42513E-02
 -1      1855 4.61089E+01-2.82650E+01 9.95191E-09-5.96355E-01 1.07094E+01 6.25504E-02
 -1      1856 4.92887E+01-3.02138E+01-7.70852E-09-5.75329E-01 1.14286E+01 6.07259E-02
 -1      1857 5.23623E+01-3.21055E+01-2.23128E-08-5.54079E-01 1.21259E+01 5.87819E-02
 -1      1858 5.53006E+01-3.38991E+01-3.08258E-08-5.31076E-01 1.27998E+01 5.67229E-02
 -1      1859 5.81206E+01-3.56293E+01-4.57939E-08-5.08202E-01 1.34490E+01 5.45537E-02
 -1      1860 6.08092E+01-3.72794E+01-6.37833E-08-4.82298E-01 1.40723E+01 5.22792E-02
 -1      1861 6.33629E+01-3.88505E+01-7.48492E-08-4.56124E-01 1.46684E+01 4.99046E-02
 -1      1862 6.57512E+01-4.03033E+01-9.00474E-08-4.28942E-01 1.52364E+01 4.74354E-02
 -1      1863 6.80050E+01-4.16855E+01-1.15545E-07-3.99610E-01 1.57749E+01 4.48772E-02
 -1      1864 7.01121E+01-4.29878E+01-1.46594E-07-3.72592E-01 1.62832E+01 4.22358E-02
 -1      1865 7.20405E+01-4.41657E+01-1.82460E-07-3.41096E-01 1.67602E+01 3.95173E-02
 -1      1866 7.38051E+01-4.52440E+01-2.17080E-07-3.10984E-01 1.72050E+01 3.67281E-02
 -1      1867 7.54021E+01-4.62213E+01-2.38452E-07-2.77835E-01 1.76169E+01 3.38745E-02
 -1      1868 7.68383E+01-4.71128E+01-2.43349E-07-2.45810E-01 1.79952E+01 3.09631E-02
 -1      1869 7.80734E+01-4.78588E+01-2.39103E-07-2.12231E-01 1.83392E+01 2.80006E-02
 -1      1870 7.91395E+01-4.85142E+01-2.19791E-07-1.79949E-01 1.86484E+01 2.49939E-02
 -1      1871 8.00241E+01-4.90609E+01-1.82402E-07-1.44679E-01 1.89223E+01 2.19500E-02
 -1      1872 8.07207E+01-4.94892E+01-1.43527E-07-1.10098E-01 1.91604E+01 1.88760E-02
 -1      1873 8.12140E+01-4.97853E+01-1.12369E-07-7.56631E-02 1.93626E+01 1.57791E-02
 -1      1874 8.15271E+01-4.99754E+01-8.89370E-08-3.73444E-02 1.95286E+01 1.26667E-02
 -1      1875 8.16663E+01-5.00780E+01-6.26907E-08-5.09136E-03 1.96582E+01 9.54592E-03
 -1      1876 8.15651E+01-4.99954E+01-2.52299E-08 3.21107E-02 1.97513E+01 6.42435E-03
 -1      1877 8.13008E+01-4.98374E+01 1.99266E-08 6.81712E-02 1.98081E+01 3.30944E-03
 -1      1878 8.08438E+01-4.95674E+01 7.43092E-08 1.04648E-01 1.98286E+01 2.08595E-04
 -1      1879 8.01804E+01-4.91572E+01 1.38345E-07 1.42083E-01 1.98131E+01-2.87067E-03
 -1      1880 7.93157E+01-4.86229E+01 2.03668E-07 1.74345E-01 1.97618E+01-5.92085E-03
 -1      1881 7.82581E+01-4.79732E+01 2.54586E-07 2.13458E-01 1.96751E+01-8.93436E-03
 -1      1882 7.70202E+01-4.72216E+01 2.74678E-07 2.48394E-01 1.95535E+01-1.19039E-02
 -1      1883 7.55752E+01-4.63343E+01 2.64773E-07 2.84080E-01 1.93975E+01-1.48220E-02
 -1      1884 7.39371E+01-4.53259E+01 2.42183E-07 3.19750E-01 1.92079E+01-1.76812E-02
 -1      1885 7.21128E+01-4.42064E+01 2.17895E-07 3.53184E-01 1.89853E+01-2.04743E-02
 -1      1886 7.01115E+01-4.29899E+01 1.96564E-07 3.88545E-01 1.87305E+01-2.31941E-02
 -1      1887 6.79038E+01-4.16264E+01 1.78340E-07 4.21576E-01 1.84444E+01-2.58333E-02
 -1      1888 6.55252E+01-4.01692E+01 1.61394E-07 4.56170E-01 1.81280E+01-2.83851E-02
 -1      1889 6.29745E+01-3.86130E+01 1.39330E-07 4.88576E-01 1.77825E+01-3.08424E-02
 -1      1890 6.02375E+01-3.69305E+01 1.01715E-07 5.21975E-01 1.74088E+01-3.31985E-02
 -1      1891 5.73256E+01-3.51419E+01 5.67053E-08 5.49624E-01 1.70083E+01-3.54467E-02
 -1      1892 5.42521E+01-3.32607E+01 9.41305E-09 5.83116E-01 1.65822E+01-3.75805E-02
 -1      1893 5.10230E+01-3.12874E+01-3.81174E-08 6.12201E-01 1.61319E+01-3.95935E-02
 -1      1894 4.76133E+01-2.91889E+01-7.09251E-08 6.40894E-01 1.56588E+01-4.14797E-02
 -1      1895 4.40632E+01-2.70146E+01-8.53227E-08 6.70518E-01 1.51645E+01-4.32328E-02
 -1      1896 4.03651E+01-2.47511E+01-9.30991E-08 6.95725E-01 1.46506E+01-4.48472E-02
 -1      1897 3.65131E+01-2.23880E+01-9.98132E-08 7.22790E-01 1.41187E+01-4.63172E-02
 -1      1898 3.25256E+01-1.99430E+01-1.07682E-07 7.47656E-01 1.35704E+01-4.76373E-02
 -1      1899 2.84019E+01-1.74142E+01-1.16539E-07 7.72474E-01 1.30077E+01-4.88023E-02
 -1      1900 2.41556E+01-1.48141E+01-1.19142E-07 7.95812E-01 1.24324E+01-4.98072E-02
 -1      1901 1.97812E+01-1.21316E+01-1.13467E-07 8.17109E-01 1.18462E+01-5.06472E-02
 -1      1902 1.52886E+01-9.37710E+00-1.05966E-07 8.38440E-01 1.12513E+01-5.13176E-02
 -1      1903 1.06875E+01-6.55642E+00-1.02712E-07 8.58758E-01 1.06495E+01-5.18142E-02
 -1      1904 5.98056E+00-3.67178E+00-1.02554E-07 8.77313E-01 1.00429E+01-5.21326E-02
 -1      1905 1.17486E+00-7.26420E-01-1.01885E-07 8.95153E-01 9.43375E+00-5.22692E-02
 -1      1906-3.72659E+00 2.27899E+00-9.72117E-08 9.11776E-01 8.82405E+00-5.22201E-02
 -1      1907-8.71140E+00 5.33347E+00-8.83994E-08 9.27210E-01 8.21601E+00-5.19818E-02
 -1      1908-1.37839E+01 8.44510E+00-8.01622E-08 9.41582E-01 7.61188E+00-5.15513E-02
 -1      1909-1.89222E+01 1.15916E+01-7.35006E-08 9.55181E-01 7.01390E+00-5.09255E-02
 -1      1910-2.41386E+01 1.47908E+01-6.50407E-08 9.66922E-01 6.42437E+00-5.01016E-02
 -1      1911-2.94126E+01 1.80228E+01-5.32592E-08 9.77822E-01 5.84562E+00-4.90771E-02
 -1      1912-3.47556E+01 2.13020E+01-4.20472E-08 9.89089E-01 5.28001E+00-4.78496E-02
 -1      1913-4.01275E+01 2.45877E+01-3.32677E-08 9.97977E-01 4.72991E+00-4.64171E-02
 -1      1914-4.55731E+01 2.79298E+01-2.45529E-08 1.00523E+00 4.19773E+00-4.47776E-02
 -1      1915-5.10399E+01 3.12811E+01-1.66418E-08 1.01278E+00 3.68589E+00-4.29295E-02
 -1      1916-5.65657E+01 3.46714E+01-1.14453E-08 1.01846E+00 3.19683E+00-4.08713E-02
 -1      1917-6.20808E+01 3.80387E+01-5.91559E-09 1.02494E+00 2.73302E+00-3.86017E-02
 -1      1918-6.76843E+01 4.14884E+01 3.09732E-09 1.02948E+00 2.29692E+00-3.61195E-02
 -1      1919-7.32461E+01 4.48894E+01 1.40185E-08 1.03289E+00 1.89102E+00-3.34238E-02
 -1      1920-7.88949E+01 4.83609E+01 2.70209E-08 1.03632E+00 1.51783E+00-3.05138E-02
 -1      1921-8.44607E+01 5.17507E+01 4.15923E-08 1.03631E+00 1.17983E+00-2.73890E-02
 -1      1922-9.01801E+01 5.52808E+01 5.72612E-08 1.04215E+00 8.79547E-01-2.40485E-02
 -1      1923-9.57862E+01 5.87495E+01 7.30420E-08 1.04000E+00 6.19490E-01-2.04924E-02
 -1      1924-1.01239E+02 6.18107E+01 8.81032E-08 1.05137E+00 4.02183E-01-1.67202E-02
 -1      1925-1.08004E+02 6.71340E+01 1.03505E-07 1.00536E+00 2.30143E-01-1.27310E-02
 -1      1926-1.09222E+02 6.34542E+01 1.16161E-07 1.18163E+00 1.05901E-01-8.52795E-03
 -1      1927-1.31551E+02 9.34353E+01 1.48847E-07 5.30867E-01 3.19823E-02-4.09909E-03
 -1      1928-7.63104E+01 3.96040E-02 1.76797E-07 2.91906E+00 7.91065E-03-1.82454E-03
 -1      1929 5.68169E-02-9.39591E-03-1.66579E-08 6.03536E-03 2.56316E+01-1.54601E-01
 -1      1930 3.16353E-01-1.70333E-01-2.98504E-08-2.97593E-02 2.50303E+01-1.54596E-01
 -1      1931 1.06375E+00-6.28234E-01-5.26565E-08-5.71013E-02 2.38279E+01-1.54576E-01
 -1      1932 2.28364E+00-1.37850E+00-5.21066E-08-8.39452E-02 2.26258E+01-1.54527E-01
 -1      1933 3.95020E+00-2.40047E+00-2.54684E-08-1.08793E-01 2.14242E+01-1.54438E-01
 -1      1934 6.03873E+00-3.68076E+00 7.59552E-09-1.32719E-01 2.02235E+01-1.54294E-01
 -1      1935 8.53215E+00-5.21179E+00 3.97534E-08-1.55001E-01 1.90241E+01-1.54084E-01
 -1      1936 1.13964E+01-6.96758E+00 6.17422E-08-1.75740E-01 1.78267E+01-1.53798E-01
 -1      1937 1.46160E+01-8.94112E+00 7.37770E-08-1.95894E-01 1.66319E+01-1.53424E-01
 -1      1938 1.81684E+01-1.11245E+01 7.79625E-08-2.13568E-01 1.54403E+01-1.52954E-01
 -1      1939 2.20107E+01-1.34700E+01 6.05831E-08-2.31363E-01 1.42528E+01-1.52377E-01
 -1      1940 2.61605E+01-1.60268E+01 3.20773E-08-2.45774E-01 1.30702E+01-1.51685E-01
 -1      1941 3.05443E+01-1.87066E+01 5.75494E-09-2.60898E-01 1.18934E+01-1.50872E-01
 -1      1942 3.51748E+01-2.15469E+01-2.32854E-08-2.72905E-01 1.07235E+01-1.49929E-01
 -1      1943 4.00313E+01-2.45377E+01-5.14256E-08-2.86123E-01 9.56147E+00-1.48850E-01
 -1      1944 4.50276E+01-2.75696E+01-6.86366E-08-2.95243E-01 8.40836E+00-1.47630E-01
 -1      1945 5.02587E+01-3.08106E+01-8.58644E-08-3.03232E-01 7.26531E+00-1.46262E-01
 -1      1946 5.55831E+01-3.40565E+01-9.80361E-08-3.12857E-01 6.13348E+00-1.44743E-01
 -1      1947 6.10460E+01-3.74103E+01-9.54122E-08-3.16420E-01 5.01406E+00-1.43070E-01
 -1      1948 6.66181E+01-4.08349E+01-9.68253E-08-3.25551E-01 3.90826E+00-1.41239E-01
 -1      1949 7.22312E+01-4.42535E+01-1.02667E-07-3.25307E-01 2.81734E+00-1.39247E-01
 -1      1950 7.79496E+01-4.77835E+01-1.04448E-07-3.30616E-01 1.74255E+00-1.37092E-01
 -1      1951 8.36690E+01-5.12771E+01-1.08655E-07-3.30120E-01 6.85145E-01-1.34774E-01
 -1      1952 8.94136E+01-5.48067E+01-1.11588E-07-3.31403E-01-3.53587E-01-1.32291E-01
 -1      1953 9.51442E+01-5.83123E+01-1.05929E-07-3.31136E-01-1.37237E+00-1.29643E-01
 -1      1954 1.00850E+02-6.18103E+01-1.02035E-07-3.26926E-01-2.36992E+00-1.26831E-01
 -1      1955 1.06519E+02-6.52921E+01-8.93639E-08-3.25160E-01-3.34496E+00-1.23857E-01
 -1      1956 1.12117E+02-6.87252E+01-7.00189E-08-3.20021E-01-4.29623E+00-1.20720E-01
 -1      1957 1.17615E+02-7.20876E+01-5.89479E-08-3.15924E-01-5.22249E+00-1.17425E-01
 -1      1958 1.23021E+02-7.54004E+01-4.64794E-08-3.07586E-01-6.12250E+00-1.13973E-01
 -1      1959 1.28321E+02-7.86621E+01-3.18902E-08-3.01196E-01-6.99506E+00-1.10367E-01
 -1      1960 1.33457E+02-8.17999E+01-1.64831E-08-2.91875E-01-7.83900E+00-1.06612E-01
 -1      1961 1.38458E+02-8.48773E+01 2.79419E-09-2.83455E-01-8.65316E+00-1.02711E-01
 -1      1962 1.43267E+02-8.78108E+01 1.35664E-08-2.73759E-01-9.43643E+00-9.86702E-02
 -1      1963 1.47909E+02-9.06646E+01 3.25744E-09-2.60642E-01-1.01877E+01-9.44932E-02
 -1      1964 1.52344E+02-9.33855E+01-1.23801E-08-2.50579E-01-1.09060E+01-9.01862E-02
 -1      1965 1.56546E+02-9.59467E+01-1.99531E-08-2.35373E-01-1.15904E+01-8.57551E-02
 -1      1966 1.60564E+02-9.84393E+01-2.10097E-08-2.23480E-01-1.22398E+01-8.12062E-02
 -1      1967 1.64284E+02-1.00694E+02-1.79291E-08-2.09325E-01-1.28533E+01-7.65465E-02
 -1      1968 1.67775E+02-1.02836E+02-1.29084E-08-1.93071E-01-1.34303E+01-7.17830E-02
 -1      1969 1.71018E+02-1.04840E+02 4.01274E-09-1.77477E-01-1.39698E+01-6.69231E-02
 -1      1970 1.73959E+02-1.06632E+02 3.47948E-08-1.62395E-01-1.44711E+01-6.19745E-02
 -1      1971 1.76623E+02-1.08266E+02 8.08482E-08-1.44592E-01-1.49336E+01-5.69455E-02
 -1      1972 1.78998E+02-1.09731E+02 1.46214E-07-1.27890E-01-1.53568E+01-5.18443E-02
 -1      1973 1.81051E+02-1.10976E+02 2.08226E-07-1.11758E-01-1.57400E+01-4.66795E-02
 -1      1974 1.82803E+02-1.12048E+02 2.55299E-07-9.02868E-02-1.60828E+01-4.14600E-02
 -1      1975 1.84255E+02-1.12958E+02 2.99111E-07-7.34277E-02-1.63848E+01-3.61947E-02
 -1      1976 1.85346E+02-1.13606E+02 3.40763E-07-5.39622E-02-1.66457E+01-3.08929E-02
 -1      1977 1.86159E+02-1.14133E+02 3.78981E-07-3.66493E-02-1.68653E+01-2.55639E-02
 -1      1978 1.86575E+02-1.14356E+02 4.12413E-07-1.77440E-02-1.70434E+01-2.02172E-02
 -1      1979 1.86679E+02-1.14416E+02 4.52244E-07 5.43651E-03-1.71798E+01-1.48627E-02
 -1      1980 1.86491E+02-1.14338E+02 4.81872E-07 2.35032E-02-1.72746E+01-9.50970E-03
 -1      1981 1.85893E+02-1.13942E+02 4.75947E-07 4.32619E-02-1.73278E+01-4.16811E-03
 -1      1982 1.84997E+02-1.13413E+02 4.57615E-07 6.20849E-02-1.73395E+01 1.15215E-03
 -1      1983 1.83721E+02-1.12611E+02 4.40936E-07 8.16647E-02-1.73099E+01 6.44126E-03
 -1      1984 1.82127E+02-1.11637E+02 4.33111E-07 1.02531E-01-1.72394E+01 1.16894E-02
 -1      1985 1.80205E+02-1.10474E+02 4.32165E-07 1.22581E-01-1.71282E+01 1.68869E-02
 -1      1986 1.77913E+02-1.09058E+02 4.21395E-07 1.40966E-01-1.69768E+01 2.20239E-02
 -1      1987 1.75299E+02-1.07456E+02 4.10357E-07 1.60509E-01-1.67858E+01 2.70906E-02
 -1      1988 1.72367E+02-1.05668E+02 4.13737E-07 1.78771E-01-1.65556E+01 3.20777E-02
 -1      1989 1.69080E+02-1.03641E+02 4.32241E-07 1.97704E-01-1.62870E+01 3.69757E-02
 -1      1990 1.65476E+02-1.01426E+02 4.41650E-07 2.17474E-01-1.59807E+01 4.17749E-02
 -1      1991 1.61597E+02-9.90765E+01 4.24106E-07 2.34384E-01-1.56374E+01 4.64666E-02
 -1      1992 1.57348E+02-9.64428E+01 3.93943E-07 2.51550E-01-1.52581E+01 5.10417E-02
 -1      1993 1.52838E+02-9.36924E+01 3.60331E-07 2.69979E-01-1.48437E+01 5.54914E-02
 -1      1994 1.48019E+02-9.07363E+01 3.28515E-07 2.85948E-01-1.43953E+01 5.98071E-02
 -1      1995 1.42912E+02-8.75970E+01 2.99282E-07 3.02215E-01-1.39138E+01 6.39804E-02
 -1      1996 1.37556E+02-8.43311E+01 2.60813E-07 3.18717E-01-1.34004E+01 6.80036E-02
 -1      1997 1.31895E+02-8.08449E+01 2.03109E-07 3.32559E-01-1.28563E+01 7.18688E-02
 -1      1998 1.26019E+02-7.72573E+01 1.32151E-07 3.46507E-01-1.22828E+01 7.55685E-02
 -1      1999 1.19867E+02-7.34729E+01 6.28119E-08 3.60622E-01-1.16812E+01 7.90956E-02
 -1      2000 1.13496E+02-6.95677E+01 2.68318E-09 3.74002E-01-1.10528E+01 8.24433E-02
 -1      2001 1.06922E+02-6.55493E+01-5.39212E-08 3.86424E-01-1.03992E+01 8.56050E-02
 -1      2002 1.00119E+02-6.13690E+01-1.10579E-07 3.96972E-01-9.72164E+00 8.85750E-02
 -1      2003 9.31431E+01-5.71020E+01-1.59702E-07 4.08228E-01-9.02179E+00 9.13472E-02
 -1      2004 8.59676E+01-5.26932E+01-1.93743E-07 4.17402E-01-8.30116E+00 9.39166E-02
 -1      2005 7.86439E+01-4.82086E+01-2.15103E-07 4.27558E-01-7.56135E+00 9.62780E-02
 -1      2006 7.11703E+01-4.36285E+01-2.33472E-07 4.34642E-01-6.80399E+00 9.84271E-02
 -1      2007 6.35527E+01-3.89543E+01-2.46471E-07 4.43291E-01-6.03076E+00 1.00360E-01
 -1      2008 5.58256E+01-3.42233E+01-2.54527E-07 4.48858E-01-5.24334E+00 1.02072E-01
 -1      2009 4.79908E+01-2.94190E+01-2.61764E-07 4.54189E-01-4.44348E+00 1.03561E-01
 -1      2010 4.00656E+01-2.45589E+01-2.70772E-07 4.59020E-01-3.63291E+00 1.04825E-01
 -1      2011 3.20694E+01-1.96564E+01-2.78727E-07 4.62854E-01-2.81341E+00 1.05859E-01
 -1      2012 2.40235E+01-1.47280E+01-2.80137E-07 4.65443E-01-1.98675E+00 1.06664E-01
 -1      2013 1.59313E+01-9.76492E+00-2.81112E-07 4.67101E-01-1.15472E+00 1.07237E-01
 -1      2014 7.81930E+00-4.79274E+00-2.82176E-07 4.67937E-01-3.19145E-01 1.07578E-01
 -1      2015-2.99214E-01 1.83822E-01-2.79943E-07 4.68012E-01 5.18176E-01 1.07686E-01
 -1      2016-8.40773E+00 5.15413E+00-2.77208E-07 4.66848E-01 1.35543E+00 1.07561E-01
 -1      2017-1.64902E+01 1.01096E+01-2.73881E-07 4.64701E-01 2.19081E+00 1.07204E-01
 -1      2018-2.45266E+01 1.50341E+01-2.67687E-07 4.61670E-01 3.02251E+00 1.06616E-01
 -1      2019-3.25105E+01 1.99338E+01-2.62322E-07 4.57830E-01 3.84875E+00 1.05798E-01
 -1      2020-4.04058E+01 2.47660E+01-2.63737E-07 4.53927E-01 4.66773E+00 1.04752E-01
 -1      2021-4.82160E+01 2.95535E+01-2.69930E-07 4.46762E-01 5.47771E+00 1.03481E-01
 -1      2022-5.59259E+01 3.42883E+01-2.76161E-07 4.40230E-01 6.27692E+00 1.01987E-01
 -1      2023-6.34948E+01 3.89200E+01-2.81336E-07 4.32722E-01 7.06367E+00 1.00274E-01
 -1      2024-7.09421E+01 4.34927E+01-2.84412E-07 4.24582E-01 7.83625E+00 9.83455E-02
 -1      2025-7.82172E+01 4.79454E+01-2.85143E-07 4.15211E-01 8.59300E+00 9.62060E-02
 -1      2026-8.53265E+01 5.23017E+01-2.83153E-07 4.04449E-01 9.33230E+00 9.38601E-02
 -1      2027-9.22667E+01 5.65650E+01-2.71937E-07 3.93598E-01 1.00526E+01 9.13126E-02
 -1      2028-9.89904E+01 6.06811E+01-2.44513E-07 3.81431E-01 1.07523E+01 8.85692E-02
 -1      2029-1.05504E+02 6.46732E+01-2.07088E-07 3.69195E-01 1.14299E+01 8.56359E-02
 -1      2030-1.11804E+02 6.85429E+01-1.63923E-07 3.55537E-01 1.20840E+01 8.25188E-02
 -1      2031-1.17846E+02 7.22368E+01-1.27012E-07 3.42628E-01 1.27131E+01 7.92247E-02
 -1      2032-1.23644E+02 7.57877E+01-1.08502E-07 3.25905E-01 1.33160E+01 7.57606E-02
 -1      2033-1.29200E+02 7.92144E+01-8.69126E-08 3.10764E-01 1.38912E+01 7.21338E-02
 -1      2034-1.34439E+02 8.24026E+01-5.12404E-08 2.96104E-01 1.44377E+01 6.83521E-02
 -1      2035-1.39432E+02 8.54756E+01-1.14462E-08 2.77837E-01 1.49542E+01 6.44235E-02
 -1      2036-1.44109E+02 8.83417E+01 2.68448E-08 2.61001E-01 1.54395E+01 6.03563E-02
 -1      2037-1.48471E+02 9.10048E+01 6.57264E-08 2.42467E-01 1.58927E+01 5.61594E-02
 -1      2038-1.52557E+02 9.35280E+01 1.09792E-07 2.24602E-01 1.63128E+01 5.18413E-02
 -1      2039-1.56279E+02 9.57946E+01 1.34190E-07 2.05102E-01 1.66989E+01 4.74113E-02
 -1      2040-1.59701E+02 9.79068E+01 1.37250E-07 1.87189E-01 1.70501E+01 4.28788E-02
 -1      2041-1.62754E+02 9.97621E+01 1.32677E-07 1.67141E-01 1.73657E+01 3.82534E-02
 -1      2042-1.65486E+02 1.01438E+02 1.14571E-07 1.47179E-01 1.76450E+01 3.35449E-02
 -1      2043-1.67881E+02 1.02923E+02 1.04817E-07 1.25130E-01 1.78873E+01 2.87630E-02
 -1      2044-1.69885E+02 1.04133E+02 1.08149E-07 1.06548E-01 1.80922E+01 2.39179E-02
 -1      2045-1.71571E+02 1.05188E+02 1.13504E-07 8.59838E-02 1.82593E+01 1.90202E-02
 -1      2046-1.72863E+02 1.05954E+02 1.30481E-07 6.51832E-02 1.83880E+01 1.40797E-02
 -1      2047-1.73809E+02 1.06549E+02 1.58565E-07 4.28056E-02 1.84782E+01 9.10683E-03
 -1      2048-1.74390E+02 1.06904E+02 1.74593E-07 2.32811E-02 1.85296E+01 4.11187E-03
 -1      2049-1.74591E+02 1.07016E+02 1.75690E-07 2.58473E-04 1.85421E+01-8.94450E-04
 -1      2050-1.74449E+02 1.06945E+02 1.85462E-07-2.06244E-02 1.85157E+01-5.90154E-03
 -1      2051-1.73926E+02 1.06623E+02 2.06115E-07-4.07388E-02 1.84504E+01-1.08989E-02
 -1      2052-1.73023E+02 1.06058E+02 2.24769E-07-6.12126E-02 1.83462E+01-1.58760E-02
 -1      2053-1.71775E+02 1.05291E+02 2.33085E-07-8.31375E-02 1.82035E+01-2.08223E-02
 -1      2054-1.70185E+02 1.04336E+02 2.37384E-07-1.04568E-01 1.80224E+01-2.57278E-02
 -1      2055-1.68194E+02 1.03096E+02 2.48963E-07-1.23909E-01 1.78034E+01-3.05819E-02
 -1      2056-1.65899E+02 1.01707E+02 2.45049E-07-1.43310E-01 1.75469E+01-3.53745E-02
 -1      2057-1.63215E+02 1.00045E+02 2.08374E-07-1.63846E-01 1.72534E+01-4.00958E-02
 -1      2058-1.60205E+02 9.81996E+01 1.41949E-07-1.83528E-01 1.69234E+01-4.47354E-02
 -1      2059-1.56879E+02 9.61757E+01 5.87452E-08-2.03623E-01 1.65577E+01-4.92841E-02
 -1      2060-1.53204E+02 9.39163E+01-5.69735E-10-2.20342E-01 1.61570E+01-5.37322E-02
 -1      2061-1.49220E+02 9.14762E+01-2.68249E-08-2.38629E-01 1.57222E+01-5.80706E-02
 -1      2062-1.44899E+02 8.88116E+01-4.81114E-08-2.57164E-01 1.52540E+01-6.22901E-02
 -1      2063-1.40315E+02 8.60160E+01-6.88550E-08-2.74671E-01 1.47536E+01-6.63816E-02
 -1      2064-1.35427E+02 8.30219E+01-8.61278E-08-2.91338E-01 1.42218E+01-7.03371E-02
 -1      2065-1.30242E+02 7.98380E+01-1.03235E-07-3.06318E-01 1.36598E+01-7.41483E-02
 -1      2066-1.24799E+02 7.65012E+01-1.15906E-07-3.21740E-01 1.30688E+01-7.78070E-02
 -1      2067-1.19104E+02 7.30168E+01-1.19760E-07-3.35903E-01 1.24499E+01-8.13059E-02
 -1      2068-1.13145E+02 6.93546E+01-1.10290E-07-3.49759E-01 1.18045E+01-8.46376E-02
 -1      2069-1.06960E+02 6.55617E+01-8.94126E-08-3.63502E-01 1.11338E+01-8.77953E-02
 -1      2070-1.00569E+02 6.16553E+01-6.81045E-08-3.75889E-01 1.04393E+01-9.07723E-02
 -1      2071-9.39513E+01 5.75894E+01-5.88575E-08-3.86555E-01 9.72229E+00-9.35628E-02
 -1      2072-8.71577E+01 5.34330E+01-6.10162E-08-3.97619E-01 8.98436E+00-9.61609E-02
 -1      2073-8.01668E+01 4.91378E+01-7.25368E-08-4.07077E-01 8.22699E+00-9.85614E-02
 -1      2074-7.30311E+01 4.47688E+01-8.60176E-08-4.16330E-01 7.45173E+00-1.00759E-01
 -1      2075-6.57441E+01 4.03027E+01-9.57770E-08-4.24430E-01 6.66018E+00-1.02750E-01
 -1      2076-5.83153E+01 3.57432E+01-1.03084E-07-4.31671E-01 5.85396E+00-1.04530E-01
 -1      2077-5.07885E+01 3.11387E+01-1.07323E-07-4.37786E-01 5.03473E+00-1.06095E-01
 -1      2078-4.31444E+01 2.64448E+01-1.10244E-07-4.42504E-01 4.20417E+00-1.07443E-01
 -1      2079-3.54263E+01 2.17151E+01-1.08892E-07-4.47506E-01 3.36400E+00-1.08570E-01
 -1      2080-2.76427E+01 1.69464E+01-1.06306E-07-4.50530E-01 2.51591E+00-1.09475E-01
 -1      2081-1.98050E+01 1.21396E+01-1.05694E-07-4.52680E-01 1.66166E+00-1.10155E-01
 -1      2082-1.19371E+01 7.31724E+00-1.02986E-07-4.54225E-01 8.02984E-01-1.10611E-01
 -1      2083-4.05185E+00 2.48320E+00-9.68439E-08-4.54669E-01-5.83506E-02-1.10840E-01
 -1      2084 3.83093E+00-2.34880E+00-9.30594E-08-4.54081E-01-9.20588E-01-1.10844E-01
 -1      2085 1.16965E+01-7.17044E+00-8.91344E-08-4.52483E-01-1.78197E+00-1.10621E-01
 -1      2086 1.95268E+01-1.19711E+01-8.01064E-08-4.49755E-01-2.64076E+00-1.10173E-01
 -1      2087 2.73025E+01-1.67357E+01-6.74899E-08-4.46441E-01-3.49518E+00-1.09502E-01
 -1      2088 3.50167E+01-2.14706E+01-5.07609E-08-4.41685E-01-4.34352E+00-1.08608E-01
 -1      2089 4.26319E+01-2.61308E+01-3.25115E-08-4.37587E-01-5.18405E+00-1.07494E-01
 -1      2090 5.01524E+01-3.07409E+01-2.16009E-08-4.29569E-01-6.01507E+00-1.06163E-01
 -1      2091 5.75602E+01-3.52901E+01-1.75813E-08-4.22320E-01-6.83491E+00-1.04618E-01
 -1      2092 6.48204E+01-3.97334E+01-1.74458E-08-4.14630E-01-7.64190E+00-1.02862E-01
 -1      2093 7.19428E+01-4.41068E+01-2.45061E-08-4.04906E-01-8.43444E+00-1.00901E-01
 -1      2094 7.88813E+01-4.83523E+01-3.25048E-08-3.95881E-01-9.21093E+00-9.87373E-02
 -1      2095 8.56462E+01-5.24988E+01-3.07035E-08-3.83719E-01-9.96982E+00-9.63772E-02
 -1      2096 9.22257E+01-5.65406E+01-1.55118E-08-3.72354E-01-1.07096E+01-9.38256E-02
 -1      2097 9.85741E+01-6.04248E+01 9.10493E-09-3.59328E-01-1.14288E+01-9.10887E-02
 -1      2098 1.04712E+02-6.41954E+01 3.08915E-08-3.46333E-01-1.21261E+01-8.81727E-02
 -1      2099 1.10594E+02-6.77915E+01 4.60280E-08-3.33006E-01-1.28000E+01-8.50843E-02
 -1      2100 1.16232E+02-7.12480E+01 6.86992E-08-3.16395E-01-1.34492E+01-8.18304E-02
 -1      2101 1.21612E+02-7.45548E+01 9.34966E-08-3.00928E-01-1.40724E+01-7.84185E-02
 -1      2102 1.26701E+02-7.76715E+01 1.09501E-07-2.84711E-01-1.46686E+01-7.48566E-02
 -1      2103 1.31509E+02-8.06205E+01 1.33671E-07-2.69529E-01-1.52365E+01-7.11527E-02
 -1      2104 1.35996E+02-8.33565E+01 1.74216E-07-2.49829E-01-1.57751E+01-6.73153E-02
 -1      2105 1.40196E+02-8.59437E+01 2.20189E-07-2.31141E-01-1.62833E+01-6.33532E-02
 -1      2106 1.44069E+02-8.83212E+01 2.72418E-07-2.12407E-01-1.67603E+01-5.92755E-02
 -1      2107 1.47600E+02-9.04797E+01 3.24250E-07-1.93997E-01-1.72051E+01-5.50916E-02
 -1      2108 1.50797E+02-9.24399E+01 3.56251E-07-1.73310E-01-1.76170E+01-5.08111E-02
 -1      2109 1.53649E+02-9.41958E+01 3.64671E-07-1.53307E-01-1.79953E+01-4.64439E-02
 -1      2110 1.56131E+02-9.57063E+01 3.58110E-07-1.34255E-01-1.83392E+01-4.20001E-02
 -1      2111 1.58259E+02-9.70087E+01 3.27196E-07-1.10380E-01-1.86484E+01-3.74901E-02
 -1      2112 1.60034E+02-9.81130E+01 2.70545E-07-8.98791E-02-1.89223E+01-3.29242E-02
 -1      2113 1.61404E+02-9.89376E+01 2.13621E-07-6.81501E-02-1.91604E+01-2.83132E-02
 -1      2114 1.62430E+02-9.95821E+01 1.67406E-07-4.71030E-02-1.93626E+01-2.36678E-02
 -1      2115 1.63036E+02-9.99372E+01 1.31702E-07-2.45862E-02-1.95286E+01-1.89990E-02
 -1      2116 1.63276E+02-1.00090E+02 9.21498E-08-1.41463E-03-1.96581E+01-1.43180E-02
 -1      2117 1.63137E+02-1.00011E+02 3.55028E-08 1.93880E-02-1.97513E+01-9.63561E-03
 -1      2118 1.62578E+02-9.96516E+01-3.24402E-08 4.45701E-02-1.98080E+01-4.96310E-03
 -1      2119 1.61670E+02-9.91242E+01-1.14363E-07 6.58468E-02-1.98285E+01-3.11773E-04
 -1      2120 1.60319E+02-9.82707E+01-2.10039E-07 8.75558E-02-1.98130E+01 4.30711E-03
 -1      2121 1.58606E+02-9.72232E+01-3.07336E-07 1.10918E-01-1.97617E+01 8.88226E-03
 -1      2122 1.56515E+02-9.59568E+01-3.84215E-07 1.34675E-01-1.96750E+01 1.34027E-02
 -1      2123 1.54000E+02-9.44002E+01-4.14216E-07 1.55224E-01-1.95534E+01 1.78570E-02
 -1      2124 1.51130E+02-9.26559E+01-3.99101E-07 1.78274E-01-1.93974E+01 2.22341E-02
 -1      2125 1.47849E+02-9.06290E+01-3.65486E-07 1.98500E-01-1.92077E+01 2.65230E-02
 -1      2126 1.44203E+02-8.83962E+01-3.29989E-07 2.22876E-01-1.89851E+01 3.07126E-02
 -1      2127 1.40189E+02-8.59465E+01-2.98446E-07 2.43682E-01-1.87303E+01 3.47922E-02
 -1      2128 1.35791E+02-8.32436E+01-2.70065E-07 2.63913E-01-1.84442E+01 3.87511E-02
 -1      2129 1.31031E+02-8.03241E+01-2.43292E-07 2.85611E-01-1.81278E+01 4.25788E-02
 -1      2130 1.25926E+02-7.72084E+01-2.10737E-07 3.05605E-01-1.77822E+01 4.62648E-02
 -1      2131 1.20438E+02-7.38248E+01-1.56033E-07 3.24249E-01-1.74086E+01 4.97989E-02
 -1      2132 1.14626E+02-7.02621E+01-8.86923E-08 3.46346E-01-1.70080E+01 5.31712E-02
 -1      2133 1.08498E+02-6.65272E+01-1.75098E-08 3.65644E-01-1.65819E+01 5.63718E-02
 -1      2134 1.02001E+02-6.25268E+01 5.36073E-08 3.82901E-01-1.61316E+01 5.93914E-02
 -1      2135 9.52192E+01-5.83813E+01 1.03594E-07 4.00860E-01-1.56585E+01 6.22206E-02
 -1      2136 8.81027E+01-5.40090E+01 1.25020E-07 4.18791E-01-1.51642E+01 6.48504E-02
 -1      2137 8.06961E+01-4.94699E+01 1.36049E-07 4.35857E-01-1.46503E+01 6.72719E-02
 -1      2138 7.30098E+01-4.47661E+01 1.47360E-07 4.52690E-01-1.41184E+01 6.94768E-02
 -1      2139 6.50284E+01-3.98671E+01 1.59924E-07 4.67526E-01-1.35702E+01 7.14569E-02
 -1      2140 5.67907E+01-3.48226E+01 1.72002E-07 4.83228E-01-1.30074E+01 7.32044E-02
 -1      2141 4.82845E+01-2.96038E+01 1.75397E-07 4.97237E-01-1.24321E+01 7.47118E-02
 -1      2142 3.95384E+01-2.42428E+01 1.67758E-07 5.11641E-01-1.18459E+01 7.59716E-02
 -1      2143 3.05638E+01-1.87464E+01 1.56395E-07 5.24524E-01-1.12510E+01 7.69772E-02
 -1      2144 2.13560E+01-1.30983E+01 1.51306E-07 5.36985E-01-1.06492E+01 7.77220E-02
 -1      2145 1.19429E+01-7.32873E+00 1.50408E-07 5.48779E-01-1.00426E+01 7.81996E-02
 -1      2146 2.33169E+00-1.43920E+00 1.48698E-07 5.60122E-01-9.43345E+00 7.84044E-02
 -1      2147-7.46740E+00 4.56858E+00 1.43311E-07 5.70023E-01-8.82375E+00 7.83307E-02
 -1      2148-1.74417E+01 1.06820E+01 1.30678E-07 5.80095E-01-8.21573E+00 7.79732E-02
 -1      2149-2.75759E+01 1.68945E+01 1.17611E-07 5.88273E-01-7.61159E+00 7.73274E-02
 -1      2150-3.78634E+01 2.31985E+01 1.08177E-07 5.97779E-01-7.01362E+00 7.63886E-02
 -1      2151-4.82910E+01 2.95953E+01 9.51296E-08 6.03777E-01-6.42410E+00 7.51526E-02
 -1      2152-5.88392E+01 3.60543E+01 7.72171E-08 6.13342E-01-5.84537E+00 7.36158E-02
 -1      2153-6.95021E+01 4.25906E+01 6.03568E-08 6.16531E-01-5.27977E+00 7.17746E-02
 -1      2154-8.02882E+01 4.92074E+01 4.67372E-08 6.25278E-01-4.72968E+00 6.96257E-02
 -1      2155-9.11410E+01 5.58557E+01 3.46807E-08 6.26306E-01-4.19751E+00 6.71664E-02
 -1      2156-1.02102E+02 6.25775E+01 2.34681E-08 6.36013E-01-3.68569E+00 6.43942E-02
 -1      2157-1.13112E+02 6.93280E+01 1.45795E-08 6.34450E-01-3.19665E+00 6.13068E-02
 -1      2158-1.24200E+02 7.61080E+01 6.45746E-09 6.46063E-01-2.73285E+00 5.79023E-02
 -1      2159-1.35333E+02 8.29493E+01-6.41468E-09 6.36089E-01-2.29677E+00 5.41789E-02
 -1      2160-1.46537E+02 8.98084E+01-2.30086E-08 6.52988E-01-1.89089E+00 5.01353E-02
 -1      2161-1.57739E+02 9.66890E+01-4.26780E-08 6.37861E-01-1.51772E+00 4.57702E-02
 -1      2162-1.69022E+02 1.03587E+02-6.48804E-08 6.62813E-01-1.17975E+00 4.10827E-02
 -1      2163-1.80210E+02 1.10423E+02-8.79150E-08 6.33866E-01-8.79492E-01 3.60722E-02
 -1      2164-1.91705E+02 1.17601E+02-1.11449E-07 6.67516E-01-6.19458E-01 3.07377E-02
 -1      2165-2.02494E+02 1.23728E+02-1.34376E-07 6.43400E-01-4.02184E-01 2.50793E-02
 -1      2166-2.15450E+02 1.33470E+02-1.57365E-07 6.10509E-01-2.30168E-01 1.90955E-02
 -1      2167-2.21011E+02 1.30226E+02-1.76223E-07 8.93580E-01-1.05964E-01 1.27904E-02
 -1      2168-2.53076E+02 1.74306E+02-2.25521E-07-3.43044E-01-3.20723E-02 6.14850E-03
 -1      2169-1.67385E+02 3.24693E+01-2.67771E-07 4.19176E+00-7.97556E-03 2.73817E-03
 -1      2170 5.68167E-02-9.39587E-03 1.66579E-08 6.03526E-03-2.56316E+01 1.54601E-01
 -1      2171 3.16353E-01-1.70333E-01 2.98504E-08-2.97594E-02-2.50303E+01 1.54596E-01
 -1      2172 1.06375E+00-6.28233E-01 5.26565E-08-5.71013E-02-2.38279E+01 1.54576E-01
 -1      2173 2.28364E+00-1.37850E+00 5.21066E-08-8.39451E-02-2.26258E+01 1.54527E-01
 -1      2174 3.95020E+00-2.40047E+00 2.54684E-08-1.08793E-01-2.14242E+01 1.54437E-01
 -1      2175 6.03873E+00-3.68076E+00-7.59552E-09-1.32719E-01-2.02235E+01 1.54294E-01
 -1      2176 8.53215E+00-5.21179E+00-3.97534E-08-1.55001E-01-1.90241E+01 1.54084E-01
 -1      2177 1.13964E+01-6.96758E+00-6.17422E-08-1.75740E-01-1.78267E+01 1.53798E-01
 -1      2178 1.46160E+01-8.94112E+00-7.37770E-08-1.95894E-01-1.66318E+01 1.53424E-01
 -1      2179 1.81684E+01-1.11245E+01-7.79625E-08-2.13568E-01-1.54403E+01 1.52954E-01
 -1      2180 2.20107E+01-1.34700E+01-6.05831E-08-2.31363E-01-1.42528E+01 1.52377E-01
 -1      2181 2.61605E+01-1.60268E+01-3.20773E-08-2.45774E-01-1.30702E+01 1.51685E-01
 -1      2182 3.05443E+01-1.87066E+01-5.75494E-09-2.60898E-01-1.18934E+01 1.50872E-01
 -1      2183 3.51748E+01-2.15469E+01 2.32854E-08-2.72905E-01-1.07235E+01 1.49929E-01
 -1      2184 4.00313E+01-2.45377E+01 5.14256E-08-2.86123E-01-9.56147E+00 1.48850E-01
 -1      2185 4.50276E+01-2.75696E+01 6.86366E-08-2.95243E-01-8.40836E+00 1.47629E-01
 -1      2186 5.02587E+01-3.08106E+01 8.58644E-08-3.03232E-01-7.26531E+00 1.46262E-01
 -1      2187 5.55831E+01-3.40565E+01 9.80361E-08-3.12857E-01-6.13348E+00 1.44743E-01
 -1      2188 6.10460E+01-3.74103E+01 9.54122E-08-3.16420E-01-5.01406E+00 1.43070E-01
 -1      2189 6.66181E+01-4.08349E+01 9.68253E-08-3.25551E-01-3.90826E+00 1.41239E-01
 -1      2190 7.22312E+01-4.42535E+01 1.02667E-07-3.25308E-01-2.81734E+00 1.39247E-01
 -1      2191 7.79496E+01-4.77835E+01 1.04448E-07-3.30616E-01-1.74255E+00 1.37092E-01
 -1      2192 8.36690E+01-5.12771E+01 1.08655E-07-3.30120E-01-6.85146E-01 1.34774E-01
 -1      2193 8.94136E+01-5.48067E+01 1.11588E-07-3.31403E-01 3.53586E-01 1.32291E-01
 -1      2194 9.51442E+01-5.83123E+01 1.05929E-07-3.31136E-01 1.37237E+00 1.29643E-01
 -1      2195 1.00850E+02-6.18103E+01 1.02035E-07-3.26926E-01 2.36992E+00 1.26831E-01
 -1      2196 1.06519E+02-6.52921E+01 8.93639E-08-3.25160E-01 3.34495E+00 1.23857E-01
 -1      2197 1.12117E+02-6.87252E+01 7.00189E-08-3.20020E-01 4.29623E+00 1.20720E-01
 -1      2198 1.17615E+02-7.20876E+01 5.89479E-08-3.15923E-01 5.22249E+00 1.17425E-01
 -1      2199 1.23021E+02-7.54004E+01 4.64794E-08-3.07586E-01 6.12250E+00 1.13973E-01
 -1      2200 1.28321E+02-7.86621E+01 3.18902E-08-3.01196E-01 6.99506E+00 1.10367E-01
 -1      2201 1.33457E+02-8.17999E+01 1.64831E-08-2.91875E-01 7.83900E+00 1.06612E-01
 -1      2202 1.38458E+02-8.48773E+01-2.79419E-09-2.83455E-01 8.65316E+00 1.02711E-01
 -1      2203 1.43267E+02-8.78108E+01-1.35664E-08-2.73759E-01 9.43643E+00 9.86702E-02
 -1      2204 1.47909E+02-9.06646E+01-3.25744E-09-2.60642E-01 1.01877E+01 9.44932E-02
 -1      2205 1.52344E+02-9.33855E+01 1.23801E-08-2.50579E-01 1.09060E+01 9.01862E-02
 -1      2206 1.56546E+02-9.59467E+01 1.99531E-08-2.35373E-01 1.15904E+01 8.57551E-02
 -1      2207 1.60564E+02-9.84393E+01 2.10097E-08-2.23480E-01 1.22398E+01 8.12062E-02
 -1      2208 1.64284E+02-1.00694E+02 1.79291E-08-2.09325E-01 1.28533E+01 7.65464E-02
 -1      2209 1.67775E+02-1.02836E+02 1.29084E-08-1.93070E-01 1.34303E+01 7.17830E-02
 -1      2210 1.71018E+02-1.04840E+02-4.01274E-09-1.77477E-01 1.39698E+01 6.69230E-02
 -1      2211 1.73959E+02-1.06632E+02-3.47948E-08-1.62395E-01 1.44711E+01 6.19745E-02
 -1      2212 1.76623E+02-1.08266E+02-8.08482E-08-1.44592E-01 1.49336E+01 5.69454E-02
 -1      2213 1.78998E+02-1.09731E+02-1.46214E-07-1.27890E-01 1.53568E+01 5.18442E-02
 -1      2214 1.81051E+02-1.10976E+02-2.08226E-07-1.11758E-01 1.57400E+01 4.66795E-02
 -1      2215 1.82803E+02-1.12048E+02-2.55299E-07-9.02866E-02 1.60828E+01 4.14600E-02
 -1      2216 1.84255E+02-1.12958E+02-2.99111E-07-7.34275E-02 1.63848E+01 3.61947E-02
 -1      2217 1.85346E+02-1.13606E+02-3.40763E-07-5.39621E-02 1.66457E+01 3.08929E-02
 -1      2218 1.86159E+02-1.14133E+02-3.78981E-07-3.66492E-02 1.68653E+01 2.55639E-02
 -1      2219 1.86575E+02-1.14356E+02-4.12413E-07-1.77439E-02 1.70434E+01 2.02172E-02
 -1      2220 1.86679E+02-1.14416E+02-4.52244E-07 5.43665E-03 1.71798E+01 1.48627E-02
 -1      2221 1.86491E+02-1.14338E+02-4.81872E-07 2.35033E-02 1.72746E+01 9.50969E-03
 -1      2222 1.85893E+02-1.13942E+02-4.75947E-07 4.32619E-02 1.73278E+01 4.16810E-03
 -1      2223 1.84997E+02-1.13413E+02-4.57615E-07 6.20848E-02 1.73395E+01-1.15216E-03
 -1      2224 1.83721E+02-1.12611E+02-4.40936E-07 8.16646E-02 1.73099E+01-6.44126E-03
 -1      2225 1.82127E+02-1.11637E+02-4.33111E-07 1.02531E-01 1.72394E+01-1.16894E-02
 -1      2226 1.80205E+02-1.10474E+02-4.32165E-07 1.22581E-01 1.71282E+01-1.68869E-02
 -1      2227 1.77913E+02-1.09058E+02-4.21395E-07 1.40966E-01 1.69768E+01-2.20239E-02
 -1      2228 1.75299E+02-1.07456E+02-4.10357E-07 1.60509E-01 1.67858E+01-2.70906E-02
 -1      2229 1.72367E+02-1.05668E+02-4.13737E-07 1.78771E-01 1.65556E+01-3.20777E-02
 -1      2230 1.69080E+02-1.03641E+02-4.32241E-07 1.97704E-01 1.62870E+01-3.69757E-02
 -1      2231 1.65476E+02-1.01426E+02-4.41650E-07 2.17474E-01 1.59807E+01-4.17749E-02
 -1      2232 1.61597E+02-9.90765E+01-4.24106E-07 2.34384E-01 1.56374E+01-4.64665E-02
 -1      2233 1.57348E+02-9.64428E+01-3.93943E-07 2.51550E-01 1.52581E+01-5.10417E-02
 -1      2234 1.52838E+02-9.36924E+01-3.60331E-07 2.69979E-01 1.48437E+01-5.54914E-02
 -1      2235 1.48019E+02-9.07363E+01-3.28515E-07 2.85948E-01 1.43953E+01-5.98070E-02
 -1      2236 1.42912E+02-8.75970E+01-2.99282E-07 3.02214E-01 1.39137E+01-6.39804E-02
 -1      2237 1.37556E+02-8.43311E+01-2.60813E-07 3.18717E-01 1.34004E+01-6.80036E-02
 -1      2238 1.31895E+02-8.08449E+01-2.03109E-07 3.32558E-01 1.28563E+01-7.18687E-02
 -1      2239 1.26019E+02-7.72573E+01-1.32151E-07 3.46507E-01 1.22828E+01-7.55684E-02
 -1      2240 1.19867E+02-7.34729E+01-6.28119E-08 3.60621E-01 1.16812E+01-7.90956E-02
 -1      2241 1.13496E+02-6.95677E+01-2.68318E-09 3.74001E-01 1.10528E+01-8.24432E-02
 -1      2242 1.06922E+02-6.55493E+01 5.39212E-08 3.86424E-01 1.03992E+01-8.56050E-02
 -1      2243 1.00119E+02-6.13690E+01 1.10579E-07 3.96972E-01 9.72164E+00-8.85749E-02
 -1      2244 9.31431E+01-5.71020E+01 1.59702E-07 4.08228E-01 9.02178E+00-9.13472E-02
 -1      2245 8.59676E+01-5.26932E+01 1.93743E-07 4.17402E-01 8.30115E+00-9.39166E-02
 -1      2246 7.86439E+01-4.82086E+01 2.15103E-07 4.27558E-01 7.56135E+00-9.62780E-02
 -1      2247 7.11703E+01-4.36285E+01 2.33472E-07 4.34642E-01 6.80399E+00-9.84270E-02
 -1      2248 6.35527E+01-3.89543E+01 2.46471E-07 4.43291E-01 6.03076E+00-1.00360E-01
 -1      2249 5.58256E+01-3.42233E+01 2.54527E-07 4.48858E-01 5.24334E+00-1.02072E-01
 -1      2250 4.79908E+01-2.94190E+01 2.61764E-07 4.54189E-01 4.44348E+00-1.03561E-01
 -1      2251 4.00656E+01-2.45589E+01 2.70772E-07 4.59020E-01 3.63291E+00-1.04825E-01
 -1      2252 3.20694E+01-1.96564E+01 2.78727E-07 4.62854E-01 2.81341E+00-1.05859E-01
 -1      2253 2.40235E+01-1.47280E+01 2.80137E-07 4.65443E-01 1.98675E+00-1.06664E-01
 -1      2254 1.59313E+01-9.76492E+00 2.81112E-07 4.67101E-01 1.15472E+00-1.07237E-01
 -1      2255 7.81930E+00-4.79274E+00 2.82176E-07 4.67937E-01 3.19144E-01-1.07578E-01
 -1      2256-2.99216E-01 1.83822E-01 2.79943E-07 4.68012E-01-5.18176E-01-1.07686E-01
 -1      2257-8.40773E+00 5.15413E+00 2.77208E-07 4.66848E-01-1.35543E+00-1.07561E-01
 -1      2258-1.64902E+01 1.01096E+01 2.73881E-07 4.64701E-01-2.19081E+00-1.07204E-01
 -1      2259-2.45266E+01 1.50341E+01 2.67687E-07 4.61670E-01-3.02251E+00-1.06616E-01
 -1      2260-3.25105E+01 1.99338E+01 2.62322E-07 4.57830E-01-3.84875E+00-1.05798E-01
 -1      2261-4.04058E+01 2.47660E+01 2.63737E-07 4.53927E-01-4.66773E+00-1.04752E-01
 -1      2262-4.82160E+01 2.95535E+01 2.69930E-07 4.46762E-01-5.47771E+00-1.03481E-01
 -1      2263-5.59259E+01 3.42883E+01 2.76161E-07 4.40230E-01-6.27692E+00-1.01987E-01
 -1      2264-6.34948E+01 3.89200E+01 2.81336E-07 4.32722E-01-7.06367E+00-1.00274E-01
 -1      2265-7.09421E+01 4.34927E+01 2.84412E-07 4.24582E-01-7.83625E+00-9.83455E-02
 -1      2266-7.82172E+01 4.79454E+01 2.85143E-07 4.15211E-01-8.59300E+00-9.62061E-02
 -1      2267-8.53265E+01 5.23017E+01 2.83153E-07 4.04449E-01-9.33230E+00-9.38601E-02
 -1      2268-9.22667E+01 5.65650E+01 2.71937E-07 3.93598E-01-1.00526E+01-9.13126E-02
 -1      2269-9.89904E+01 6.06811E+01 2.44513E-07 3.81431E-01-1.07523E+01-8.85692E-02
 -1      2270-1.05504E+02 6.46732E+01 2.07088E-07 3.69195E-01-1.14299E+01-8.56359E-02
 -1      2271-1.11804E+02 6.85429E+01 1.63923E-07 3.55537E-01-1.20840E+01-8.25188E-02
 -1      2272-1.17846E+02 7.22368E+01 1.27012E-07 3.42628E-01-1.27131E+01-7.92247E-02
 -1      2273-1.23644E+02 7.57877E+01 1.08502E-07 3.25905E-01-1.33160E+01-7.57606E-02
 -1      2274-1.29200E+02 7.92144E+01 8.69126E-08 3.10764E-01-1.38912E+01-7.21338E-02
 -1      2275-1.34439E+02 8.24026E+01 5.12404E-08 2.96104E-01-1.44377E+01-6.83521E-02
 -1      2276-1.39432E+02 8.54756E+01 1.14462E-08 2.77837E-01-1.49542E+01-6.44235E-02
 -1      2277-1.44109E+02 8.83417E+01-2.68448E-08 2.61001E-01-1.54395E+01-6.03563E-02
 -1      2278-1.48471E+02 9.10048E+01-6.57264E-08 2.42467E-01-1.58927E+01-5.61594E-02
 -1      2279-1.52557E+02 9.35280E+01-1.09792E-07 2.24602E-01-1.63128E+01-5.18413E-02
 -1      2280-1.56279E+02 9.57946E+01-1.34190E-07 2.05102E-01-1.66989E+01-4.74113E-02
 -1      2281-1.59701E+02 9.79068E+01-1.37250E-07 1.87189E-01-1.70501E+01-4.28788E-02
 -1      2282-1.62754E+02 9.97621E+01-1.32677E-07 1.67141E-01-1.73657E+01-3.82534E-02
 -1      2283-1.65486E+02 1.01438E+02-1.14571E-07 1.47179E-01-1.76450E+01-3.35449E-02
 -1      2284-1.67881E+02 1.02923E+02-1.04817E-07 1.25130E-01-1.78873E+01-2.87630E-02
 -1      2285-1.69885E+02 1.04133E+02-1.08149E-07 1.06548E-01-1.80922E+01-2.39179E-02
 -1      2286-1.71571E+02 1.05188E+02-1.13504E-07 8.59838E-02-1.82593E+01-1.90202E-02
 -1      2287-1.72863E+02 1.05954E+02-1.30481E-07 6.51833E-02-1.83880E+01-1.40798E-02
 -1      2288-1.73809E+02 1.06549E+02-1.58565E-07 4.28057E-02-1.84782E+01-9.10684E-03
 -1      2289-1.74390E+02 1.06904E+02-1.74593E-07 2.32811E-02-1.85296E+01-4.11187E-03
 -1      2290-1.74591E+02 1.07016E+02-1.75690E-07 2.58483E-04-1.85421E+01 8.94444E-04
 -1      2291-1.74449E+02 1.06945E+02-1.85462E-07-2.06243E-02-1.85157E+01 5.90154E-03
 -1      2292-1.73926E+02 1.06623E+02-2.06115E-07-4.07387E-02-1.84504E+01 1.08989E-02
 -1      2293-1.73023E+02 1.06058E+02-2.24769E-07-6.12125E-02-1.83462E+01 1.58760E-02
 -1      2294-1.71775E+02 1.05291E+02-2.33085E-07-8.31374E-02-1.82035E+01 2.08223E-02
 -1      2295-1.70185E+02 1.04336E+02-2.37384E-07-1.04568E-01-1.80224E+01 2.57278E-02
 -1      2296-1.68194E+02 1.03096E+02-2.48963E-07-1.23909E-01-1.78034E+01 3.05819E-02
 -1      2297-1.65899E+02 1.01707E+02-2.45049E-07-1.43310E-01-1.75469E+01 3.53745E-02
 -1      2298-1.63215E+02 1.00045E+02-2.08374E-07-1.63847E-01-1.72534E+01 4.00958E-02
 -1      2299-1.60205E+02 9.81996E+01-1.41949E-07-1.83529E-01-1.69234E+01 4.47355E-02
 -1      2300-1.56879E+02 9.61757E+01-5.87452E-08-2.03623E-01-1.65577E+01 4.92841E-02
 -1      2301-1.53204E+02 9.39163E+01 5.69735E-10-2.20342E-01-1.61570E+01 5.37322E-02
 -1      2302-1.49220E+02 9.14762E+01 2.68249E-08-2.38629E-01-1.57222E+01 5.80706E-02
 -1      2303-1.44899E+02 8.88116E+01 4.81114E-08-2.57164E-01-1.52540E+01 6.22901E-02
 -1      2304-1.40315E+02 8.60160E+01 6.88550E-08-2.74671E-01-1.47536E+01 6.63816E-02
 -1      2305-1.35427E+02 8.30219E+01 8.61278E-08-2.91338E-01-1.42218E+01 7.03371E-02
 -1      2306-1.30242E+02 7.98380E+01 1.03235E-07-3.06318E-01-1.36598E+01 7.41483E-02
 -1      2307-1.24799E+02 7.65012E+01 1.15906E-07-3.21740E-01-1.30688E+01 7.78070E-02
 -1      2308-1.19104E+02 7.30168E+01 1.19760E-07-3.35903E-01-1.24499E+01 8.13059E-02
 -1      2309-1.13145E+02 6.93546E+01 1.10290E-07-3.49759E-01-1.18045E+01 8.46376E-02
 -1      2310-1.06960E+02 6.55617E+01 8.94126E-08-3.63502E-01-1.11338E+01 8.77953E-02
 -1      2311-1.00569E+02 6.16553E+01 6.81045E-08-3.75889E-01-1.04393E+01 9.07723E-02
 -1      2312-9.39513E+01 5.75894E+01 5.88575E-08-3.86555E-01-9.72229E+00 9.35628E-02
 -1      2313-8.71577E+01 5.34330E+01 6.10162E-08-3.97619E-01-8.98436E+00 9.61609E-02
 -1      2314-8.01668E+01 4.91378E+01 7.25368E-08-4.07077E-01-8.22699E+00 9.85614E-02
 -1      2315-7.30311E+01 4.47688E+01 8.60176E-08-4.16330E-01-7.45173E+00 1.00759E-01
 -1      2316-6.57441E+01 4.03027E+01 9.57770E-08-4.24430E-01-6.66018E+00 1.02750E-01
 -1      2317-5.83153E+01 3.57432E+01 1.03084E-07-4.31671E-01-5.85396E+00 1.04530E-01
 -1      2318-5.07885E+01 3.11387E+01 1.07323E-07-4.37787E-01-5.03473E+00 1.06095E-01
 -1      2319-4.31444E+01 2.64448E+01 1.10244E-07-4.42504E-01-4.20417E+00 1.07443E-01
 -1      2320-3.54263E+01 2.17151E+01 1.08892E-07-4.47506E-01-3.36400E+00 1.08570E-01
 -1      2321-2.76427E+01 1.69464E+01 1.06306E-07-4.50530E-01-2.51591E+00 1.09475E-01
 -1      2322-1.98050E+01 1.21396E+01 1.05694E-07-4.52680E-01-1.66166E+00 1.10155E-01
 -1      2323-1.19371E+01 7.31724E+00 1.02986E-07-4.54225E-01-8.02984E-01 1.10611E-01
 -1      2324-4.05185E+00 2.48320E+00 9.68439E-08-4.54669E-01 5.83502E-02 1.10840E-01
 -1      2325 3.83093E+00-2.34880E+00 9.30594E-08-4.54081E-01 9.20587E-01 1.10844E-01
 -1      2326 1.16965E+01-7.17044E+00 8.91344E-08-4.52483E-01 1.78197E+00 1.10621E-01
 -1      2327 1.95268E+01-1.19711E+01 8.01064E-08-4.49755E-01 2.64076E+00 1.10173E-01
 -1      2328 2.73025E+01-1.67357E+01 6.74899E-08-4.46441E-01 3.49518E+00 1.09502E-01
 -1      2329 3.50167E+01-2.14706E+01 5.07609E-08-4.41685E-01 4.34352E+00 1.08608E-01
 -1      2330 4.26319E+01-2.61308E+01 3.25115E-08-4.37587E-01 5.18405E+00 1.07494E-01
 -1      2331 5.01524E+01-3.07409E+01 2.16009E-08-4.29569E-01 6.01507E+00 1.06163E-01
 -1      2332 5.75602E+01-3.52901E+01 1.75813E-08-4.22320E-01 6.83491E+00 1.04618E-01
 -1      2333 6.48204E+01-3.97334E+01 1.74458E-08-4.14630E-01 7.64190E+00 1.02862E-01
 -1      2334 7.19428E+01-4.41068E+01 2.45061E-08-4.04906E-01 8.43444E+00 1.00901E-01
 -1      2335 7.88813E+01-4.83523E+01 3.25048E-08-3.95881E-01 9.21093E+00 9.87373E-02
 -1      2336 8.56462E+01-5.24988E+01 3.07035E-08-3.83719E-01 9.96982E+00 9.63772E-02
 -1      2337 9.22257E+01-5.65406E+01 1.55118E-08-3.72354E-01 1.07096E+01 9.38256E-02
 -1      2338 9.85741E+01-6.04248E+01-9.10493E-09-3.59328E-01 1.14288E+01 9.10887E-02
 -1      2339 1.04712E+02-6.41954E+01-3.08915E-08-3.46333E-01 1.21261E+01 8.81727E-02
 -1      2340 1.10594E+02-6.77915E+01-4.60280E-08-3.33006E-01 1.28000E+01 8.50842E-02
 -1      2341 1.16232E+02-7.12480E+01-6.86992E-08-3.16395E-01 1.34492E+01 8.18304E-02
 -1      2342 1.21612E+02-7.45548E+01-9.34966E-08-3.00928E-01 1.40724E+01 7.84185E-02
 -1      2343 1.26701E+02-7.76715E+01-1.09501E-07-2.84711E-01 1.46686E+01 7.48566E-02
 -1      2344 1.31509E+02-8.06205E+01-1.33671E-07-2.69529E-01 1.52365E+01 7.11527E-02
 -1      2345 1.35996E+02-8.33565E+01-1.74216E-07-2.49829E-01 1.57751E+01 6.73153E-02
 -1      2346 1.40196E+02-8.59437E+01-2.20189E-07-2.31141E-01 1.62833E+01 6.33532E-02
 -1      2347 1.44069E+02-8.83212E+01-2.72418E-07-2.12407E-01 1.67603E+01 5.92755E-02
 -1      2348 1.47600E+02-9.04797E+01-3.24250E-07-1.93997E-01 1.72051E+01 5.50916E-02
 -1      2349 1.50797E+02-9.24399E+01-3.56251E-07-1.73310E-01 1.76170E+01 5.08111E-02
 -1      2350 1.53649E+02-9.41958E+01-3.64671E-07-1.53307E-01 1.79953E+01 4.64439E-02
 -1      2351 1.56131E+02-9.57063E+01-3.58110E-07-1.34255E-01 1.83392E+01 4.20001E-02
 -1      2352 1.58259E+02-9.70087E+01-3.27196E-07-1.10380E-01 1.86484E+01 3.74901E-02
 -1      2353 1.60034E+02-9.81130E+01-2.70545E-07-8.98793E-02 1.89223E+01 3.29242E-02
 -1      2354 1.61404E+02-9.89376E+01-2.13621E-07-6.81502E-02 1.91604E+01 2.83132E-02
 -1      2355 1.62430E+02-9.95821E+01-1.67406E-07-4.71031E-02 1.93626E+01 2.36678E-02
 -1      2356 1.63036E+02-9.99372E+01-1.31702E-07-2.45863E-02 1.95286E+01 1.89990E-02
 -1      2357 1.63276E+02-1.00090E+02-9.21498E-08-1.41478E-03 1.96581E+01 1.43180E-02
 -1      2358 1.63137E+02-1.00011E+02-3.55028E-08 1.93878E-02 1.97513E+01 9.63563E-03
 -1      2359 1.62578E+02-9.96516E+01 3.24402E-08 4.45699E-02 1.98080E+01 4.96311E-03
 -1      2360 1.61670E+02-9.91242E+01 1.14363E-07 6.58465E-02 1.98285E+01 3.11787E-04
 -1      2361 1.60319E+02-9.82707E+01 2.10039E-07 8.75555E-02 1.98130E+01-4.30709E-03
 -1      2362 1.58606E+02-9.72232E+01 3.07336E-07 1.10918E-01 1.97617E+01-8.88225E-03
 -1      2363 1.56515E+02-9.59568E+01 3.84215E-07 1.34675E-01 1.96750E+01-1.34026E-02
 -1      2364 1.54000E+02-9.44002E+01 4.14216E-07 1.55224E-01 1.95534E+01-1.78570E-02
 -1      2365 1.51130E+02-9.26559E+01 3.99101E-07 1.78274E-01 1.93974E+01-2.22341E-02
 -1      2366 1.47849E+02-9.06289E+01 3.65486E-07 1.98500E-01 1.92077E+01-2.65230E-02
 -1      2367 1.44203E+02-8.83962E+01 3.29989E-07 2.22876E-01 1.89851E+01-3.07126E-02
 -1      2368 1.40189E+02-8.59465E+01 2.98446E-07 2.43682E-01 1.87303E+01-3.47922E-02
 -1      2369 1.35791E+02-8.32436E+01 2.70065E-07 2.63913E-01 1.84442E+01-3.87511E-02
 -1      2370 1.31031E+02-8.03241E+01 2.43292E-07 2.85611E-01 1.81278E+01-4.25788E-02
 -1      2371 1.25926E+02-7.72084E+01 2.10737E-07 3.05605E-01 1.77822E+01-4.62648E-02
 -1      2372 1.20438E+02-7.38248E+01 1.56033E-07 3.24249E-01 1.74086E+01-4.97989E-02
 -1      2373 1.14626E+02-7.02621E+01 8.86923E-08 3.46346E-01 1.70080E+01-5.31712E-02
 -1      2374 1.08498E+02-6.65272E+01 1.75098E-08 3.65644E-01 1.65819E+01-5.63718E-02
 -1      2375 1.02001E+02-6.25268E+01-5.36073E-08 3.82902E-01 1.61316E+01-5.93914E-02
 -1      2376 9.52192E+01-5.83813E+01-1.03594E-07 4.00860E-01 1.56585E+01-6.22206E-02
 -1      2377 8.81027E+01-5.40090E+01-1.25020E-07 4.18791E-01 1.51642E+01-6.48504E-02
 -1      2378 8.06961E+01-4.94699E+01-1.36049E-07 4.35857E-01 1.46503E+01-6.72719E-02
 -1      2379 7.30098E+01-4.47661E+01-1.47360E-07 4.52690E-01 1.41184E+01-6.94768E-02
 -1      2380 6.50284E+01-3.98671E+01-1.59924E-07 4.67526E-01 1.35702E+01-7.14569E-02
 -1      2381 5.67907E+01-3.48226E+01-1.72002E-07 4.83228E-01 1.30074E+01-7.32044E-02
 -1      2382 4.82845E+01-2.96038E+01-1.75397E-07 4.97237E-01 1.24321E+01-7.47118E-02
 -1      2383 3.95384E+01-2.42428E+01-1.67758E-07 5.11641E-01 1.18459E+01-7.59716E-02
 -1      2384 3.05638E+01-1.87464E+01-1.56395E-07 5.24524E-01 1.12510E+01-7.69772E-02
 -1      2385 2.13560E+01-1.30983E+01-1.51306E-07 5.36985E-01 1.06492E+01-7.77220E-02
 -1      2386 1.19429E+01-7.32873E+00-1.50408E-07 5.48779E-01 1.00426E+01-7.81996E-02
 -1      2387 2.33169E+00-1.43920E+00-1.48698E-07 5.60122E-01 9.43345E+00-7.84044E-02
 -1      2388-7.46740E+00 4.56858E+00-1.43311E-07 5.70023E-01 8.82375E+00-7.83307E-02
 -1      2389-1.74417E+01 1.06820E+01-1.30678E-07 5.80095E-01 8.21572E+00-7.79732E-02
 -1      2390-2.75759E+01 1.68945E+01-1.17611E-07 5.88273E-01 7.61159E+00-7.73274E-02
 -1      2391-3.78634E+01 2.31985E+01-1.08177E-07 5.97779E-01 7.01362E+00-7.63886E-02
 -1      2392-4.82910E+01 2.95953E+01-9.51296E-08 6.03777E-01 6.42410E+00-7.51526E-02
 -1      2393-5.88392E+01 3.60543E+01-7.72171E-08 6.13342E-01 5.84537E+00-7.36158E-02
 -1      2394-6.95021E+01 4.25906E+01-6.03568E-08 6.16531E-01 5.27977E+00-7.17746E-02
 -1      2395-8.02882E+01 4.92074E+01-4.67372E-08 6.25278E-01 4.72968E+00-6.96257E-02
 -1      2396-9.11410E+01 5.58557E+01-3.46807E-08 6.26306E-01 4.19751E+00-6.71664E-02
 -1      2397-1.02102E+02 6.25775E+01-2.34681E-08 6.36013E-01 3.68569E+00-6.43942E-02
 -1      2398-1.13112E+02 6.93280E+01-1.45795E-08 6.34450E-01 3.19665E+00-6.13068E-02
 -1      2399-1.24200E+02 7.61080E+01-6.45746E-09 6.46063E-01 2.73285E+00-5.79023E-02
 -1      2400-1.35333E+02 8.29493E+01 6.41468E-09 6.36089E-01 2.29677E+00-5.41789E-02
 -1      2401-1.46537E+02 8.98084E+01 2.30086E-08 6.52988E-01 1.89089E+00-5.01353E-02
 -1      2402-1.57739E+02 9.66890E+01 4.26780E-08 6.37861E-01 1.51772E+00-4.57702E-02
 -1      2403-1.69022E+02 1.03587E+02 6.48804E-08 6.62813E-01 1.17975E+00-4.10827E-02
 -1      2404-1.80210E+02 1.10423E+02 8.79150E-08 6.33866E-01 8.79492E-01-3.60722E-02
 -1      2405-1.91705E+02 1.17601E+02 1.11449E-07 6.67516E-01 6.19458E-01-3.07377E-02
 -1      2406-2.02494E+02 1.23728E+02 1.34376E-07 6.43400E-01 4.02184E-01-2.50793E-02
 -1      2407-2.15450E+02 1.33470E+02 1.57365E-07 6.10509E-01 2.30168E-01-1.90955E-02
 -1      2408-2.21011E+02 1.30226E+02 1.76223E-07 8.93580E-01 1.05964E-01-1.27904E-02
 -1      2409-2.53076E+02 1.74306E+02 2.25521E-07-3.43044E-01 3.20723E-02-6.14850E-03
 -1      2410-1.67385E+02 3.24693E+01 2.67771E-07 4.19176E+00 7.97556E-03-2.73817E-03
 -3
    1PSTEP                        16           1           1          
    1PGM                1.000000E+00                                  
    1PGK                8.100383E+06                                  
    1PHID                         -1                                  
    1PSUBC                         0                                  
    1PMODE                         4                                  
  100CL  104 452.9736312        2410                     2    4MODAL      1
 -4  ERROR       1    1
 -5  STR(%)      1    1    0    0
 -1         1 1.73650E-01
 -1         2 5.80711E-01
 -1         3 1.08879E+00
 -1         4 1.67897E+00
 -1         5 2.35601E+00
 -1         6 3.12851E+00
 -1         7 4.47220E+00
 -1         8 2.65624E+01
 -1         9 2.69780E+01
 -1        10 2.69915E+01
 -1        11 2.70393E+01
 -1        12 2.70393E+01
 -1        13 2.70480E+01
 -1        14 2.70480E+01
 -1        15 2.70190E+01
 -1        16 2.70286E+01
 -1        17 2.70286E+01
 -1        18 2.70405E+01
 -1        19 2.70405E+01
 -1        20 2.70235E+01
 -1        21 2.70235E+01
 -1        22 2.70105E+01
 -1        23 2.70191E+01
 -1        24 2.70191E+01
 -1        25 2.70200E+01
 -1        26 2.70200E+01
 -1        27 2.70142E+01
 -1        28 2.70142E+01
 -1        29 2.70162E+01
 -1        30 2.70162E+01
 -1        31 2.70107E+01
 -1        32 2.70107E+01
 -1        33 2.70095E+01
 -1        34 2.70131E+01
 -1        35 2.70131E+01
 -1        36 2.70092E+01
 -1        37 2.70145E+01
 -1        38 2.70145E+01
 -1        39 2.70239E+01
 -1        40 2.70239E+01
 -1        41 2.70183E+01
 -1        42 2.70183E+01
 -1        43 2.70157E+01
 -1        44 2.70157E+01
 -1        45 2.70166E+01
 -1        46 2.70166E+01
 -1        47 2.70084E+01
 -1        48 2.70125E+01
 -1        49 2.70125E+01
 -1        50 2.70206E+01
 -1        51 2.70206E+01
 -1        52 2.70071E+01
 -1        53 2.70147E+01
 -1        54 2.70147E+01
 -1        55 2.70230E+01
 -1        56 2.70230E+01
 -1        57 2.70196E+01
 -1        58 2.70196E+01
 -1        59 2.70185E+01
 -1        60 2.70185E+01
 -1        61 2.70192E+01
 -1        62 2.70192E+01
 -1        63 2.70061E+01
 -1        64 2.70156E+01
 -1        65 2.70156E+01
 -1        66 2.70181E+01
 -1        67 2.70181E+01
 -1        68 2.70100E+01
 -1        69 2.70100E+01
 -1        70 2.70086E+01
 -1        71 2.70172E+01
 -1        72 2.70172E+01
 -1        73 2.70124E+01
 -1        74 2.70124E+01
 -1        75 2.70052E+01
 -1        76 2.70094E+01
 -1        77 2.70094E+01
 -1        78 2.70107E+01
 -1        79 2.70107E+01
 -1        80 2.70066E+01
 -1        81 2.70066E+01
 -1        82 2.70078E+01
 -1        83 2.70078E+01
 -1        84 2.69867E+01
 -1        85 2.69867E+01
 -1        86 2.69014E+01
 -1        87 2.70998E+01
 -1        88 2.70998E+01
 -1        89 2.70093E+01
 -1        90 2.70093E+01
 -1        91 2.70046E+01
 -1        92 2.70162E+01
 -1        93 2.70162E+01
 -1        94 2.70093E+01
 -1        95 2.70170E+01
 -1        96 2.70170E+01
 -1        97 2.70191E+01
 -1        98 2.70191E+01
 -1        99 2.70110E+01
 -1       100 2.70110E+01
 -1       101 2.70107E+01
 -1       102 2.70096E+01
 -1       103 2.70124E+01
 -1       104 2.70124E+01
 -1       105 2.70111E+01
 -1       106 2.70206E+01
 -1       107 2.70206E+01
 -1       108 2.70188E+01
 -1       109 2.70188E+01
 -1       110 2.70092E+01
 -1       111 2.70125E+01
 -1       112 2.70125E+01
 -1       113 2.70173E+01
 -1       114 2.70173E+01
 -1       115 2.70084E+01
 -1       116 2.70142E+01
 -1       117 2.70142E+01
 -1       118 2.70242E+01
 -1       119 2.70242E+01
 -1       120 2.70262E+01
 -1       121 2.70262E+01
 -1       122 2.70214E+01
 -1       123 2.70214E+01
 -1       124 2.70229E+01
 -1       125 2.70229E+01
 -1       126 2.70129E+01
 -1       127 2.70129E+01
 -1       128 2.70076E+01
 -1       129 2.70158E+01
 -1       130 2.70158E+01
 -1       131 2.70105E+01
 -1       132 2.70105E+01
 -1       133 2.70061E+01
 -1       134 2.70138E+01
 -1       135 2.70138E+01
 -1       136 2.70158E+01
 -1       137 2.70158E+01
 -1       138 2.70171E+01
 -1       139 2.70171E+01
 -1       140 2.70211E+01
 -1       141 2.70211E+01
 -1       142 2.70132E+01
 -1       143 2.70132E+01
 -1       144 2.70034E+01
 -1       145 2.70075E+01
 -1       146 2.70075E+01
 -1       147 2.70085E+01
 -1       148 2.70085E+01
 -1       149 2.69961E+01
 -1       150 2.69961E+01
 -1       151 2.69956E+01
 -1       152 2.69811E+01
 -1       153 2.69748E+01
 -1       154 2.69399E+01
 -1       155 1.02929E+02
 -1       156 1.02929E+02
 -1       157 2.70157E+01
 -1       158 2.70157E+01
 -1       159 2.70212E+01
 -1       160 2.70212E+01
 -1       161 2.70282E+01
 -1       162 2.70282E+01
 -1       163 2.70168E+01
 -1       164 2.70168E+01
 -1       165 2.70130E+01
 -1       166 2.70174E+01
 -1       167 2.70174E+01
 -1       168 2.70121E+01
 -1       169 2.70124E+01
 -1       170 2.70124E+01
 -1       171 2.70143E+01
 -1       172 2.70143E+01
 -1       173 2.70113E+01
 -1       174 2.70150E+01
 -1       175 2.70150E+01
 -1       176 2.70214E+01
 -1       177 2.70214E+01
 -1       178 2.70191E+01
 -1       179 2.70191E+01
 -1       180 2.70162E+01
 -1       181 2.70162E+01
 -1       182 2.70167E+01
 -1       183 2.70167E+01
 -1       184 2.70083E+01
 -1       185 2.70120E+01
 -1       186 2.70120E+01
 -1       187 2.70161E+01
 -1       188 2.70161E+01
 -1       189 2.70112E+01
 -1       190 2.70112E+01
 -1       191 2.70101E+01
 -1       192 2.70195E+01
 -1       193 2.70195E+01
 -1       194 2.70128E+01
 -1       195 2.70128E+01
 -1       196 2.70042E+01
 -1       197 2.70126E+01
 -1       198 2.70126E+01
 -1       199 2.70114E+01
 -1       200 2.70114E+01
 -1       201 2.70140E+01
 -1       202 2.70140E+01
 -1       203 2.70220E+01
 -1       204 2.70220E+01
 -1       205 2.70089E+01
 -1       206 2.70089E+01
 -1       207 2.70006E+01
 -1       208 2.70082E+01
 -1       209 2.70082E+01
 -1       210 2.70019E+01
 -1       211 2.70019E+01
 -1       212 2.69902E+01
 -1       213 2.69902E+01
 -1       214 2.69876E+01
 -1       215 2.69701E+01
 -1       216 2.69557E+01
 -1       217 2.68927E+01
 -1       218 3.78677E+01
 -1       219 3.78677E+01
 -1       220 2.70620E+01
 -1       221 2.70620E+01
 -1       222 2.70569E+01
 -1       223 2.70569E+01
 -1       224 2.70612E+01
 -1       225 2.70612E+01
 -1       226 2.70626E+01
 -1       227 2.70626E+01
 -1       228 2.70740E+01
 -1       229 2.70740E+01
 -1       230 2.71033E+01
 -1       231 2.71033E+01
 -1       232 2.71390E+01
 -1       233 2.71390E+01
 -1       234 2.71930E+01
 -1       235 2.71930E+01
 -1       236 2.72333E+01
 -1       237 2.72333E+01
 -1       238 2.69160E+01
 -1       239 2.82305E+01
 -1       240 2.82305E+01
 -1       241 2.16641E+01
 -1       242 1.73650E-01
 -1       243 5.80711E-01
 -1       244 1.08879E+00
 -1       245 1.67897E+00
 -1       246 2.35601E+00
 -1       247 3.12851E+00
 -1       248 4.47220E+00
 -1       249 2.65624E+01
 -1       250 2.69780E+01
 -1       251 2.69915E+01
 -1       252 2.70393E+01
 -1       253 2.70393E+01
 -1       254 2.70480E+01
 -1       255 2.70480E+01
 -1       256 2.70190E+01
 -1       257 2.70286E+01
 -1       258 2.70286E+01
 -1       259 2.70405E+01
 -1       260 2.70405E+01
 -1       261 2.70235E+01
 -1       262 2.70235E+01
 -1       263 2.70105E+01
 -1       264 2.70191E+01
 -1       265 2.70191E+01
 -1       266 2.70200E+01
 -1       267 2.70200E+01
 -1       268 2.70142E+01
 -1       269 2.70142E+01
 -1       270 2.70162E+01
 -1       271 2.70162E+01
 -1       272 2.70107E+01
 -1       273 2.70107E+01
 -1       274 2.70095E+01
 -1       275 2.70131E+01
 -1       276 2.70131E+01
 -1       277 2.70092E+01
 -1       278 2.70145E+01
 -1       279 2.70145E+01
 -1       280 2.70239E+01
 -1       281 2.70239E+01
 -1       282 2.70183E+01
 -1       283 2.70183E+01
 -1       284 2.70157E+01
 -1       285 2.70157E+01
 -1       286 2.70166E+01
 -1       287 2.70166E+01
 -1       288 2.70084E+01
 -1       289 2.70125E+01
 -1       290 2.70125E+01
 -1       291 2.70206E+01
 -1       292 2.70206E+01
 -1       293 2.70071E+01
 -1       294 2.70147E+01
 -1       295 2.70147E+01
 -1       296 2.70230E+01
 -1       297 2.70230E+01
 -1       298 2.70196E+01
 -1       299 2.70196E+01
 -1       300 2.70185E+01
 -1       301 2.70185E+01
 -1       302 2.70192E+01
 -1       303 2.70192E+01
 -1       304 2.70061E+01
 -1       305 2.70156E+01
 -1       306 2.70156E+01
 -1       307 2.70181E+01
 -1       308 2.70181E+01
 -1       309 2.70100E+01
 -1       310 2.70100E+01
 -1       311 2.70086E+01
 -1       312 2.70172E+01
 -1       313 2.70172E+01
 -1       314 2.70124E+01
 -1       315 2.70124E+01
 -1       316 2.70052E+01
 -1       317 2.70094E+01
 -1       318 2.70094E+01
 -1       319 2.70107E+01
 -1       320 2.70107E+01
 -1       321 2.70066E+01
 -1       322 2.70066E+01
 -1       323 2.70078E+01
 -1       324 2.70078E+01
 -1       325 2.69867E+01
 -1       326 2.69867E+01
 -1       327 2.69014E+01
 -1       328 2.70998E+01
 -1       329 2.70998E+01
 -1       330 2.70093E+01
 -1       331 2.70093E+01
 -1       332 2.70046E+01
 -1       333 2.70162E+01
 -1       334 2.70162E+01
 -1       335 2.70093E+01
 -1       336 2.70170E+01
 -1       337 2.70170E+01
 -1       338 2.70191E+01
 -1       339 2.70191E+01
 -1       340 2.70110E+01
 -1       341 2.70110E+01
 -1       342 2.70107E+01
 -1       343 2.70096E+01
 -1       344 2.70124E+01
 -1       345 2.70124E+01
 -1       346 2.70111E+01
 -1       347 2.70206E+01
 -1       348 2.70206E+01
 -1       349 2.70188E+01
 -1       350 2.70188E+01
 -1       351 2.70092E+01
 -1       352 2.70125E+01
 -1       353 2.70125E+01
 -1       354 2.70173E+01
 -1       355 2.70173E+01
 -1       356 2.70084E+01
 -1       357 2.70142E+01
 -1       358 2.70142E+01
 -1       359 2.70242E+01
 -1       360 2.70242E+01
 -1       361 2.70262E+01
 -1       362 2.70262E+01
 -1       363 2.70214E+01
 -1       364 2.70214E+01
 -1       365 2.70229E+01
 -1       366 2.70229E+01
 -1       367 2.70129E+01
 -1       368 2.70129E+01
 -1       369 2.70076E+01
 -1       370 2.70158E+01
 -1       371 2.70158E+01
 -1       372 2.70105E+01
 -1       373 2.70105E+01
 -1       374 2.70061E+01
 -1       375 2.70138E+01
 -1       376 2.70138E+01
 -1       377 2.70158E+01
 -1       378 2.70158E+01
 -1       379 2.70171E+01
 -1       380 2.70171E+01
 -1       381 2.70211E+01
 -1       382 2.70211E+01
 -1       383 2.70132E+01
 -1       384 2.70132E+01
 -1       385 2.70034E+01
 -1       386 2.70075E+01
 -1       387 2.70075E+01
 -1       388 2.70085E+01
 -1       389 2.70085E+01
 -1       390 2.69961E+01
 -1       391 2.69961E+01
 -1       392 2.69956E+01
 -1       393 2.69811E+01
 -1       394 2.69748E+01
 -1       395 2.69399E+01
 -1       396 1.02929E+02
 -1       397 1.02929E+02
 -1       398 2.70157E+01
 -1       399 2.70157E+01
 -1       400 2.70212E+01
 -1       401 2.70212E+01
 -1       402 2.70282E+01
 -1       403 2.70282E+01
 -1       404 2.70168E+01
 -1       405 2.70168E+01
 -1       406 2.70130E+01
 -1       407 2.70174E+01
 -1       408 2.70174E+01
 -1       409 2.70121E+01
 -1       410 2.70124E+01
 -1       411 2.70124E+01
 -1       412 2.70143E+01
 -1       413 2.70143E+01
 -1       414 2.70113E+01
 -1       415 2.70150E+01
 -1       416 2.70150E+01
 -1       417 2.70214E+01
 -1       418 2.70214E+01
 -1       419 2.70191E+01
 -1       420 2.70191E+01
 -1       421 2.70162E+01
 -1       422 2.70162E+01
 -1       423 2.70167E+01
 -1       424 2.70167E+01
 -1       425 2.70083E+01
 -1       426 2.70120E+01
 -1       427 2.70120E+01
 -1       428 2.70161E+01
 -1       429 2.70161E+01
 -1       430 2.70112E+01
 -1       431 2.70112E+01
 -1       432 2.70101E+01
 -1       433 2.70195E+01
 -1       434 2.70195E+01
 -1       435 2.70128E+01
 -1       436 2.70128E+01
 -1       437 2.70042E+01
 -1       438 2.70126E+01
 -1       439 2.70126E+01
 -1       440 2.70114E+01
 -1       441 2.70114E+01
 -1       442 2.70140E+01
 -1       443 2.70140E+01
 -1       444 2.70220E+01
 -1       445 2.70220E+01
 -1       446 2.70089E+01
 -1       447 2.70089E+01
 -1       448 2.70006E+01
 -1       449 2.70082E+01
 -1       450 2.70082E+01
 -1       451 2.70019E+01
 -1       452 2.70019E+01
 -1       453 2.69902E+01
 -1       454 2.69902E+01
 -1       455 2.69876E+01
 -1       456 2.69701E+01
 -1       457 2.69557E+01
 -1       458 2.68927E+01
 -1       459 3.78677E+01
 -1       460 3.78677E+01
 -1       461 2.70620E+01
 -1       462 2.70620E+01
 -1       463 2.70569E+01
 -1       464 2.70569E+01
 -1       465 2.70612E+01
 -1       466 2.70612E+01
 -1       467 2.70626E+01
 -1       468 2.70626E+01
 -1       469 2.70740E+01
 -1       470 2.70740E+01
 -1       471 2.71033E+01
 -1       472 2.71033E+01
 -1       473 2.71390E+01
 -1       474 2.71390E+01
 -1       475 2.71930E+01
 -1       476 2.71930E+01
 -1       477 2.72333E+01
 -1       478 2.72333E+01
 -1       479 2.69160E+01
 -1       480 2.82305E+01
 -1       481 2.82305E+01
 -1       482 2.16641E+01
 -1       483 1.73650E-01
 -1       484 5.80711E-01
 -1       485 1.08879E+00
 -1       486 1.67897E+00
 -1       487 2.35601E+00
 -1       488 3.12851E+00
 -1       489 4.47220E+00
 -1       490 2.65624E+01
 -1       491 2.69780E+01
 -1       492 2.69915E+01
 -1       493 4.35954E+01
 -1       494 5.96786E+01
 -1       495 7.09445E+01
 -1       496 7.95760E+01
 -1       497 8.31395E+01
 -1       498 8.35709E+01
 -1       499 8.39529E+01
 -1       500 8.39529E+01
 -1       501 8.39656E+01
 -1       502 8.40334E+01
 -1       503 8.40334E+01
 -1       504 8.41206E+01
 -1       505 8.41206E+01
 -1       506 8.40587E+01
 -1       507 8.40587E+01
 -1       508 8.40477E+01
 -1       509 8.40847E+01
 -1       510 8.40847E+01
 -1       511 8.40682E+01
 -1       512 8.40740E+01
 -1       513 8.41061E+01
 -1       514 8.41061E+01
 -1       515 8.40969E+01
 -1       516 8.40969E+01
 -1       517 8.40944E+01
 -1       518 8.41017E+01
 -1       519 8.41017E+01
 -1       520 8.41545E+01
 -1       521 8.41545E+01
 -1       522 8.41380E+01
 -1       523 8.41380E+01
 -1       524 8.41385E+01
 -1       525 8.41385E+01
 -1       526 8.41147E+01
 -1       527 8.41147E+01
 -1       528 8.41057E+01
 -1       529 8.41192E+01
 -1       530 8.41192E+01
 -1       531 8.41664E+01
 -1       532 8.41664E+01
 -1       533 8.41210E+01
 -1       534 8.41303E+01
 -1       535 8.41303E+01
 -1       536 8.41441E+01
 -1       537 8.41441E+01
 -1       538 8.41629E+01
 -1       539 8.41629E+01
 -1       540 8.41248E+01
 -1       541 8.41248E+01
 -1       542 8.41531E+01
 -1       543 8.41531E+01
 -1       544 8.41023E+01
 -1       545 8.41199E+01
 -1       546 8.41199E+01
 -1       547 8.41248E+01
 -1       548 8.41248E+01
 -1       549 8.41329E+01
 -1       550 8.41329E+01
 -1       551 8.40453E+01
 -1       552 8.41055E+01
 -1       553 8.41055E+01
 -1       554 8.40686E+01
 -1       555 8.40686E+01
 -1       556 8.40228E+01
 -1       557 8.40228E+01
 -1       558 8.39663E+01
 -1       559 8.39180E+01
 -1       560 8.39029E+01
 -1       561 8.38568E+01
 -1       562 8.37504E+01
 -1       563 8.36267E+01
 -1       564 8.35174E+01
 -1       565 8.31120E+01
 -1       566 8.26845E+01
 -1       567 8.14493E+01
 -1       568 7.82568E+01
 -1       569 6.23823E+01
 -1       570 7.78904E+01
 -1       571 8.12811E+01
 -1       572 8.25395E+01
 -1       573 8.31284E+01
 -1       574 8.34352E+01
 -1       575 8.36282E+01
 -1       576 8.37622E+01
 -1       577 8.37998E+01
 -1       578 8.39500E+01
 -1       579 8.39500E+01
 -1       580 8.39746E+01
 -1       581 8.40183E+01
 -1       582 8.40183E+01
 -1       583 8.40362E+01
 -1       584 8.40447E+01
 -1       585 8.40543E+01
 -1       586 8.40616E+01
 -1       587 8.40832E+01
 -1       588 8.40832E+01
 -1       589 8.41388E+01
 -1       590 8.41388E+01
 -1       591 8.40966E+01
 -1       592 8.41221E+01
 -1       593 8.41221E+01
 -1       594 8.41397E+01
 -1       595 8.41397E+01
 -1       596 8.41605E+01
 -1       597 8.41605E+01
 -1       598 8.40896E+01
 -1       599 8.41591E+01
 -1       600 8.41591E+01
 -1       601 8.41499E+01
 -1       602 8.41499E+01
 -1       603 8.41478E+01
 -1       604 8.41478E+01
 -1       605 8.41462E+01
 -1       606 8.41462E+01
 -1       607 8.41599E+01
 -1       608 8.41599E+01
 -1       609 8.40851E+01
 -1       610 8.41571E+01
 -1       611 8.41571E+01
 -1       612 8.41365E+01
 -1       613 8.41365E+01
 -1       614 8.41191E+01
 -1       615 8.41191E+01
 -1       616 8.40926E+01
 -1       617 8.41324E+01
 -1       618 8.41324E+01
 -1       619 8.40866E+01
 -1       620 8.40866E+01
 -1       621 8.41048E+01
 -1       622 8.41048E+01
 -1       623 8.40610E+01
 -1       624 8.40610E+01
 -1       625 8.40072E+01
 -1       626 8.40072E+01
 -1       627 8.39590E+01
 -1       628 8.39262E+01
 -1       629 8.39262E+01
 -1       630 8.37638E+01
 -1       631 8.37237E+01
 -1       632 8.35592E+01
 -1       633 8.33419E+01
 -1       634 8.29651E+01
 -1       635 8.21958E+01
 -1       636 8.04828E+01
 -1       637 1.02929E+02
 -1       638 1.02929E+02
 -1       639 7.98307E+01
 -1       640 8.19163E+01
 -1       641 8.28189E+01
 -1       642 8.32690E+01
 -1       643 8.35137E+01
 -1       644 8.36891E+01
 -1       645 8.37622E+01
 -1       646 8.38800E+01
 -1       647 8.39132E+01
 -1       648 8.39317E+01
 -1       649 8.39737E+01
 -1       650 8.40307E+01
 -1       651 8.40307E+01
 -1       652 8.40458E+01
 -1       653 8.40458E+01
 -1       654 8.40609E+01
 -1       655 8.40745E+01
 -1       656 8.40745E+01
 -1       657 8.41341E+01
 -1       658 8.41341E+01
 -1       659 8.41263E+01
 -1       660 8.41263E+01
 -1       661 8.41316E+01
 -1       662 8.41316E+01
 -1       663 8.41100E+01
 -1       664 8.41100E+01
 -1       665 8.41030E+01
 -1       666 8.41160E+01
 -1       667 8.41160E+01
 -1       668 8.41617E+01
 -1       669 8.41617E+01
 -1       670 8.41173E+01
 -1       671 8.41303E+01
 -1       672 8.41303E+01
 -1       673 8.41442E+01
 -1       674 8.41442E+01
 -1       675 8.41598E+01
 -1       676 8.41598E+01
 -1       677 8.41072E+01
 -1       678 8.41072E+01
 -1       679 8.40936E+01
 -1       680 8.40947E+01
 -1       681 8.40947E+01
 -1       682 8.41076E+01
 -1       683 8.41076E+01
 -1       684 8.40868E+01
 -1       685 8.40868E+01
 -1       686 8.40680E+01
 -1       687 8.40680E+01
 -1       688 8.39591E+01
 -1       689 8.39403E+01
 -1       690 8.39403E+01
 -1       691 8.37406E+01
 -1       692 8.37058E+01
 -1       693 8.33680E+01
 -1       694 8.28839E+01
 -1       695 8.15049E+01
 -1       696 7.85643E+01
 -1       697 7.30501E+01
 -1       698 6.27140E+01
 -1       699 4.11416E+01
 -1       700 3.78677E+01
 -1       701 3.78677E+01
 -1       702 6.97282E+01
 -1       703 8.01139E+01
 -1       704 8.26169E+01
 -1       705 8.32483E+01
 -1       706 8.35645E+01
 -1       707 8.36814E+01
 -1       708 8.38693E+01
 -1       709 8.38693E+01
 -1       710 8.39652E+01
 -1       711 8.39652E+01
 -1       712 8.40252E+01
 -1       713 8.40252E+01
 -1       714 8.40507E+01
 -1       715 8.40507E+01
 -1       716 8.40850E+01
 -1       717 8.40850E+01
 -1       718 8.41484E+01
 -1       719 8.41484E+01
 -1       720 8.41075E+01
 -1       721 8.65656E+01
 -1       722 8.65656E+01
 -1       723 7.44767E+01
 -1       724 1.73650E-01
 -1       725 5.80711E-01
 -1       726 1.08879E+00
 -1       727 1.67897E+00
 -1       728 2.35601E+00
 -1       729 3.12851E+00
 -1       730 4.47220E+00
 -1       731 2.65624E+01
 -1       732 2.69780E+01
 -1       733 2.69915E+01
 -1       734 4.35954E+01
 -1       735 5.96786E+01
 -1       736 7.09445E+01
 -1       737 7.95760E+01
 -1       738 8.31395E+01
 -1       739 8.35709E+01
 -1       740 8.39529E+01
 -1       741 8.39529E+01
 -1       742 8.39656E+01
 -1       743 8.40334E+01
 -1       744 8.40334E+01
 -1       745 8.41206E+01
 -1       746 8.41206E+01
 -1       747 8.40587E+01
 -1       748 8.40587E+01
 -1       749 8.40477E+01
 -1       750 8.40847E+01
 -1       751 8.40847E+01
 -1       752 8.40682E+01
 -1       753 8.40740E+01
 -1       754 8.41061E+01
 -1       755 8.41061E+01
 -1       756 8.40969E+01
 -1       757 8.40969E+01
 -1       758 8.40944E+01
 -1       759 8.41017E+01
 -1       760 8.41017E+01
 -1       761 8.41545E+01
 -1       762 8.41545E+01
 -1       763 8.41380E+01
 -1       764 8.41380E+01
 -1       765 8.41385E+01
 -1       766 8.41385E+01
 -1       767 8.41147E+01
 -1       768 8.41147E+01
 -1       769 8.41057E+01
 -1       770 8.41192E+01
 -1       771 8.41192E+01
 -1       772 8.41664E+01
 -1       773 8.41664E+01
 -1       774 8.41210E+01
 -1       775 8.41303E+01
 -1       776 8.41303E+01
 -1       777 8.41441E+01
 -1       778 8.41441E+01
 -1       779 8.41629E+01
 -1       780 8.41629E+01
 -1       781 8.41248E+01
 -1       782 8.41248E+01
 -1       783 8.41531E+01
 -1       784 8.41531E+01
 -1       785 8.41023E+01
 -1       786 8.41199E+01
 -1       787 8.41199E+01
 -1       788 8.41248E+01
 -1       789 8.41248E+01
 -1       790 8.41329E+01
 -1       791 8.41329E+01
 -1       792 8.40453E+01
 -1       793 8.41055E+01
 -1       794 8.41055E+01
 -1       795 8.40686E+01
 -1       796 8.40686E+01
 -1       797 8.40228E+01
 -1       798 8.40228E+01
 -1       799 8.39663E+01
 -1       800 8.39180E+01
 -1       801 8.39029E+01
 -1       802 8.38568E+01
 -1       803 8.37504E+01
 -1       804 8.36267E+01
 -1       805 8.35174E+01
 -1       806 8.31120E+01
 -1       807 8.26845E+01
 -1       808 8.14493E+01
 -1       809 7.82568E+01
 -1       810 6.23823E+01
 -1       811 7.78904E+01
 -1       812 8.12811E+01
 -1       813 8.25395E+01
 -1       814 8.31284E+01
 -1       815 8.34352E+01
 -1       816 8.36282E+01
 -1       817 8.37622E+01
 -1       818 8.37998E+01
 -1       819 8.39500E+01
 -1       820 8.39500E+01
 -1       821 8.39746E+01
 -1       822 8.40183E+01
 -1       823 8.40183E+01
 -1       824 8.40362E+01
 -1       825 8.40447E+01
 -1       826 8.40543E+01
 -1       827 8.40616E+01
 -1       828 8.40832E+01
 -1       829 8.40832E+01
 -1       830 8.41388E+01
 -1       831 8.41388E+01
 -1       832 8.40966E+01
 -1       833 8.41221E+01
 -1       834 8.41221E+01
 -1       835 8.41397E+01
 -1       836 8.41397E+01
 -1       837 8.41605E+01
 -1       838 8.41605E+01
 -1       839 8.40896E+01
 -1       840 8.41591E+01
 -1       841 8.41591E+01
 -1       842 8.41499E+01
 -1       843 8.41499E+01
 -1       844 8.41478E+01
 -1       845 8.41478E+01
 -1       846 8.41462E+01
 -1       847 8.41462E+01
 -1       848 8.41599E+01
 -1       849 8.41599E+01
 -1       850 8.40851E+01
 -1       851 8.41571E+01
 -1       852 8.41571E+01
 -1       853 8.41365E+01
 -1       854 8.41365E+01
 -1       855 8.41191E+01
 -1       856 8.41191E+01
 -1       857 8.40926E+01
 -1       858 8.41324E+01
 -1       859 8.41324E+01
 -1       860 8.40866E+01
 -1       861 8.40866E+01
 -1       862 8.41048E+01
 -1       863 8.41048E+01
 -1       864 8.40610E+01
 -1       865 8.40610E+01
 -1       866 8.40072E+01
 -1       867 8.40072E+01
 -1       868 8.39590E+01
 -1       869 8.39262E+01
 -1       870 8.39262E+01
 -1       871 8.37638E+01
 -1       872 8.37237E+01
 -1       873 8.35592E+01
 -1       874 8.33419E+01
 -1       875 8.29651E+01
 -1       876 8.21958E+01
 -1       877 8.04828E+01
 -1       878 1.02929E+02
 -1       879 1.02929E+02
 -1       880 7.98307E+01
 -1       881 8.19163E+01
 -1       882 8.28189E+01
 -1       883 8.32690E+01
 -1       884 8.35137E+01
 -1       885 8.36891E+01
 -1       886 8.37622E+01
 -1       887 8.38800E+01
 -1       888 8.39132E+01
 -1       889 8.39317E+01
 -1       890 8.39737E+01
 -1       891 8.40307E+01
 -1       892 8.40307E+01
 -1       893 8.40458E+01
 -1       894 8.40458E+01
 -1       895 8.40609E+01
 -1       896 8.40745E+01
 -1       897 8.40745E+01
 -1       898 8.41341E+01
 -1       899 8.41341E+01
 -1       900 8.41263E+01
 -1       901 8.41263E+01
 -1       902 8.41316E+01
 -1       903 8.41316E+01
 -1       904 8.41100E+01
 -1       905 8.41100E+01
 -1       906 8.41030E+01
 -1       907 8.41160E+01
 -1       908 8.41160E+01
 -1       909 8.41617E+01
 -1       910 8.41617E+01
 -1       911 8.41173E+01
 -1       912 8.41303E+01
 -1       913 8.41303E+01
 -1       914 8.41442E+01
 -1       915 8.41442E+01
 -1       916 8.41598E+01
 -1       917 8.41598E+01
 -1       918 8.41072E+01
 -1       919 8.41072E+01
 -1       920 8.40936E+01
 -1       921 8.40947E+01
 -1       922 8.40947E+01
 -1       923 8.41076E+01
 -1       924 8.41076E+01
 -1       925 8.40868E+01
 -1       926 8.40868E+01
 -1       927 8.40680E+01
 -1       928 8.40680E+01
 -1       929 8.39591E+01
 -1       930 8.39403E+01
 -1       931 8.39403E+01
 -1       932 8.37406E+01
 -1       933 8.37058E+01
 -1       934 8.33680E+01
 -1       935 8.28839E+01
 -1       936 8.15049E+01
 -1       937 7.85643E+01
 -1       938 7.30501E+01
 -1       939 6.27140E+01
 -1       940 4.11416E+01
 -1       941 3.78677E+01
 -1       942 3.78677E+01
 -1       943 6.97282E+01
 -1       944 8.01139E+01
 -1       945 8.26169E+01
 -1       946 8.32483E+01
 -1       947 8.35645E+01
 -1       948 8.36814E+01
 -1       949 8.38693E+01
 -1       950 8.38693E+01
 -1       951 8.39652E+01
 -1       952 8.39652E+01
 -1       953 8.40252E+01
 -1       954 8.40252E+01
 -1       955 8.40507E+01
 -1       956 8.40507E+01
 -1       957 8.40850E+01
 -1       958 8.40850E+01
 -1       959 8.41484E+01
 -1       960 8.41484E+01
 -1       961 8.41075E+01
 -1       962 8.65656E+01
 -1       963 8.65656E+01
 -1       964 7.44767E+01
 -1       965 7.08698E-02
 -1       966 2.76341E-01
 -1       967 5.82228E-01
 -1       968 1.01037E+00
 -1       969 1.56965E+00
 -1       970 2.20650E+00
 -1       971 3.09334E+00
 -1       972 4.01956E+00
 -1       973 6.22090E+00
 -1       974 2.27826E+01
 -1       975 4.35954E+01
 -1       976 5.96786E+01
 -1       977 7.09445E+01
 -1       978 7.95782E+01
 -1       979 8.31564E+01
 -1       980 8.35906E+01
 -1       981 8.39732E+01
 -1       982 8.39732E+01
 -1       983 8.39862E+01
 -1       984 8.40539E+01
 -1       985 8.40539E+01
 -1       986 8.41413E+01
 -1       987 8.41413E+01
 -1       988 8.40793E+01
 -1       989 8.40793E+01
 -1       990 8.40684E+01
 -1       991 8.41054E+01
 -1       992 8.41054E+01
 -1       993 8.40888E+01
 -1       994 8.40946E+01
 -1       995 8.41268E+01
 -1       996 8.41268E+01
 -1       997 8.41176E+01
 -1       998 8.41176E+01
 -1       999 8.41151E+01
 -1      1000 8.41224E+01
 -1      1001 8.41224E+01
 -1      1002 8.41753E+01
 -1      1003 8.41753E+01
 -1      1004 8.41587E+01
 -1      1005 8.41587E+01
 -1      1006 8.41592E+01
 -1      1007 8.41592E+01
 -1      1008 8.41354E+01
 -1      1009 8.41354E+01
 -1      1010 8.41264E+01
 -1      1011 8.41399E+01
 -1      1012 8.41399E+01
 -1      1013 8.41872E+01
 -1      1014 8.41872E+01
 -1      1015 8.41417E+01
 -1      1016 8.41510E+01
 -1      1017 8.41510E+01
 -1      1018 8.41648E+01
 -1      1019 8.41648E+01
 -1      1020 8.41836E+01
 -1      1021 8.41836E+01
 -1      1022 8.41456E+01
 -1      1023 8.41456E+01
 -1      1024 8.41739E+01
 -1      1025 8.41739E+01
 -1      1026 8.41231E+01
 -1      1027 8.41406E+01
 -1      1028 8.41406E+01
 -1      1029 8.41455E+01
 -1      1030 8.41455E+01
 -1      1031 8.41536E+01
 -1      1032 8.41536E+01
 -1      1033 8.40659E+01
 -1      1034 8.41261E+01
 -1      1035 8.41261E+01
 -1      1036 8.40893E+01
 -1      1037 8.40893E+01
 -1      1038 8.40434E+01
 -1      1039 8.40434E+01
 -1      1040 8.39868E+01
 -1      1041 8.39385E+01
 -1      1042 8.39233E+01
 -1      1043 8.38772E+01
 -1      1044 8.37707E+01
 -1      1045 8.36468E+01
 -1      1046 8.35373E+01
 -1      1047 8.31316E+01
 -1      1048 8.27035E+01
 -1      1049 8.14672E+01
 -1      1050 7.82719E+01
 -1      1051 6.23876E+01
 -1      1052 7.79043E+01
 -1      1053 8.12985E+01
 -1      1054 8.25580E+01
 -1      1055 8.31479E+01
 -1      1056 8.34548E+01
 -1      1057 8.36483E+01
 -1      1058 8.37822E+01
 -1      1059 8.38203E+01
 -1      1060 8.39703E+01
 -1      1061 8.39703E+01
 -1      1062 8.39949E+01
 -1      1063 8.40391E+01
 -1      1064 8.40391E+01
 -1      1065 8.40571E+01
 -1      1066 8.40650E+01
 -1      1067 8.40753E+01
 -1      1068 8.40818E+01
 -1      1069 8.41044E+01
 -1      1070 8.41044E+01
 -1      1071 8.41602E+01
 -1      1072 8.41602E+01
 -1      1073 8.41182E+01
 -1      1074 8.41417E+01
 -1      1075 8.41417E+01
 -1      1076 8.41590E+01
 -1      1077 8.41590E+01
 -1      1078 8.41792E+01
 -1      1079 8.41792E+01
 -1      1080 8.41080E+01
 -1      1081 8.41821E+01
 -1      1082 8.41821E+01
 -1      1083 8.41684E+01
 -1      1084 8.41684E+01
 -1      1085 8.41668E+01
 -1      1086 8.41668E+01
 -1      1087 8.41657E+01
 -1      1088 8.41657E+01
 -1      1089 8.41798E+01
 -1      1090 8.41798E+01
 -1      1091 8.41065E+01
 -1      1092 8.41783E+01
 -1      1093 8.41783E+01
 -1      1094 8.41576E+01
 -1      1095 8.41576E+01
 -1      1096 8.41401E+01
 -1      1097 8.41401E+01
 -1      1098 8.41131E+01
 -1      1099 8.41529E+01
 -1      1100 8.41529E+01
 -1      1101 8.41071E+01
 -1      1102 8.41071E+01
 -1      1103 8.41253E+01
 -1      1104 8.41253E+01
 -1      1105 8.40815E+01
 -1      1106 8.40815E+01
 -1      1107 8.40277E+01
 -1      1108 8.40277E+01
 -1      1109 8.39796E+01
 -1      1110 8.39468E+01
 -1      1111 8.39468E+01
 -1      1112 8.37842E+01
 -1      1113 8.37441E+01
 -1      1114 8.35794E+01
 -1      1115 8.33619E+01
 -1      1116 8.29848E+01
 -1      1117 8.22150E+01
 -1      1118 8.05010E+01
 -1      1119 7.42602E+01
 -1      1120 7.24410E+01
 -1      1121 7.98480E+01
 -1      1122 8.19350E+01
 -1      1123 8.28384E+01
 -1      1124 8.32888E+01
 -1      1125 8.35338E+01
 -1      1126 8.37093E+01
 -1      1127 8.37826E+01
 -1      1128 8.39004E+01
 -1      1129 8.39337E+01
 -1      1130 8.39522E+01
 -1      1131 8.39943E+01
 -1      1132 8.40513E+01
 -1      1133 8.40513E+01
 -1      1134 8.40665E+01
 -1      1135 8.40665E+01
 -1      1136 8.40816E+01
 -1      1137 8.40951E+01
 -1      1138 8.40951E+01
 -1      1139 8.41548E+01
 -1      1140 8.41548E+01
 -1      1141 8.41470E+01
 -1      1142 8.41470E+01
 -1      1143 8.41523E+01
 -1      1144 8.41523E+01
 -1      1145 8.41307E+01
 -1      1146 8.41307E+01
 -1      1147 8.41237E+01
 -1      1148 8.41367E+01
 -1      1149 8.41367E+01
 -1      1150 8.41824E+01
 -1      1151 8.41824E+01
 -1      1152 8.41381E+01
 -1      1153 8.41510E+01
 -1      1154 8.41510E+01
 -1      1155 8.41650E+01
 -1      1156 8.41650E+01
 -1      1157 8.41805E+01
 -1      1158 8.41805E+01
 -1      1159 8.41279E+01
 -1      1160 8.41279E+01
 -1      1161 8.41143E+01
 -1      1162 8.41153E+01
 -1      1163 8.41153E+01
 -1      1164 8.41283E+01
 -1      1165 8.41283E+01
 -1      1166 8.41074E+01
 -1      1167 8.41074E+01
 -1      1168 8.40886E+01
 -1      1169 8.40886E+01
 -1      1170 8.39796E+01
 -1      1171 8.39606E+01
 -1      1172 8.39606E+01
 -1      1173 8.37607E+01
 -1      1174 8.37256E+01
 -1      1175 8.33868E+01
 -1      1176 8.29008E+01
 -1      1177 8.15172E+01
 -1      1178 7.85718E+01
 -1      1179 7.30547E+01
 -1      1180 6.27166E+01
 -1      1181 4.11424E+01
 -1      1182 1.45509E+01
 -1      1183 3.68834E+01
 -1      1184 6.97340E+01
 -1      1185 8.01285E+01
 -1      1186 8.26358E+01
 -1      1187 8.32681E+01
 -1      1188 8.35848E+01
 -1      1189 8.37018E+01
 -1      1190 8.38898E+01
 -1      1191 8.38898E+01
 -1      1192 8.39858E+01
 -1      1193 8.39858E+01
 -1      1194 8.40459E+01
 -1      1195 8.40459E+01
 -1      1196 8.40714E+01
 -1      1197 8.40714E+01
 -1      1198 8.41058E+01
 -1      1199 8.41058E+01
 -1      1200 8.41692E+01
 -1      1201 8.41692E+01
 -1      1202 8.41281E+01
 -1      1203 8.65863E+01
 -1      1204 8.65863E+01
 -1      1205 7.44965E+01
 -1      1206 7.08698E-02
 -1      1207 2.76341E-01
 -1      1208 5.82228E-01
 -1      1209 1.01037E+00
 -1      1210 1.56965E+00
 -1      1211 2.20650E+00
 -1      1212 3.09334E+00
 -1      1213 4.01956E+00
 -1      1214 6.22090E+00
 -1      1215 2.27826E+01
 -1      1216 4.35954E+01
 -1      1217 5.96786E+01
 -1      1218 7.09445E+01
 -1      1219 7.95782E+01
 -1      1220 8.31564E+01
 -1      1221 8.35906E+01
 -1      1222 8.39732E+01
 -1      1223 8.39732E+01
 -1      1224 8.39862E+01
 -1      1225 8.40539E+01
 -1      1226 8.40539E+01
 -1      1227 8.41413E+01
 -1      1228 8.41413E+01
 -1      1229 8.40793E+01
 -1      1230 8.40793E+01
 -1      1231 8.40684E+01
 -1      1232 8.41054E+01
 -1      1233 8.41054E+01
 -1      1234 8.40888E+01
 -1      1235 8.40946E+01
 -1      1236 8.41268E+01
 -1      1237 8.41268E+01
 -1      1238 8.41176E+01
 -1      1239 8.41176E+01
 -1      1240 8.41151E+01
 -1      1241 8.41224E+01
 -1      1242 8.41224E+01
 -1      1243 8.41753E+01
 -1      1244 8.41753E+01
 -1      1245 8.41587E+01
 -1      1246 8.41587E+01
 -1      1247 8.41592E+01
 -1      1248 8.41592E+01
 -1      1249 8.41354E+01
 -1      1250 8.41354E+01
 -1      1251 8.41264E+01
 -1      1252 8.41399E+01
 -1      1253 8.41399E+01
 -1      1254 8.41872E+01
 -1      1255 8.41872E+01
 -1      1256 8.41417E+01
 -1      1257 8.41510E+01
 -1      1258 8.41510E+01
 -1      1259 8.41648E+01
 -1      1260 8.41648E+01
 -1      1261 8.41836E+01
 -1      1262 8.41836E+01
 -1      1263 8.41456E+01
 -1      1264 8.41456E+01
 -1      1265 8.41739E+01
 -1      1266 8.41739E+01
 -1      1267 8.41231E+01
 -1      1268 8.41406E+01
 -1      1269 8.41406E+01
 -1      1270 8.41455E+01
 -1      1271 8.41455E+01
 -1      1272 8.41536E+01
 -1      1273 8.41536E+01
 -1      1274 8.40659E+01
 -1      1275 8.41261E+01
 -1      1276 8.41261E+01
 -1      1277 8.40893E+01
 -1      1278 8.40893E+01
 -1      1279 8.40434E+01
 -1      1280 8.40434E+01
 -1      1281 8.39868E+01
 -1      1282 8.39385E+01
 -1      1283 8.39233E+01
 -1      1284 8.38772E+01
 -1      1285 8.37707E+01
 -1      1286 8.36468E+01
 -1      1287 8.35373E+01
 -1      1288 8.31316E+01
 -1      1289 8.27035E+01
 -1      1290 8.14672E+01
 -1      1291 7.82719E+01
 -1      1292 6.23876E+01
 -1      1293 7.79043E+01
 -1      1294 8.12985E+01
 -1      1295 8.25580E+01
 -1      1296 8.31479E+01
 -1      1297 8.34548E+01
 -1      1298 8.36483E+01
 -1      1299 8.37822E+01
 -1      1300 8.38203E+01
 -1      1301 8.39703E+01
 -1      1302 8.39703E+01
 -1      1303 8.39949E+01
 -1      1304 8.40391E+01
 -1      1305 8.40391E+01
 -1      1306 8.40571E+01
 -1      1307 8.40650E+01
 -1      1308 8.40753E+01
 -1      1309 8.40818E+01
 -1      1310 8.41044E+01
 -1      1311 8.41044E+01
 -1      1312 8.41602E+01
 -1      1313 8.41602E+01
 -1      1314 8.41182E+01
 -1      1315 8.41417E+01
 -1      1316 8.41417E+01
 -1      1317 8.41590E+01
 -1      1318 8.41590E+01
 -1      1319 8.41792E+01
 -1      1320 8.41792E+01
 -1      1321 8.41080E+01
 -1      1322 8.41821E+01
 -1      1323 8.41821E+01
 -1      1324 8.41684E+01
 -1      1325 8.41684E+01
 -1      1326 8.41668E+01
 -1      1327 8.41668E+01
 -1      1328 8.41657E+01
 -1      1329 8.41657E+01
 -1      1330 8.41798E+01
 -1      1331 8.41798E+01
 -1      1332 8.41065E+01
 -1      1333 8.41783E+01
 -1      1334 8.41783E+01
 -1      1335 8.41576E+01
 -1      1336 8.41576E+01
 -1      1337 8.41401E+01
 -1      1338 8.41401E+01
 -1      1339 8.41131E+01
 -1      1340 8.41529E+01
 -1      1341 8.41529E+01
 -1      1342 8.41071E+01
 -1      1343 8.41071E+01
 -1      1344 8.41253E+01
 -1      1345 8.41253E+01
 -1      1346 8.40815E+01
 -1      1347 8.40815E+01
 -1      1348 8.40277E+01
 -1      1349 8.40277E+01
 -1      1350 8.39796E+01
 -1      1351 8.39468E+01
 -1      1352 8.39468E+01
 -1      1353 8.37842E+01
 -1      1354 8.37441E+01
 -1      1355 8.35794E+01
 -1      1356 8.33619E+01
 -1      1357 8.29848E+01
 -1      1358 8.22150E+01
 -1      1359 8.05010E+01
 -1      1360 7.42602E+01
 -1      1361 7.24410E+01
 -1      1362 7.98480E+01
 -1      1363 8.19350E+01
 -1      1364 8.28384E+01
 -1      1365 8.32888E+01
 -1      1366 8.35338E+01
 -1      1367 8.37093E+01
 -1      1368 8.37826E+01
 -1      1369 8.39004E+01
 -1      1370 8.39337E+01
 -1      1371 8.39522E+01
 -1      1372 8.39943E+01
 -1      1373 8.40513E+01
 -1      1374 8.40513E+01
 -1      1375 8.40665E+01
 -1      1376 8.40665E+01
 -1      1377 8.40816E+01
 -1      1378 8.40951E+01
 -1      1379 8.40951E+01
 -1      1380 8.41548E+01
 -1      1381 8.41548E+01
 -1      1382 8.41470E+01
 -1      1383 8.41470E+01
 -1      1384 8.41523E+01
 -1      1385 8.41523E+01
 -1      1386 8.41307E+01
 -1      1387 8.41307E+01
 -1      1388 8.41237E+01
 -1      1389 8.41367E+01
 -1      1390 8.41367E+01
 -1      1391 8.41824E+01
 -1      1392 8.41824E+01
 -1      1393 8.41381E+01
 -1      1394 8.41510E+01
 -1      1395 8.41510E+01
 -1      1396 8.41650E+01
 -1      1397 8.41650E+01
 -1      1398 8.41805E+01
 -1      1399 8.41805E+01
 -1      1400 8.41279E+01
 -1      1401 8.41279E+01
 -1      1402 8.41143E+01
 -1      1403 8.41153E+01
 -1      1404 8.41153E+01
 -1      1405 8.41283E+01
 -1      1406 8.41283E+01
 -1      1407 8.41074E+01
 -1      1408 8.41074E+01
 -1      1409 8.40886E+01
 -1      1410 8.40886E+01
 -1      1411 8.39796E+01
 -1      1412 8.39606E+01
 -1      1413 8.39606E+01
 -1      1414 8.37607E+01
 -1      1415 8.37256E+01
 -1      1416 8.33868E+01
 -1      1417 8.29008E+01
 -1      1418 8.15172E+01
 -1      1419 7.85718E+01
 -1      1420 7.30547E+01
 -1      1421 6.27166E+01
 -1      1422 4.11424E+01
 -1      1423 1.45509E+01
 -1      1424 3.68834E+01
 -1      1425 6.97340E+01
 -1      1426 8.01285E+01
 -1      1427 8.26358E+01
 -1      1428 8.32681E+01
 -1      1429 8.35848E+01
 -1      1430 8.37018E+01
 -1      1431 8.38898E+01
 -1      1432 8.38898E+01
 -1      1433 8.39858E+01
 -1      1434 8.39858E+01
 -1      1435 8.40459E+01
 -1      1436 8.40459E+01
 -1      1437 8.40714E+01
 -1      1438 8.40714E+01
 -1      1439 8.41058E+01
 -1      1440 8.41058E+01
 -1      1441 8.41692E+01
 -1      1442 8.41692E+01
 -1      1443 8.41281E+01
 -1      1444 8.65863E+01
 -1      1445 8.65863E+01
 -1      1446 7.44965E+01
 -1      1447 1.73644E-01
 -1      1448 5.80706E-01
 -1      1449 1.08880E+00
 -1      1450 1.67902E+00
 -1      1451 2.35612E+00
 -1      1452 3.12869E+00
 -1      1453 4.47225E+00
 -1      1454 2.65695E+01
 -1      1455 2.69860E+01
 -1      1456 2.69996E+01
 -1      1457 4.35853E+01
 -1      1458 5.96720E+01
 -1      1459 7.09409E+01
 -1      1460 7.95782E+01
 -1      1461 8.31564E+01
 -1      1462 8.35906E+01
 -1      1463 8.39732E+01
 -1      1464 8.39732E+01
 -1      1465 8.39862E+01
 -1      1466 8.40539E+01
 -1      1467 8.40539E+01
 -1      1468 8.41413E+01
 -1      1469 8.41413E+01
 -1      1470 8.40793E+01
 -1      1471 8.40793E+01
 -1      1472 8.40684E+01
 -1      1473 8.41054E+01
 -1      1474 8.41054E+01
 -1      1475 8.40888E+01
 -1      1476 8.40946E+01
 -1      1477 8.41268E+01
 -1      1478 8.41268E+01
 -1      1479 8.41176E+01
 -1      1480 8.41176E+01
 -1      1481 8.41151E+01
 -1      1482 8.41224E+01
 -1      1483 8.41224E+01
 -1      1484 8.41753E+01
 -1      1485 8.41753E+01
 -1      1486 8.41587E+01
 -1      1487 8.41587E+01
 -1      1488 8.41592E+01
 -1      1489 8.41592E+01
 -1      1490 8.41354E+01
 -1      1491 8.41354E+01
 -1      1492 8.41264E+01
 -1      1493 8.41399E+01
 -1      1494 8.41399E+01
 -1      1495 8.41872E+01
 -1      1496 8.41872E+01
 -1      1497 8.41417E+01
 -1      1498 8.41510E+01
 -1      1499 8.41510E+01
 -1      1500 8.41648E+01
 -1      1501 8.41648E+01
 -1      1502 8.41836E+01
 -1      1503 8.41836E+01
 -1      1504 8.41456E+01
 -1      1505 8.41456E+01
 -1      1506 8.41739E+01
 -1      1507 8.41739E+01
 -1      1508 8.41231E+01
 -1      1509 8.41406E+01
 -1      1510 8.41406E+01
 -1      1511 8.41455E+01
 -1      1512 8.41455E+01
 -1      1513 8.41536E+01
 -1      1514 8.41536E+01
 -1      1515 8.40659E+01
 -1      1516 8.41261E+01
 -1      1517 8.41261E+01
 -1      1518 8.40893E+01
 -1      1519 8.40893E+01
 -1      1520 8.40434E+01
 -1      1521 8.40434E+01
 -1      1522 8.39868E+01
 -1      1523 8.39385E+01
 -1      1524 8.39233E+01
 -1      1525 8.38772E+01
 -1      1526 8.37707E+01
 -1      1527 8.36468E+01
 -1      1528 8.35373E+01
 -1      1529 8.31316E+01
 -1      1530 8.27035E+01
 -1      1531 8.14672E+01
 -1      1532 7.82719E+01
 -1      1533 6.23876E+01
 -1      1534 7.79043E+01
 -1      1535 8.12985E+01
 -1      1536 8.25580E+01
 -1      1537 8.31479E+01
 -1      1538 8.34548E+01
 -1      1539 8.36483E+01
 -1      1540 8.37822E+01
 -1      1541 8.38203E+01
 -1      1542 8.39703E+01
 -1      1543 8.39703E+01
 -1      1544 8.39949E+01
 -1      1545 8.40391E+01
 -1      1546 8.40391E+01
 -1      1547 8.40571E+01
 -1      1548 8.40650E+01
 -1      1549 8.40753E+01
 -1      1550 8.40818E+01
 -1      1551 8.41044E+01
 -1      1552 8.41044E+01
 -1      1553 8.41602E+01
 -1      1554 8.41602E+01
 -1      1555 8.41182E+01
 -1      1556 8.41417E+01
 -1      1557 8.41417E+01
 -1      1558 8.41590E+01
 -1      1559 8.41590E+01
 -1      1560 8.41792E+01
 -1      1561 8.41792E+01
 -1      1562 8.41080E+01
 -1      1563 8.41821E+01
 -1      1564 8.41821E+01
 -1      1565 8.41684E+01
 -1      1566 8.41684E+01
 -1      1567 8.41668E+01
 -1      1568 8.41668E+01
 -1      1569 8.41657E+01
 -1      1570 8.41657E+01
 -1      1571 8.41798E+01
 -1      1572 8.41798E+01
 -1      1573 8.41065E+01
 -1      1574 8.41783E+01
 -1      1575 8.41783E+01
 -1      1576 8.41576E+01
 -1      1577 8.41576E+01
 -1      1578 8.41401E+01
 -1      1579 8.41401E+01
 -1      1580 8.41131E+01
 -1      1581 8.41529E+01
 -1      1582 8.41529E+01
 -1      1583 8.41071E+01
 -1      1584 8.41071E+01
 -1      1585 8.41253E+01
 -1      1586 8.41253E+01
 -1      1587 8.40815E+01
 -1      1588 8.40815E+01
 -1      1589 8.40277E+01
 -1      1590 8.40277E+01
 -1      1591 8.39796E+01
 -1      1592 8.39468E+01
 -1      1593 8.39468E+01
 -1      1594 8.37842E+01
 -1      1595 8.37441E+01
 -1      1596 8.35794E+01
 -1      1597 8.33619E+01
 -1      1598 8.29848E+01
 -1      1599 8.22150E+01
 -1      1600 8.05010E+01
 -1      1601 1.02929E+02
 -1      1602 1.02929E+02
 -1      1603 7.98480E+01
 -1      1604 8.19350E+01
 -1      1605 8.28384E+01
 -1      1606 8.32888E+01
 -1      1607 8.35338E+01
 -1      1608 8.37093E+01
 -1      1609 8.37826E+01
 -1      1610 8.39004E+01
 -1      1611 8.39337E+01
 -1      1612 8.39522E+01
 -1      1613 8.39943E+01
 -1      1614 8.40513E+01
 -1      1615 8.40513E+01
 -1      1616 8.40665E+01
 -1      1617 8.40665E+01
 -1      1618 8.40816E+01
 -1      1619 8.40951E+01
 -1      1620 8.40951E+01
 -1      1621 8.41548E+01
 -1      1622 8.41548E+01
 -1      1623 8.41470E+01
 -1      1624 8.41470E+01
 -1      1625 8.41523E+01
 -1      1626 8.41523E+01
 -1      1627 8.41307E+01
 -1      1628 8.41307E+01
 -1      1629 8.41237E+01
 -1      1630 8.41367E+01
 -1      1631 8.41367E+01
 -1      1632 8.41824E+01
 -1      1633 8.41824E+01
 -1      1634 8.41381E+01
 -1      1635 8.41510E+01
 -1      1636 8.41510E+01
 -1      1637 8.41650E+01
 -1      1638 8.41650E+01
 -1      1639 8.41805E+01
 -1      1640 8.41805E+01
 -1      1641 8.41279E+01
 -1      1642 8.41279E+01
 -1      1643 8.41143E+01
 -1      1644 8.41153E+01
 -1      1645 8.41153E+01
 -1      1646 8.41283E+01
 -1      1647 8.41283E+01
 -1      1648 8.41074E+01
 -1      1649 8.41074E+01
 -1      1650 8.40886E+01
 -1      1651 8.40886E+01
 -1      1652 8.39796E+01
 -1      1653 8.39606E+01
 -1      1654 8.39606E+01
 -1      1655 8.37607E+01
 -1      1656 8.37256E+01
 -1      1657 8.33868E+01
 -1      1658 8.29008E+01
 -1      1659 8.15172E+01
 -1      1660 7.85718E+01
 -1      1661 7.30547E+01
 -1      1662 6.27166E+01
 -1      1663 4.11424E+01
 -1      1664 3.78676E+01
 -1      1665 3.78676E+01
 -1      1666 6.97340E+01
 -1      1667 8.01285E+01
 -1      1668 8.26358E+01
 -1      1669 8.32681E+01
 -1      1670 8.35848E+01
 -1      1671 8.37018E+01
 -1      1672 8.38898E+01
 -1      1673 8.38898E+01
 -1      1674 8.39858E+01
 -1      1675 8.39858E+01
 -1      1676 8.40459E+01
 -1      1677 8.40459E+01
 -1      1678 8.40714E+01
 -1      1679 8.40714E+01
 -1      1680 8.41058E+01
 -1      1681 8.41058E+01
 -1      1682 8.41692E+01
 -1      1683 8.41692E+01
 -1      1684 8.41281E+01
 -1      1685 8.65863E+01
 -1      1686 8.65863E+01
 -1      1687 7.44965E+01
 -1      1688 1.73644E-01
 -1      1689 5.80706E-01
 -1      1690 1.08880E+00
 -1      1691 1.67902E+00
 -1      1692 2.35612E+00
 -1      1693 3.12869E+00
 -1      1694 4.47225E+00
 -1      1695 2.65695E+01
 -1      1696 2.69860E+01
 -1      1697 2.69996E+01
 -1      1698 4.35853E+01
 -1      1699 5.96720E+01
 -1      1700 7.09409E+01
 -1      1701 7.95782E+01
 -1      1702 8.31564E+01
 -1      1703 8.35906E+01
 -1      1704 8.39732E+01
 -1      1705 8.39732E+01
 -1      1706 8.39862E+01
 -1      1707 8.40539E+01
 -1      1708 8.40539E+01
 -1      1709 8.41413E+01
 -1      1710 8.41413E+01
 -1      1711 8.40793E+01
 -1      1712 8.40793E+01
 -1      1713 8.40684E+01
 -1      1714 8.41054E+01
 -1      1715 8.41054E+01
 -1      1716 8.40888E+01
 -1      1717 8.40946E+01
 -1      1718 8.41268E+01
 -1      1719 8.41268E+01
 -1      1720 8.41176E+01
 -1      1721 8.41176E+01
 -1      1722 8.41151E+01
 -1      1723 8.41224E+01
 -1      1724 8.41224E+01
 -1      1725 8.41753E+01
 -1      1726 8.41753E+01
 -1      1727 8.41587E+01
 -1      1728 8.41587E+01
 -1      1729 8.41592E+01
 -1      1730 8.41592E+01
 -1      1731 8.41354E+01
 -1      1732 8.41354E+01
 -1      1733 8.41264E+01
 -1      1734 8.41399E+01
 -1      1735 8.41399E+01
 -1      1736 8.41872E+01
 -1      1737 8.41872E+01
 -1      1738 8.41417E+01
 -1      1739 8.41510E+01
 -1      1740 8.41510E+01
 -1      1741 8.41648E+01
 -1      1742 8.41648E+01
 -1      1743 8.41836E+01
 -1      1744 8.41836E+01
 -1      1745 8.41456E+01
 -1      1746 8.41456E+01
 -1      1747 8.41739E+01
 -1      1748 8.41739E+01
 -1      1749 8.41231E+01
 -1      1750 8.41406E+01
 -1      1751 8.41406E+01
 -1      1752 8.41455E+01
 -1      1753 8.41455E+01
 -1      1754 8.41536E+01
 -1      1755 8.41536E+01
 -1      1756 8.40659E+01
 -1      1757 8.41261E+01
 -1      1758 8.41261E+01
 -1      1759 8.40893E+01
 -1      1760 8.40893E+01
 -1      1761 8.40434E+01
 -1      1762 8.40434E+01
 -1      1763 8.39868E+01
 -1      1764 8.39385E+01
 -1      1765 8.39233E+01
 -1      1766 8.38772E+01
 -1      1767 8.37707E+01
 -1      1768 8.36468E+01
 -1      1769 8.35373E+01
 -1      1770 8.31316E+01
 -1      1771 8.27035E+01
 -1      1772 8.14672E+01
 -1      1773 7.82719E+01
 -1      1774 6.23876E+01
 -1      1775 7.79043E+01
 -1      1776 8.12985E+01
 -1      1777 8.25580E+01
 -1      1778 8.31479E+01
 -1      1779 8.34548E+01
 -1      1780 8.36483E+01
 -1      1781 8.37822E+01
 -1      1782 8.38203E+01
 -1      1783 8.39703E+01
 -1      1784 8.39703E+01
 -1      1785 8.39949E+01
 -1      1786 8.40391E+01
 -1      1787 8.40391E+01
 -1      1788 8.40571E+01
 -1      1789 8.40650E+01
 -1      1790 8.40753E+01
 -1      1791 8.40818E+01
 -1      1792 8.41044E+01
 -1      1793 8.41044E+01
 -1      1794 8.41602E+01
 -1      1795 8.41602E+01
 -1      1796 8.41182E+01
 -1      1797 8.41417E+01
 -1      1798 8.41417E+01
 -1      1799 8.41590E+01
 -1      1800 8.41590E+01
 -1      1801 8.41792E+01
 -1      1802 8.41792E+01
 -1      1803 8.41080E+01
 -1      1804 8.41821E+01
 -1      1805 8.41821E+01
 -1      1806 8.41684E+01
 -1      1807 8.41684E+01
 -1      1808 8.41668E+01
 -1      1809 8.41668E+01
 -1      1810 8.41657E+01
 -1      1811 8.41657E+01
 -1      1812 8.41798E+01
 -1      1813 8.41798E+01
 -1      1814 8.41065E+01
 -1      1815 8.41783E+01
 -1      1816 8.41783E+01
 -1      1817 8.41576E+01
 -1      1818 8.41576E+01
 -1      1819 8.41401E+01
 -1      1820 8.41401E+01
 -1      1821 8.41131E+01
 -1      1822 8.41529E+01
 -1      1823 8.41529E+01
 -1      1824 8.41071E+01
 -1      1825 8.41071E+01
 -1      1826 8.41253E+01
 -1      1827 8.41253E+01
 -1      1828 8.40815E+01
 -1      1829 8.40815E+01
 -1      1830 8.40277E+01
 -1      1831 8.40277E+01
 -1      1832 8.39796E+01
 -1      1833 8.39468E+01
 -1      1834 8.39468E+01
 -1      1835 8.37842E+01
 -1      1836 8.37441E+01
 -1      1837 8.35794E+01
 -1      1838 8.33619E+01
 -1      1839 8.29848E+01
 -1      1840 8.22150E+01
 -1      1841 8.05010E+01
 -1      1842 1.02929E+02
 -1      1843 1.02929E+02
 -1      1844 7.98480E+01
 -1      1845 8.19350E+01
 -1      1846 8.28384E+01
 -1      1847 8.32888E+01
 -1      1848 8.35338E+01
 -1      1849 8.37093E+01
 -1      1850 8.37826E+01
 -1      1851 8.39004E+01
 -1      1852 8.39337E+01
 -1      1853 8.39522E+01
 -1      1854 8.39943E+01
 -1      1855 8.40513E+01
 -1      1856 8.40513E+01
 -1      1857 8.40665E+01
 -1      1858 8.40665E+01
 -1      1859 8.40816E+01
 -1      1860 8.40951E+01
 -1      1861 8.40951E+01
 -1      1862 8.41548E+01
 -1      1863 8.41548E+01
 -1      1864 8.41470E+01
 -1      1865 8.41470E+01
 -1      1866 8.41523E+01
 -1      1867 8.41523E+01
 -1      1868 8.41307E+01
 -1      1869 8.41307E+01
 -1      1870 8.41237E+01
 -1      1871 8.41367E+01
 -1      1872 8.41367E+01
 -1      1873 8.41824E+01
 -1      1874 8.41824E+01
 -1      1875 8.41381E+01
 -1      1876 8.41510E+01
 -1      1877 8.41510E+01
 -1      1878 8.41650E+01
 -1      1879 8.41650E+01
 -1      1880 8.41805E+01
 -1      1881 8.41805E+01
 -1      1882 8.41279E+01
 -1      1883 8.41279E+01
 -1      1884 8.41143E+01
 -1      1885 8.41153E+01
 -1      1886 8.41153E+01
 -1      1887 8.41283E+01
 -1      1888 8.41283E+01
 -1      1889 8.41074E+01
 -1      1890 8.41074E+01
 -1      1891 8.40886E+01
 -1      1892 8.40886E+01
 -1      1893 8.39796E+01
 -1      1894 8.39606E+01
 -1      1895 8.39606E+01
 -1      1896 8.37607E+01
 -1      1897 8.37256E+01
 -1      1898 8.33868E+01
 -1      1899 8.29008E+01
 -1      1900 8.15172E+01
 -1      1901 7.85718E+01
 -1      1902 7.30547E+01
 -1      1903 6.27166E+01
 -1      1904 4.11424E+01
 -1      1905 3.78676E+01
 -1      1906 3.78676E+01
 -1      1907 6.97340E+01
 -1      1908 8.01285E+01
 -1      1909 8.26358E+01
 -1      1910 8.32681E+01
 -1      1911 8.35848E+01
 -1      1912 8.37018E+01
 -1      1913 8.38898E+01
 -1      1914 8.38898E+01
 -1      1915 8.39858E+01
 -1      1916 8.39858E+01
 -1      1917 8.40459E+01
 -1      1918 8.40459E+01
 -1      1919 8.40714E+01
 -1      1920 8.40714E+01
 -1      1921 8.41058E+01
 -1      1922 8.41058E+01
 -1      1923 8.41692E+01
 -1      1924 8.41692E+01
 -1      1925 8.41281E+01
 -1      1926 8.65863E+01
 -1      1927 8.65863E+01
 -1      1928 7.44965E+01
 -1      1929 1.73644E-01
 -1      1930 5.80706E-01
 -1      1931 1.08880E+00
 -1      1932 1.67902E+00
 -1      1933 2.35612E+00
 -1      1934 3.12869E+00
 -1      1935 4.47225E+00
 -1      1936 2.65695E+01
 -1      1937 2.69860E+01
 -1      1938 2.69996E+01
 -1      1939 2.70473E+01
 -1      1940 2.70473E+01
 -1      1941 2.70561E+01
 -1      1942 2.70561E+01
 -1      1943 2.70270E+01
 -1      1944 2.70366E+01
 -1      1945 2.70366E+01
 -1      1946 2.70485E+01
 -1      1947 2.70485E+01
 -1      1948 2.70316E+01
 -1      1949 2.70316E+01
 -1      1950 2.70185E+01
 -1      1951 2.70271E+01
 -1      1952 2.70271E+01
 -1      1953 2.70280E+01
 -1      1954 2.70280E+01
 -1      1955 2.70222E+01
 -1      1956 2.70222E+01
 -1      1957 2.70243E+01
 -1      1958 2.70243E+01
 -1      1959 2.70188E+01
 -1      1960 2.70188E+01
 -1      1961 2.70176E+01
 -1      1962 2.70211E+01
 -1      1963 2.70211E+01
 -1      1964 2.70172E+01
 -1      1965 2.70226E+01
 -1      1966 2.70226E+01
 -1      1967 2.70319E+01
 -1      1968 2.70319E+01
 -1      1969 2.70263E+01
 -1      1970 2.70263E+01
 -1      1971 2.70238E+01
 -1      1972 2.70238E+01
 -1      1973 2.70247E+01
 -1      1974 2.70247E+01
 -1      1975 2.70164E+01
 -1      1976 2.70206E+01
 -1      1977 2.70206E+01
 -1      1978 2.70286E+01
 -1      1979 2.70286E+01
 -1      1980 2.70152E+01
 -1      1981 2.70227E+01
 -1      1982 2.70227E+01
 -1      1983 2.70311E+01
 -1      1984 2.70311E+01
 -1      1985 2.70277E+01
 -1      1986 2.70277E+01
 -1      1987 2.70266E+01
 -1      1988 2.70266E+01
 -1      1989 2.70272E+01
 -1      1990 2.70272E+01
 -1      1991 2.70141E+01
 -1      1992 2.70236E+01
 -1      1993 2.70236E+01
 -1      1994 2.70262E+01
 -1      1995 2.70262E+01
 -1      1996 2.70181E+01
 -1      1997 2.70181E+01
 -1      1998 2.70167E+01
 -1      1999 2.70252E+01
 -1      2000 2.70252E+01
 -1      2001 2.70205E+01
 -1      2002 2.70205E+01
 -1      2003 2.70132E+01
 -1      2004 2.70175E+01
 -1      2005 2.70175E+01
 -1      2006 2.70187E+01
 -1      2007 2.70187E+01
 -1      2008 2.70146E+01
 -1      2009 2.70146E+01
 -1      2010 2.70158E+01
 -1      2011 2.70158E+01
 -1      2012 2.69947E+01
 -1      2013 2.69947E+01
 -1      2014 2.69095E+01
 -1      2015 2.71073E+01
 -1      2016 2.71073E+01
 -1      2017 2.70172E+01
 -1      2018 2.70172E+01
 -1      2019 2.70125E+01
 -1      2020 2.70243E+01
 -1      2021 2.70243E+01
 -1      2022 2.70173E+01
 -1      2023 2.70249E+01
 -1      2024 2.70249E+01
 -1      2025 2.70270E+01
 -1      2026 2.70270E+01
 -1      2027 2.70189E+01
 -1      2028 2.70189E+01
 -1      2029 2.70189E+01
 -1      2030 2.70174E+01
 -1      2031 2.70202E+01
 -1      2032 2.70202E+01
 -1      2033 2.70194E+01
 -1      2034 2.70290E+01
 -1      2035 2.70290E+01
 -1      2036 2.70273E+01
 -1      2037 2.70273E+01
 -1      2038 2.70178E+01
 -1      2039 2.70198E+01
 -1      2040 2.70198E+01
 -1      2041 2.70244E+01
 -1      2042 2.70244E+01
 -1      2043 2.70151E+01
 -1      2044 2.70237E+01
 -1      2045 2.70237E+01
 -1      2046 2.70232E+01
 -1      2047 2.70232E+01
 -1      2048 2.70255E+01
 -1      2049 2.70255E+01
 -1      2050 2.70210E+01
 -1      2051 2.70210E+01
 -1      2052 2.70227E+01
 -1      2053 2.70227E+01
 -1      2054 2.70129E+01
 -1      2055 2.70129E+01
 -1      2056 2.70083E+01
 -1      2057 2.70164E+01
 -1      2058 2.70164E+01
 -1      2059 2.70111E+01
 -1      2060 2.70111E+01
 -1      2061 2.70066E+01
 -1      2062 2.70141E+01
 -1      2063 2.70141E+01
 -1      2064 2.70161E+01
 -1      2065 2.70161E+01
 -1      2066 2.70175E+01
 -1      2067 2.70175E+01
 -1      2068 2.70214E+01
 -1      2069 2.70214E+01
 -1      2070 2.70135E+01
 -1      2071 2.70135E+01
 -1      2072 2.70037E+01
 -1      2073 2.70079E+01
 -1      2074 2.70079E+01
 -1      2075 2.70089E+01
 -1      2076 2.70089E+01
 -1      2077 2.69965E+01
 -1      2078 2.69965E+01
 -1      2079 2.69960E+01
 -1      2080 2.69815E+01
 -1      2081 2.69752E+01
 -1      2082 2.69404E+01
 -1      2083 1.02929E+02
 -1      2084 1.02929E+02
 -1      2085 2.70161E+01
 -1      2086 2.70161E+01
 -1      2087 2.70216E+01
 -1      2088 2.70216E+01
 -1      2089 2.70286E+01
 -1      2090 2.70286E+01
 -1      2091 2.70172E+01
 -1      2092 2.70172E+01
 -1      2093 2.70134E+01
 -1      2094 2.70178E+01
 -1      2095 2.70178E+01
 -1      2096 2.70125E+01
 -1      2097 2.70128E+01
 -1      2098 2.70128E+01
 -1      2099 2.70147E+01
 -1      2100 2.70147E+01
 -1      2101 2.70117E+01
 -1      2102 2.70154E+01
 -1      2103 2.70154E+01
 -1      2104 2.70218E+01
 -1      2105 2.70218E+01
 -1      2106 2.70195E+01
 -1      2107 2.70195E+01
 -1      2108 2.70166E+01
 -1      2109 2.70166E+01
 -1      2110 2.70171E+01
 -1      2111 2.70171E+01
 -1      2112 2.70087E+01
 -1      2113 2.70124E+01
 -1      2114 2.70124E+01
 -1      2115 2.70165E+01
 -1      2116 2.70165E+01
 -1      2117 2.70116E+01
 -1      2118 2.70116E+01
 -1      2119 2.70105E+01
 -1      2120 2.70199E+01
 -1      2121 2.70199E+01
 -1      2122 2.70132E+01
 -1      2123 2.70132E+01
 -1      2124 2.70046E+01
 -1      2125 2.70130E+01
 -1      2126 2.70130E+01
 -1      2127 2.70118E+01
 -1      2128 2.70118E+01
 -1      2129 2.70144E+01
 -1      2130 2.70144E+01
 -1      2131 2.70224E+01
 -1      2132 2.70224E+01
 -1      2133 2.70093E+01
 -1      2134 2.70093E+01
 -1      2135 2.70010E+01
 -1      2136 2.70086E+01
 -1      2137 2.70086E+01
 -1      2138 2.70023E+01
 -1      2139 2.70023E+01
 -1      2140 2.69906E+01
 -1      2141 2.69906E+01
 -1      2142 2.69880E+01
 -1      2143 2.69705E+01
 -1      2144 2.69561E+01
 -1      2145 2.68931E+01
 -1      2146 3.78676E+01
 -1      2147 3.78676E+01
 -1      2148 2.70624E+01
 -1      2149 2.70624E+01
 -1      2150 2.70572E+01
 -1      2151 2.70572E+01
 -1      2152 2.70616E+01
 -1      2153 2.70616E+01
 -1      2154 2.70630E+01
 -1      2155 2.70630E+01
 -1      2156 2.70744E+01
 -1      2157 2.70744E+01
 -1      2158 2.71037E+01
 -1      2159 2.71037E+01
 -1      2160 2.71394E+01
 -1      2161 2.71394E+01
 -1      2162 2.71934E+01
 -1      2163 2.71934E+01
 -1      2164 2.72337E+01
 -1      2165 2.72337E+01
 -1      2166 2.69164E+01
 -1      2167 2.82309E+01
 -1      2168 2.82309E+01
 -1      2169 2.16644E+01
 -1      2170 1.73644E-01
 -1      2171 5.80706E-01
 -1      2172 1.08880E+00
 -1      2173 1.67902E+00
 -1      2174 2.35612E+00
 -1      2175 3.12869E+00
 -1      2176 4.47225E+00
 -1      2177 2.65695E+01
 -1      2178 2.69860E+01
 -1      2179 2.69996E+01
 -1      2180 2.70473E+01
 -1      2181 2.70473E+01
 -1      2182 2.70561E+01
 -1      2183 2.70561E+01
 -1      2184 2.70270E+01
 -1      2185 2.70366E+01
 -1      2186 2.70366E+01
 -1      2187 2.70485E+01
 -1      2188 2.70485E+01
 -1      2189 2.70316E+01
 -1      2190 2.70316E+01
 -1      2191 2.70185E+01
 -1      2192 2.70271E+01
 -1      2193 2.70271E+01
 -1      2194 2.70280E+01
 -1      2195 2.70280E+01
 -1      2196 2.70222E+01
 -1      2197 2.70222E+01
 -1      2198 2.70243E+01
 -1      2199 2.70243E+01
 -1      2200 2.70188E+01
 -1      2201 2.70188E+01
 -1      2202 2.70176E+01
 -1      2203 2.70211E+01
 -1      2204 2.70211E+01
 -1      2205 2.70172E+01
 -1      2206 2.70226E+01
 -1      2207 2.70226E+01
 -1      2208 2.70319E+01
 -1      2209 2.70319E+01
 -1      2210 2.70263E+01
 -1      2211 2.70263E+01
 -1      2212 2.70238E+01
 -1      2213 2.70238E+01
 -1      2214 2.70247E+01
 -1      2215 2.70247E+01
 -1      2216 2.70164E+01
 -1      2217 2.70206E+01
 -1      2218 2.70206E+01
 -1      2219 2.70286E+01
 -1      2220 2.70286E+01
 -1      2221 2.70152E+01
 -1      2222 2.70227E+01
 -1      2223 2.70227E+01
 -1      2224 2.70311E+01
 -1      2225 2.70311E+01
 -1      2226 2.70277E+01
 -1      2227 2.70277E+01
 -1      2228 2.70266E+01
 -1      2229 2.70266E+01
 -1      2230 2.70272E+01
 -1      2231 2.70272E+01
 -1      2232 2.70141E+01
 -1      2233 2.70236E+01
 -1      2234 2.70236E+01
 -1      2235 2.70262E+01
 -1      2236 2.70262E+01
 -1      2237 2.70181E+01
 -1      2238 2.70181E+01
 -1      2239 2.70167E+01
 -1      2240 2.70252E+01
 -1      2241 2.70252E+01
 -1      2242 2.70205E+01
 -1      2243 2.70205E+01
 -1      2244 2.70132E+01
 -1      2245 2.70175E+01
 -1      2246 2.70175E+01
 -1      2247 2.70187E+01
 -1      2248 2.70187E+01
 -1      2249 2.70146E+01
 -1      2250 2.70146E+01
 -1      2251 2.70158E+01
 -1      2252 2.70158E+01
 -1      2253 2.69947E+01
 -1      2254 2.69947E+01
 -1      2255 2.69095E+01
 -1      2256 2.71073E+01
 -1      2257 2.71073E+01
 -1      2258 2.70172E+01
 -1      2259 2.70172E+01
 -1      2260 2.70125E+01
 -1      2261 2.70243E+01
 -1      2262 2.70243E+01
 -1      2263 2.70173E+01
 -1      2264 2.70249E+01
 -1      2265 2.70249E+01
 -1      2266 2.70270E+01
 -1      2267 2.70270E+01
 -1      2268 2.70189E+01
 -1      2269 2.70189E+01
 -1      2270 2.70189E+01
 -1      2271 2.70174E+01
 -1      2272 2.70202E+01
 -1      2273 2.70202E+01
 -1      2274 2.70194E+01
 -1      2275 2.70290E+01
 -1      2276 2.70290E+01
 -1      2277 2.70273E+01
 -1      2278 2.70273E+01
 -1      2279 2.70178E+01
 -1      2280 2.70198E+01
 -1      2281 2.70198E+01
 -1      2282 2.70244E+01
 -1      2283 2.70244E+01
 -1      2284 2.70151E+01
 -1      2285 2.70237E+01
 -1      2286 2.70237E+01
 -1      2287 2.70232E+01
 -1      2288 2.70232E+01
 -1      2289 2.70255E+01
 -1      2290 2.70255E+01
 -1      2291 2.70210E+01
 -1      2292 2.70210E+01
 -1      2293 2.70227E+01
 -1      2294 2.70227E+01
 -1      2295 2.70129E+01
 -1      2296 2.70129E+01
 -1      2297 2.70083E+01
 -1      2298 2.70164E+01
 -1      2299 2.70164E+01
 -1      2300 2.70111E+01
 -1      2301 2.70111E+01
 -1      2302 2.70066E+01
 -1      2303 2.70141E+01
 -1      2304 2.70141E+01
 -1      2305 2.70161E+01
 -1      2306 2.70161E+01
 -1      2307 2.70175E+01
 -1      2308 2.70175E+01
 -1      2309 2.70214E+01
 -1      2310 2.70214E+01
 -1      2311 2.70135E+01
 -1      2312 2.70135E+01
 -1      2313 2.70037E+01
 -1      2314 2.70079E+01
 -1      2315 2.70079E+01
 -1      2316 2.70089E+01
 -1      2317 2.70089E+01
 -1      2318 2.69965E+01
 -1      2319 2.69965E+01
 -1      2320 2.69960E+01
 -1      2321 2.69815E+01
 -1      2322 2.69752E+01
 -1      2323 2.69404E+01
 -1      2324 1.02929E+02
 -1      2325 1.02929E+02
 -1      2326 2.70161E+01
 -1      2327 2.70161E+01
 -1      2328 2.70216E+01
 -1      2329 2.70216E+01
 -1      2330 2.70286E+01
 -1      2331 2.70286E+01
 -1      2332 2.70172E+01
 -1      2333 2.70172E+01
 -1      2334 2.70134E+01
 -1      2335 2.70178E+01
 -1      2336 2.70178E+01
 -1      2337 2.70125E+01
 -1      2338 2.70128E+01
 -1      2339 2.70128E+01
 -1      2340 2.70147E+01
 -1      2341 2.70147E+01
 -1      2342 2.70117E+01
 -1      2343 2.70154E+01
 -1      2344 2.70154E+01
 -1      2345 2.70218E+01
 -1      2346 2.70218E+01
 -1      2347 2.70195E+01
 -1      2348 2.70195E+01
 -1      2349 2.70166E+01
 -1      2350 2.70166E+01
 -1      2351 2.70171E+01
 -1      2352 2.70171E+01
 -1      2353 2.70087E+01
 -1      2354 2.70124E+01
 -1      2355 2.70124E+01
 -1      2356 2.70165E+01
 -1      2357 2.70165E+01
 -1      2358 2.70116E+01
 -1      2359 2.70116E+01
 -1      2360 2.70105E+01
 -1      2361 2.70199E+01
 -1      2362 2.70199E+01
 -1      2363 2.70132E+01
 -1      2364 2.70132E+01
 -1      2365 2.70046E+01
 -1      2366 2.70130E+01
 -1      2367 2.70130E+01
 -1      2368 2.70118E+01
 -1      2369 2.70118E+01
 -1      2370 2.70144E+01
 -1      2371 2.70144E+01
 -1      2372 2.70224E+01
 -1      2373 2.70224E+01
 -1      2374 2.70093E+01
 -1      2375 2.70093E+01
 -1      2376 2.70010E+01
 -1      2377 2.70086E+01
 -1      2378 2.70086E+01
 -1      2379 2.70023E+01
 -1      2380 2.70023E+01
 -1      2381 2.69906E+01
 -1      2382 2.69906E+01
 -1      2383 2.69880E+01
 -1      2384 2.69705E+01
 -1      2385 2.69561E+01
 -1      2386 2.68931E+01
 -1      2387 3.78676E+01
 -1      2388 3.78676E+01
 -1      2389 2.70624E+01
 -1      2390 2.70624E+01
 -1      2391 2.70572E+01
 -1      2392 2.70572E+01
 -1      2393 2.70616E+01
 -1      2394 2.70616E+01
 -1      2395 2.70630E+01
 -1      2396 2.70630E+01
 -1      2397 2.70744E+01
 -1      2398 2.70744E+01
 -1      2399 2.71037E+01
 -1      2400 2.71037E+01
 -1      2401 2.71394E+01
 -1      2402 2.71394E+01
 -1      2403 2.71934E+01
 -1      2404 2.71934E+01
 -1      2405 2.72337E+01
 -1      2406 2.72337E+01
 -1      2407 2.69164E+01
 -1      2408 2.82309E+01
 -1      2409 2.82309E+01
 -1      2410 2.16644E+01
 -3
    1PSTEP                        17           1           1          
    1PGM                1.000000E+00                                  
    1PGK                2.162072E+07                                  
    1PHID                         -1                                  
    1PSUBC                         0                                  
    1PMODE                         5                                  
  100CL  105 740.0400698        2410                     2    5MODAL      1
 -4  DISP        4    1
 -5  D1          1    2    1    0
 -5  D2          1    2    2    0
 -5  D3          1    2    3    0
 -5  ALL         1    2    0    0    1ALL
 -1         1 9.86821E-01 9.76714E+01 0.00000E+00
 -1         2 9.86785E-01 9.19150E+01 0.00000E+00
 -1         3 9.86550E-01 8.61591E+01 0.00000E+00
 -1         4 9.85939E-01 8.04057E+01 0.00000E+00
 -1         5 9.84775E-01 7.46577E+01 0.00000E+00
 -1         6 9.82901E-01 6.89182E+01 0.00000E+00
 -1         7 9.80166E-01 6.31925E+01 0.00000E+00
 -1         8 9.76435E-01 5.74853E+01 0.00000E+00
 -1         9 9.71583E-01 5.18034E+01 0.00000E+00
 -1        10 9.65495E-01 4.61531E+01 0.00000E+00
 -1        11 9.58076E-01 4.05425E+01 0.00000E+00
 -1        12 9.49224E-01 3.49790E+01 0.00000E+00
 -1        13 9.38879E-01 2.94718E+01 0.00000E+00
 -1        14 9.26953E-01 2.40293E+01 0.00000E+00
 -1        15 9.13413E-01 1.86613E+01 0.00000E+00
 -1        16 8.98194E-01 1.33770E+01 0.00000E+00
 -1        17 8.81273E-01 8.18635E+00 0.00000E+00
 -1        18 8.62639E-01 3.09968E+00 0.00000E+00
 -1        19 8.42249E-01-1.87342E+00 0.00000E+00
 -1        20 8.20145E-01-6.72233E+00 0.00000E+00
 -1        21 7.96288E-01-1.14374E+01 0.00000E+00
 -1        22 7.70740E-01-1.60082E+01 0.00000E+00
 -1        23 7.43499E-01-2.04252E+01 0.00000E+00
 -1        24 7.14618E-01-2.46782E+01 0.00000E+00
 -1        25 6.84141E-01-2.87584E+01 0.00000E+00
 -1        26 6.52115E-01-3.26561E+01 0.00000E+00
 -1        27 6.18620E-01-3.63628E+01 0.00000E+00
 -1        28 5.83709E-01-3.98698E+01 0.00000E+00
 -1        29 5.47477E-01-4.31694E+01 0.00000E+00
 -1        30 5.09995E-01-4.62540E+01 0.00000E+00
 -1        31 4.71370E-01-4.91165E+01 0.00000E+00
 -1        32 4.31688E-01-5.17506E+01 0.00000E+00
 -1        33 3.91060E-01-5.41505E+01 0.00000E+00
 -1        34 3.49598E-01-5.63109E+01 0.00000E+00
 -1        35 3.07404E-01-5.82273E+01 0.00000E+00
 -1        36 2.64615E-01-5.98959E+01 0.00000E+00
 -1        37 2.21332E-01-6.13133E+01 0.00000E+00
 -1        38 1.77699E-01-6.24772E+01 0.00000E+00
 -1        39 1.33836E-01-6.33859E+01 0.00000E+00
 -1        40 8.98669E-02-6.40384E+01 0.00000E+00
 -1        41 4.59389E-02-6.44345E+01 0.00000E+00
 -1        42 2.16932E-03-6.45748E+01 0.00000E+00
 -1        43-4.12990E-02-6.44606E+01 0.00000E+00
 -1        44-8.43382E-02-6.40941E+01 0.00000E+00
 -1        45-1.26807E-01-6.34781E+01 0.00000E+00
 -1        46-1.68589E-01-6.26164E+01 0.00000E+00
 -1        47-2.09535E-01-6.15134E+01 0.00000E+00
 -1        48-2.49530E-01-6.01743E+01 0.00000E+00
 -1        49-2.88444E-01-5.86050E+01 0.00000E+00
 -1        50-3.26150E-01-5.68122E+01 0.00000E+00
 -1        51-3.62544E-01-5.48032E+01 0.00000E+00
 -1        52-3.97487E-01-5.25861E+01 0.00000E+00
 -1        53-4.30887E-01-5.01697E+01 0.00000E+00
 -1        54-4.62630E-01-4.75633E+01 0.00000E+00
 -1        55-4.92613E-01-4.47769E+01 0.00000E+00
 -1        56-5.20750E-01-4.18209E+01 0.00000E+00
 -1        57-5.46939E-01-3.87064E+01 0.00000E+00
 -1        58-5.71107E-01-3.54450E+01 0.00000E+00
 -1        59-5.93170E-01-3.20488E+01 0.00000E+00
 -1        60-6.13064E-01-2.85302E+01 0.00000E+00
 -1        61-6.30722E-01-2.49021E+01 0.00000E+00
 -1        62-6.46093E-01-2.11776E+01 0.00000E+00
 -1        63-6.59124E-01-1.73703E+01 0.00000E+00
 -1        64-6.69780E-01-1.34938E+01 0.00000E+00
 -1        65-6.78027E-01-9.56218E+00 0.00000E+00
 -1        66-6.83840E-01-5.58960E+00 0.00000E+00
 -1        67-6.87206E-01-1.59025E+00 0.00000E+00
 -1        68-6.88116E-01 2.42158E+00 0.00000E+00
 -1        69-6.86571E-01 6.43155E+00 0.00000E+00
 -1        70-6.82580E-01 1.04254E+01 0.00000E+00
 -1        71-6.76161E-01 1.43888E+01 0.00000E+00
 -1        72-6.67339E-01 1.83078E+01 0.00000E+00
 -1        73-6.56149E-01 2.21684E+01 0.00000E+00
 -1        74-6.42631E-01 2.59570E+01 0.00000E+00
 -1        75-6.26835E-01 2.96600E+01 0.00000E+00
 -1        76-6.08822E-01 3.32645E+01 0.00000E+00
 -1        77-5.88650E-01 3.67575E+01 0.00000E+00
 -1        78-5.66403E-01 4.01268E+01 0.00000E+00
 -1        79-5.42143E-01 4.33605E+01 0.00000E+00
 -1        80-5.15975E-01 4.64470E+01 0.00000E+00
 -1        81-4.87979E-01 4.93756E+01 0.00000E+00
 -1        82-4.58262E-01 5.21358E+01 0.00000E+00
 -1        83-4.26920E-01 5.47178E+01 0.00000E+00
 -1        84-3.94074E-01 5.71127E+01 0.00000E+00
 -1        85-3.59833E-01 5.93118E+01 0.00000E+00
 -1        86-3.24317E-01 6.13075E+01 0.00000E+00
 -1        87-2.87656E-01 6.30926E+01 0.00000E+00
 -1        88-2.49971E-01 6.46609E+01 0.00000E+00
 -1        89-2.11401E-01 6.60067E+01 0.00000E+00
 -1        90-1.72078E-01 6.71253E+01 0.00000E+00
 -1        91-1.32139E-01 6.80127E+01 0.00000E+00
 -1        92-9.17303E-02 6.86658E+01 0.00000E+00
 -1        93-5.09736E-02 6.90821E+01 0.00000E+00
 -1        94-1.00394E-02 6.92600E+01 0.00000E+00
 -1        95 3.09486E-02 6.91990E+01 0.00000E+00
 -1        96 7.18425E-02 6.88992E+01 0.00000E+00
 -1        97 1.12496E-01 6.83615E+01 0.00000E+00
 -1        98 1.52776E-01 6.75877E+01 0.00000E+00
 -1        99 1.92529E-01 6.65804E+01 0.00000E+00
 -1       100 2.31629E-01 6.53432E+01 0.00000E+00
 -1       101 2.69931E-01 6.38801E+01 0.00000E+00
 -1       102 3.07306E-01 6.21963E+01 0.00000E+00
 -1       103 3.43619E-01 6.02976E+01 0.00000E+00
 -1       104 3.78752E-01 5.81904E+01 0.00000E+00
 -1       105 4.12572E-01 5.58821E+01 0.00000E+00
 -1       106 4.44966E-01 5.33807E+01 0.00000E+00
 -1       107 4.75827E-01 5.06947E+01 0.00000E+00
 -1       108 5.05034E-01 4.78335E+01 0.00000E+00
 -1       109 5.32498E-01 4.48070E+01 0.00000E+00
 -1       110 5.58113E-01 4.16257E+01 0.00000E+00
 -1       111 5.81798E-01 3.83006E+01 0.00000E+00
 -1       112 6.03466E-01 3.48432E+01 0.00000E+00
 -1       113 6.23041E-01 3.12655E+01 0.00000E+00
 -1       114 6.40458E-01 2.75798E+01 0.00000E+00
 -1       115 6.55651E-01 2.37991E+01 0.00000E+00
 -1       116 6.68572E-01 1.99363E+01 0.00000E+00
 -1       117 6.79172E-01 1.60050E+01 0.00000E+00
 -1       118 6.87417E-01 1.20186E+01 0.00000E+00
 -1       119 6.93276E-01 7.99113E+00 0.00000E+00
 -1       120 6.96728E-01 3.93649E+00 0.00000E+00
 -1       121 6.97763E-01-1.31346E-01 0.00000E+00
 -1       122 6.96374E-01-4.19804E+00 0.00000E+00
 -1       123 6.92568E-01-8.24959E+00 0.00000E+00
 -1       124 6.86357E-01-1.22719E+01 0.00000E+00
 -1       125 6.77761E-01-1.62510E+01 0.00000E+00
 -1       126 6.66811E-01-2.01732E+01 0.00000E+00
 -1       127 6.53545E-01-2.40246E+01 0.00000E+00
 -1       128 6.38007E-01-2.77921E+01 0.00000E+00
 -1       129 6.20253E-01-3.14625E+01 0.00000E+00
 -1       130 6.00340E-01-3.50229E+01 0.00000E+00
 -1       131 5.78342E-01-3.84611E+01 0.00000E+00
 -1       132 5.54332E-01-4.17652E+01 0.00000E+00
 -1       133 5.28393E-01-4.49235E+01 0.00000E+00
 -1       134 5.00615E-01-4.79252E+01 0.00000E+00
 -1       135 4.71093E-01-5.07596E+01 0.00000E+00
 -1       136 4.39933E-01-5.34171E+01 0.00000E+00
 -1       137 4.07236E-01-5.58883E+01 0.00000E+00
 -1       138 3.73123E-01-5.81646E+01 0.00000E+00
 -1       139 3.37704E-01-6.02381E+01 0.00000E+00
 -1       140 3.01110E-01-6.21015E+01 0.00000E+00
 -1       141 2.63455E-01-6.37483E+01 0.00000E+00
 -1       142 2.24884E-01-6.51728E+01 0.00000E+00
 -1       143 1.85520E-01-6.63700E+01 0.00000E+00
 -1       144 1.45501E-01-6.73356E+01 0.00000E+00
 -1       145 1.04970E-01-6.80662E+01 0.00000E+00
 -1       146 6.40570E-02-6.85592E+01 0.00000E+00
 -1       147 2.29172E-02-6.88129E+01 0.00000E+00
 -1       148-1.83247E-02-6.88263E+01 0.00000E+00
 -1       149-5.95086E-02-6.85993E+01 0.00000E+00
 -1       150-1.00501E-01-6.81326E+01 0.00000E+00
 -1       151-1.41167E-01-6.74276E+01 0.00000E+00
 -1       152-1.81352E-01-6.64868E+01 0.00000E+00
 -1       153-2.20927E-01-6.53134E+01 0.00000E+00
 -1       154-2.59757E-01-6.39112E+01 0.00000E+00
 -1       155-2.97700E-01-6.22851E+01 0.00000E+00
 -1       156-3.34637E-01-6.04406E+01 0.00000E+00
 -1       157-3.70429E-01-5.83839E+01 0.00000E+00
 -1       158-4.04963E-01-5.61221E+01 0.00000E+00
 -1       159-4.38114E-01-5.36629E+01 0.00000E+00
 -1       160-4.69774E-01-5.10146E+01 0.00000E+00
 -1       161-4.99826E-01-4.81862E+01 0.00000E+00
 -1       162-5.28185E-01-4.51875E+01 0.00000E+00
 -1       163-5.54731E-01-4.20286E+01 0.00000E+00
 -1       164-5.79391E-01-3.87204E+01 0.00000E+00
 -1       165-6.02076E-01-3.52740E+01 0.00000E+00
 -1       166-6.22707E-01-3.17014E+01 0.00000E+00
 -1       167-6.41221E-01-2.80145E+01 0.00000E+00
 -1       168-6.57550E-01-2.42260E+01 0.00000E+00
 -1       169-6.71644E-01-2.03487E+01 0.00000E+00
 -1       170-6.83455E-01-1.63959E+01 0.00000E+00
 -1       171-6.92945E-01-1.23810E+01 0.00000E+00
 -1       172-7.00086E-01-8.31750E+00 0.00000E+00
 -1       173-7.04854E-01-4.21930E+00 0.00000E+00
 -1       174-7.07239E-01-1.00227E-01 0.00000E+00
 -1       175-7.07235E-01 4.02578E+00 0.00000E+00
 -1       176-7.04845E-01 8.14491E+00 0.00000E+00
 -1       177-7.00083E-01 1.22431E+01 0.00000E+00
 -1       178-6.92970E-01 1.63066E+01 0.00000E+00
 -1       179-6.83535E-01 2.03219E+01 0.00000E+00
 -1       180-6.71816E-01 2.42754E+01 0.00000E+00
 -1       181-6.57859E-01 2.81540E+01 0.00000E+00
 -1       182-6.41720E-01 3.19449E+01 0.00000E+00
 -1       183-6.23456E-01 3.56354E+01 0.00000E+00
 -1       184-6.03144E-01 3.92134E+01 0.00000E+00
 -1       185-5.80857E-01 4.26671E+01 0.00000E+00
 -1       186-5.56679E-01 4.59853E+01 0.00000E+00
 -1       187-5.30706E-01 4.91571E+01 0.00000E+00
 -1       188-5.03029E-01 5.21725E+01 0.00000E+00
 -1       189-4.73763E-01 5.50218E+01 0.00000E+00
 -1       190-4.43006E-01 5.76961E+01 0.00000E+00
 -1       191-4.10887E-01 6.01868E+01 0.00000E+00
 -1       192-3.77523E-01 6.24866E+01 0.00000E+00
 -1       193-3.43035E-01 6.45884E+01 0.00000E+00
 -1       194-3.07565E-01 6.64862E+01 0.00000E+00
 -1       195-2.71241E-01 6.81746E+01 0.00000E+00
 -1       196-2.34204E-01 6.96489E+01 0.00000E+00
 -1       197-1.96601E-01 7.09055E+01 0.00000E+00
 -1       198-1.58565E-01 7.19415E+01 0.00000E+00
 -1       199-1.20261E-01 7.27548E+01 0.00000E+00
 -1       200-8.18241E-02 7.33442E+01 0.00000E+00
 -1       201-4.34131E-02 7.37095E+01 0.00000E+00
 -1       202-5.17473E-03 7.38512E+01 0.00000E+00
 -1       203 3.27273E-02 7.37708E+01 0.00000E+00
 -1       204 7.01630E-02 7.34706E+01 0.00000E+00
 -1       205 1.06953E-01 7.29539E+01 0.00000E+00
 -1       206 1.42963E-01 7.22248E+01 0.00000E+00
 -1       207 1.78038E-01 7.12884E+01 0.00000E+00
 -1       208 2.12029E-01 7.01505E+01 0.00000E+00
 -1       209 2.44794E-01 6.88178E+01 0.00000E+00
 -1       210 2.76182E-01 6.72981E+01 0.00000E+00
 -1       211 3.06060E-01 6.55996E+01 0.00000E+00
 -1       212 3.34285E-01 6.37316E+01 0.00000E+00
 -1       213 3.60725E-01 6.17042E+01 0.00000E+00
 -1       214 3.85253E-01 5.95280E+01 0.00000E+00
 -1       215 4.07739E-01 5.72148E+01 0.00000E+00
 -1       216 4.28064E-01 5.47766E+01 0.00000E+00
 -1       217 4.46117E-01 5.22264E+01 0.00000E+00
 -1       218 4.61778E-01 4.95780E+01 0.00000E+00
 -1       219 4.74950E-01 4.68454E+01 0.00000E+00
 -1       220 4.85529E-01 4.40435E+01 0.00000E+00
 -1       221 4.93422E-01 4.11878E+01 0.00000E+00
 -1       222 4.98543E-01 3.82941E+01 0.00000E+00
 -1       223 5.00804E-01 3.53788E+01 0.00000E+00
 -1       224 5.00139E-01 3.24589E+01 0.00000E+00
 -1       225 4.96463E-01 2.95516E+01 0.00000E+00
 -1       226 4.89731E-01 2.66746E+01 0.00000E+00
 -1       227 4.79861E-01 2.38461E+01 0.00000E+00
 -1       228 4.66831E-01 2.10844E+01 0.00000E+00
 -1       229 4.50558E-01 1.84081E+01 0.00000E+00
 -1       230 4.31046E-01 1.58362E+01 0.00000E+00
 -1       231 4.08198E-01 1.33878E+01 0.00000E+00
 -1       232 3.82070E-01 1.10823E+01 0.00000E+00
 -1       233 3.52524E-01 8.93913E+00 0.00000E+00
 -1       234 3.19682E-01 6.97797E+00 0.00000E+00
 -1       235 2.83345E-01 5.21859E+00 0.00000E+00
 -1       236 2.43727E-01 3.68074E+00 0.00000E+00
 -1       237 2.00573E-01 2.38431E+00 0.00000E+00
 -1       238 1.54020E-01 1.34959E+00 0.00000E+00
 -1       239 1.04506E-01 5.94815E-01 0.00000E+00
 -1       240 4.91884E-02 1.46765E-01 0.00000E+00
 -1       241 0.00000E+00 0.00000E+00 0.00000E+00
 -1       242 9.86821E-01 9.76714E+01 0.00000E+00
 -1       243 9.86785E-01 9.19150E+01 0.00000E+00
 -1       244 9.86550E-01 8.61591E+01 0.00000E+00
 -1       245 9.85939E-01 8.04057E+01 0.00000E+00
 -1       246 9.84775E-01 7.46577E+01 0.00000E+00
 -1       247 9.82901E-01 6.89182E+01 0.00000E+00
 -1       248 9.80166E-01 6.31925E+01 0.00000E+00
 -1       249 9.76435E-01 5.74853E+01 0.00000E+00
 -1       250 9.71583E-01 5.18034E+01 0.00000E+00
 -1       251 9.65495E-01 4.61531E+01 0.00000E+00
 -1       252 9.58076E-01 4.05425E+01 0.00000E+00
 -1       253 9.49224E-01 3.49790E+01 0.00000E+00
 -1       254 9.38879E-01 2.94718E+01 0.00000E+00
 -1       255 9.26953E-01 2.40293E+01 0.00000E+00
 -1       256 9.13413E-01 1.86613E+01 0.00000E+00
 -1       257 8.98194E-01 1.33770E+01 0.00000E+00
 -1       258 8.81273E-01 8.18635E+00 0.00000E+00
 -1       259 8.62639E-01 3.09968E+00 0.00000E+00
 -1       260 8.42249E-01-1.87342E+00 0.00000E+00
 -1       261 8.20145E-01-6.72233E+00 0.00000E+00
 -1       262 7.96288E-01-1.14374E+01 0.00000E+00
 -1       263 7.70740E-01-1.60082E+01 0.00000E+00
 -1       264 7.43499E-01-2.04252E+01 0.00000E+00
 -1       265 7.14618E-01-2.46782E+01 0.00000E+00
 -1       266 6.84141E-01-2.87584E+01 0.00000E+00
 -1       267 6.52115E-01-3.26561E+01 0.00000E+00
 -1       268 6.18620E-01-3.63628E+01 0.00000E+00
 -1       269 5.83709E-01-3.98698E+01 0.00000E+00
 -1       270 5.47477E-01-4.31694E+01 0.00000E+00
 -1       271 5.09995E-01-4.62540E+01 0.00000E+00
 -1       272 4.71370E-01-4.91165E+01 0.00000E+00
 -1       273 4.31688E-01-5.17506E+01 0.00000E+00
 -1       274 3.91060E-01-5.41505E+01 0.00000E+00
 -1       275 3.49598E-01-5.63109E+01 0.00000E+00
 -1       276 3.07404E-01-5.82273E+01 0.00000E+00
 -1       277 2.64615E-01-5.98959E+01 0.00000E+00
 -1       278 2.21332E-01-6.13133E+01 0.00000E+00
 -1       279 1.77699E-01-6.24772E+01 0.00000E+00
 -1       280 1.33836E-01-6.33859E+01 0.00000E+00
 -1       281 8.98669E-02-6.40384E+01 0.00000E+00
 -1       282 4.59389E-02-6.44345E+01 0.00000E+00
 -1       283 2.16932E-03-6.45748E+01 0.00000E+00
 -1       284-4.12990E-02-6.44606E+01 0.00000E+00
 -1       285-8.43382E-02-6.40941E+01 0.00000E+00
 -1       286-1.26807E-01-6.34781E+01 0.00000E+00
 -1       287-1.68589E-01-6.26164E+01 0.00000E+00
 -1       288-2.09535E-01-6.15134E+01 0.00000E+00
 -1       289-2.49530E-01-6.01743E+01 0.00000E+00
 -1       290-2.88444E-01-5.86050E+01 0.00000E+00
 -1       291-3.26150E-01-5.68122E+01 0.00000E+00
 -1       292-3.62544E-01-5.48032E+01 0.00000E+00
 -1       293-3.97487E-01-5.25861E+01 0.00000E+00
 -1       294-4.30887E-01-5.01697E+01 0.00000E+00
 -1       295-4.62630E-01-4.75633E+01 0.00000E+00
 -1       296-4.92613E-01-4.47769E+01 0.00000E+00
 -1       297-5.20750E-01-4.18209E+01 0.00000E+00
 -1       298-5.46939E-01-3.87064E+01 0.00000E+00
 -1       299-5.71107E-01-3.54450E+01 0.00000E+00
 -1       300-5.93170E-01-3.20488E+01 0.00000E+00
 -1       301-6.13064E-01-2.85302E+01 0.00000E+00
 -1       302-6.30722E-01-2.49021E+01 0.00000E+00
 -1       303-6.46093E-01-2.11776E+01 0.00000E+00
 -1       304-6.59124E-01-1.73703E+01 0.00000E+00
 -1       305-6.69780E-01-1.34938E+01 0.00000E+00
 -1       306-6.78027E-01-9.56218E+00 0.00000E+00
 -1       307-6.83840E-01-5.58960E+00 0.00000E+00
 -1       308-6.87206E-01-1.59025E+00 0.00000E+00
 -1       309-6.88116E-01 2.42158E+00 0.00000E+00
 -1       310-6.86571E-01 6.43155E+00 0.00000E+00
 -1       311-6.82580E-01 1.04254E+01 0.00000E+00
 -1       312-6.76161E-01 1.43888E+01 0.00000E+00
 -1       313-6.67339E-01 1.83078E+01 0.00000E+00
 -1       314-6.56149E-01 2.21684E+01 0.00000E+00
 -1       315-6.42631E-01 2.59570E+01 0.00000E+00
 -1       316-6.26835E-01 2.96600E+01 0.00000E+00
 -1       317-6.08822E-01 3.32645E+01 0.00000E+00
 -1       318-5.88650E-01 3.67575E+01 0.00000E+00
 -1       319-5.66403E-01 4.01268E+01 0.00000E+00
 -1       320-5.42143E-01 4.33605E+01 0.00000E+00
 -1       321-5.15975E-01 4.64470E+01 0.00000E+00
 -1       322-4.87979E-01 4.93756E+01 0.00000E+00
 -1       323-4.58262E-01 5.21358E+01 0.00000E+00
 -1       324-4.26920E-01 5.47178E+01 0.00000E+00
 -1       325-3.94074E-01 5.71127E+01 0.00000E+00
 -1       326-3.59833E-01 5.93118E+01 0.00000E+00
 -1       327-3.24317E-01 6.13075E+01 0.00000E+00
 -1       328-2.87656E-01 6.30926E+01 0.00000E+00
 -1       329-2.49971E-01 6.46609E+01 0.00000E+00
 -1       330-2.11401E-01 6.60067E+01 0.00000E+00
 -1       331-1.72078E-01 6.71253E+01 0.00000E+00
 -1       332-1.32139E-01 6.80127E+01 0.00000E+00
 -1       333-9.17303E-02 6.86658E+01 0.00000E+00
 -1       334-5.09736E-02 6.90821E+01 0.00000E+00
 -1       335-1.00394E-02 6.92600E+01 0.00000E+00
 -1       336 3.09486E-02 6.91990E+01 0.00000E+00
 -1       337 7.18425E-02 6.88992E+01 0.00000E+00
 -1       338 1.12496E-01 6.83615E+01 0.00000E+00
 -1       339 1.52776E-01 6.75877E+01 0.00000E+00
 -1       340 1.92529E-01 6.65804E+01 0.00000E+00
 -1       341 2.31629E-01 6.53432E+01 0.00000E+00
 -1       342 2.69931E-01 6.38801E+01 0.00000E+00
 -1       343 3.07306E-01 6.21963E+01 0.00000E+00
 -1       344 3.43619E-01 6.02976E+01 0.00000E+00
 -1       345 3.78752E-01 5.81904E+01 0.00000E+00
 -1       346 4.12572E-01 5.58821E+01 0.00000E+00
 -1       347 4.44966E-01 5.33807E+01 0.00000E+00
 -1       348 4.75827E-01 5.06947E+01 0.00000E+00
 -1       349 5.05034E-01 4.78335E+01 0.00000E+00
 -1       350 5.32498E-01 4.48070E+01 0.00000E+00
 -1       351 5.58113E-01 4.16257E+01 0.00000E+00
 -1       352 5.81798E-01 3.83006E+01 0.00000E+00
 -1       353 6.03466E-01 3.48432E+01 0.00000E+00
 -1       354 6.23041E-01 3.12655E+01 0.00000E+00
 -1       355 6.40458E-01 2.75798E+01 0.00000E+00
 -1       356 6.55651E-01 2.37991E+01 0.00000E+00
 -1       357 6.68572E-01 1.99363E+01 0.00000E+00
 -1       358 6.79172E-01 1.60050E+01 0.00000E+00
 -1       359 6.87417E-01 1.20186E+01 0.00000E+00
 -1       360 6.93276E-01 7.99113E+00 0.00000E+00
 -1       361 6.96728E-01 3.93649E+00 0.00000E+00
 -1       362 6.97763E-01-1.31346E-01 0.00000E+00
 -1       363 6.96374E-01-4.19804E+00 0.00000E+00
 -1       364 6.92568E-01-8.24959E+00 0.00000E+00
 -1       365 6.86357E-01-1.22719E+01 0.00000E+00
 -1       366 6.77761E-01-1.62510E+01 0.00000E+00
 -1       367 6.66811E-01-2.01732E+01 0.00000E+00
 -1       368 6.53545E-01-2.40246E+01 0.00000E+00
 -1       369 6.38007E-01-2.77921E+01 0.00000E+00
 -1       370 6.20253E-01-3.14625E+01 0.00000E+00
 -1       371 6.00340E-01-3.50229E+01 0.00000E+00
 -1       372 5.78342E-01-3.84611E+01 0.00000E+00
 -1       373 5.54332E-01-4.17652E+01 0.00000E+00
 -1       374 5.28393E-01-4.49235E+01 0.00000E+00
 -1       375 5.00615E-01-4.79252E+01 0.00000E+00
 -1       376 4.71093E-01-5.07596E+01 0.00000E+00
 -1       377 4.39933E-01-5.34171E+01 0.00000E+00
 -1       378 4.07236E-01-5.58883E+01 0.00000E+00
 -1       379 3.73123E-01-5.81646E+01 0.00000E+00
 -1       380 3.37704E-01-6.02381E+01 0.00000E+00
 -1       381 3.01110E-01-6.21015E+01 0.00000E+00
 -1       382 2.63455E-01-6.37483E+01 0.00000E+00
 -1       383 2.24884E-01-6.51728E+01 0.00000E+00
 -1       384 1.85520E-01-6.63700E+01 0.00000E+00
 -1       385 1.45501E-01-6.73356E+01 0.00000E+00
 -1       386 1.04970E-01-6.80662E+01 0.00000E+00
 -1       387 6.40570E-02-6.85592E+01 0.00000E+00
 -1       388 2.29172E-02-6.88129E+01 0.00000E+00
 -1       389-1.83247E-02-6.88263E+01 0.00000E+00
 -1       390-5.95086E-02-6.85993E+01 0.00000E+00
 -1       391-1.00501E-01-6.81326E+01 0.00000E+00
 -1       392-1.41167E-01-6.74276E+01 0.00000E+00
 -1       393-1.81352E-01-6.64868E+01 0.00000E+00
 -1       394-2.20927E-01-6.53134E+01 0.00000E+00
 -1       395-2.59757E-01-6.39112E+01 0.00000E+00
 -1       396-2.97700E-01-6.22851E+01 0.00000E+00
 -1       397-3.34637E-01-6.04406E+01 0.00000E+00
 -1       398-3.70429E-01-5.83839E+01 0.00000E+00
 -1       399-4.04963E-01-5.61221E+01 0.00000E+00
 -1       400-4.38114E-01-5.36629E+01 0.00000E+00
 -1       401-4.69774E-01-5.10146E+01 0.00000E+00
 -1       402-4.99826E-01-4.81862E+01 0.00000E+00
 -1       403-5.28185E-01-4.51875E+01 0.00000E+00
 -1       404-5.54731E-01-4.20286E+01 0.00000E+00
 -1       405-5.79391E-01-3.87204E+01 0.00000E+00
 -1       406-6.02076E-01-3.52740E+01 0.00000E+00
 -1       407-6.22707E-01-3.17014E+01 0.00000E+00
 -1       408-6.41221E-01-2.80145E+01 0.00000E+00
 -1       409-6.57550E-01-2.42260E+01 0.00000E+00
 -1       410-6.71644E-01-2.03487E+01 0.00000E+00
 -1       411-6.83455E-01-1.63959E+01 0.00000E+00
 -1       412-6.92945E-01-1.23810E+01 0.00000E+00
 -1       413-7.00086E-01-8.31750E+00 0.00000E+00
 -1       414-7.04854E-01-4.21930E+00 0.00000E+00
 -1       415-7.07239E-01-1.00227E-01 0.00000E+00
 -1       416-7.07235E-01 4.02578E+00 0.00000E+00
 -1       417-7.04845E-01 8.14491E+00 0.00000E+00
 -1       418-7.00083E-01 1.22431E+01 0.00000E+00
 -1       419-6.92970E-01 1.63066E+01 0.00000E+00
 -1       420-6.83535E-01 2.03219E+01 0.00000E+00
 -1       421-6.71816E-01 2.42754E+01 0.00000E+00
 -1       422-6.57859E-01 2.81540E+01 0.00000E+00
 -1       423-6.41720E-01 3.19449E+01 0.00000E+00
 -1       424-6.23456E-01 3.56354E+01 0.00000E+00
 -1       425-6.03144E-01 3.92134E+01 0.00000E+00
 -1       426-5.80857E-01 4.26671E+01 0.00000E+00
 -1       427-5.56679E-01 4.59853E+01 0.00000E+00
 -1       428-5.30706E-01 4.91571E+01 0.00000E+00
 -1       429-5.03029E-01 5.21725E+01 0.00000E+00
 -1       430-4.73763E-01 5.50218E+01 0.00000E+00
 -1       431-4.43006E-01 5.76961E+01 0.00000E+00
 -1       432-4.10887E-01 6.01868E+01 0.00000E+00
 -1       433-3.77523E-01 6.24866E+01 0.00000E+00
 -1       434-3.43035E-01 6.45884E+01 0.00000E+00
 -1       435-3.07565E-01 6.64862E+01 0.00000E+00
 -1       436-2.71241E-01 6.81746E+01 0.00000E+00
 -1       437-2.34204E-01 6.96489E+01 0.00000E+00
 -1       438-1.96601E-01 7.09055E+01 0.00000E+00
 -1       439-1.58565E-01 7.19415E+01 0.00000E+00
 -1       440-1.20261E-01 7.27548E+01 0.00000E+00
 -1       441-8.18241E-02 7.33442E+01 0.00000E+00
 -1       442-4.34131E-02 7.37095E+01 0.00000E+00
 -1       443-5.17473E-03 7.38512E+01 0.00000E+00
 -1       444 3.27273E-02 7.37708E+01 0.00000E+00
 -1       445 7.01630E-02 7.34706E+01 0.00000E+00
 -1       446 1.06953E-01 7.29539E+01 0.00000E+00
 -1       447 1.42963E-01 7.22248E+01 0.00000E+00
 -1       448 1.78038E-01 7.12884E+01 0.00000E+00
 -1       449 2.12029E-01 7.01505E+01 0.00000E+00
 -1       450 2.44794E-01 6.88178E+01 0.00000E+00
 -1       451 2.76182E-01 6.72981E+01 0.00000E+00
 -1       452 3.06060E-01 6.55996E+01 0.00000E+00
 -1       453 3.34285E-01 6.37316E+01 0.00000E+00
 -1       454 3.60725E-01 6.17042E+01 0.00000E+00
 -1       455 3.85253E-01 5.95280E+01 0.00000E+00
 -1       456 4.07739E-01 5.72148E+01 0.00000E+00
 -1       457 4.28064E-01 5.47766E+01 0.00000E+00
 -1       458 4.46117E-01 5.22264E+01 0.00000E+00
 -1       459 4.61778E-01 4.95780E+01 0.00000E+00
 -1       460 4.74950E-01 4.68454E+01 0.00000E+00
 -1       461 4.85529E-01 4.40435E+01 0.00000E+00
 -1       462 4.93422E-01 4.11878E+01 0.00000E+00
 -1       463 4.98543E-01 3.82941E+01 0.00000E+00
 -1       464 5.00804E-01 3.53788E+01 0.00000E+00
 -1       465 5.00139E-01 3.24589E+01 0.00000E+00
 -1       466 4.96463E-01 2.95516E+01 0.00000E+00
 -1       467 4.89731E-01 2.66746E+01 0.00000E+00
 -1       468 4.79861E-01 2.38461E+01 0.00000E+00
 -1       469 4.66831E-01 2.10844E+01 0.00000E+00
 -1       470 4.50558E-01 1.84081E+01 0.00000E+00
 -1       471 4.31046E-01 1.58362E+01 0.00000E+00
 -1       472 4.08198E-01 1.33878E+01 0.00000E+00
 -1       473 3.82070E-01 1.10823E+01 0.00000E+00
 -1       474 3.52524E-01 8.93913E+00 0.00000E+00
 -1       475 3.19682E-01 6.97797E+00 0.00000E+00
 -1       476 2.83345E-01 5.21859E+00 0.00000E+00
 -1       477 2.43727E-01 3.68074E+00 0.00000E+00
 -1       478 2.00573E-01 2.38431E+00 0.00000E+00
 -1       479 1.54020E-01 1.34959E+00 0.00000E+00
 -1       480 1.04506E-01 5.94815E-01 0.00000E+00
 -1       481 4.91884E-02 1.46765E-01 0.00000E+00
 -1       482 0.00000E+00 0.00000E+00 0.00000E+00
 -1       483 4.93469E-01 9.76714E+01 0.00000E+00
 -1       484 4.93447E-01 9.19150E+01 0.00000E+00
 -1       485 4.93331E-01 8.61591E+01 0.00000E+00
 -1       486 4.93023E-01 8.04059E+01 0.00000E+00
 -1       487 4.92442E-01 7.46576E+01 0.00000E+00
 -1       488 4.91503E-01 6.89184E+01 0.00000E+00
 -1       489 4.90136E-01 6.31926E+01 0.00000E+00
 -1       490 4.88268E-01 5.74854E+01 0.00000E+00
 -1       491 4.85842E-01 5.18035E+01 0.00000E+00
 -1       492 4.82797E-01 4.61531E+01 0.00000E+00
 -1       493 4.79087E-01 4.05425E+01 0.00000E+00
 -1       494 4.74661E-01 3.49792E+01 0.00000E+00
 -1       495 4.69486E-01 2.94717E+01 0.00000E+00
 -1       496 4.63523E-01 2.40294E+01 0.00000E+00
 -1       497 4.56751E-01 1.86611E+01 0.00000E+00
 -1       498 4.49142E-01 1.33769E+01 0.00000E+00
 -1       499 4.40681E-01 8.18643E+00 0.00000E+00
 -1       500 4.31362E-01 3.09942E+00 0.00000E+00
 -1       501 4.21167E-01-1.87351E+00 0.00000E+00
 -1       502 4.10113E-01-6.72274E+00 0.00000E+00
 -1       503 3.98183E-01-1.14377E+01 0.00000E+00
 -1       504 3.85409E-01-1.60085E+01 0.00000E+00
 -1       505 3.71786E-01-2.04256E+01 0.00000E+00
 -1       506 3.57346E-01-2.46788E+01 0.00000E+00
 -1       507 3.42104E-01-2.87590E+01 0.00000E+00
 -1       508 3.26092E-01-3.26567E+01 0.00000E+00
 -1       509 3.09341E-01-3.63635E+01 0.00000E+00
 -1       510 2.91886E-01-3.98706E+01 0.00000E+00
 -1       511 2.73767E-01-4.31703E+01 0.00000E+00
 -1       512 2.55026E-01-4.62548E+01 0.00000E+00
 -1       513 2.35711E-01-4.91175E+01 0.00000E+00
 -1       514 2.15868E-01-5.17517E+01 0.00000E+00
 -1       515 1.95553E-01-5.41517E+01 0.00000E+00
 -1       516 1.74820E-01-5.63122E+01 0.00000E+00
 -1       517 1.53721E-01-5.82286E+01 0.00000E+00
 -1       518 1.32326E-01-5.98972E+01 0.00000E+00
 -1       519 1.10682E-01-6.13147E+01 0.00000E+00
 -1       520 8.88658E-02-6.24787E+01 0.00000E+00
 -1       521 6.69292E-02-6.33875E+01 0.00000E+00
 -1       522 4.49470E-02-6.40400E+01 0.00000E+00
 -1       523 2.29772E-02-6.44362E+01 0.00000E+00
 -1       524 1.09398E-03-6.45765E+01 0.00000E+00
 -1       525-2.06451E-02-6.44624E+01 0.00000E+00
 -1       526-4.21641E-02-6.40959E+01 0.00000E+00
 -1       527-6.34025E-02-6.34800E+01 0.00000E+00
 -1       528-8.42935E-02-6.26184E+01 0.00000E+00
 -1       529-1.04769E-01-6.15154E+01 0.00000E+00
 -1       530-1.24769E-01-6.01763E+01 0.00000E+00
 -1       531-1.44227E-01-5.86070E+01 0.00000E+00
 -1       532-1.63083E-01-5.68142E+01 0.00000E+00
 -1       533-1.81279E-01-5.48053E+01 0.00000E+00
 -1       534-1.98753E-01-5.25883E+01 0.00000E+00
 -1       535-2.15455E-01-5.01719E+01 0.00000E+00
 -1       536-2.31327E-01-4.75655E+01 0.00000E+00
 -1       537-2.46322E-01-4.47790E+01 0.00000E+00
 -1       538-2.60389E-01-4.18231E+01 0.00000E+00
 -1       539-2.73488E-01-3.87086E+01 0.00000E+00
 -1       540-2.85571E-01-3.54472E+01 0.00000E+00
 -1       541-2.96606E-01-3.20510E+01 0.00000E+00
 -1       542-3.06552E-01-2.85323E+01 0.00000E+00
 -1       543-3.15384E-01-2.49041E+01 0.00000E+00
 -1       544-3.23069E-01-2.11797E+01 0.00000E+00
 -1       545-3.29587E-01-1.73723E+01 0.00000E+00
 -1       546-3.34915E-01-1.34958E+01 0.00000E+00
 -1       547-3.39040E-01-9.56417E+00 0.00000E+00
 -1       548-3.41947E-01-5.59152E+00 0.00000E+00
 -1       549-3.43631E-01-1.59218E+00 0.00000E+00
 -1       550-3.44086E-01 2.41975E+00 0.00000E+00
 -1       551-3.43314E-01 6.42982E+00 0.00000E+00
 -1       552-3.41319E-01 1.04237E+01 0.00000E+00
 -1       553-3.38110E-01 1.43873E+01 0.00000E+00
 -1       554-3.33699E-01 1.83063E+01 0.00000E+00
 -1       555-3.28104E-01 2.21671E+01 0.00000E+00
 -1       556-3.21346E-01 2.59558E+01 0.00000E+00
 -1       557-3.13448E-01 2.96589E+01 0.00000E+00
 -1       558-3.04441E-01 3.32635E+01 0.00000E+00
 -1       559-2.94355E-01 3.67566E+01 0.00000E+00
 -1       560-2.83230E-01 4.01260E+01 0.00000E+00
 -1       561-2.71101E-01 4.33598E+01 0.00000E+00
 -1       562-2.58015E-01 4.64465E+01 0.00000E+00
 -1       563-2.44018E-01 4.93752E+01 0.00000E+00
 -1       564-2.29157E-01 5.21355E+01 0.00000E+00
 -1       565-2.13488E-01 5.47177E+01 0.00000E+00
 -1       566-1.97062E-01 5.71127E+01 0.00000E+00
 -1       567-1.79941E-01 5.93120E+01 0.00000E+00
 -1       568-1.62182E-01 6.13079E+01 0.00000E+00
 -1       569-1.43850E-01 6.30932E+01 0.00000E+00
 -1       570-1.25008E-01 6.46616E+01 0.00000E+00
 -1       571-1.05720E-01 6.60075E+01 0.00000E+00
 -1       572-8.60584E-02 6.71263E+01 0.00000E+00
 -1       573-6.60861E-02 6.80139E+01 0.00000E+00
 -1       574-4.58813E-02 6.86671E+01 0.00000E+00
 -1       575-2.55013E-02 6.90835E+01 0.00000E+00
 -1       576-5.03393E-03 6.92616E+01 0.00000E+00
 -1       577 1.54635E-02 6.92008E+01 0.00000E+00
 -1       578 3.59102E-02 6.89011E+01 0.00000E+00
 -1       579 5.62408E-02 6.83635E+01 0.00000E+00
 -1       580 7.63801E-02 6.75899E+01 0.00000E+00
 -1       581 9.62599E-02 6.65827E+01 0.00000E+00
 -1       582 1.15811E-01 6.53456E+01 0.00000E+00
 -1       583 1.34964E-01 6.38827E+01 0.00000E+00
 -1       584 1.53653E-01 6.21990E+01 0.00000E+00
 -1       585 1.71812E-01 6.03003E+01 0.00000E+00
 -1       586 1.89380E-01 5.81933E+01 0.00000E+00
 -1       587 2.06291E-01 5.58851E+01 0.00000E+00
 -1       588 2.22491E-01 5.33837E+01 0.00000E+00
 -1       589 2.37922E-01 5.06978E+01 0.00000E+00
 -1       590 2.52528E-01 4.78367E+01 0.00000E+00
 -1       591 2.66261E-01 4.48104E+01 0.00000E+00
 -1       592 2.79071E-01 4.16291E+01 0.00000E+00
 -1       593 2.90915E-01 3.83040E+01 0.00000E+00
 -1       594 3.01750E-01 3.48466E+01 0.00000E+00
 -1       595 3.11540E-01 3.12689E+01 0.00000E+00
 -1       596 3.20249E-01 2.75833E+01 0.00000E+00
 -1       597 3.27848E-01 2.38026E+01 0.00000E+00
 -1       598 3.34309E-01 1.99398E+01 0.00000E+00
 -1       599 3.39611E-01 1.60084E+01 0.00000E+00
 -1       600 3.43734E-01 1.20220E+01 0.00000E+00
 -1       601 3.46665E-01 7.99452E+00 0.00000E+00
 -1       602 3.48392E-01 3.93979E+00 0.00000E+00
 -1       603 3.48910E-01-1.28026E-01 0.00000E+00
 -1       604 3.48217E-01-4.19483E+00 0.00000E+00
 -1       605 3.46315E-01-8.24649E+00 0.00000E+00
 -1       606 3.43210E-01-1.22689E+01 0.00000E+00
 -1       607 3.38913E-01-1.62481E+01 0.00000E+00
 -1       608 3.33438E-01-2.01704E+01 0.00000E+00
 -1       609 3.26805E-01-2.40220E+01 0.00000E+00
 -1       610 3.19037E-01-2.77896E+01 0.00000E+00
 -1       611 3.10160E-01-3.14601E+01 0.00000E+00
 -1       612 3.00204E-01-3.50207E+01 0.00000E+00
 -1       613 2.89205E-01-3.84591E+01 0.00000E+00
 -1       614 2.77200E-01-4.17633E+01 0.00000E+00
 -1       615 2.64231E-01-4.49218E+01 0.00000E+00
 -1       616 2.50340E-01-4.79237E+01 0.00000E+00
 -1       617 2.35581E-01-5.07583E+01 0.00000E+00
 -1       618 2.19998E-01-5.34160E+01 0.00000E+00
 -1       619 2.03652E-01-5.58874E+01 0.00000E+00
 -1       620 1.86591E-01-5.81640E+01 0.00000E+00
 -1       621 1.68884E-01-6.02377E+01 0.00000E+00
 -1       622 1.50583E-01-6.21014E+01 0.00000E+00
 -1       623 1.31758E-01-6.37484E+01 0.00000E+00
 -1       624 1.12469E-01-6.51731E+01 0.00000E+00
 -1       625 9.27869E-02-6.63705E+01 0.00000E+00
 -1       626 7.27751E-02-6.73363E+01 0.00000E+00
 -1       627 5.25082E-02-6.80672E+01 0.00000E+00
 -1       628 3.20515E-02-6.85605E+01 0.00000E+00
 -1       629 1.14789E-02-6.88144E+01 0.00000E+00
 -1       630-9.14205E-03-6.88281E+01 0.00000E+00
 -1       631-2.97366E-02-6.86013E+01 0.00000E+00
 -1       632-5.02344E-02-6.81348E+01 0.00000E+00
 -1       633-7.05684E-02-6.74301E+01 0.00000E+00
 -1       634-9.06632E-02-6.64895E+01 0.00000E+00
 -1       635-1.10453E-01-6.53163E+01 0.00000E+00
 -1       636-1.29870E-01-6.39143E+01 0.00000E+00
 -1       637-1.48843E-01-6.22884E+01 0.00000E+00
 -1       638-1.67313E-01-6.04441E+01 0.00000E+00
 -1       639-1.85211E-01-5.83876E+01 0.00000E+00
 -1       640-2.02481E-01-5.61259E+01 0.00000E+00
 -1       641-2.19058E-01-5.36668E+01 0.00000E+00
 -1       642-2.34890E-01-5.10187E+01 0.00000E+00
 -1       643-2.49919E-01-4.81905E+01 0.00000E+00
 -1       644-2.64099E-01-4.51919E+01 0.00000E+00
 -1       645-2.77375E-01-4.20332E+01 0.00000E+00
 -1       646-2.89706E-01-3.87250E+01 0.00000E+00
 -1       647-3.01051E-01-3.52788E+01 0.00000E+00
 -1       648-3.11369E-01-3.17061E+01 0.00000E+00
 -1       649-3.20628E-01-2.80194E+01 0.00000E+00
 -1       650-3.28794E-01-2.42309E+01 0.00000E+00
 -1       651-3.35843E-01-2.03536E+01 0.00000E+00
 -1       652-3.41750E-01-1.64008E+01 0.00000E+00
 -1       653-3.46497E-01-1.23858E+01 0.00000E+00
 -1       654-3.50069E-01-8.32243E+00 0.00000E+00
 -1       655-3.52455E-01-4.22416E+00 0.00000E+00
 -1       656-3.53648E-01-1.05018E-01 0.00000E+00
 -1       657-3.53648E-01 4.02109E+00 0.00000E+00
 -1       658-3.52454E-01 8.14022E+00 0.00000E+00
 -1       659-3.50074E-01 1.22384E+01 0.00000E+00
 -1       660-3.46519E-01 1.63021E+01 0.00000E+00
 -1       661-3.41803E-01 2.03175E+01 0.00000E+00
 -1       662-3.35944E-01 2.42712E+01 0.00000E+00
 -1       663-3.28966E-01 2.81500E+01 0.00000E+00
 -1       664-3.20897E-01 3.19411E+01 0.00000E+00
 -1       665-3.11766E-01 3.56317E+01 0.00000E+00
 -1       666-3.01611E-01 3.92099E+01 0.00000E+00
 -1       667-2.90467E-01 4.26638E+01 0.00000E+00
 -1       668-2.78379E-01 4.59823E+01 0.00000E+00
 -1       669-2.65392E-01 4.91544E+01 0.00000E+00
 -1       670-2.51554E-01 5.21700E+01 0.00000E+00
 -1       671-2.36921E-01 5.50195E+01 0.00000E+00
 -1       672-2.21542E-01 5.76940E+01 0.00000E+00
 -1       673-2.05483E-01 6.01851E+01 0.00000E+00
 -1       674-1.88799E-01 6.24851E+01 0.00000E+00
 -1       675-1.71557E-01 6.45872E+01 0.00000E+00
 -1       676-1.53819E-01 6.64853E+01 0.00000E+00
 -1       677-1.35657E-01 6.81739E+01 0.00000E+00
 -1       678-1.17137E-01 6.96486E+01 0.00000E+00
 -1       679-9.83343E-02 7.09055E+01 0.00000E+00
 -1       680-7.93165E-02 7.19418E+01 0.00000E+00
 -1       681-6.01615E-02 7.27554E+01 0.00000E+00
 -1       682-4.09435E-02 7.33451E+01 0.00000E+00
 -1       683-2.17342E-02 7.37107E+01 0.00000E+00
 -1       684-2.61596E-03 7.38527E+01 0.00000E+00
 -1       685 1.63396E-02 7.37725E+01 0.00000E+00
 -1       686 3.50557E-02 7.34726E+01 0.00000E+00
 -1       687 5.34544E-02 7.29562E+01 0.00000E+00
 -1       688 7.14607E-02 7.22273E+01 0.00000E+00
 -1       689 8.90000E-02 7.12912E+01 0.00000E+00
 -1       690 1.05998E-01 7.01535E+01 0.00000E+00
 -1       691 1.22382E-01 6.88211E+01 0.00000E+00
 -1       692 1.38079E-01 6.73015E+01 0.00000E+00
 -1       693 1.53018E-01 6.56032E+01 0.00000E+00
 -1       694 1.67135E-01 6.37354E+01 0.00000E+00
 -1       695 1.80356E-01 6.17081E+01 0.00000E+00
 -1       696 1.92622E-01 5.95322E+01 0.00000E+00
 -1       697 2.03867E-01 5.72190E+01 0.00000E+00
 -1       698 2.14032E-01 5.47809E+01 0.00000E+00
 -1       699 2.23060E-01 5.22309E+01 0.00000E+00
 -1       700 2.30893E-01 4.95825E+01 0.00000E+00
 -1       701 2.37482E-01 4.68500E+01 0.00000E+00
 -1       702 2.42772E-01 4.40481E+01 0.00000E+00
 -1       703 2.46722E-01 4.11923E+01 0.00000E+00
 -1       704 2.49283E-01 3.82985E+01 0.00000E+00
 -1       705 2.50418E-01 3.53831E+01 0.00000E+00
 -1       706 2.50083E-01 3.24631E+01 0.00000E+00
 -1       707 2.48252E-01 2.95557E+01 0.00000E+00
 -1       708 2.44881E-01 2.66786E+01 0.00000E+00
 -1       709 2.39957E-01 2.38499E+01 0.00000E+00
 -1       710 2.33432E-01 2.10879E+01 0.00000E+00
 -1       711 2.25312E-01 1.84113E+01 0.00000E+00
 -1       712 2.15537E-01 1.58392E+01 0.00000E+00
 -1       713 2.04141E-01 1.33905E+01 0.00000E+00
 -1       714 1.91043E-01 1.10846E+01 0.00000E+00
 -1       715 1.76315E-01 8.94111E+00 0.00000E+00
 -1       716 1.59838E-01 6.97952E+00 0.00000E+00
 -1       717 1.41744E-01 5.21971E+00 0.00000E+00
 -1       718 1.21840E-01 3.68136E+00 0.00000E+00
 -1       719 1.00386E-01 2.38441E+00 0.00000E+00
 -1       720 7.69548E-02 1.34907E+00 0.00000E+00
 -1       721 5.23836E-02 5.93917E-01 0.00000E+00
 -1       722 2.45351E-02 1.44428E-01 0.00000E+00
 -1       723 0.00000E+00 0.00000E+00 0.00000E+00
 -1       724 4.93469E-01 9.76714E+01 0.00000E+00
 -1       725 4.93447E-01 9.19150E+01 0.00000E+00
 -1       726 4.93331E-01 8.61591E+01 0.00000E+00
 -1       727 4.93023E-01 8.04059E+01 0.00000E+00
 -1       728 4.92442E-01 7.46576E+01 0.00000E+00
 -1       729 4.91503E-01 6.89184E+01 0.00000E+00
 -1       730 4.90136E-01 6.31926E+01 0.00000E+00
 -1       731 4.88268E-01 5.74854E+01 0.00000E+00
 -1       732 4.85842E-01 5.18035E+01 0.00000E+00
 -1       733 4.82797E-01 4.61531E+01 0.00000E+00
 -1       734 4.79087E-01 4.05425E+01 0.00000E+00
 -1       735 4.74661E-01 3.49792E+01 0.00000E+00
 -1       736 4.69486E-01 2.94717E+01 0.00000E+00
 -1       737 4.63523E-01 2.40294E+01 0.00000E+00
 -1       738 4.56751E-01 1.86611E+01 0.00000E+00
 -1       739 4.49142E-01 1.33769E+01 0.00000E+00
 -1       740 4.40681E-01 8.18643E+00 0.00000E+00
 -1       741 4.31362E-01 3.09942E+00 0.00000E+00
 -1       742 4.21167E-01-1.87351E+00 0.00000E+00
 -1       743 4.10113E-01-6.72274E+00 0.00000E+00
 -1       744 3.98183E-01-1.14377E+01 0.00000E+00
 -1       745 3.85409E-01-1.60085E+01 0.00000E+00
 -1       746 3.71786E-01-2.04256E+01 0.00000E+00
 -1       747 3.57346E-01-2.46788E+01 0.00000E+00
 -1       748 3.42104E-01-2.87590E+01 0.00000E+00
 -1       749 3.26092E-01-3.26567E+01 0.00000E+00
 -1       750 3.09341E-01-3.63635E+01 0.00000E+00
 -1       751 2.91886E-01-3.98706E+01 0.00000E+00
 -1       752 2.73767E-01-4.31703E+01 0.00000E+00
 -1       753 2.55026E-01-4.62548E+01 0.00000E+00
 -1       754 2.35711E-01-4.91175E+01 0.00000E+00
 -1       755 2.15869E-01-5.17517E+01 0.00000E+00
 -1       756 1.95553E-01-5.41517E+01 0.00000E+00
 -1       757 1.74820E-01-5.63122E+01 0.00000E+00
 -1       758 1.53721E-01-5.82286E+01 0.00000E+00
 -1       759 1.32326E-01-5.98972E+01 0.00000E+00
 -1       760 1.10682E-01-6.13147E+01 0.00000E+00
 -1       761 8.88658E-02-6.24787E+01 0.00000E+00
 -1       762 6.69292E-02-6.33875E+01 0.00000E+00
 -1       763 4.49470E-02-6.40400E+01 0.00000E+00
 -1       764 2.29772E-02-6.44362E+01 0.00000E+00
 -1       765 1.09398E-03-6.45765E+01 0.00000E+00
 -1       766-2.06451E-02-6.44624E+01 0.00000E+00
 -1       767-4.21641E-02-6.40959E+01 0.00000E+00
 -1       768-6.34025E-02-6.34800E+01 0.00000E+00
 -1       769-8.42935E-02-6.26184E+01 0.00000E+00
 -1       770-1.04769E-01-6.15154E+01 0.00000E+00
 -1       771-1.24769E-01-6.01763E+01 0.00000E+00
 -1       772-1.44227E-01-5.86070E+01 0.00000E+00
 -1       773-1.63083E-01-5.68142E+01 0.00000E+00
 -1       774-1.81279E-01-5.48053E+01 0.00000E+00
 -1       775-1.98753E-01-5.25883E+01 0.00000E+00
 -1       776-2.15455E-01-5.01719E+01 0.00000E+00
 -1       777-2.31327E-01-4.75655E+01 0.00000E+00
 -1       778-2.46322E-01-4.47790E+01 0.00000E+00
 -1       779-2.60389E-01-4.18231E+01 0.00000E+00
 -1       780-2.73488E-01-3.87086E+01 0.00000E+00
 -1       781-2.85571E-01-3.54472E+01 0.00000E+00
 -1       782-2.96606E-01-3.20510E+01 0.00000E+00
 -1       783-3.06552E-01-2.85323E+01 0.00000E+00
 -1       784-3.15384E-01-2.49041E+01 0.00000E+00
 -1       785-3.23069E-01-2.11797E+01 0.00000E+00
 -1       786-3.29587E-01-1.73723E+01 0.00000E+00
 -1       787-3.34915E-01-1.34958E+01 0.00000E+00
 -1       788-3.39040E-01-9.56417E+00 0.00000E+00
 -1       789-3.41947E-01-5.59152E+00 0.00000E+00
 -1       790-3.43631E-01-1.59218E+00 0.00000E+00
 -1       791-3.44086E-01 2.41975E+00 0.00000E+00
 -1       792-3.43314E-01 6.42982E+00 0.00000E+00
 -1       793-3.41319E-01 1.04237E+01 0.00000E+00
 -1       794-3.38110E-01 1.43873E+01 0.00000E+00
 -1       795-3.33699E-01 1.83063E+01 0.00000E+00
 -1       796-3.28104E-01 2.21671E+01 0.00000E+00
 -1       797-3.21346E-01 2.59558E+01 0.00000E+00
 -1       798-3.13448E-01 2.96589E+01 0.00000E+00
 -1       799-3.04441E-01 3.32635E+01 0.00000E+00
 -1       800-2.94355E-01 3.67566E+01 0.00000E+00
 -1       801-2.83230E-01 4.01260E+01 0.00000E+00
 -1       802-2.71101E-01 4.33598E+01 0.00000E+00
 -1       803-2.58015E-01 4.64465E+01 0.00000E+00
 -1       804-2.44018E-01 4.93752E+01 0.00000E+00
 -1       805-2.29157E-01 5.21355E+01 0.00000E+00
 -1       806-2.13488E-01 5.47177E+01 0.00000E+00
 -1       807-1.97062E-01 5.71127E+01 0.00000E+00
 -1       808-1.79941E-01 5.93120E+01 0.00000E+00
 -1       809-1.62182E-01 6.13079E+01 0.00000E+00
 -1       810-1.43850E-01 6.30932E+01 0.00000E+00
 -1       811-1.25008E-01 6.46616E+01 0.00000E+00
 -1       812-1.05720E-01 6.60075E+01 0.00000E+00
 -1       813-8.60584E-02 6.71263E+01 0.00000E+00
 -1       814-6.60861E-02 6.80139E+01 0.00000E+00
 -1       815-4.58813E-02 6.86671E+01 0.00000E+00
 -1       816-2.55013E-02 6.90835E+01 0.00000E+00
 -1       817-5.03393E-03 6.92616E+01 0.00000E+00
 -1       818 1.54635E-02 6.92008E+01 0.00000E+00
 -1       819 3.59102E-02 6.89011E+01 0.00000E+00
 -1       820 5.62408E-02 6.83635E+01 0.00000E+00
 -1       821 7.63801E-02 6.75899E+01 0.00000E+00
 -1       822 9.62599E-02 6.65827E+01 0.00000E+00
 -1       823 1.15811E-01 6.53456E+01 0.00000E+00
 -1       824 1.34964E-01 6.38827E+01 0.00000E+00
 -1       825 1.53653E-01 6.21990E+01 0.00000E+00
 -1       826 1.71812E-01 6.03003E+01 0.00000E+00
 -1       827 1.89380E-01 5.81933E+01 0.00000E+00
 -1       828 2.06291E-01 5.58851E+01 0.00000E+00
 -1       829 2.22491E-01 5.33837E+01 0.00000E+00
 -1       830 2.37922E-01 5.06978E+01 0.00000E+00
 -1       831 2.52528E-01 4.78367E+01 0.00000E+00
 -1       832 2.66261E-01 4.48104E+01 0.00000E+00
 -1       833 2.79071E-01 4.16291E+01 0.00000E+00
 -1       834 2.90915E-01 3.83040E+01 0.00000E+00
 -1       835 3.01750E-01 3.48466E+01 0.00000E+00
 -1       836 3.11540E-01 3.12689E+01 0.00000E+00
 -1       837 3.20249E-01 2.75833E+01 0.00000E+00
 -1       838 3.27848E-01 2.38026E+01 0.00000E+00
 -1       839 3.34309E-01 1.99398E+01 0.00000E+00
 -1       840 3.39611E-01 1.60084E+01 0.00000E+00
 -1       841 3.43734E-01 1.20220E+01 0.00000E+00
 -1       842 3.46665E-01 7.99452E+00 0.00000E+00
 -1       843 3.48392E-01 3.93979E+00 0.00000E+00
 -1       844 3.48910E-01-1.28026E-01 0.00000E+00
 -1       845 3.48217E-01-4.19483E+00 0.00000E+00
 -1       846 3.46315E-01-8.24649E+00 0.00000E+00
 -1       847 3.43210E-01-1.22689E+01 0.00000E+00
 -1       848 3.38913E-01-1.62481E+01 0.00000E+00
 -1       849 3.33438E-01-2.01704E+01 0.00000E+00
 -1       850 3.26805E-01-2.40220E+01 0.00000E+00
 -1       851 3.19037E-01-2.77896E+01 0.00000E+00
 -1       852 3.10160E-01-3.14601E+01 0.00000E+00
 -1       853 3.00204E-01-3.50207E+01 0.00000E+00
 -1       854 2.89205E-01-3.84591E+01 0.00000E+00
 -1       855 2.77200E-01-4.17633E+01 0.00000E+00
 -1       856 2.64231E-01-4.49218E+01 0.00000E+00
 -1       857 2.50340E-01-4.79237E+01 0.00000E+00
 -1       858 2.35581E-01-5.07583E+01 0.00000E+00
 -1       859 2.19998E-01-5.34160E+01 0.00000E+00
 -1       860 2.03652E-01-5.58874E+01 0.00000E+00
 -1       861 1.86591E-01-5.81640E+01 0.00000E+00
 -1       862 1.68884E-01-6.02377E+01 0.00000E+00
 -1       863 1.50583E-01-6.21014E+01 0.00000E+00
 -1       864 1.31758E-01-6.37484E+01 0.00000E+00
 -1       865 1.12469E-01-6.51731E+01 0.00000E+00
 -1       866 9.27869E-02-6.63705E+01 0.00000E+00
 -1       867 7.27751E-02-6.73363E+01 0.00000E+00
 -1       868 5.25082E-02-6.80672E+01 0.00000E+00
 -1       869 3.20515E-02-6.85605E+01 0.00000E+00
 -1       870 1.14789E-02-6.88144E+01 0.00000E+00
 -1       871-9.14205E-03-6.88281E+01 0.00000E+00
 -1       872-2.97366E-02-6.86013E+01 0.00000E+00
 -1       873-5.02344E-02-6.81348E+01 0.00000E+00
 -1       874-7.05684E-02-6.74301E+01 0.00000E+00
 -1       875-9.06632E-02-6.64895E+01 0.00000E+00
 -1       876-1.10453E-01-6.53163E+01 0.00000E+00
 -1       877-1.29870E-01-6.39143E+01 0.00000E+00
 -1       878-1.48843E-01-6.22884E+01 0.00000E+00
 -1       879-1.67313E-01-6.04441E+01 0.00000E+00
 -1       880-1.85211E-01-5.83876E+01 0.00000E+00
 -1       881-2.02481E-01-5.61259E+01 0.00000E+00
 -1       882-2.19058E-01-5.36668E+01 0.00000E+00
 -1       883-2.34890E-01-5.10187E+01 0.00000E+00
 -1       884-2.49919E-01-4.81905E+01 0.00000E+00
 -1       885-2.64099E-01-4.51919E+01 0.00000E+00
 -1       886-2.77375E-01-4.20332E+01 0.00000E+00
 -1       887-2.89706E-01-3.87250E+01 0.00000E+00
 -1       888-3.01051E-01-3.52788E+01 0.00000E+00
 -1       889-3.11369E-01-3.17061E+01 0.00000E+00
 -1       890-3.20628E-01-2.80194E+01 0.00000E+00
 -1       891-3.28794E-01-2.42309E+01 0.00000E+00
 -1       892-3.35843E-01-2.03536E+01 0.00000E+00
 -1       893-3.41750E-01-1.64008E+01 0.00000E+00
 -1       894-3.46497E-01-1.23858E+01 0.00000E+00
 -1       895-3.50069E-01-8.32243E+00 0.00000E+00
 -1       896-3.52455E-01-4.22416E+00 0.00000E+00
 -1       897-3.53648E-01-1.05018E-01 0.00000E+00
 -1       898-3.53648E-01 4.02109E+00 0.00000E+00
 -1       899-3.52454E-01 8.14022E+00 0.00000E+00
 -1       900-3.50074E-01 1.22384E+01 0.00000E+00
 -1       901-3.46519E-01 1.63021E+01 0.00000E+00
 -1       902-3.41803E-01 2.03175E+01 0.00000E+00
 -1       903-3.35944E-01 2.42712E+01 0.00000E+00
 -1       904-3.28966E-01 2.81500E+01 0.00000E+00
 -1       905-3.20897E-01 3.19411E+01 0.00000E+00
 -1       906-3.11766E-01 3.56317E+01 0.00000E+00
 -1       907-3.01611E-01 3.92099E+01 0.00000E+00
 -1       908-2.90467E-01 4.26638E+01 0.00000E+00
 -1       909-2.78379E-01 4.59823E+01 0.00000E+00
 -1       910-2.65392E-01 4.91544E+01 0.00000E+00
 -1       911-2.51554E-01 5.21700E+01 0.00000E+00
 -1       912-2.36921E-01 5.50195E+01 0.00000E+00
 -1       913-2.21542E-01 5.76940E+01 0.00000E+00
 -1       914-2.05483E-01 6.01851E+01 0.00000E+00
 -1       915-1.88799E-01 6.24851E+01 0.00000E+00
 -1       916-1.71557E-01 6.45872E+01 0.00000E+00
 -1       917-1.53819E-01 6.64853E+01 0.00000E+00
 -1       918-1.35657E-01 6.81739E+01 0.00000E+00
 -1       919-1.17137E-01 6.96486E+01 0.00000E+00
 -1       920-9.83343E-02 7.09055E+01 0.00000E+00
 -1       921-7.93165E-02 7.19418E+01 0.00000E+00
 -1       922-6.01615E-02 7.27554E+01 0.00000E+00
 -1       923-4.09435E-02 7.33451E+01 0.00000E+00
 -1       924-2.17342E-02 7.37107E+01 0.00000E+00
 -1       925-2.61596E-03 7.38527E+01 0.00000E+00
 -1       926 1.63396E-02 7.37725E+01 0.00000E+00
 -1       927 3.50557E-02 7.34726E+01 0.00000E+00
 -1       928 5.34544E-02 7.29562E+01 0.00000E+00
 -1       929 7.14607E-02 7.22273E+01 0.00000E+00
 -1       930 8.90000E-02 7.12912E+01 0.00000E+00
 -1       931 1.05998E-01 7.01535E+01 0.00000E+00
 -1       932 1.22382E-01 6.88211E+01 0.00000E+00
 -1       933 1.38079E-01 6.73015E+01 0.00000E+00
 -1       934 1.53018E-01 6.56032E+01 0.00000E+00
 -1       935 1.67135E-01 6.37354E+01 0.00000E+00
 -1       936 1.80356E-01 6.17081E+01 0.00000E+00
 -1       937 1.92622E-01 5.95322E+01 0.00000E+00
 -1       938 2.03867E-01 5.72190E+01 0.00000E+00
 -1       939 2.14032E-01 5.47809E+01 0.00000E+00
 -1       940 2.23060E-01 5.22309E+01 0.00000E+00
 -1       941 2.30893E-01 4.95825E+01 0.00000E+00
 -1       942 2.37482E-01 4.68500E+01 0.00000E+00
 -1       943 2.42772E-01 4.40481E+01 0.00000E+00
 -1       944 2.46722E-01 4.11923E+01 0.00000E+00
 -1       945 2.49283E-01 3.82985E+01 0.00000E+00
 -1       946 2.50418E-01 3.53831E+01 0.00000E+00
 -1       947 2.50083E-01 3.24631E+01 0.00000E+00
 -1       948 2.48252E-01 2.95557E+01 0.00000E+00
 -1       949 2.44881E-01 2.66786E+01 0.00000E+00
 -1       950 2.39957E-01 2.38499E+01 0.00000E+00
 -1       951 2.33432E-01 2.10879E+01 0.00000E+00
 -1       952 2.25312E-01 1.84113E+01 0.00000E+00
 -1       953 2.15537E-01 1.58392E+01 0.00000E+00
 -1       954 2.04141E-01 1.33905E+01 0.00000E+00
 -1       955 1.91043E-01 1.10846E+01 0.00000E+00
 -1       956 1.76315E-01 8.94111E+00 0.00000E+00
 -1       957 1.59838E-01 6.97952E+00 0.00000E+00
 -1       958 1.41744E-01 5.21971E+00 0.00000E+00
 -1       959 1.21840E-01 3.68136E+00 0.00000E+00
 -1       960 1.00386E-01 2.38441E+00 0.00000E+00
 -1       961 7.69548E-02 1.34907E+00 0.00000E+00
 -1       962 5.23836E-02 5.93917E-01 0.00000E+00
 -1       963 2.45351E-02 1.44428E-01 0.00000E+00
 -1       964 0.00000E+00 0.00000E+00 0.00000E+00
 -1       965 3.94721E-05 9.76714E+01 0.00000E+00
 -1       966 3.94703E-05 9.19150E+01 0.00000E+00
 -1       967 3.94610E-05 8.61591E+01 0.00000E+00
 -1       968 3.94364E-05 8.04059E+01 0.00000E+00
 -1       969 3.93898E-05 7.46579E+01 0.00000E+00
 -1       970 3.93148E-05 6.89184E+01 0.00000E+00
 -1       971 3.92053E-05 6.31926E+01 0.00000E+00
 -1       972 3.90560E-05 5.74856E+01 0.00000E+00
 -1       973 3.88618E-05 5.18034E+01 0.00000E+00
 -1       974 3.86184E-05 4.61533E+01 0.00000E+00
 -1       975 3.83214E-05 4.05424E+01 0.00000E+00
 -1       976 3.79675E-05 3.49791E+01 0.00000E+00
 -1       977 3.75535E-05 2.94718E+01 0.00000E+00
 -1       978 3.70766E-05 2.40292E+01 0.00000E+00
 -1       979 3.65348E-05 1.86611E+01 0.00000E+00
 -1       980 3.59261E-05 1.33769E+01 0.00000E+00
 -1       981 3.52494E-05 8.18620E+00 0.00000E+00
 -1       982 3.45037E-05 3.09943E+00 0.00000E+00
 -1       983 3.36885E-05-1.87353E+00 0.00000E+00
 -1       984 3.28039E-05-6.72280E+00 0.00000E+00
 -1       985 3.18501E-05-1.14378E+01 0.00000E+00
 -1       986 3.08278E-05-1.60089E+01 0.00000E+00
 -1       987 2.97384E-05-2.04258E+01 0.00000E+00
 -1       988 2.85831E-05-2.46790E+01 0.00000E+00
 -1       989 2.73640E-05-2.87592E+01 0.00000E+00
 -1       990 2.60831E-05-3.26570E+01 0.00000E+00
 -1       991 2.47432E-05-3.63637E+01 0.00000E+00
 -1       992 2.33470E-05-3.98708E+01 0.00000E+00
 -1       993 2.18976E-05-4.31705E+01 0.00000E+00
 -1       994 2.03984E-05-4.62552E+01 0.00000E+00
 -1       995 1.88533E-05-4.91179E+01 0.00000E+00
 -1       996 1.72661E-05-5.17520E+01 0.00000E+00
 -1       997 1.56411E-05-5.41520E+01 0.00000E+00
 -1       998 1.39825E-05-5.63126E+01 0.00000E+00
 -1       999 1.22950E-05-5.82290E+01 0.00000E+00
 -1      1000 1.05833E-05-5.98976E+01 0.00000E+00
 -1      1001 8.85220E-06-6.13152E+01 0.00000E+00
 -1      1002 7.10681E-06-6.24792E+01 0.00000E+00
 -1      1003 5.35238E-06-6.33880E+01 0.00000E+00
 -1      1004 3.59368E-06-6.40406E+01 0.00000E+00
 -1      1005 1.83649E-06-6.44367E+01 0.00000E+00
 -1      1006 8.58272E-08-6.45771E+01 0.00000E+00
 -1      1007-1.65294E-06-6.44630E+01 0.00000E+00
 -1      1008-3.37438E-06-6.40965E+01 0.00000E+00
 -1      1009-5.07323E-06-6.34806E+01 0.00000E+00
 -1      1010-6.74436E-06-6.26190E+01 0.00000E+00
 -1      1011-8.38225E-06-6.15160E+01 0.00000E+00
 -1      1012-9.98205E-06-6.01770E+01 0.00000E+00
 -1      1013-1.15385E-05-5.86077E+01 0.00000E+00
 -1      1014-1.30469E-05-5.68149E+01 0.00000E+00
 -1      1015-1.45024E-05-5.48060E+01 0.00000E+00
 -1      1016-1.59003E-05-5.25890E+01 0.00000E+00
 -1      1017-1.72362E-05-5.01727E+01 0.00000E+00
 -1      1018-1.85059E-05-4.75663E+01 0.00000E+00
 -1      1019-1.97053E-05-4.47798E+01 0.00000E+00
 -1      1020-2.08307E-05-4.18238E+01 0.00000E+00
 -1      1021-2.18783E-05-3.87094E+01 0.00000E+00
 -1      1022-2.28450E-05-3.54480E+01 0.00000E+00
 -1      1023-2.37276E-05-3.20517E+01 0.00000E+00
 -1      1024-2.45234E-05-2.85330E+01 0.00000E+00
 -1      1025-2.52297E-05-2.49049E+01 0.00000E+00
 -1      1026-2.58446E-05-2.11804E+01 0.00000E+00
 -1      1027-2.63659E-05-1.73730E+01 0.00000E+00
 -1      1028-2.67921E-05-1.34965E+01 0.00000E+00
 -1      1029-2.71220E-05-9.56487E+00 0.00000E+00
 -1      1030-2.73546E-05-5.59219E+00 0.00000E+00
 -1      1031-2.74893E-05-1.59272E+00 0.00000E+00
 -1      1032-2.75258E-05 2.41913E+00 0.00000E+00
 -1      1033-2.74640E-05 6.42924E+00 0.00000E+00
 -1      1034-2.73044E-05 1.04232E+01 0.00000E+00
 -1      1035-2.70477E-05 1.43867E+01 0.00000E+00
 -1      1036-2.66949E-05 1.83059E+01 0.00000E+00
 -1      1037-2.62474E-05 2.21667E+01 0.00000E+00
 -1      1038-2.57067E-05 2.59554E+01 0.00000E+00
 -1      1039-2.50750E-05 2.96585E+01 0.00000E+00
 -1      1040-2.43544E-05 3.32631E+01 0.00000E+00
 -1      1041-2.35478E-05 3.67563E+01 0.00000E+00
 -1      1042-2.26577E-05 4.01258E+01 0.00000E+00
 -1      1043-2.16877E-05 4.33596E+01 0.00000E+00
 -1      1044-2.06408E-05 4.64463E+01 0.00000E+00
 -1      1045-1.95212E-05 4.93751E+01 0.00000E+00
 -1      1046-1.83325E-05 5.21354E+01 0.00000E+00
 -1      1047-1.70790E-05 5.47177E+01 0.00000E+00
 -1      1048-1.57651E-05 5.71128E+01 0.00000E+00
 -1      1049-1.43956E-05 5.93121E+01 0.00000E+00
 -1      1050-1.29750E-05 6.13080E+01 0.00000E+00
 -1      1051-1.15087E-05 6.30933E+01 0.00000E+00
 -1      1052-1.00012E-05 6.46618E+01 0.00000E+00
 -1      1053-8.45875E-06 6.60078E+01 0.00000E+00
 -1      1054-6.88551E-06 6.71266E+01 0.00000E+00
 -1      1055-5.28846E-06 6.80143E+01 0.00000E+00
 -1      1056-3.67157E-06 6.86675E+01 0.00000E+00
 -1      1057-2.04210E-06 6.90840E+01 0.00000E+00
 -1      1058-4.04003E-07 6.92621E+01 0.00000E+00
 -1      1059 1.23467E-06 6.92013E+01 0.00000E+00
 -1      1060 2.87129E-06 6.89017E+01 0.00000E+00
 -1      1061 4.49636E-06 6.83642E+01 0.00000E+00
 -1      1062 6.10872E-06 6.75906E+01 0.00000E+00
 -1      1063 7.69742E-06 6.65835E+01 0.00000E+00
 -1      1064 9.26309E-06 6.53464E+01 0.00000E+00
 -1      1065 1.07931E-05 6.38835E+01 0.00000E+00
 -1      1066 1.22906E-05 6.21999E+01 0.00000E+00
 -1      1067 1.37401E-05 6.03013E+01 0.00000E+00
 -1      1068 1.51491E-05 5.81943E+01 0.00000E+00
 -1      1069 1.64975E-05 5.58861E+01 0.00000E+00
 -1      1070 1.77986E-05 5.33847E+01 0.00000E+00
 -1      1071 1.90266E-05 5.06989E+01 0.00000E+00
 -1      1072 2.02027E-05 4.78379E+01 0.00000E+00
 -1      1073 2.12919E-05 4.48114E+01 0.00000E+00
 -1      1074 2.23278E-05 4.16302E+01 0.00000E+00
 -1      1075 2.32616E-05 3.83052E+01 0.00000E+00
 -1      1076 2.41449E-05 3.48478E+01 0.00000E+00
 -1      1077 2.49078E-05 3.12700E+01 0.00000E+00
 -1      1078 2.56292E-05 2.75844E+01 0.00000E+00
 -1      1079 2.62069E-05 2.38037E+01 0.00000E+00
 -1      1080 2.67603E-05 1.99409E+01 0.00000E+00
 -1      1081 2.71412E-05 1.60095E+01 0.00000E+00
 -1      1082 2.74700E-05 1.20232E+01 0.00000E+00
 -1      1083 2.77523E-05 7.99561E+00 0.00000E+00
 -1      1084 2.78492E-05 3.94086E+00 0.00000E+00
 -1      1085 2.79257E-05-1.26987E-01 0.00000E+00
 -1      1086 2.78407E-05-4.19372E+00 0.00000E+00
 -1      1087 2.77133E-05-8.24542E+00 0.00000E+00
 -1      1088 2.74443E-05-1.22679E+01 0.00000E+00
 -1      1089 2.71179E-05-1.62472E+01 0.00000E+00
 -1      1090 2.66655E-05-2.01694E+01 0.00000E+00
 -1      1091 2.61471E-05-2.40211E+01 0.00000E+00
 -1      1092 2.55156E-05-2.77888E+01 0.00000E+00
 -1      1093 2.48140E-05-3.14593E+01 0.00000E+00
 -1      1094 2.40105E-05-3.50200E+01 0.00000E+00
 -1      1095 2.31366E-05-3.84585E+01 0.00000E+00
 -1      1096 2.21714E-05-4.17627E+01 0.00000E+00
 -1      1097 2.11381E-05-4.49213E+01 0.00000E+00
 -1      1098 2.00236E-05-4.79232E+01 0.00000E+00
 -1      1099 1.88458E-05-5.07579E+01 0.00000E+00
 -1      1100 1.75970E-05-5.34156E+01 0.00000E+00
 -1      1101 1.62914E-05-5.58871E+01 0.00000E+00
 -1      1102 1.49251E-05-5.81638E+01 0.00000E+00
 -1      1103 1.35100E-05-6.02376E+01 0.00000E+00
 -1      1104 1.20450E-05-6.21013E+01 0.00000E+00
 -1      1105 1.05401E-05-6.37484E+01 0.00000E+00
 -1      1106 8.99635E-06-6.51732E+01 0.00000E+00
 -1      1107 7.42263E-06-6.63707E+01 0.00000E+00
 -1      1108 5.82137E-06-6.73366E+01 0.00000E+00
 -1      1109 4.20063E-06-6.80675E+01 0.00000E+00
 -1      1110 2.56388E-06-6.85609E+01 0.00000E+00
 -1      1111 9.18579E-07-6.88149E+01 0.00000E+00
 -1      1112-7.31169E-07-6.88287E+01 0.00000E+00
 -1      1113-2.37835E-06-6.86019E+01 0.00000E+00
 -1      1114-4.01818E-06-6.81355E+01 0.00000E+00
 -1      1115-5.64458E-06-6.74309E+01 0.00000E+00
 -1      1116-7.25212E-06-6.64904E+01 0.00000E+00
 -1      1117-8.83503E-06-6.53172E+01 0.00000E+00
 -1      1118-1.03883E-05-6.39153E+01 0.00000E+00
 -1      1119-1.19060E-05-6.22895E+01 0.00000E+00
 -1      1120-1.33835E-05-6.04452E+01 0.00000E+00
 -1      1121-1.48152E-05-5.83888E+01 0.00000E+00
 -1      1122-1.61966E-05-5.61272E+01 0.00000E+00
 -1      1123-1.75226E-05-5.36682E+01 0.00000E+00
 -1      1124-1.87891E-05-5.10200E+01 0.00000E+00
 -1      1125-1.99912E-05-4.81919E+01 0.00000E+00
 -1      1126-2.11256E-05-4.51934E+01 0.00000E+00
 -1      1127-2.21875E-05-4.20347E+01 0.00000E+00
 -1      1128-2.31740E-05-3.87265E+01 0.00000E+00
 -1      1129-2.40815E-05-3.52804E+01 0.00000E+00
 -1      1130-2.49068E-05-3.17078E+01 0.00000E+00
 -1      1131-2.56475E-05-2.80209E+01 0.00000E+00
 -1      1132-2.63007E-05-2.42325E+01 0.00000E+00
 -1      1133-2.68646E-05-2.03553E+01 0.00000E+00
 -1      1134-2.73372E-05-1.64025E+01 0.00000E+00
 -1      1135-2.77169E-05-1.23875E+01 0.00000E+00
 -1      1136-2.80027E-05-8.32407E+00 0.00000E+00
 -1      1137-2.81935E-05-4.22579E+00 0.00000E+00
 -1      1138-2.82891E-05-1.06615E-01 0.00000E+00
 -1      1139-2.82890E-05 4.01952E+00 0.00000E+00
 -1      1140-2.81936E-05 8.13859E+00 0.00000E+00
 -1      1141-2.80033E-05 1.22369E+01 0.00000E+00
 -1      1142-2.77189E-05 1.63006E+01 0.00000E+00
 -1      1143-2.73416E-05 2.03161E+01 0.00000E+00
 -1      1144-2.68730E-05 2.42698E+01 0.00000E+00
 -1      1145-2.63149E-05 2.81487E+01 0.00000E+00
 -1      1146-2.56695E-05 3.19398E+01 0.00000E+00
 -1      1147-2.49391E-05 3.56305E+01 0.00000E+00
 -1      1148-2.41268E-05 3.92087E+01 0.00000E+00
 -1      1149-2.32354E-05 4.26628E+01 0.00000E+00
 -1      1150-2.22685E-05 4.59813E+01 0.00000E+00
 -1      1151-2.12296E-05 4.91534E+01 0.00000E+00
 -1      1152-2.01228E-05 5.21692E+01 0.00000E+00
 -1      1153-1.89523E-05 5.50188E+01 0.00000E+00
 -1      1154-1.77221E-05 5.76933E+01 0.00000E+00
 -1      1155-1.64375E-05 6.01845E+01 0.00000E+00
 -1      1156-1.51030E-05 6.24846E+01 0.00000E+00
 -1      1157-1.37237E-05 6.45869E+01 0.00000E+00
 -1      1158-1.23049E-05 6.64850E+01 0.00000E+00
 -1      1159-1.08521E-05 6.81737E+01 0.00000E+00
 -1      1160-9.37074E-06 6.96485E+01 0.00000E+00
 -1      1161-7.86665E-06 7.09055E+01 0.00000E+00
 -1      1162-6.34541E-06 7.19419E+01 0.00000E+00
 -1      1163-4.81317E-06 7.27556E+01 0.00000E+00
 -1      1164-3.27589E-06 7.33454E+01 0.00000E+00
 -1      1165-1.73935E-06 7.37111E+01 0.00000E+00
 -1      1166-2.10044E-07 7.38531E+01 0.00000E+00
 -1      1167 1.30624E-06 7.37731E+01 0.00000E+00
 -1      1168 2.80341E-06 7.34733E+01 0.00000E+00
 -1      1169 4.27512E-06 7.29569E+01 0.00000E+00
 -1      1170 5.71548E-06 7.22282E+01 0.00000E+00
 -1      1171 7.11849E-06 7.12921E+01 0.00000E+00
 -1      1172 8.47822E-06 7.01545E+01 0.00000E+00
 -1      1173 9.78875E-06 6.88222E+01 0.00000E+00
 -1      1174 1.10445E-05 6.73027E+01 0.00000E+00
 -1      1175 1.22395E-05 6.56044E+01 0.00000E+00
 -1      1176 1.33687E-05 6.37367E+01 0.00000E+00
 -1      1177 1.44263E-05 6.17095E+01 0.00000E+00
 -1      1178 1.54076E-05 5.95335E+01 0.00000E+00
 -1      1179 1.63070E-05 5.72204E+01 0.00000E+00
 -1      1180 1.71203E-05 5.47824E+01 0.00000E+00
 -1      1181 1.78423E-05 5.22324E+01 0.00000E+00
 -1      1182 1.84691E-05 4.95840E+01 0.00000E+00
 -1      1183 1.89959E-05 4.68515E+01 0.00000E+00
 -1      1184 1.94195E-05 4.40496E+01 0.00000E+00
 -1      1185 1.97351E-05 4.11938E+01 0.00000E+00
 -1      1186 1.99404E-05 3.83000E+01 0.00000E+00
 -1      1187 2.00307E-05 3.53847E+01 0.00000E+00
 -1      1188 2.00046E-05 3.24646E+01 0.00000E+00
 -1      1189 1.98575E-05 2.95571E+01 0.00000E+00
 -1      1190 1.95887E-05 2.66799E+01 0.00000E+00
 -1      1191 1.91938E-05 2.38512E+01 0.00000E+00
 -1      1192 1.86731E-05 2.10891E+01 0.00000E+00
 -1      1193 1.80222E-05 1.84125E+01 0.00000E+00
 -1      1194 1.72421E-05 1.58402E+01 0.00000E+00
 -1      1195 1.63284E-05 1.33914E+01 0.00000E+00
 -1      1196 1.52833E-05 1.10854E+01 0.00000E+00
 -1      1197 1.41022E-05 8.94175E+00 0.00000E+00
 -1      1198 1.27879E-05 6.98007E+00 0.00000E+00
 -1      1199 1.13361E-05 5.22006E+00 0.00000E+00
 -1      1200 9.74949E-06 3.68155E+00 0.00000E+00
 -1      1201 8.02649E-06 2.38445E+00 0.00000E+00
 -1      1202 6.16087E-06 1.34890E+00 0.00000E+00
 -1      1203 4.18493E-06 5.93624E-01 0.00000E+00
 -1      1204 1.96866E-06 1.43647E-01 0.00000E+00
 -1      1205 0.00000E+00 0.00000E+00 0.00000E+00
 -1      1206 3.94720E-05 9.76714E+01 0.00000E+00
 -1      1207 3.94703E-05 9.19150E+01 0.00000E+00
 -1      1208 3.94610E-05 8.61591E+01 0.00000E+00
 -1      1209 3.94364E-05 8.04059E+01 0.00000E+00
 -1      1210 3.93898E-05 7.46579E+01 0.00000E+00
 -1      1211 3.93148E-05 6.89184E+01 0.00000E+00
 -1      1212 3.92053E-05 6.31926E+01 0.00000E+00
 -1      1213 3.90560E-05 5.74856E+01 0.00000E+00
 -1      1214 3.88618E-05 5.18034E+01 0.00000E+00
 -1      1215 3.86184E-05 4.61533E+01 0.00000E+00
 -1      1216 3.83214E-05 4.05424E+01 0.00000E+00
 -1      1217 3.79675E-05 3.49791E+01 0.00000E+00
 -1      1218 3.75535E-05 2.94718E+01 0.00000E+00
 -1      1219 3.70765E-05 2.40292E+01 0.00000E+00
 -1      1220 3.65348E-05 1.86611E+01 0.00000E+00
 -1      1221 3.59261E-05 1.33769E+01 0.00000E+00
 -1      1222 3.52494E-05 8.18620E+00 0.00000E+00
 -1      1223 3.45037E-05 3.09943E+00 0.00000E+00
 -1      1224 3.36885E-05-1.87354E+00 0.00000E+00
 -1      1225 3.28039E-05-6.72280E+00 0.00000E+00
 -1      1226 3.18501E-05-1.14378E+01 0.00000E+00
 -1      1227 3.08278E-05-1.60089E+01 0.00000E+00
 -1      1228 2.97384E-05-2.04258E+01 0.00000E+00
 -1      1229 2.85831E-05-2.46790E+01 0.00000E+00
 -1      1230 2.73640E-05-2.87592E+01 0.00000E+00
 -1      1231 2.60831E-05-3.26570E+01 0.00000E+00
 -1      1232 2.47432E-05-3.63637E+01 0.00000E+00
 -1      1233 2.33469E-05-3.98708E+01 0.00000E+00
 -1      1234 2.18975E-05-4.31705E+01 0.00000E+00
 -1      1235 2.03984E-05-4.62552E+01 0.00000E+00
 -1      1236 1.88533E-05-4.91179E+01 0.00000E+00
 -1      1237 1.72661E-05-5.17520E+01 0.00000E+00
 -1      1238 1.56411E-05-5.41520E+01 0.00000E+00
 -1      1239 1.39825E-05-5.63126E+01 0.00000E+00
 -1      1240 1.22950E-05-5.82290E+01 0.00000E+00
 -1      1241 1.05833E-05-5.98976E+01 0.00000E+00
 -1      1242 8.85218E-06-6.13152E+01 0.00000E+00
 -1      1243 7.10679E-06-6.24792E+01 0.00000E+00
 -1      1244 5.35236E-06-6.33880E+01 0.00000E+00
 -1      1245 3.59366E-06-6.40406E+01 0.00000E+00
 -1      1246 1.83647E-06-6.44367E+01 0.00000E+00
 -1      1247 8.58053E-08-6.45771E+01 0.00000E+00
 -1      1248-1.65296E-06-6.44630E+01 0.00000E+00
 -1      1249-3.37441E-06-6.40965E+01 0.00000E+00
 -1      1250-5.07326E-06-6.34806E+01 0.00000E+00
 -1      1251-6.74438E-06-6.26190E+01 0.00000E+00
 -1      1252-8.38228E-06-6.15160E+01 0.00000E+00
 -1      1253-9.98208E-06-6.01770E+01 0.00000E+00
 -1      1254-1.15386E-05-5.86077E+01 0.00000E+00
 -1      1255-1.30469E-05-5.68149E+01 0.00000E+00
 -1      1256-1.45024E-05-5.48060E+01 0.00000E+00
 -1      1257-1.59003E-05-5.25890E+01 0.00000E+00
 -1      1258-1.72362E-05-5.01727E+01 0.00000E+00
 -1      1259-1.85060E-05-4.75663E+01 0.00000E+00
 -1      1260-1.97053E-05-4.47798E+01 0.00000E+00
 -1      1261-2.08307E-05-4.18238E+01 0.00000E+00
 -1      1262-2.18784E-05-3.87094E+01 0.00000E+00
 -1      1263-2.28450E-05-3.54480E+01 0.00000E+00
 -1      1264-2.37277E-05-3.20517E+01 0.00000E+00
 -1      1265-2.45234E-05-2.85330E+01 0.00000E+00
 -1      1266-2.52298E-05-2.49049E+01 0.00000E+00
 -1      1267-2.58446E-05-2.11804E+01 0.00000E+00
 -1      1268-2.63659E-05-1.73730E+01 0.00000E+00
 -1      1269-2.67922E-05-1.34965E+01 0.00000E+00
 -1      1270-2.71221E-05-9.56487E+00 0.00000E+00
 -1      1271-2.73547E-05-5.59219E+00 0.00000E+00
 -1      1272-2.74893E-05-1.59272E+00 0.00000E+00
 -1      1273-2.75258E-05 2.41913E+00 0.00000E+00
 -1      1274-2.74640E-05 6.42924E+00 0.00000E+00
 -1      1275-2.73045E-05 1.04232E+01 0.00000E+00
 -1      1276-2.70478E-05 1.43867E+01 0.00000E+00
 -1      1277-2.66949E-05 1.83059E+01 0.00000E+00
 -1      1278-2.62474E-05 2.21667E+01 0.00000E+00
 -1      1279-2.57067E-05 2.59554E+01 0.00000E+00
 -1      1280-2.50751E-05 2.96585E+01 0.00000E+00
 -1      1281-2.43545E-05 3.32631E+01 0.00000E+00
 -1      1282-2.35478E-05 3.67563E+01 0.00000E+00
 -1      1283-2.26578E-05 4.01258E+01 0.00000E+00
 -1      1284-2.16877E-05 4.33596E+01 0.00000E+00
 -1      1285-2.06409E-05 4.64463E+01 0.00000E+00
 -1      1286-1.95213E-05 4.93751E+01 0.00000E+00
 -1      1287-1.83325E-05 5.21354E+01 0.00000E+00
 -1      1288-1.70791E-05 5.47177E+01 0.00000E+00
 -1      1289-1.57652E-05 5.71128E+01 0.00000E+00
 -1      1290-1.43957E-05 5.93121E+01 0.00000E+00
 -1      1291-1.29750E-05 6.13080E+01 0.00000E+00
 -1      1292-1.15088E-05 6.30933E+01 0.00000E+00
 -1      1293-1.00013E-05 6.46618E+01 0.00000E+00
 -1      1294-8.45882E-06 6.60078E+01 0.00000E+00
 -1      1295-6.88559E-06 6.71266E+01 0.00000E+00
 -1      1296-5.28854E-06 6.80143E+01 0.00000E+00
 -1      1297-3.67165E-06 6.86675E+01 0.00000E+00
 -1      1298-2.04217E-06 6.90840E+01 0.00000E+00
 -1      1299-4.04080E-07 6.92621E+01 0.00000E+00
 -1      1300 1.23459E-06 6.92013E+01 0.00000E+00
 -1      1301 2.87122E-06 6.89017E+01 0.00000E+00
 -1      1302 4.49628E-06 6.83642E+01 0.00000E+00
 -1      1303 6.10865E-06 6.75906E+01 0.00000E+00
 -1      1304 7.69735E-06 6.65835E+01 0.00000E+00
 -1      1305 9.26301E-06 6.53464E+01 0.00000E+00
 -1      1306 1.07930E-05 6.38835E+01 0.00000E+00
 -1      1307 1.22905E-05 6.21999E+01 0.00000E+00
 -1      1308 1.37400E-05 6.03013E+01 0.00000E+00
 -1      1309 1.51490E-05 5.81943E+01 0.00000E+00
 -1      1310 1.64974E-05 5.58861E+01 0.00000E+00
 -1      1311 1.77985E-05 5.33847E+01 0.00000E+00
 -1      1312 1.90265E-05 5.06989E+01 0.00000E+00
 -1      1313 2.02026E-05 4.78379E+01 0.00000E+00
 -1      1314 2.12918E-05 4.48114E+01 0.00000E+00
 -1      1315 2.23278E-05 4.16302E+01 0.00000E+00
 -1      1316 2.32616E-05 3.83052E+01 0.00000E+00
 -1      1317 2.41448E-05 3.48478E+01 0.00000E+00
 -1      1318 2.49078E-05 3.12700E+01 0.00000E+00
 -1      1319 2.56291E-05 2.75844E+01 0.00000E+00
 -1      1320 2.62068E-05 2.38037E+01 0.00000E+00
 -1      1321 2.67603E-05 1.99409E+01 0.00000E+00
 -1      1322 2.71411E-05 1.60095E+01 0.00000E+00
 -1      1323 2.74699E-05 1.20232E+01 0.00000E+00
 -1      1324 2.77522E-05 7.99561E+00 0.00000E+00
 -1      1325 2.78491E-05 3.94086E+00 0.00000E+00
 -1      1326 2.79256E-05-1.26987E-01 0.00000E+00
 -1      1327 2.78407E-05-4.19372E+00 0.00000E+00
 -1      1328 2.77133E-05-8.24542E+00 0.00000E+00
 -1      1329 2.74442E-05-1.22679E+01 0.00000E+00
 -1      1330 2.71179E-05-1.62472E+01 0.00000E+00
 -1      1331 2.66655E-05-2.01694E+01 0.00000E+00
 -1      1332 2.61471E-05-2.40211E+01 0.00000E+00
 -1      1333 2.55155E-05-2.77888E+01 0.00000E+00
 -1      1334 2.48139E-05-3.14593E+01 0.00000E+00
 -1      1335 2.40105E-05-3.50200E+01 0.00000E+00
 -1      1336 2.31366E-05-3.84585E+01 0.00000E+00
 -1      1337 2.21714E-05-4.17627E+01 0.00000E+00
 -1      1338 2.11381E-05-4.49213E+01 0.00000E+00
 -1      1339 2.00236E-05-4.79232E+01 0.00000E+00
 -1      1340 1.88458E-05-5.07579E+01 0.00000E+00
 -1      1341 1.75970E-05-5.34156E+01 0.00000E+00
 -1      1342 1.62914E-05-5.58871E+01 0.00000E+00
 -1      1343 1.49251E-05-5.81638E+01 0.00000E+00
 -1      1344 1.35100E-05-6.02376E+01 0.00000E+00
 -1      1345 1.20450E-05-6.21013E+01 0.00000E+00
 -1      1346 1.05401E-05-6.37484E+01 0.00000E+00
 -1      1347 8.99635E-06-6.51732E+01 0.00000E+00
 -1      1348 7.42263E-06-6.63707E+01 0.00000E+00
 -1      1349 5.82137E-06-6.73366E+01 0.00000E+00
 -1      1350 4.20063E-06-6.80675E+01 0.00000E+00
 -1      1351 2.56388E-06-6.85609E+01 0.00000E+00
 -1      1352 9.18584E-07-6.88149E+01 0.00000E+00
 -1      1353-7.31162E-07-6.88287E+01 0.00000E+00
 -1      1354-2.37834E-06-6.86019E+01 0.00000E+00
 -1      1355-4.01817E-06-6.81355E+01 0.00000E+00
 -1      1356-5.64457E-06-6.74309E+01 0.00000E+00
 -1      1357-7.25211E-06-6.64904E+01 0.00000E+00
 -1      1358-8.83501E-06-6.53172E+01 0.00000E+00
 -1      1359-1.03882E-05-6.39153E+01 0.00000E+00
 -1      1360-1.19059E-05-6.22895E+01 0.00000E+00
 -1      1361-1.33835E-05-6.04452E+01 0.00000E+00
 -1      1362-1.48151E-05-5.83888E+01 0.00000E+00
 -1      1363-1.61965E-05-5.61272E+01 0.00000E+00
 -1      1364-1.75226E-05-5.36682E+01 0.00000E+00
 -1      1365-1.87890E-05-5.10200E+01 0.00000E+00
 -1      1366-1.99912E-05-4.81919E+01 0.00000E+00
 -1      1367-2.11255E-05-4.51934E+01 0.00000E+00
 -1      1368-2.21875E-05-4.20347E+01 0.00000E+00
 -1      1369-2.31739E-05-3.87265E+01 0.00000E+00
 -1      1370-2.40814E-05-3.52804E+01 0.00000E+00
 -1      1371-2.49068E-05-3.17078E+01 0.00000E+00
 -1      1372-2.56474E-05-2.80209E+01 0.00000E+00
 -1      1373-2.63007E-05-2.42325E+01 0.00000E+00
 -1      1374-2.68646E-05-2.03553E+01 0.00000E+00
 -1      1375-2.73371E-05-1.64025E+01 0.00000E+00
 -1      1376-2.77169E-05-1.23875E+01 0.00000E+00
 -1      1377-2.80026E-05-8.32407E+00 0.00000E+00
 -1      1378-2.81935E-05-4.22579E+00 0.00000E+00
 -1      1379-2.82890E-05-1.06615E-01 0.00000E+00
 -1      1380-2.82890E-05 4.01952E+00 0.00000E+00
 -1      1381-2.81935E-05 8.13859E+00 0.00000E+00
 -1      1382-2.80032E-05 1.22369E+01 0.00000E+00
 -1      1383-2.77188E-05 1.63006E+01 0.00000E+00
 -1      1384-2.73416E-05 2.03161E+01 0.00000E+00
 -1      1385-2.68730E-05 2.42698E+01 0.00000E+00
 -1      1386-2.63149E-05 2.81487E+01 0.00000E+00
 -1      1387-2.56694E-05 3.19398E+01 0.00000E+00
 -1      1388-2.49391E-05 3.56305E+01 0.00000E+00
 -1      1389-2.41268E-05 3.92087E+01 0.00000E+00
 -1      1390-2.32354E-05 4.26628E+01 0.00000E+00
 -1      1391-2.22685E-05 4.59813E+01 0.00000E+00
 -1      1392-2.12296E-05 4.91534E+01 0.00000E+00
 -1      1393-2.01227E-05 5.21692E+01 0.00000E+00
 -1      1394-1.89522E-05 5.50188E+01 0.00000E+00
 -1      1395-1.77221E-05 5.76933E+01 0.00000E+00
 -1      1396-1.64375E-05 6.01845E+01 0.00000E+00
 -1      1397-1.51030E-05 6.24846E+01 0.00000E+00
 -1      1398-1.37237E-05 6.45869E+01 0.00000E+00
 -1      1399-1.23049E-05 6.64850E+01 0.00000E+00
 -1      1400-1.08521E-05 6.81737E+01 0.00000E+00
 -1      1401-9.37070E-06 6.96485E+01 0.00000E+00
 -1      1402-7.86662E-06 7.09055E+01 0.00000E+00
 -1      1403-6.34537E-06 7.19419E+01 0.00000E+00
 -1      1404-4.81314E-06 7.27556E+01 0.00000E+00
 -1      1405-3.27586E-06 7.33454E+01 0.00000E+00
 -1      1406-1.73932E-06 7.37111E+01 0.00000E+00
 -1      1407-2.10015E-07 7.38531E+01 0.00000E+00
 -1      1408 1.30627E-06 7.37731E+01 0.00000E+00
 -1      1409 2.80343E-06 7.34733E+01 0.00000E+00
 -1      1410 4.27515E-06 7.29569E+01 0.00000E+00
 -1      1411 5.71551E-06 7.22282E+01 0.00000E+00
 -1      1412 7.11851E-06 7.12921E+01 0.00000E+00
 -1      1413 8.47824E-06 7.01545E+01 0.00000E+00
 -1      1414 9.78878E-06 6.88222E+01 0.00000E+00
 -1      1415 1.10445E-05 6.73027E+01 0.00000E+00
 -1      1416 1.22395E-05 6.56044E+01 0.00000E+00
 -1      1417 1.33687E-05 6.37367E+01 0.00000E+00
 -1      1418 1.44263E-05 6.17095E+01 0.00000E+00
 -1      1419 1.54076E-05 5.95335E+01 0.00000E+00
 -1      1420 1.63070E-05 5.72204E+01 0.00000E+00
 -1      1421 1.71203E-05 5.47824E+01 0.00000E+00
 -1      1422 1.78423E-05 5.22324E+01 0.00000E+00
 -1      1423 1.84691E-05 4.95840E+01 0.00000E+00
 -1      1424 1.89959E-05 4.68515E+01 0.00000E+00
 -1      1425 1.94195E-05 4.40496E+01 0.00000E+00
 -1      1426 1.97351E-05 4.11938E+01 0.00000E+00
 -1      1427 1.99404E-05 3.83000E+01 0.00000E+00
 -1      1428 2.00307E-05 3.53847E+01 0.00000E+00
 -1      1429 2.00046E-05 3.24646E+01 0.00000E+00
 -1      1430 1.98575E-05 2.95571E+01 0.00000E+00
 -1      1431 1.95887E-05 2.66799E+01 0.00000E+00
 -1      1432 1.91938E-05 2.38512E+01 0.00000E+00
 -1      1433 1.86731E-05 2.10891E+01 0.00000E+00
 -1      1434 1.80222E-05 1.84125E+01 0.00000E+00
 -1      1435 1.72421E-05 1.58402E+01 0.00000E+00
 -1      1436 1.63284E-05 1.33914E+01 0.00000E+00
 -1      1437 1.52833E-05 1.10854E+01 0.00000E+00
 -1      1438 1.41022E-05 8.94175E+00 0.00000E+00
 -1      1439 1.27879E-05 6.98007E+00 0.00000E+00
 -1      1440 1.13361E-05 5.22006E+00 0.00000E+00
 -1      1441 9.74949E-06 3.68155E+00 0.00000E+00
 -1      1442 8.02649E-06 2.38445E+00 0.00000E+00
 -1      1443 6.16087E-06 1.34890E+00 0.00000E+00
 -1      1444 4.18493E-06 5.93624E-01 0.00000E+00
 -1      1445 1.96866E-06 1.43647E-01 0.00000E+00
 -1      1446 0.00000E+00 0.00000E+00 0.00000E+00
 -1      1447-4.93390E-01 9.76714E+01 0.00000E+00
 -1      1448-4.93368E-01 9.19150E+01 0.00000E+00
 -1      1449-4.93252E-01 8.61591E+01 0.00000E+00
 -1      1450-4.92944E-01 8.04059E+01 0.00000E+00
 -1      1451-4.92363E-01 7.46576E+01 0.00000E+00
 -1      1452-4.91424E-01 6.89184E+01 0.00000E+00
 -1      1453-4.90057E-01 6.31926E+01 0.00000E+00
 -1      1454-4.88190E-01 5.74854E+01 0.00000E+00
 -1      1455-4.85765E-01 5.18035E+01 0.00000E+00
 -1      1456-4.82720E-01 4.61531E+01 0.00000E+00
 -1      1457-4.79010E-01 4.05425E+01 0.00000E+00
 -1      1458-4.74585E-01 3.49792E+01 0.00000E+00
 -1      1459-4.69411E-01 2.94717E+01 0.00000E+00
 -1      1460-4.63449E-01 2.40294E+01 0.00000E+00
 -1      1461-4.56678E-01 1.86611E+01 0.00000E+00
 -1      1462-4.49070E-01 1.33769E+01 0.00000E+00
 -1      1463-4.40611E-01 8.18643E+00 0.00000E+00
 -1      1464-4.31293E-01 3.09942E+00 0.00000E+00
 -1      1465-4.21099E-01-1.87351E+00 0.00000E+00
 -1      1466-4.10047E-01-6.72274E+00 0.00000E+00
 -1      1467-3.98120E-01-1.14377E+01 0.00000E+00
 -1      1468-3.85348E-01-1.60085E+01 0.00000E+00
 -1      1469-3.71726E-01-2.04256E+01 0.00000E+00
 -1      1470-3.57289E-01-2.46788E+01 0.00000E+00
 -1      1471-3.42050E-01-2.87590E+01 0.00000E+00
 -1      1472-3.26040E-01-3.26567E+01 0.00000E+00
 -1      1473-3.09292E-01-3.63635E+01 0.00000E+00
 -1      1474-2.91839E-01-3.98706E+01 0.00000E+00
 -1      1475-2.73724E-01-4.31703E+01 0.00000E+00
 -1      1476-2.54985E-01-4.62548E+01 0.00000E+00
 -1      1477-2.35673E-01-4.91175E+01 0.00000E+00
 -1      1478-2.15834E-01-5.17517E+01 0.00000E+00
 -1      1479-1.95522E-01-5.41517E+01 0.00000E+00
 -1      1480-1.74792E-01-5.63122E+01 0.00000E+00
 -1      1481-1.53697E-01-5.82286E+01 0.00000E+00
 -1      1482-1.32305E-01-5.98972E+01 0.00000E+00
 -1      1483-1.10664E-01-6.13147E+01 0.00000E+00
 -1      1484-8.88516E-02-6.24787E+01 0.00000E+00
 -1      1485-6.69185E-02-6.33875E+01 0.00000E+00
 -1      1486-4.49398E-02-6.40400E+01 0.00000E+00
 -1      1487-2.29735E-02-6.44362E+01 0.00000E+00
 -1      1488-1.09381E-03-6.45765E+01 0.00000E+00
 -1      1489 2.06418E-02-6.44624E+01 0.00000E+00
 -1      1490 4.21574E-02-6.40959E+01 0.00000E+00
 -1      1491 6.33923E-02-6.34800E+01 0.00000E+00
 -1      1492 8.42800E-02-6.26184E+01 0.00000E+00
 -1      1493 1.04752E-01-6.15154E+01 0.00000E+00
 -1      1494 1.24749E-01-6.01763E+01 0.00000E+00
 -1      1495 1.44204E-01-5.86070E+01 0.00000E+00
 -1      1496 1.63056E-01-5.68142E+01 0.00000E+00
 -1      1497 1.81250E-01-5.48053E+01 0.00000E+00
 -1      1498 1.98721E-01-5.25883E+01 0.00000E+00
 -1      1499 2.15421E-01-5.01719E+01 0.00000E+00
 -1      1500 2.31290E-01-4.75655E+01 0.00000E+00
 -1      1501 2.46283E-01-4.47790E+01 0.00000E+00
 -1      1502 2.60348E-01-4.18231E+01 0.00000E+00
 -1      1503 2.73444E-01-3.87086E+01 0.00000E+00
 -1      1504 2.85525E-01-3.54472E+01 0.00000E+00
 -1      1505 2.96558E-01-3.20510E+01 0.00000E+00
 -1      1506 3.06503E-01-2.85323E+01 0.00000E+00
 -1      1507 3.15334E-01-2.49041E+01 0.00000E+00
 -1      1508 3.23017E-01-2.11797E+01 0.00000E+00
 -1      1509 3.29534E-01-1.73723E+01 0.00000E+00
 -1      1510 3.34861E-01-1.34958E+01 0.00000E+00
 -1      1511 3.38985E-01-9.56417E+00 0.00000E+00
 -1      1512 3.41892E-01-5.59152E+00 0.00000E+00
 -1      1513 3.43576E-01-1.59218E+00 0.00000E+00
 -1      1514 3.44031E-01 2.41975E+00 0.00000E+00
 -1      1515 3.43259E-01 6.42982E+00 0.00000E+00
 -1      1516 3.41265E-01 1.04237E+01 0.00000E+00
 -1      1517 3.38056E-01 1.43873E+01 0.00000E+00
 -1      1518 3.33646E-01 1.83063E+01 0.00000E+00
 -1      1519 3.28052E-01 2.21671E+01 0.00000E+00
 -1      1520 3.21294E-01 2.59558E+01 0.00000E+00
 -1      1521 3.13397E-01 2.96589E+01 0.00000E+00
 -1      1522 3.04392E-01 3.32635E+01 0.00000E+00
 -1      1523 2.94308E-01 3.67566E+01 0.00000E+00
 -1      1524 2.83185E-01 4.01260E+01 0.00000E+00
 -1      1525 2.71058E-01 4.33598E+01 0.00000E+00
 -1      1526 2.57974E-01 4.64465E+01 0.00000E+00
 -1      1527 2.43979E-01 4.93752E+01 0.00000E+00
 -1      1528 2.29120E-01 5.21355E+01 0.00000E+00
 -1      1529 2.13453E-01 5.47177E+01 0.00000E+00
 -1      1530 1.97031E-01 5.71127E+01 0.00000E+00
 -1      1531 1.79913E-01 5.93120E+01 0.00000E+00
 -1      1532 1.62156E-01 6.13079E+01 0.00000E+00
 -1      1533 1.43827E-01 6.30932E+01 0.00000E+00
 -1      1534 1.24988E-01 6.46616E+01 0.00000E+00
 -1      1535 1.05703E-01 6.60075E+01 0.00000E+00
 -1      1536 8.60446E-02 6.71263E+01 0.00000E+00
 -1      1537 6.60755E-02 6.80139E+01 0.00000E+00
 -1      1538 4.58740E-02 6.86671E+01 0.00000E+00
 -1      1539 2.54972E-02 6.90835E+01 0.00000E+00
 -1      1540 5.03313E-03 6.92616E+01 0.00000E+00
 -1      1541-1.54611E-02 6.92008E+01 0.00000E+00
 -1      1542-3.59044E-02 6.89011E+01 0.00000E+00
 -1      1543-5.62318E-02 6.83635E+01 0.00000E+00
 -1      1544-7.63679E-02 6.75899E+01 0.00000E+00
 -1      1545-9.62445E-02 6.65827E+01 0.00000E+00
 -1      1546-1.15792E-01 6.53456E+01 0.00000E+00
 -1      1547-1.34942E-01 6.38827E+01 0.00000E+00
 -1      1548-1.53629E-01 6.21990E+01 0.00000E+00
 -1      1549-1.71784E-01 6.03003E+01 0.00000E+00
 -1      1550-1.89350E-01 5.81933E+01 0.00000E+00
 -1      1551-2.06258E-01 5.58851E+01 0.00000E+00
 -1      1552-2.22455E-01 5.33837E+01 0.00000E+00
 -1      1553-2.37884E-01 5.06978E+01 0.00000E+00
 -1      1554-2.52488E-01 4.78367E+01 0.00000E+00
 -1      1555-2.66218E-01 4.48104E+01 0.00000E+00
 -1      1556-2.79026E-01 4.16291E+01 0.00000E+00
 -1      1557-2.90868E-01 3.83040E+01 0.00000E+00
 -1      1558-3.01702E-01 3.48466E+01 0.00000E+00
 -1      1559-3.11490E-01 3.12689E+01 0.00000E+00
 -1      1560-3.20197E-01 2.75833E+01 0.00000E+00
 -1      1561-3.27795E-01 2.38026E+01 0.00000E+00
 -1      1562-3.34255E-01 1.99398E+01 0.00000E+00
 -1      1563-3.39556E-01 1.60084E+01 0.00000E+00
 -1      1564-3.43731E-01 1.20220E+01 0.00000E+00
 -1      1565-3.46662E-01 7.99452E+00 0.00000E+00
 -1      1566-3.48389E-01 3.93979E+00 0.00000E+00
 -1      1567-3.48908E-01-1.28026E-01 0.00000E+00
 -1      1568-3.48214E-01-4.19483E+00 0.00000E+00
 -1      1569-3.46312E-01-8.24649E+00 0.00000E+00
 -1      1570-3.43207E-01-1.22689E+01 0.00000E+00
 -1      1571-3.38910E-01-1.62481E+01 0.00000E+00
 -1      1572-3.33436E-01-2.01704E+01 0.00000E+00
 -1      1573-3.26803E-01-2.40220E+01 0.00000E+00
 -1      1574-3.19035E-01-2.77896E+01 0.00000E+00
 -1      1575-3.10157E-01-3.14601E+01 0.00000E+00
 -1      1576-3.00202E-01-3.50207E+01 0.00000E+00
 -1      1577-2.89203E-01-3.84591E+01 0.00000E+00
 -1      1578-2.77197E-01-4.17633E+01 0.00000E+00
 -1      1579-2.64229E-01-4.49218E+01 0.00000E+00
 -1      1580-2.50338E-01-4.79237E+01 0.00000E+00
 -1      1581-2.35579E-01-5.07583E+01 0.00000E+00
 -1      1582-2.19996E-01-5.34160E+01 0.00000E+00
 -1      1583-2.03650E-01-5.58874E+01 0.00000E+00
 -1      1584-1.86590E-01-5.81640E+01 0.00000E+00
 -1      1585-1.68883E-01-6.02377E+01 0.00000E+00
 -1      1586-1.50581E-01-6.21014E+01 0.00000E+00
 -1      1587-1.31757E-01-6.37484E+01 0.00000E+00
 -1      1588-1.12468E-01-6.51731E+01 0.00000E+00
 -1      1589-9.27861E-02-6.63705E+01 0.00000E+00
 -1      1590-7.27745E-02-6.73363E+01 0.00000E+00
 -1      1591-5.25077E-02-6.80672E+01 0.00000E+00
 -1      1592-3.20513E-02-6.85605E+01 0.00000E+00
 -1      1593-1.14788E-02-6.88144E+01 0.00000E+00
 -1      1594 9.14198E-03-6.88281E+01 0.00000E+00
 -1      1595 2.97364E-02-6.86013E+01 0.00000E+00
 -1      1596 5.02340E-02-6.81348E+01 0.00000E+00
 -1      1597 7.05679E-02-6.74301E+01 0.00000E+00
 -1      1598 9.06624E-02-6.64895E+01 0.00000E+00
 -1      1599 1.10452E-01-6.53163E+01 0.00000E+00
 -1      1600 1.29869E-01-6.39143E+01 0.00000E+00
 -1      1601 1.48842E-01-6.22884E+01 0.00000E+00
 -1      1602 1.67312E-01-6.04441E+01 0.00000E+00
 -1      1603 1.85210E-01-5.83876E+01 0.00000E+00
 -1      1604 2.02479E-01-5.61259E+01 0.00000E+00
 -1      1605 2.19057E-01-5.36668E+01 0.00000E+00
 -1      1606 2.34888E-01-5.10187E+01 0.00000E+00
 -1      1607 2.49917E-01-4.81905E+01 0.00000E+00
 -1      1608 2.64097E-01-4.51919E+01 0.00000E+00
 -1      1609 2.77373E-01-4.20332E+01 0.00000E+00
 -1      1610 2.89704E-01-3.87250E+01 0.00000E+00
 -1      1611 3.01049E-01-3.52788E+01 0.00000E+00
 -1      1612 3.11366E-01-3.17061E+01 0.00000E+00
 -1      1613 3.20625E-01-2.80194E+01 0.00000E+00
 -1      1614 3.28791E-01-2.42309E+01 0.00000E+00
 -1      1615 3.35840E-01-2.03536E+01 0.00000E+00
 -1      1616 3.41747E-01-1.64008E+01 0.00000E+00
 -1      1617 3.46494E-01-1.23858E+01 0.00000E+00
 -1      1618 3.50066E-01-8.32243E+00 0.00000E+00
 -1      1619 3.52452E-01-4.22416E+00 0.00000E+00
 -1      1620 3.53645E-01-1.05018E-01 0.00000E+00
 -1      1621 3.53645E-01 4.02109E+00 0.00000E+00
 -1      1622 3.52451E-01 8.14022E+00 0.00000E+00
 -1      1623 3.50072E-01 1.22384E+01 0.00000E+00
 -1      1624 3.46516E-01 1.63021E+01 0.00000E+00
 -1      1625 3.41800E-01 2.03175E+01 0.00000E+00
 -1      1626 3.35941E-01 2.42712E+01 0.00000E+00
 -1      1627 3.28964E-01 2.81500E+01 0.00000E+00
 -1      1628 3.20895E-01 3.19411E+01 0.00000E+00
 -1      1629 3.11764E-01 3.56317E+01 0.00000E+00
 -1      1630 3.01608E-01 3.92099E+01 0.00000E+00
 -1      1631 2.90465E-01 4.26638E+01 0.00000E+00
 -1      1632 2.78377E-01 4.59823E+01 0.00000E+00
 -1      1633 2.65390E-01 4.91544E+01 0.00000E+00
 -1      1634 2.51552E-01 5.21700E+01 0.00000E+00
 -1      1635 2.36919E-01 5.50195E+01 0.00000E+00
 -1      1636 2.21540E-01 5.76940E+01 0.00000E+00
 -1      1637 2.05481E-01 6.01851E+01 0.00000E+00
 -1      1638 1.88797E-01 6.24851E+01 0.00000E+00
 -1      1639 1.71555E-01 6.45872E+01 0.00000E+00
 -1      1640 1.53818E-01 6.64853E+01 0.00000E+00
 -1      1641 1.35656E-01 6.81739E+01 0.00000E+00
 -1      1642 1.17136E-01 6.96486E+01 0.00000E+00
 -1      1643 9.83336E-02 7.09055E+01 0.00000E+00
 -1      1644 7.93158E-02 7.19418E+01 0.00000E+00
 -1      1645 6.01611E-02 7.27554E+01 0.00000E+00
 -1      1646 4.09432E-02 7.33451E+01 0.00000E+00
 -1      1647 2.17340E-02 7.37107E+01 0.00000E+00
 -1      1648 2.61594E-03 7.38527E+01 0.00000E+00
 -1      1649-1.63395E-02 7.37725E+01 0.00000E+00
 -1      1650-3.50554E-02 7.34726E+01 0.00000E+00
 -1      1651-5.34539E-02 7.29562E+01 0.00000E+00
 -1      1652-7.14601E-02 7.22273E+01 0.00000E+00
 -1      1653-8.89993E-02 7.12912E+01 0.00000E+00
 -1      1654-1.05998E-01 7.01535E+01 0.00000E+00
 -1      1655-1.22381E-01 6.88211E+01 0.00000E+00
 -1      1656-1.38078E-01 6.73015E+01 0.00000E+00
 -1      1657-1.53017E-01 6.56032E+01 0.00000E+00
 -1      1658-1.67133E-01 6.37354E+01 0.00000E+00
 -1      1659-1.80355E-01 6.17081E+01 0.00000E+00
 -1      1660-1.92621E-01 5.95322E+01 0.00000E+00
 -1      1661-2.03865E-01 5.72190E+01 0.00000E+00
 -1      1662-2.14031E-01 5.47809E+01 0.00000E+00
 -1      1663-2.23059E-01 5.22309E+01 0.00000E+00
 -1      1664-2.30891E-01 4.95825E+01 0.00000E+00
 -1      1665-2.37480E-01 4.68500E+01 0.00000E+00
 -1      1666-2.42770E-01 4.40481E+01 0.00000E+00
 -1      1667-2.46720E-01 4.11923E+01 0.00000E+00
 -1      1668-2.49281E-01 3.82985E+01 0.00000E+00
 -1      1669-2.50416E-01 3.53831E+01 0.00000E+00
 -1      1670-2.50081E-01 3.24631E+01 0.00000E+00
 -1      1671-2.48250E-01 2.95557E+01 0.00000E+00
 -1      1672-2.44879E-01 2.66786E+01 0.00000E+00
 -1      1673-2.39955E-01 2.38499E+01 0.00000E+00
 -1      1674-2.33430E-01 2.10879E+01 0.00000E+00
 -1      1675-2.25310E-01 1.84113E+01 0.00000E+00
 -1      1676-2.15535E-01 1.58392E+01 0.00000E+00
 -1      1677-2.04139E-01 1.33905E+01 0.00000E+00
 -1      1678-1.91042E-01 1.10846E+01 0.00000E+00
 -1      1679-1.76314E-01 8.94111E+00 0.00000E+00
 -1      1680-1.59836E-01 6.97952E+00 0.00000E+00
 -1      1681-1.41743E-01 5.21971E+00 0.00000E+00
 -1      1682-1.21839E-01 3.68136E+00 0.00000E+00
 -1      1683-1.00385E-01 2.38441E+00 0.00000E+00
 -1      1684-7.69542E-02 1.34907E+00 0.00000E+00
 -1      1685-5.23831E-02 5.93917E-01 0.00000E+00
 -1      1686-2.45349E-02 1.44428E-01 0.00000E+00
 -1      1687 0.00000E+00 0.00000E+00 0.00000E+00
 -1      1688-4.93390E-01 9.76714E+01 0.00000E+00
 -1      1689-4.93368E-01 9.19150E+01 0.00000E+00
 -1      1690-4.93252E-01 8.61591E+01 0.00000E+00
 -1      1691-4.92944E-01 8.04059E+01 0.00000E+00
 -1      1692-4.92363E-01 7.46576E+01 0.00000E+00
 -1      1693-4.91424E-01 6.89184E+01 0.00000E+00
 -1      1694-4.90057E-01 6.31926E+01 0.00000E+00
 -1      1695-4.88190E-01 5.74854E+01 0.00000E+00
 -1      1696-4.85765E-01 5.18035E+01 0.00000E+00
 -1      1697-4.82720E-01 4.61531E+01 0.00000E+00
 -1      1698-4.79010E-01 4.05425E+01 0.00000E+00
 -1      1699-4.74585E-01 3.49792E+01 0.00000E+00
 -1      1700-4.69411E-01 2.94717E+01 0.00000E+00
 -1      1701-4.63449E-01 2.40294E+01 0.00000E+00
 -1      1702-4.56678E-01 1.86611E+01 0.00000E+00
 -1      1703-4.49070E-01 1.33769E+01 0.00000E+00
 -1      1704-4.40611E-01 8.18643E+00 0.00000E+00
 -1      1705-4.31293E-01 3.09942E+00 0.00000E+00
 -1      1706-4.21099E-01-1.87351E+00 0.00000E+00
 -1      1707-4.10047E-01-6.72274E+00 0.00000E+00
 -1      1708-3.98120E-01-1.14377E+01 0.00000E+00
 -1      1709-3.85348E-01-1.60085E+01 0.00000E+00
 -1      1710-3.71726E-01-2.04256E+01 0.00000E+00
 -1      1711-3.57289E-01-2.46788E+01 0.00000E+00
 -1      1712-3.42050E-01-2.87590E+01 0.00000E+00
 -1      1713-3.26040E-01-3.26567E+01 0.00000E+00
 -1      1714-3.09292E-01-3.63635E+01 0.00000E+00
 -1      1715-2.91839E-01-3.98706E+01 0.00000E+00
 -1      1716-2.73724E-01-4.31703E+01 0.00000E+00
 -1      1717-2.54985E-01-4.62548E+01 0.00000E+00
 -1      1718-2.35673E-01-4.91175E+01 0.00000E+00
 -1      1719-2.15834E-01-5.17517E+01 0.00000E+00
 -1      1720-1.95522E-01-5.41517E+01 0.00000E+00
 -1      1721-1.74792E-01-5.63122E+01 0.00000E+00
 -1      1722-1.53697E-01-5.82286E+01 0.00000E+00
 -1      1723-1.32305E-01-5.98972E+01 0.00000E+00
 -1      1724-1.10664E-01-6.13147E+01 0.00000E+00
 -1      1725-8.88516E-02-6.24787E+01 0.00000E+00
 -1      1726-6.69185E-02-6.33875E+01 0.00000E+00
 -1      1727-4.49398E-02-6.40400E+01 0.00000E+00
 -1      1728-2.29735E-02-6.44362E+01 0.00000E+00
 -1      1729-1.09381E-03-6.45765E+01 0.00000E+00
 -1      1730 2.06418E-02-6.44624E+01 0.00000E+00
 -1      1731 4.21574E-02-6.40959E+01 0.00000E+00
 -1      1732 6.33923E-02-6.34800E+01 0.00000E+00
 -1      1733 8.42800E-02-6.26184E+01 0.00000E+00
 -1      1734 1.04752E-01-6.15154E+01 0.00000E+00
 -1      1735 1.24749E-01-6.01763E+01 0.00000E+00
 -1      1736 1.44204E-01-5.86070E+01 0.00000E+00
 -1      1737 1.63056E-01-5.68142E+01 0.00000E+00
 -1      1738 1.81250E-01-5.48053E+01 0.00000E+00
 -1      1739 1.98721E-01-5.25883E+01 0.00000E+00
 -1      1740 2.15421E-01-5.01719E+01 0.00000E+00
 -1      1741 2.31290E-01-4.75655E+01 0.00000E+00
 -1      1742 2.46283E-01-4.47790E+01 0.00000E+00
 -1      1743 2.60348E-01-4.18231E+01 0.00000E+00
 -1      1744 2.73444E-01-3.87086E+01 0.00000E+00
 -1      1745 2.85525E-01-3.54472E+01 0.00000E+00
 -1      1746 2.96558E-01-3.20510E+01 0.00000E+00
 -1      1747 3.06503E-01-2.85323E+01 0.00000E+00
 -1      1748 3.15334E-01-2.49041E+01 0.00000E+00
 -1      1749 3.23017E-01-2.11797E+01 0.00000E+00
 -1      1750 3.29534E-01-1.73723E+01 0.00000E+00
 -1      1751 3.34861E-01-1.34958E+01 0.00000E+00
 -1      1752 3.38985E-01-9.56417E+00 0.00000E+00
 -1      1753 3.41892E-01-5.59152E+00 0.00000E+00
 -1      1754 3.43576E-01-1.59218E+00 0.00000E+00
 -1      1755 3.44031E-01 2.41975E+00 0.00000E+00
 -1      1756 3.43259E-01 6.42982E+00 0.00000E+00
 -1      1757 3.41265E-01 1.04237E+01 0.00000E+00
 -1      1758 3.38056E-01 1.43873E+01 0.00000E+00
 -1      1759 3.33646E-01 1.83063E+01 0.00000E+00
 -1      1760 3.28052E-01 2.21671E+01 0.00000E+00
 -1      1761 3.21294E-01 2.59558E+01 0.00000E+00
 -1      1762 3.13397E-01 2.96589E+01 0.00000E+00
 -1      1763 3.04392E-01 3.32635E+01 0.00000E+00
 -1      1764 2.94308E-01 3.67566E+01 0.00000E+00
 -1      1765 2.83185E-01 4.01260E+01 0.00000E+00
 -1      1766 2.71058E-01 4.33598E+01 0.00000E+00
 -1      1767 2.57974E-01 4.64465E+01 0.00000E+00
 -1      1768 2.43979E-01 4.93752E+01 0.00000E+00
 -1      1769 2.29120E-01 5.21355E+01 0.00000E+00
 -1      1770 2.13453E-01 5.47177E+01 0.00000E+00
 -1      1771 1.97031E-01 5.71127E+01 0.00000E+00
 -1      1772 1.79913E-01 5.93120E+01 0.00000E+00
 -1      1773 1.62156E-01 6.13079E+01 0.00000E+00
 -1      1774 1.43827E-01 6.30932E+01 0.00000E+00
 -1      1775 1.24988E-01 6.46616E+01 0.00000E+00
 -1      1776 1.05703E-01 6.60075E+01 0.00000E+00
 -1      1777 8.60446E-02 6.71263E+01 0.00000E+00
 -1      1778 6.60755E-02 6.80139E+01 0.00000E+00
 -1      1779 4.58740E-02 6.86671E+01 0.00000E+00
 -1      1780 2.54972E-02 6.90835E+01 0.00000E+00
 -1      1781 5.03313E-03 6.92616E+01 0.00000E+00
 -1      1782-1.54611E-02 6.92008E+01 0.00000E+00
 -1      1783-3.59044E-02 6.89011E+01 0.00000E+00
 -1      1784-5.62318E-02 6.83635E+01 0.00000E+00
 -1      1785-7.63679E-02 6.75899E+01 0.00000E+00
 -1      1786-9.62445E-02 6.65827E+01 0.00000E+00
 -1      1787-1.15792E-01 6.53456E+01 0.00000E+00
 -1      1788-1.34942E-01 6.38827E+01 0.00000E+00
 -1      1789-1.53629E-01 6.21990E+01 0.00000E+00
 -1      1790-1.71784E-01 6.03003E+01 0.00000E+00
 -1      1791-1.89350E-01 5.81933E+01 0.00000E+00
 -1      1792-2.06258E-01 5.58851E+01 0.00000E+00
 -1      1793-2.22455E-01 5.33837E+01 0.00000E+00
 -1      1794-2.37884E-01 5.06978E+01 0.00000E+00
 -1      1795-2.52488E-01 4.78367E+01 0.00000E+00
 -1      1796-2.66218E-01 4.48104E+01 0.00000E+00
 -1      1797-2.79026E-01 4.16291E+01 0.00000E+00
 -1      1798-2.90868E-01 3.83040E+01 0.00000E+00
 -1      1799-3.01702E-01 3.48466E+01 0.00000E+00
 -1      1800-3.11490E-01 3.12689E+01 0.00000E+00
 -1      1801-3.20197E-01 2.75833E+01 0.00000E+00
 -1      1802-3.27795E-01 2.38026E+01 0.00000E+00
 -1      1803-3.34255E-01 1.99398E+01 0.00000E+00
 -1      1804-3.39556E-01 1.60084E+01 0.00000E+00
 -1      1805-3.43731E-01 1.20220E+01 0.00000E+00
 -1      1806-3.46662E-01 7.99452E+00 0.00000E+00
 -1      1807-3.48389E-01 3.93979E+00 0.00000E+00
 -1      1808-3.48908E-01-1.28026E-01 0.00000E+00
 -1      1809-3.48214E-01-4.19483E+00 0.00000E+00
 -1      1810-3.46312E-01-8.24649E+00 0.00000E+00
 -1      1811-3.43207E-01-1.22689E+01 0.00000E+00
 -1      1812-3.38910E-01-1.62481E+01 0.00000E+00
 -1      1813-3.33436E-01-2.01704E+01 0.00000E+00
 -1      1814-3.26803E-01-2.40220E+01 0.00000E+00
 -1      1815-3.19035E-01-2.77896E+01 0.00000E+00
 -1      1816-3.10157E-01-3.14601E+01 0.00000E+00
 -1      1817-3.00202E-01-3.50207E+01 0.00000E+00
 -1      1818-2.89203E-01-3.84591E+01 0.00000E+00
 -1      1819-2.77197E-01-4.17633E+01 0.00000E+00
 -1      1820-2.64229E-01-4.49218E+01 0.00000E+00
 -1      1821-2.50338E-01-4.79237E+01 0.00000E+00
 -1      1822-2.35579E-01-5.07583E+01 0.00000E+00
 -1      1823-2.19996E-01-5.34160E+01 0.00000E+00
 -1      1824-2.03650E-01-5.58874E+01 0.00000E+00
 -1      1825-1.86590E-01-5.81640E+01 0.00000E+00
 -1      1826-1.68883E-01-6.02377E+01 0.00000E+00
 -1      1827-1.50581E-01-6.21014E+01 0.00000E+00
 -1      1828-1.31757E-01-6.37484E+01 0.00000E+00
 -1      1829-1.12468E-01-6.51731E+01 0.00000E+00
 -1      1830-9.27861E-02-6.63705E+01 0.00000E+00
 -1      1831-7.27745E-02-6.73363E+01 0.00000E+00
 -1      1832-5.25077E-02-6.80672E+01 0.00000E+00
 -1      1833-3.20513E-02-6.85605E+01 0.00000E+00
 -1      1834-1.14788E-02-6.88144E+01 0.00000E+00
 -1      1835 9.14198E-03-6.88281E+01 0.00000E+00
 -1      1836 2.97364E-02-6.86013E+01 0.00000E+00
 -1      1837 5.02340E-02-6.81348E+01 0.00000E+00
 -1      1838 7.05679E-02-6.74301E+01 0.00000E+00
 -1      1839 9.06624E-02-6.64895E+01 0.00000E+00
 -1      1840 1.10452E-01-6.53163E+01 0.00000E+00
 -1      1841 1.29869E-01-6.39143E+01 0.00000E+00
 -1      1842 1.48842E-01-6.22884E+01 0.00000E+00
 -1      1843 1.67312E-01-6.04441E+01 0.00000E+00
 -1      1844 1.85210E-01-5.83876E+01 0.00000E+00
 -1      1845 2.02479E-01-5.61259E+01 0.00000E+00
 -1      1846 2.19057E-01-5.36668E+01 0.00000E+00
 -1      1847 2.34888E-01-5.10187E+01 0.00000E+00
 -1      1848 2.49917E-01-4.81905E+01 0.00000E+00
 -1      1849 2.64097E-01-4.51919E+01 0.00000E+00
 -1      1850 2.77373E-01-4.20332E+01 0.00000E+00
 -1      1851 2.89704E-01-3.87250E+01 0.00000E+00
 -1      1852 3.01049E-01-3.52788E+01 0.00000E+00
 -1      1853 3.11366E-01-3.17061E+01 0.00000E+00
 -1      1854 3.20625E-01-2.80194E+01 0.00000E+00
 -1      1855 3.28791E-01-2.42309E+01 0.00000E+00
 -1      1856 3.35840E-01-2.03536E+01 0.00000E+00
 -1      1857 3.41747E-01-1.64008E+01 0.00000E+00
 -1      1858 3.46494E-01-1.23858E+01 0.00000E+00
 -1      1859 3.50066E-01-8.32243E+00 0.00000E+00
 -1      1860 3.52452E-01-4.22416E+00 0.00000E+00
 -1      1861 3.53645E-01-1.05018E-01 0.00000E+00
 -1      1862 3.53645E-01 4.02109E+00 0.00000E+00
 -1      1863 3.52451E-01 8.14022E+00 0.00000E+00
 -1      1864 3.50072E-01 1.22384E+01 0.00000E+00
 -1      1865 3.46516E-01 1.63021E+01 0.00000E+00
 -1      1866 3.41800E-01 2.03175E+01 0.00000E+00
 -1      1867 3.35941E-01 2.42712E+01 0.00000E+00
 -1      1868 3.28964E-01 2.81500E+01 0.00000E+00
 -1      1869 3.20895E-01 3.19411E+01 0.00000E+00
 -1      1870 3.11764E-01 3.56317E+01 0.00000E+00
 -1      1871 3.01608E-01 3.92099E+01 0.00000E+00
 -1      1872 2.90465E-01 4.26638E+01 0.00000E+00
 -1      1873 2.78377E-01 4.59823E+01 0.00000E+00
 -1      1874 2.65390E-01 4.91544E+01 0.00000E+00
 -1      1875 2.51552E-01 5.21700E+01 0.00000E+00
 -1      1876 2.36919E-01 5.50195E+01 0.00000E+00
 -1      1877 2.21540E-01 5.76940E+01 0.00000E+00
 -1      1878 2.05481E-01 6.01851E+01 0.00000E+00
 -1      1879 1.88797E-01 6.24851E+01 0.00000E+00
 -1      1880 1.71555E-01 6.45872E+01 0.00000E+00
 -1      1881 1.53818E-01 6.64853E+01 0.00000E+00
 -1      1882 1.35656E-01 6.81739E+01 0.00000E+00
 -1      1883 1.17136E-01 6.96486E+01 0.00000E+00
 -1      1884 9.83336E-02 7.09055E+01 0.00000E+00
 -1      1885 7.93158E-02 7.19418E+01 0.00000E+00
 -1      1886 6.01611E-02 7.27554E+01 0.00000E+00
 -1      1887 4.09432E-02 7.33451E+01 0.00000E+00
 -1      1888 2.17340E-02 7.37107E+01 0.00000E+00
 -1      1889 2.61594E-03 7.38527E+01 0.00000E+00
 -1      1890-1.63395E-02 7.37725E+01 0.00000E+00
 -1      1891-3.50554E-02 7.34726E+01 0.00000E+00
 -1      1892-5.34539E-02 7.29562E+01 0.00000E+00
 -1      1893-7.14601E-02 7.22273E+01 0.00000E+00
 -1      1894-8.89993E-02 7.12912E+01 0.00000E+00
 -1      1895-1.05998E-01 7.01535E+01 0.00000E+00
 -1      1896-1.22381E-01 6.88211E+01 0.00000E+00
 -1      1897-1.38078E-01 6.73015E+01 0.00000E+00
 -1      1898-1.53017E-01 6.56032E+01 0.00000E+00
 -1      1899-1.67133E-01 6.37354E+01 0.00000E+00
 -1      1900-1.80355E-01 6.17081E+01 0.00000E+00
 -1      1901-1.92621E-01 5.95322E+01 0.00000E+00
 -1      1902-2.03865E-01 5.72190E+01 0.00000E+00
 -1      1903-2.14031E-01 5.47809E+01 0.00000E+00
 -1      1904-2.23059E-01 5.22309E+01 0.00000E+00
 -1      1905-2.30891E-01 4.95825E+01 0.00000E+00
 -1      1906-2.37480E-01 4.68500E+01 0.00000E+00
 -1      1907-2.42770E-01 4.40481E+01 0.00000E+00
 -1      1908-2.46720E-01 4.11923E+01 0.00000E+00
 -1      1909-2.49281E-01 3.82985E+01 0.00000E+00
 -1      1910-2.50416E-01 3.53831E+01 0.00000E+00
 -1      1911-2.50081E-01 3.24631E+01 0.00000E+00
 -1      1912-2.48250E-01 2.95557E+01 0.00000E+00
 -1      1913-2.44879E-01 2.66786E+01 0.00000E+00
 -1      1914-2.39955E-01 2.38499E+01 0.00000E+00
 -1      1915-2.33430E-01 2.10879E+01 0.00000E+00
 -1      1916-2.25310E-01 1.84113E+01 0.00000E+00
 -1      1917-2.15535E-01 1.58392E+01 0.00000E+00
 -1      1918-2.04139E-01 1.33905E+01 0.00000E+00
 -1      1919-1.91042E-01 1.10846E+01 0.00000E+00
 -1      1920-1.76314E-01 8.94111E+00 0.00000E+00
 -1      1921-1.59836E-01 6.97952E+00 0.00000E+00
 -1      1922-1.41743E-01 5.21971E+00 0.00000E+00
 -1      1923-1.21839E-01 3.68136E+00 0.00000E+00
 -1      1924-1.00385E-01 2.38441E+00 0.00000E+00
 -1      1925-7.69542E-02 1.34907E+00 0.00000E+00
 -1      1926-5.23831E-02 5.93917E-01 0.00000E+00
 -1      1927-2.45349E-02 1.44428E-01 0.00000E+00
 -1      1928 0.00000E+00 0.00000E+00 0.00000E+00
 -1      1929-9.86821E-01 9.76714E+01 0.00000E+00
 -1      1930-9.86785E-01 9.19150E+01 0.00000E+00
 -1      1931-9.86550E-01 8.61591E+01 0.00000E+00
 -1      1932-9.85939E-01 8.04057E+01 0.00000E+00
 -1      1933-9.84775E-01 7.46577E+01 0.00000E+00
 -1      1934-9.82901E-01 6.89182E+01 0.00000E+00
 -1      1935-9.80166E-01 6.31925E+01 0.00000E+00
 -1      1936-9.76435E-01 5.74853E+01 0.00000E+00
 -1      1937-9.71583E-01 5.18034E+01 0.00000E+00
 -1      1938-9.65495E-01 4.61531E+01 0.00000E+00
 -1      1939-9.58076E-01 4.05425E+01 0.00000E+00
 -1      1940-9.49224E-01 3.49790E+01 0.00000E+00
 -1      1941-9.38879E-01 2.94718E+01 0.00000E+00
 -1      1942-9.26953E-01 2.40293E+01 0.00000E+00
 -1      1943-9.13413E-01 1.86613E+01 0.00000E+00
 -1      1944-8.98194E-01 1.33770E+01 0.00000E+00
 -1      1945-8.81273E-01 8.18635E+00 0.00000E+00
 -1      1946-8.62639E-01 3.09968E+00 0.00000E+00
 -1      1947-8.42249E-01-1.87342E+00 0.00000E+00
 -1      1948-8.20145E-01-6.72233E+00 0.00000E+00
 -1      1949-7.96288E-01-1.14374E+01 0.00000E+00
 -1      1950-7.70740E-01-1.60082E+01 0.00000E+00
 -1      1951-7.43499E-01-2.04252E+01 0.00000E+00
 -1      1952-7.14618E-01-2.46782E+01 0.00000E+00
 -1      1953-6.84141E-01-2.87584E+01 0.00000E+00
 -1      1954-6.52115E-01-3.26561E+01 0.00000E+00
 -1      1955-6.18620E-01-3.63628E+01 0.00000E+00
 -1      1956-5.83709E-01-3.98698E+01 0.00000E+00
 -1      1957-5.47477E-01-4.31694E+01 0.00000E+00
 -1      1958-5.09995E-01-4.62540E+01 0.00000E+00
 -1      1959-4.71370E-01-4.91165E+01 0.00000E+00
 -1      1960-4.31688E-01-5.17506E+01 0.00000E+00
 -1      1961-3.91060E-01-5.41505E+01 0.00000E+00
 -1      1962-3.49598E-01-5.63109E+01 0.00000E+00
 -1      1963-3.07404E-01-5.82273E+01 0.00000E+00
 -1      1964-2.64615E-01-5.98959E+01 0.00000E+00
 -1      1965-2.21332E-01-6.13133E+01 0.00000E+00
 -1      1966-1.77699E-01-6.24772E+01 0.00000E+00
 -1      1967-1.33836E-01-6.33859E+01 0.00000E+00
 -1      1968-8.98669E-02-6.40384E+01 0.00000E+00
 -1      1969-4.59389E-02-6.44345E+01 0.00000E+00
 -1      1970-2.16932E-03-6.45748E+01 0.00000E+00
 -1      1971 4.12990E-02-6.44606E+01 0.00000E+00
 -1      1972 8.43382E-02-6.40941E+01 0.00000E+00
 -1      1973 1.26807E-01-6.34781E+01 0.00000E+00
 -1      1974 1.68589E-01-6.26164E+01 0.00000E+00
 -1      1975 2.09535E-01-6.15134E+01 0.00000E+00
 -1      1976 2.49530E-01-6.01743E+01 0.00000E+00
 -1      1977 2.88444E-01-5.86050E+01 0.00000E+00
 -1      1978 3.26150E-01-5.68122E+01 0.00000E+00
 -1      1979 3.62544E-01-5.48032E+01 0.00000E+00
 -1      1980 3.97487E-01-5.25861E+01 0.00000E+00
 -1      1981 4.30887E-01-5.01697E+01 0.00000E+00
 -1      1982 4.62630E-01-4.75633E+01 0.00000E+00
 -1      1983 4.92613E-01-4.47769E+01 0.00000E+00
 -1      1984 5.20750E-01-4.18209E+01 0.00000E+00
 -1      1985 5.46939E-01-3.87064E+01 0.00000E+00
 -1      1986 5.71107E-01-3.54450E+01 0.00000E+00
 -1      1987 5.93170E-01-3.20488E+01 0.00000E+00
 -1      1988 6.13064E-01-2.85302E+01 0.00000E+00
 -1      1989 6.30722E-01-2.49021E+01 0.00000E+00
 -1      1990 6.46093E-01-2.11776E+01 0.00000E+00
 -1      1991 6.59124E-01-1.73703E+01 0.00000E+00
 -1      1992 6.69780E-01-1.34938E+01 0.00000E+00
 -1      1993 6.78027E-01-9.56218E+00 0.00000E+00
 -1      1994 6.83840E-01-5.58960E+00 0.00000E+00
 -1      1995 6.87206E-01-1.59025E+00 0.00000E+00
 -1      1996 6.88116E-01 2.42158E+00 0.00000E+00
 -1      1997 6.86571E-01 6.43155E+00 0.00000E+00
 -1      1998 6.82580E-01 1.04254E+01 0.00000E+00
 -1      1999 6.76161E-01 1.43888E+01 0.00000E+00
 -1      2000 6.67339E-01 1.83078E+01 0.00000E+00
 -1      2001 6.56149E-01 2.21684E+01 0.00000E+00
 -1      2002 6.42631E-01 2.59570E+01 0.00000E+00
 -1      2003 6.26835E-01 2.96600E+01 0.00000E+00
 -1      2004 6.08822E-01 3.32645E+01 0.00000E+00
 -1      2005 5.88650E-01 3.67575E+01 0.00000E+00
 -1      2006 5.66403E-01 4.01268E+01 0.00000E+00
 -1      2007 5.42143E-01 4.33605E+01 0.00000E+00
 -1      2008 5.15975E-01 4.64470E+01 0.00000E+00
 -1      2009 4.87979E-01 4.93756E+01 0.00000E+00
 -1      2010 4.58262E-01 5.21358E+01 0.00000E+00
 -1      2011 4.26920E-01 5.47178E+01 0.00000E+00
 -1      2012 3.94074E-01 5.71127E+01 0.00000E+00
 -1      2013 3.59833E-01 5.93118E+01 0.00000E+00
 -1      2014 3.24317E-01 6.13075E+01 0.00000E+00
 -1      2015 2.87656E-01 6.30926E+01 0.00000E+00
 -1      2016 2.49971E-01 6.46609E+01 0.00000E+00
 -1      2017 2.11401E-01 6.60067E+01 0.00000E+00
 -1      2018 1.72078E-01 6.71253E+01 0.00000E+00
 -1      2019 1.32139E-01 6.80127E+01 0.00000E+00
 -1      2020 9.17303E-02 6.86658E+01 0.00000E+00
 -1      2021 5.09736E-02 6.90821E+01 0.00000E+00
 -1      2022 1.00393E-02 6.92600E+01 0.00000E+00
 -1      2023-3.09486E-02 6.91990E+01 0.00000E+00
 -1      2024-7.18425E-02 6.88992E+01 0.00000E+00
 -1      2025-1.12496E-01 6.83615E+01 0.00000E+00
 -1      2026-1.52776E-01 6.75877E+01 0.00000E+00
 -1      2027-1.92529E-01 6.65804E+01 0.00000E+00
 -1      2028-2.31629E-01 6.53432E+01 0.00000E+00
 -1      2029-2.69931E-01 6.38801E+01 0.00000E+00
 -1      2030-3.07306E-01 6.21963E+01 0.00000E+00
 -1      2031-3.43619E-01 6.02976E+01 0.00000E+00
 -1      2032-3.78752E-01 5.81904E+01 0.00000E+00
 -1      2033-4.12572E-01 5.58821E+01 0.00000E+00
 -1      2034-4.44966E-01 5.33807E+01 0.00000E+00
 -1      2035-4.75827E-01 5.06947E+01 0.00000E+00
 -1      2036-5.05034E-01 4.78335E+01 0.00000E+00
 -1      2037-5.32498E-01 4.48070E+01 0.00000E+00
 -1      2038-5.58113E-01 4.16257E+01 0.00000E+00
 -1      2039-5.81798E-01 3.83006E+01 0.00000E+00
 -1      2040-6.03466E-01 3.48432E+01 0.00000E+00
 -1      2041-6.23041E-01 3.12655E+01 0.00000E+00
 -1      2042-6.40457E-01 2.75798E+01 0.00000E+00
 -1      2043-6.55651E-01 2.37991E+01 0.00000E+00
 -1      2044-6.68572E-01 1.99363E+01 0.00000E+00
 -1      2045-6.79172E-01 1.60050E+01 0.00000E+00
 -1      2046-6.87417E-01 1.20186E+01 0.00000E+00
 -1      2047-6.93276E-01 7.99113E+00 0.00000E+00
 -1      2048-6.96729E-01 3.93649E+00 0.00000E+00
 -1      2049-6.97763E-01-1.31346E-01 0.00000E+00
 -1      2050-6.96374E-01-4.19804E+00 0.00000E+00
 -1      2051-6.92568E-01-8.24959E+00 0.00000E+00
 -1      2052-6.86357E-01-1.22719E+01 0.00000E+00
 -1      2053-6.77761E-01-1.62510E+01 0.00000E+00
 -1      2054-6.66811E-01-2.01732E+01 0.00000E+00
 -1      2055-6.53545E-01-2.40246E+01 0.00000E+00
 -1      2056-6.38007E-01-2.77921E+01 0.00000E+00
 -1      2057-6.20253E-01-3.14625E+01 0.00000E+00
 -1      2058-6.00340E-01-3.50229E+01 0.00000E+00
 -1      2059-5.78342E-01-3.84611E+01 0.00000E+00
 -1      2060-5.54332E-01-4.17652E+01 0.00000E+00
 -1      2061-5.28393E-01-4.49235E+01 0.00000E+00
 -1      2062-5.00615E-01-4.79252E+01 0.00000E+00
 -1      2063-4.71093E-01-5.07596E+01 0.00000E+00
 -1      2064-4.39933E-01-5.34171E+01 0.00000E+00
 -1      2065-4.07236E-01-5.58883E+01 0.00000E+00
 -1      2066-3.73123E-01-5.81646E+01 0.00000E+00
 -1      2067-3.37704E-01-6.02381E+01 0.00000E+00
 -1      2068-3.01110E-01-6.21015E+01 0.00000E+00
 -1      2069-2.63455E-01-6.37483E+01 0.00000E+00
 -1      2070-2.24884E-01-6.51728E+01 0.00000E+00
 -1      2071-1.85520E-01-6.63700E+01 0.00000E+00
 -1      2072-1.45501E-01-6.73356E+01 0.00000E+00
 -1      2073-1.04970E-01-6.80662E+01 0.00000E+00
 -1      2074-6.40570E-02-6.85592E+01 0.00000E+00
 -1      2075-2.29172E-02-6.88129E+01 0.00000E+00
 -1      2076 1.83247E-02-6.88263E+01 0.00000E+00
 -1      2077 5.95086E-02-6.85993E+01 0.00000E+00
 -1      2078 1.00501E-01-6.81326E+01 0.00000E+00
 -1      2079 1.41167E-01-6.74276E+01 0.00000E+00
 -1      2080 1.81352E-01-6.64868E+01 0.00000E+00
 -1      2081 2.20927E-01-6.53134E+01 0.00000E+00
 -1      2082 2.59757E-01-6.39112E+01 0.00000E+00
 -1      2083 2.97700E-01-6.22851E+01 0.00000E+00
 -1      2084 3.34637E-01-6.04406E+01 0.00000E+00
 -1      2085 3.70429E-01-5.83839E+01 0.00000E+00
 -1      2086 4.04963E-01-5.61221E+01 0.00000E+00
 -1      2087 4.38114E-01-5.36629E+01 0.00000E+00
 -1      2088 4.69774E-01-5.10146E+01 0.00000E+00
 -1      2089 4.99826E-01-4.81862E+01 0.00000E+00
 -1      2090 5.28185E-01-4.51875E+01 0.00000E+00
 -1      2091 5.54731E-01-4.20286E+01 0.00000E+00
 -1      2092 5.79391E-01-3.87204E+01 0.00000E+00
 -1      2093 6.02076E-01-3.52740E+01 0.00000E+00
 -1      2094 6.22707E-01-3.17014E+01 0.00000E+00
 -1      2095 6.41221E-01-2.80145E+01 0.00000E+00
 -1      2096 6.57550E-01-2.42260E+01 0.00000E+00
 -1      2097 6.71644E-01-2.03487E+01 0.00000E+00
 -1      2098 6.83455E-01-1.63959E+01 0.00000E+00
 -1      2099 6.92945E-01-1.23810E+01 0.00000E+00
 -1      2100 7.00086E-01-8.31750E+00 0.00000E+00
 -1      2101 7.04854E-01-4.21930E+00 0.00000E+00
 -1      2102 7.07239E-01-1.00227E-01 0.00000E+00
 -1      2103 7.07235E-01 4.02578E+00 0.00000E+00
 -1      2104 7.04845E-01 8.14491E+00 0.00000E+00
 -1      2105 7.00083E-01 1.22431E+01 0.00000E+00
 -1      2106 6.92970E-01 1.63066E+01 0.00000E+00
 -1      2107 6.83535E-01 2.03219E+01 0.00000E+00
 -1      2108 6.71816E-01 2.42754E+01 0.00000E+00
 -1      2109 6.57859E-01 2.81540E+01 0.00000E+00
 -1      2110 6.41720E-01 3.19449E+01 0.00000E+00
 -1      2111 6.23456E-01 3.56354E+01 0.00000E+00
 -1      2112 6.03144E-01 3.92134E+01 0.00000E+00
 -1      2113 5.80857E-01 4.26671E+01 0.00000E+00
 -1      2114 5.56679E-01 4.59853E+01 0.00000E+00
 -1      2115 5.30706E-01 4.91571E+01 0.00000E+00
 -1      2116 5.03029E-01 5.21725E+01 0.00000E+00
 -1      2117 4.73763E-01 5.50218E+01 0.00000E+00
 -1      2118 4.43006E-01 5.76961E+01 0.00000E+00
 -1      2119 4.10887E-01 6.01868E+01 0.00000E+00
 -1      2120 3.77523E-01 6.24866E+01 0.00000E+00
 -1      2121 3.43035E-01 6.45884E+01 0.00000E+00
 -1      2122 3.07565E-01 6.64862E+01 0.00000E+00
 -1      2123 2.71241E-01 6.81746E+01 0.00000E+00
 -1      2124 2.34204E-01 6.96489E+01 0.00000E+00
 -1      2125 1.96601E-01 7.09055E+01 0.00000E+00
 -1      2126 1.58565E-01 7.19415E+01 0.00000E+00
 -1      2127 1.20261E-01 7.27548E+01 0.00000E+00
 -1      2128 8.18241E-02 7.33442E+01 0.00000E+00
 -1      2129 4.34131E-02 7.37095E+01 0.00000E+00
 -1      2130 5.17473E-03 7.38512E+01 0.00000E+00
 -1      2131-3.27273E-02 7.37708E+01 0.00000E+00
 -1      2132-7.01630E-02 7.34706E+01 0.00000E+00
 -1      2133-1.06953E-01 7.29539E+01 0.00000E+00
 -1      2134-1.42963E-01 7.22248E+01 0.00000E+00
 -1      2135-1.78038E-01 7.12884E+01 0.00000E+00
 -1      2136-2.12029E-01 7.01505E+01 0.00000E+00
 -1      2137-2.44794E-01 6.88178E+01 0.00000E+00
 -1      2138-2.76182E-01 6.72981E+01 0.00000E+00
 -1      2139-3.06060E-01 6.55996E+01 0.00000E+00
 -1      2140-3.34285E-01 6.37316E+01 0.00000E+00
 -1      2141-3.60725E-01 6.17042E+01 0.00000E+00
 -1      2142-3.85253E-01 5.95280E+01 0.00000E+00
 -1      2143-4.07739E-01 5.72148E+01 0.00000E+00
 -1      2144-4.28064E-01 5.47766E+01 0.00000E+00
 -1      2145-4.46117E-01 5.22264E+01 0.00000E+00
 -1      2146-4.61778E-01 4.95780E+01 0.00000E+00
 -1      2147-4.74950E-01 4.68454E+01 0.00000E+00
 -1      2148-4.85529E-01 4.40435E+01 0.00000E+00
 -1      2149-4.93422E-01 4.11878E+01 0.00000E+00
 -1      2150-4.98543E-01 3.82941E+01 0.00000E+00
 -1      2151-5.00804E-01 3.53788E+01 0.00000E+00
 -1      2152-5.00139E-01 3.24589E+01 0.00000E+00
 -1      2153-4.96463E-01 2.95516E+01 0.00000E+00
 -1      2154-4.89731E-01 2.66746E+01 0.00000E+00
 -1      2155-4.79861E-01 2.38461E+01 0.00000E+00
 -1      2156-4.66831E-01 2.10844E+01 0.00000E+00
 -1      2157-4.50558E-01 1.84081E+01 0.00000E+00
 -1      2158-4.31046E-01 1.58362E+01 0.00000E+00
 -1      2159-4.08198E-01 1.33878E+01 0.00000E+00
 -1      2160-3.82070E-01 1.10823E+01 0.00000E+00
 -1      2161-3.52524E-01 8.93913E+00 0.00000E+00
 -1      2162-3.19682E-01 6.97797E+00 0.00000E+00
 -1      2163-2.83345E-01 5.21859E+00 0.00000E+00
 -1      2164-2.43727E-01 3.68074E+00 0.00000E+00
 -1      2165-2.00573E-01 2.38431E+00 0.00000E+00
 -1      2166-1.54020E-01 1.34959E+00 0.00000E+00
 -1      2167-1.04506E-01 5.94815E-01 0.00000E+00
 -1      2168-4.91884E-02 1.46765E-01 0.00000E+00
 -1      2169 0.00000E+00 0.00000E+00 0.00000E+00
 -1      2170-9.86821E-01 9.76714E+01 0.00000E+00
 -1      2171-9.86785E-01 9.19150E+01 0.00000E+00
 -1      2172-9.86550E-01 8.61591E+01 0.00000E+00
 -1      2173-9.85939E-01 8.04057E+01 0.00000E+00
 -1      2174-9.84775E-01 7.46577E+01 0.00000E+00
 -1      2175-9.82901E-01 6.89182E+01 0.00000E+00
 -1      2176-9.80166E-01 6.31925E+01 0.00000E+00
 -1      2177-9.76435E-01 5.74853E+01 0.00000E+00
 -1      2178-9.71583E-01 5.18034E+01 0.00000E+00
 -1      2179-9.65495E-01 4.61531E+01 0.00000E+00
 -1      2180-9.58076E-01 4.05425E+01 0.00000E+00
 -1      2181-9.49224E-01 3.49790E+01 0.00000E+00
 -1      2182-9.38879E-01 2.94718E+01 0.00000E+00
 -1      2183-9.26953E-01 2.40293E+01 0.00000E+00
 -1      2184-9.13413E-01 1.86613E+01 0.00000E+00
 -1      2185-8.98194E-01 1.33770E+01 0.00000E+00
 -1      2186-8.81273E-01 8.18635E+00 0.00000E+00
 -1      2187-8.62639E-01 3.09968E+00 0.00000E+00
 -1      2188-8.42249E-01-1.87342E+00 0.00000E+00
 -1      2189-8.20145E-01-6.72233E+00 0.00000E+00
 -1      2190-7.96288E-01-1.14374E+01 0.00000E+00
 -1      2191-7.70740E-01-1.60082E+01 0.00000E+00
 -1      2192-7.43499E-01-2.04252E+01 0.00000E+00
 -1      2193-7.14618E-01-2.46782E+01 0.00000E+00
 -1      2194-6.84141E-01-2.87584E+01 0.00000E+00
 -1      2195-6.52115E-01-3.26561E+01 0.00000E+00
 -1      2196-6.18620E-01-3.63628E+01 0.00000E+00
 -1      2197-5.83709E-01-3.98698E+01 0.00000E+00
 -1      2198-5.47477E-01-4.31694E+01 0.00000E+00
 -1      2199-5.09995E-01-4.62540E+01 0.00000E+00
 -1      2200-4.71370E-01-4.91165E+01 0.00000E+00
 -1      2201-4.31688E-01-5.17506E+01 0.00000E+00
 -1      2202-3.91060E-01-5.41505E+01 0.00000E+00
 -1      2203-3.49598E-01-5.63109E+01 0.00000E+00
 -1      2204-3.07404E-01-5.82273E+01 0.00000E+00
 -1      2205-2.64615E-01-5.98959E+01 0.00000E+00
 -1      2206-2.21332E-01-6.13133E+01 0.00000E+00
 -1      2207-1.77699E-01-6.24772E+01 0.00000E+00
 -1      2208-1.33836E-01-6.33859E+01 0.00000E+00
 -1      2209-8.98669E-02-6.40384E+01 0.00000E+00
 -1      2210-4.59389E-02-6.44345E+01 0.00000E+00
 -1      2211-2.16933E-03-6.45748E+01 0.00000E+00
 -1      2212 4.12990E-02-6.44606E+01 0.00000E+00
 -1      2213 8.43382E-02-6.40941E+01 0.00000E+00
 -1      2214 1.26807E-01-6.34781E+01 0.00000E+00
 -1      2215 1.68589E-01-6.26164E+01 0.00000E+00
 -1      2216 2.09535E-01-6.15134E+01 0.00000E+00
 -1      2217 2.49530E-01-6.01743E+01 0.00000E+00
 -1      2218 2.88444E-01-5.86050E+01 0.00000E+00
 -1      2219 3.26150E-01-5.68122E+01 0.00000E+00
 -1      2220 3.62544E-01-5.48032E+01 0.00000E+00
 -1      2221 3.97487E-01-5.25861E+01 0.00000E+00
 -1      2222 4.30887E-01-5.01697E+01 0.00000E+00
 -1      2223 4.62630E-01-4.75633E+01 0.00000E+00
 -1      2224 4.92613E-01-4.47769E+01 0.00000E+00
 -1      2225 5.20750E-01-4.18209E+01 0.00000E+00
 -1      2226 5.46939E-01-3.87064E+01 0.00000E+00
 -1      2227 5.71107E-01-3.54450E+01 0.00000E+00
 -1      2228 5.93170E-01-3.20488E+01 0.00000E+00
 -1      2229 6.13064E-01-2.85302E+01 0.00000E+00
 -1      2230 6.30722E-01-2.49021E+01 0.00000E+00
 -1      2231 6.46093E-01-2.11776E+01 0.00000E+00
 -1      2232 6.59124E-01-1.73703E+01 0.00000E+00
 -1      2233 6.69780E-01-1.34938E+01 0.00000E+00
 -1      2234 6.78027E-01-9.56218E+00 0.00000E+00
 -1      2235 6.83840E-01-5.58960E+00 0.00000E+00
 -1      2236 6.87206E-01-1.59025E+00 0.00000E+00
 -1      2237 6.88116E-01 2.42158E+00 0.00000E+00
 -1      2238 6.86571E-01 6.43155E+00 0.00000E+00
 -1      2239 6.82580E-01 1.04254E+01 0.00000E+00
 -1      2240 6.76161E-01 1.43888E+01 0.00000E+00
 -1      2241 6.67339E-01 1.83078E+01 0.00000E+00
 -1      2242 6.56149E-01 2.21684E+01 0.00000E+00
 -1      2243 6.42631E-01 2.59570E+01 0.00000E+00
 -1      2244 6.26835E-01 2.96600E+01 0.00000E+00
 -1      2245 6.08822E-01 3.32645E+01 0.00000E+00
 -1      2246 5.88650E-01 3.67575E+01 0.00000E+00
 -1      2247 5.66403E-01 4.01268E+01 0.00000E+00
 -1      2248 5.42143E-01 4.33605E+01 0.00000E+00
 -1      2249 5.15975E-01 4.64470E+01 0.00000E+00
 -1      2250 4.87979E-01 4.93756E+01 0.00000E+00
 -1      2251 4.58262E-01 5.21358E+01 0.00000E+00
 -1      2252 4.26920E-01 5.47178E+01 0.00000E+00
 -1      2253 3.94074E-01 5.71127E+01 0.00000E+00
 -1      2254 3.59833E-01 5.93118E+01 0.00000E+00
 -1      2255 3.24317E-01 6.13075E+01 0.00000E+00
 -1      2256 2.87656E-01 6.30926E+01 0.00000E+00
 -1      2257 2.49971E-01 6.46609E+01 0.00000E+00
 -1      2258 2.11401E-01 6.60067E+01 0.00000E+00
 -1      2259 1.72078E-01 6.71253E+01 0.00000E+00
 -1      2260 1.32139E-01 6.80127E+01 0.00000E+00
 -1      2261 9.17303E-02 6.86658E+01 0.00000E+00
 -1      2262 5.09736E-02 6.90821E+01 0.00000E+00
 -1      2263 1.00393E-02 6.92600E+01 0.00000E+00
 -1      2264-3.09486E-02 6.91990E+01 0.00000E+00
 -1      2265-7.18425E-02 6.88992E+01 0.00000E+00
 -1      2266-1.12496E-01 6.83615E+01 0.00000E+00
 -1      2267-1.52776E-01 6.75877E+01 0.00000E+00
 -1      2268-1.92529E-01 6.65804E+01 0.00000E+00
 -1      2269-2.31629E-01 6.53432E+01 0.00000E+00
 -1      2270-2.69931E-01 6.38801E+01 0.00000E+00
 -1      2271-3.07306E-01 6.21963E+01 0.00000E+00
 -1      2272-3.43619E-01 6.02976E+01 0.00000E+00
 -1      2273-3.78752E-01 5.81904E+01 0.00000E+00
 -1      2274-4.12572E-01 5.58821E+01 0.00000E+00
 -1      2275-4.44966E-01 5.33807E+01 0.00000E+00
 -1      2276-4.75827E-01 5.06947E+01 0.00000E+00
 -1      2277-5.05034E-01 4.78335E+01 0.00000E+00
 -1      2278-5.32498E-01 4.48070E+01 0.00000E+00
 -1      2279-5.58113E-01 4.16257E+01 0.00000E+00
 -1      2280-5.81798E-01 3.83006E+01 0.00000E+00
 -1      2281-6.03466E-01 3.48432E+01 0.00000E+00
 -1      2282-6.23041E-01 3.12655E+01 0.00000E+00
 -1      2283-6.40457E-01 2.75798E+01 0.00000E+00
 -1      2284-6.55651E-01 2.37991E+01 0.00000E+00
 -1      2285-6.68572E-01 1.99363E+01 0.00000E+00
 -1      2286-6.79172E-01 1.60050E+01 0.00000E+00
 -1      2287-6.87417E-01 1.20186E+01 0.00000E+00
 -1      2288-6.93276E-01 7.99113E+00 0.00000E+00
 -1      2289-6.96729E-01 3.93649E+00 0.00000E+00
 -1      2290-6.97763E-01-1.31346E-01 0.00000E+00
 -1      2291-6.96374E-01-4.19804E+00 0.00000E+00
 -1      2292-6.92568E-01-8.24959E+00 0.00000E+00
 -1      2293-6.86357E-01-1.22719E+01 0.00000E+00
 -1      2294-6.77761E-01-1.62510E+01 0.00000E+00
 -1      2295-6.66811E-01-2.01732E+01 0.00000E+00
 -1      2296-6.53545E-01-2.40246E+01 0.00000E+00
 -1      2297-6.38007E-01-2.77921E+01 0.00000E+00
 -1      2298-6.20253E-01-3.14625E+01 0.00000E+00
 -1      2299-6.00340E-01-3.50229E+01 0.00000E+00
 -1      2300-5.78342E-01-3.84611E+01 0.00000E+00
 -1      2301-5.54332E-01-4.17652E+01 0.00000E+00
 -1      2302-5.28393E-01-4.49235E+01 0.00000E+00
 -1      2303-5.00615E-01-4.79252E+01 0.00000E+00
 -1      2304-4.71093E-01-5.07596E+01 0.00000E+00
 -1      2305-4.39933E-01-5.34171E+01 0.00000E+00
 -1      2306-4.07236E-01-5.58883E+01 0.00000E+00
 -1      2307-3.73123E-01-5.81646E+01 0.00000E+00
 -1      2308-3.37704E-01-6.02381E+01 0.00000E+00
 -1      2309-3.01110E-01-6.21015E+01 0.00000E+00
 -1      2310-2.63455E-01-6.37483E+01 0.00000E+00
 -1      2311-2.24884E-01-6.51728E+01 0.00000E+00
 -1      2312-1.85520E-01-6.63700E+01 0.00000E+00
 -1      2313-1.45501E-01-6.73356E+01 0.00000E+00
 -1      2314-1.04970E-01-6.80662E+01 0.00000E+00
 -1      2315-6.40570E-02-6.85592E+01 0.00000E+00
 -1      2316-2.29172E-02-6.88129E+01 0.00000E+00
 -1      2317 1.83247E-02-6.88263E+01 0.00000E+00
 -1      2318 5.95086E-02-6.85993E+01 0.00000E+00
 -1      2319 1.00501E-01-6.81326E+01 0.00000E+00
 -1      2320 1.41167E-01-6.74276E+01 0.00000E+00
 -1      2321 1.81352E-01-6.64868E+01 0.00000E+00
 -1      2322 2.20927E-01-6.53134E+01 0.00000E+00
 -1      2323 2.59757E-01-6.39112E+01 0.00000E+00
 -1      2324 2.97700E-01-6.22851E+01 0.00000E+00
 -1      2325 3.34637E-01-6.04406E+01 0.00000E+00
 -1      2326 3.70429E-01-5.83839E+01 0.00000E+00
 -1      2327 4.04963E-01-5.61221E+01 0.00000E+00
 -1      2328 4.38114E-01-5.36629E+01 0.00000E+00
 -1      2329 4.69774E-01-5.10146E+01 0.00000E+00
 -1      2330 4.99826E-01-4.81862E+01 0.00000E+00
 -1      2331 5.28185E-01-4.51875E+01 0.00000E+00
 -1      2332 5.54731E-01-4.20286E+01 0.00000E+00
 -1      2333 5.79391E-01-3.87204E+01 0.00000E+00
 -1      2334 6.02076E-01-3.52740E+01 0.00000E+00
 -1      2335 6.22707E-01-3.17014E+01 0.00000E+00
 -1      2336 6.41221E-01-2.80145E+01 0.00000E+00
 -1      2337 6.57550E-01-2.42260E+01 0.00000E+00
 -1      2338 6.71644E-01-2.03487E+01 0.00000E+00
 -1      2339 6.83455E-01-1.63959E+01 0.00000E+00
 -1      2340 6.92945E-01-1.23810E+01 0.00000E+00
 -1      2341 7.00086E-01-8.31750E+00 0.00000E+00
 -1      2342 7.04854E-01-4.21930E+00 0.00000E+00
 -1      2343 7.07239E-01-1.00227E-01 0.00000E+00
 -1      2344 7.07235E-01 4.02578E+00 0.00000E+00
 -1      2345 7.04845E-01 8.14491E+00 0.00000E+00
 -1      2346 7.00083E-01 1.22431E+01 0.00000E+00
 -1      2347 6.92970E-01 1.63066E+01 0.00000E+00
 -1      2348 6.83535E-01 2.03219E+01 0.00000E+00
 -1      2349 6.71816E-01 2.42754E+01 0.00000E+00
 -1      2350 6.57859E-01 2.81540E+01 0.00000E+00
 -1      2351 6.41720E-01 3.19449E+01 0.00000E+00
 -1      2352 6.23456E-01 3.56354E+01 0.00000E+00
 -1      2353 6.03144E-01 3.92134E+01 0.00000E+00
 -1      2354 5.80857E-01 4.26671E+01 0.00000E+00
 -1      2355 5.56679E-01 4.59853E+01 0.00000E+00
 -1      2356 5.30706E-01 4.91571E+01 0.00000E+00
 -1      2357 5.03029E-01 5.21725E+01 0.00000E+00
 -1      2358 4.73763E-01 5.50218E+01 0.00000E+00
 -1      2359 4.43006E-01 5.76961E+01 0.00000E+00
 -1      2360 4.10887E-01 6.01868E+01 0.00000E+00
 -1      2361 3.77523E-01 6.24866E+01 0.00000E+00
 -1      2362 3.43035E-01 6.45884E+01 0.00000E+00
 -1      2363 3.07565E-01 6.64862E+01 0.00000E+00
 -1      2364 2.71241E-01 6.81746E+01 0.00000E+00
 -1      2365 2.34204E-01 6.96489E+01 0.00000E+00
 -1      2366 1.96601E-01 7.09055E+01 0.00000E+00
 -1      2367 1.58565E-01 7.19415E+01 0.00000E+00
 -1      2368 1.20261E-01 7.27548E+01 0.00000E+00
 -1      2369 8.18241E-02 7.33442E+01 0.00000E+00
 -1      2370 4.34131E-02 7.37095E+01 0.00000E+00
 -1      2371 5.17473E-03 7.38512E+01 0.00000E+00
 -1      2372-3.27273E-02 7.37708E+01 0.00000E+00
 -1      2373-7.01630E-02 7.34706E+01 0.00000E+00
 -1      2374-1.06953E-01 7.29539E+01 0.00000E+00
 -1      2375-1.42963E-01 7.22248E+01 0.00000E+00
 -1      2376-1.78038E-01 7.12884E+01 0.00000E+00
 -1      2377-2.12029E-01 7.01505E+01 0.00000E+00
 -1      2378-2.44794E-01 6.88178E+01 0.00000E+00
 -1      2379-2.76182E-01 6.72981E+01 0.00000E+00
 -1      2380-3.06060E-01 6.55996E+01 0.00000E+00
 -1      2381-3.34285E-01 6.37316E+01 0.00000E+00
 -1      2382-3.60725E-01 6.17042E+01 0.00000E+00
 -1      2383-3.85253E-01 5.95280E+01 0.00000E+00
 -1      2384-4.07739E-01 5.72148E+01 0.00000E+00
 -1      2385-4.28064E-01 5.47766E+01 0.00000E+00
 -1      2386-4.46117E-01 5.22264E+01 0.00000E+00
 -1      2387-4.61778E-01 4.95780E+01 0.00000E+00
 -1      2388-4.74950E-01 4.68454E+01 0.00000E+00
 -1      2389-4.85529E-01 4.40435E+01 0.00000E+00
 -1      2390-4.93422E-01 4.11878E+01 0.00000E+00
 -1      2391-4.98543E-01 3.82941E+01 0.00000E+00
 -1      2392-5.00804E-01 3.53788E+01 0.00000E+00
 -1      2393-5.00139E-01 3.24589E+01 0.00000E+00
 -1      2394-4.96463E-01 2.95516E+01 0.00000E+00
 -1      2395-4.89731E-01 2.66746E+01 0.00000E+00
 -1      2396-4.79861E-01 2.38461E+01 0.00000E+00
 -1      2397-4.66831E-01 2.10844E+01 0.00000E+00
 -1      2398-4.50558E-01 1.84081E+01 0.00000E+00
 -1      2399-4.31046E-01 1.58362E+01 0.00000E+00
 -1      2400-4.08198E-01 1.33878E+01 0.00000E+00
 -1      2401-3.82070E-01 1.10823E+01 0.00000E+00
 -1      2402-3.52524E-01 8.93913E+00 0.00000E+00
 -1      2403-3.19682E-01 6.97797E+00 0.00000E+00
 -1      2404-2.83345E-01 5.21859E+00 0.00000E+00
 -1      2405-2.43727E-01 3.68074E+00 0.00000E+00
 -1      2406-2.00573E-01 2.38431E+00 0.00000E+00
 -1      2407-1.54020E-01 1.34959E+00 0.00000E+00
 -1      2408-1.04506E-01 5.94815E-01 0.00000E+00
 -1      2409-4.91884E-02 1.46765E-01 0.00000E+00
 -1      2410 0.00000E+00 0.00000E+00 0.00000E+00
 -3
    1PSTEP                        18           1           1          
    1PGM                1.000000E+00                                  
    1PGK                2.162072E+07                                  
    1PHID                         -1                                  
    1PSUBC                         0                                  
    1PMODE                         5                                  
  100CL  105 740.0400698        2410                     2    5MODAL      1
 -4  STRESS      6    1
 -5  SXX         1    4    1    1
 -5  SYY         1    4    2    2
 -5  SZZ         1    4    3    3
 -5  SXY         1    4    1    2
 -5  SYZ         1    4    2    3
 -5  SZX         1    4    3    1
 -1         1 1.22107E+09 6.07158E+08 6.94728E+08-5.54377E+07-2.36616E+11-1.84747E+09
 -1         2 5.05447E+09 5.58113E+08 2.13278E+09 2.75385E+08-2.29432E+11-1.84735E+09
 -1         3 1.61244E+10 5.53882E+08 6.33776E+09 5.24000E+08-2.15066E+11-1.84684E+09
 -1         4 3.40324E+10 4.84326E+08 1.31164E+10 7.64357E+08-2.00706E+11-1.84562E+09
 -1         5 5.83609E+10 4.63337E+08 2.23532E+10 9.82515E+08-1.86359E+11-1.84337E+09
 -1         6 8.86129E+10 4.49695E+08 3.38438E+10 1.18852E+09-1.72035E+11-1.83981E+09
 -1         7 1.24387E+11 3.75300E+08 4.74098E+10 1.37558E+09-1.57745E+11-1.83463E+09
 -1         8 1.65150E+11 3.59773E+08 6.28937E+10 1.54496E+09-1.43502E+11-1.82759E+09
 -1         9 2.10533E+11 3.44973E+08 8.01334E+10 1.70493E+09-1.29321E+11-1.81846E+09
 -1        10 2.60014E+11 1.98315E+08 9.88807E+10 1.83893E+09-1.15221E+11-1.80702E+09
 -1        11 3.13167E+11 4.02356E+08 1.19156E+11 1.96987E+09-1.01219E+11-1.79309E+09
 -1        12 3.69594E+11 9.33556E+07 1.40481E+11 2.06711E+09-8.73358E+10-1.77649E+09
 -1        13 4.28744E+11 2.39421E+08 1.63014E+11 2.16662E+09-7.35924E+10-1.75709E+09
 -1        14 4.90276E+11 1.82616E+08 1.86374E+11 2.23510E+09-6.00113E+10-1.73475E+09
 -1        15 5.53753E+11-1.41016E+08 2.10373E+11 2.30993E+09-4.66157E+10-1.70937E+09
 -1        16 6.18641E+11 5.20268E+08 2.35281E+11 2.34575E+09-3.34295E+10-1.68087E+09
 -1        17 6.84655E+11-2.51060E+08 2.60074E+11 2.36850E+09-2.04774E+10-1.64919E+09
 -1        18 7.51337E+11 1.16011E+08 2.85552E+11 2.40133E+09-7.78413E+09-1.61428E+09
 -1        19 8.18195E+11-3.86730E+06 3.10913E+11 2.37978E+09 4.62497E+09-1.57613E+09
 -1        20 8.84987E+11-2.20655E+08 3.36211E+11 2.40094E+09 1.67247E+10-1.53472E+09
 -1        21 9.51173E+11 2.38049E+08 3.61536E+11 2.34141E+09 2.84898E+10-1.49009E+09
 -1        22 1.01650E+12-3.02938E+08 3.86154E+11 2.32461E+09 3.98952E+10-1.44226E+09
 -1        23 1.08059E+12-5.84195E+07 4.10601E+11 2.25750E+09 5.09164E+10-1.39128E+09
 -1        24 1.14294E+12-2.43739E+08 4.34224E+11 2.20222E+09 6.15291E+10-1.33723E+09
 -1        25 1.20344E+12-1.14855E+08 4.57262E+11 2.13146E+09 7.17098E+10-1.28019E+09
 -1        26 1.26159E+12-1.31160E+08 4.79354E+11 2.02789E+09 8.14355E+10-1.22027E+09
 -1        27 1.31717E+12-2.92258E+08 5.00414E+11 1.94135E+09 9.06843E+10-1.15758E+09
 -1        28 1.36987E+12-3.32334E+08 5.20426E+11 1.82684E+09 9.94353E+10-1.09226E+09
 -1        29 1.41935E+12-1.91405E+08 5.39278E+11 1.71847E+09 1.07668E+11-1.02446E+09
 -1        30 1.46543E+12-1.87802E+08 5.56791E+11 1.57732E+09 1.15365E+11-9.54333E+08
 -1        31 1.50786E+12-4.37499E+08 5.72821E+11 1.44965E+09 1.22508E+11-8.82054E+08
 -1        32 1.54634E+12-2.51929E+08 5.87514E+11 1.30010E+09 1.29081E+11-8.07808E+08
 -1        33 1.58069E+12-4.71366E+08 6.00484E+11 1.15623E+09 1.35069E+11-7.31792E+08
 -1        34 1.61078E+12-2.27169E+08 6.12011E+11 1.00316E+09 1.40460E+11-6.54210E+08
 -1        35 1.63637E+12-3.76654E+08 6.21678E+11 8.26489E+08 1.45242E+11-5.75275E+08
 -1        36 1.65732E+12-4.30296E+08 6.29619E+11 6.71963E+08 1.49405E+11-4.95208E+08
 -1        37 1.67351E+12-1.80429E+08 6.35865E+11 4.83338E+08 1.52943E+11-4.14237E+08
 -1        38 1.68485E+12-6.77492E+08 6.39984E+11 3.18819E+08 1.55847E+11-3.32597E+08
 -1        39 1.69119E+12-2.54479E+08 6.42554E+11 1.40093E+08 1.58115E+11-2.50528E+08
 -1        40 1.69246E+12-2.90434E+08 6.43024E+11-4.91436E+07 1.59744E+11-1.68275E+08
 -1        41 1.68869E+12-5.43848E+08 6.41494E+11-2.31304E+08 1.60733E+11-8.60819E+07
 -1        42 1.67978E+12-3.65602E+08 6.38179E+11-4.08128E+08 1.61084E+11-4.19635E+06
 -1        43 1.66572E+12-3.84463E+08 6.32829E+11-5.97688E+08 1.60800E+11 7.71307E+07
 -1        44 1.64652E+12-5.05483E+08 6.25485E+11-7.77497E+08 1.59886E+11 1.57649E+08
 -1        45 1.62225E+12-3.15324E+08 6.16336E+11-9.50498E+08 1.58350E+11 2.37111E+08
 -1        46 1.59293E+12-2.76083E+08 6.05208E+11-1.14849E+09 1.56201E+11 3.15269E+08
 -1        47 1.55860E+12-5.37579E+08 5.92063E+11-1.31543E+09 1.53450E+11 3.91881E+08
 -1        48 1.51939E+12-2.61572E+08 5.77267E+11-1.49164E+09 1.50110E+11 4.66705E+08
 -1        49 1.47542E+12-5.98040E+08 5.60431E+11-1.65214E+09 1.46196E+11 5.39507E+08
 -1        50 1.42675E+12-1.94930E+08 5.42092E+11-1.81560E+09 1.41724E+11 6.10059E+08
 -1        51 1.37354E+12-1.47591E+08 5.21889E+11-1.99171E+09 1.36712E+11 6.78131E+08
 -1        52 1.31604E+12-5.67962E+08 4.99881E+11-2.13568E+09 1.31182E+11 7.43513E+08
 -1        53 1.25432E+12-2.17453E+08 4.76558E+11-2.28219E+09 1.25154E+11 8.05998E+08
 -1        54 1.18859E+12-4.06969E+08 4.51510E+11-2.41681E+09 1.18652E+11 8.65384E+08
 -1        55 1.11909E+12-1.96773E+08 4.25181E+11-2.54894E+09 1.11701E+11 9.21484E+08
 -1        56 1.04604E+12-2.01082E+08 3.97419E+11-2.67608E+09 1.04327E+11 9.74117E+08
 -1        57 9.69673E+11-3.26660E+08 3.68352E+11-2.79164E+09 9.65581E+10 1.02312E+09
 -1        58 8.90185E+11-1.96455E+08 3.38196E+11-2.89327E+09 8.84223E+10 1.06833E+09
 -1        59 8.07903E+11-1.95747E+08 3.06929E+11-2.98976E+09 7.99500E+10 1.10961E+09
 -1        60 7.23086E+11-2.16075E+08 2.74690E+11-3.07495E+09 7.11724E+10 1.14683E+09
 -1        61 6.35971E+11-1.30354E+08 2.41620E+11-3.15149E+09 6.21215E+10 1.17987E+09
 -1        62 5.46877E+11-7.76225E+07 2.07784E+11-3.22061E+09 5.28303E+10 1.20862E+09
 -1        63 4.56120E+11-1.88796E+08 1.73254E+11-3.27170E+09 4.33324E+10 1.23300E+09
 -1        64 3.63970E+11-4.34412E+07 1.38292E+11-3.31665E+09 3.36620E+10 1.25294E+09
 -1        65 2.70732E+11-5.69633E+07 1.02857E+11-3.35034E+09 2.38540E+10 1.26837E+09
 -1        66 1.76754E+11-4.82387E+07 6.71481E+10-3.37145E+09 1.39437E+10 1.27925E+09
 -1        67 8.23181E+10 2.80095E+06 3.12819E+10-3.38148E+09 3.96666E+09 1.28555E+09
 -1        68-1.22337E+10 6.80353E+06-4.64620E+09-3.37935E+09-6.04153E+09 1.28725E+09
 -1        69-1.06598E+11 3.25449E+07-4.04949E+10-3.36598E+09-1.60451E+10 1.28437E+09
 -1        70-2.00455E+11 9.37695E+07-7.61374E+10-3.34291E+09-2.60085E+10 1.27690E+09
 -1        71-2.93473E+11 6.92814E+07-1.11493E+11-3.30841E+09-3.58961E+10 1.26490E+09
 -1        72-3.85351E+11 8.96395E+07-1.46399E+11-3.26062E+09-4.56727E+10 1.24840E+09
 -1        73-4.75768E+11 1.72552E+08-1.80726E+11-3.20090E+09-5.53038E+10 1.22746E+09
 -1        74-5.64435E+11 1.29081E+08-2.14436E+11-3.13529E+09-6.47551E+10 1.20218E+09
 -1        75-6.51027E+11 2.61590E+08-2.47291E+11-3.05327E+09-7.39931E+10 1.17263E+09
 -1        76-7.35250E+11 1.34873E+08-2.79344E+11-2.96985E+09-8.29850E+10 1.13893E+09
 -1        77-8.16821E+11 2.53065E+08-3.10296E+11-2.86174E+09-9.16991E+10 1.10120E+09
 -1        78-8.95515E+11 2.48899E+08-3.40201E+11-2.76312E+09-1.00105E+11 1.05958E+09
 -1        79-9.70977E+11 2.17244E+08-3.68889E+11-2.63007E+09-1.08172E+11 1.01421E+09
 -1        80-1.04296E+12 3.20456E+08-3.96204E+11-2.50829E+09-1.15872E+11 9.65249E+08
 -1        81-1.11133E+12 3.89366E+08-4.22156E+11-2.37486E+09-1.23178E+11 9.12880E+08
 -1        82-1.17570E+12 2.64616E+08-4.46666E+11-2.22971E+09-1.30064E+11 8.57285E+08
 -1        83-1.23594E+12 2.48143E+08-4.69563E+11-2.07474E+09-1.36505E+11 7.98661E+08
 -1        84-1.29183E+12 4.72592E+08-4.90717E+11-1.91127E+09-1.42480E+11 7.37212E+08
 -1        85-1.34320E+12 2.95144E+08-5.10303E+11-1.75415E+09-1.47966E+11 6.73157E+08
 -1        86-1.38983E+12 5.21223E+08-5.27939E+11-1.57659E+09-1.52945E+11 6.06719E+08
 -1        87-1.43154E+12 2.83292E+08-5.43877E+11-1.40631E+09-1.57398E+11 5.38134E+08
 -1        88-1.46830E+12 3.19868E+08-5.57833E+11-1.21936E+09-1.61311E+11 4.67642E+08
 -1        89-1.49991E+12 5.46023E+08-5.69757E+11-1.02711E+09-1.64668E+11 3.95486E+08
 -1        90-1.52620E+12 3.08322E+08-5.79840E+11-8.45666E+08-1.67459E+11 3.21924E+08
 -1        91-1.54721E+12 6.84161E+08-5.87680E+11-6.51560E+08-1.69673E+11 2.47211E+08
 -1        92-1.56280E+12 2.26349E+08-5.93779E+11-4.73618E+08-1.71302E+11 1.71608E+08
 -1        93-1.57292E+12 2.40185E+08-5.97620E+11-2.46773E+08-1.72341E+11 9.53820E+07
 -1        94-1.57753E+12 6.98460E+08-5.99197E+11-6.02837E+07-1.72785E+11 1.87959E+07
 -1        95-1.57664E+12 3.03790E+08-5.99006E+11 1.33225E+08-1.72633E+11-5.78806E+07
 -1        96-1.57028E+12 5.76486E+08-5.96488E+11 3.26312E+08-1.71885E+11-1.34380E+08
 -1        97-1.55839E+12 3.45787E+08-5.92056E+11 5.22837E+08-1.70544E+11-2.10437E+08
 -1        98-1.54104E+12 2.94459E+08-5.85482E+11 7.22698E+08-1.68614E+11-2.85781E+08
 -1        99-1.51840E+12 5.57309E+08-5.76780E+11 9.09454E+08-1.66101E+11-3.60154E+08
 -1       100-1.49040E+12 3.75933E+08-5.66209E+11 1.10042E+09-1.63015E+11-4.33297E+08
 -1       101-1.45718E+12 3.66842E+08-5.53590E+11 1.27895E+09-1.59365E+11-5.04951E+08
 -1       102-1.41893E+12 4.96386E+08-5.39007E+11 1.46181E+09-1.55164E+11-5.74869E+08
 -1       103-1.37571E+12 3.03194E+08-5.22654E+11 1.62728E+09-1.50428E+11-6.42806E+08
 -1       104-1.32770E+12 2.44852E+08-5.04434E+11 1.81003E+09-1.45171E+11-7.08524E+08
 -1       105-1.27504E+12 5.59472E+08-4.84303E+11 1.96737E+09-1.39413E+11-7.71796E+08
 -1       106-1.21795E+12 1.97122E+08-4.62745E+11 2.11563E+09-1.33172E+11-8.32401E+08
 -1       107-1.15663E+12 3.40875E+08-4.39391E+11 2.27219E+09-1.26472E+11-8.90126E+08
 -1       108-1.09124E+12 3.29470E+08-4.14547E+11 2.40977E+09-1.19334E+11-9.44772E+08
 -1       109-1.02204E+12 1.71046E+08-3.88311E+11 2.54359E+09-1.11784E+11-9.96145E+08
 -1       110-9.49331E+11 3.69277E+08-3.60606E+11 2.66407E+09-1.03848E+11-1.04407E+09
 -1       111-8.73269E+11 1.88686E+08-3.31771E+11 2.77916E+09-9.55527E+10-1.08838E+09
 -1       112-7.94154E+11 2.80504E+08-3.01672E+11 2.87936E+09-8.69275E+10-1.12891E+09
 -1       113-7.12280E+11 1.46501E+08-2.70611E+11 2.97494E+09-7.80022E+10-1.16553E+09
 -1       114-6.27921E+11 1.33166E+08-2.38559E+11 3.05985E+09-6.88078E+10-1.19811E+09
 -1       115-5.41373E+11 2.07953E+08-2.05643E+11 3.13423E+09-5.93760E+10-1.22654E+09
 -1       116-4.52904E+11 9.31024E+07-1.72068E+11 3.19327E+09-4.97395E+10-1.25071E+09
 -1       117-3.62882E+11 1.30405E+08-1.37846E+11 3.24357E+09-3.99319E+10-1.27054E+09
 -1       118-2.71568E+11 5.46771E+07-1.03175E+11 3.28576E+09-2.99872E+10-1.28597E+09
 -1       119-1.79294E+11 3.91395E+07-6.81169E+10 3.31335E+09-1.99398E+10-1.29693E+09
 -1       120-8.64004E+10 4.26976E+07-3.28159E+10 3.33098E+09-9.82465E+09-1.30339E+09
 -1       121 6.82215E+09-1.35214E+07 2.58728E+09 3.33553E+09 3.23264E+08-1.30533E+09
 -1       122 1.00025E+11-1.08931E+07 3.80055E+10 3.32810E+09 1.04686E+10-1.30273E+09
 -1       123 1.92901E+11-8.22201E+07 7.32711E+10 3.31063E+09 2.05761E+10-1.29561E+09
 -1       124 2.85105E+11-5.38336E+07 1.08319E+11 3.28228E+09 3.06107E+10-1.28399E+09
 -1       125 3.76354E+11-7.64562E+07 1.42985E+11 3.24138E+09 4.05375E+10-1.26792E+09
 -1       126 4.66302E+11-1.68178E+08 1.77131E+11 3.18597E+09 5.03221E+10-1.24743E+09
 -1       127 5.54625E+11-1.08531E+08 2.10716E+11 3.12486E+09 5.99305E+10-1.22262E+09
 -1       128 6.41077E+11-2.46037E+08 2.43516E+11 3.05256E+09 6.93294E+10-1.19355E+09
 -1       129 7.25282E+11-1.47901E+08 2.75551E+11 2.96804E+09 7.84860E+10-1.16034E+09
 -1       130 8.06994E+11-1.66587E+08 3.06594E+11 2.87201E+09 8.73684E+10-1.12309E+09
 -1       131 8.85920E+11-2.95904E+08 3.36537E+11 2.76274E+09 9.59459E+10-1.08194E+09
 -1       132 9.61800E+11-2.82716E+08 3.65377E+11 2.65546E+09 1.04189E+11-1.03702E+09
 -1       133 1.03435E+12-3.30519E+08 3.92929E+11 2.53276E+09 1.12068E+11-9.88499E+08
 -1       134 1.10329E+12-1.45442E+08 4.19197E+11 2.39815E+09 1.19556E+11-9.36537E+08
 -1       135 1.16847E+12-3.39587E+08 4.43888E+11 2.25349E+09 1.26628E+11-8.81313E+08
 -1       136 1.22961E+12-3.91398E+08 4.67103E+11 2.10379E+09 1.33257E+11-8.23017E+08
 -1       137 1.28645E+12-3.38695E+08 4.88721E+11 1.95159E+09 1.39423E+11-7.61855E+08
 -1       138 1.33887E+12-3.31595E+08 5.08644E+11 1.78858E+09 1.45102E+11-6.98036E+08
 -1       139 1.38670E+12-4.88996E+08 5.26759E+11 1.62289E+09 1.50275E+11-6.31780E+08
 -1       140 1.42967E+12-3.07318E+08 5.43160E+11 1.44937E+09 1.54924E+11-5.63317E+08
 -1       141 1.46773E+12-2.89569E+08 5.57627E+11 1.26538E+09 1.59032E+11-4.92884E+08
 -1       142 1.50072E+12-5.41265E+08 5.70068E+11 1.07790E+09 1.62586E+11-4.20723E+08
 -1       143 1.52854E+12-3.32654E+08 5.80720E+11 8.99760E+08 1.65573E+11-3.47084E+08
 -1       144 1.55107E+12-5.77457E+08 5.89188E+11 7.03652E+08 1.67982E+11-2.72221E+08
 -1       145 1.56819E+12-2.69638E+08 5.95810E+11 5.17921E+08 1.69805E+11-1.96394E+08
 -1       146 1.57997E+12-4.64558E+08 6.00212E+11 3.17970E+08 1.71035E+11-1.19865E+08
 -1       147 1.58629E+12-4.66148E+08 6.02614E+11 1.24033E+08 1.71668E+11-4.28951E+07
 -1       148 1.58708E+12-2.54133E+08 6.02992E+11-7.70754E+07 1.71702E+11 3.42475E+07
 -1       149 1.58243E+12-6.88162E+08 6.01060E+11-2.72661E+08 1.71136E+11 1.11297E+08
 -1       150 1.57232E+12-2.84903E+08 5.97374E+11-4.53849E+08 1.69972E+11 1.87987E+08
 -1       151 1.55679E+12-3.42874E+08 5.91451E+11-6.63149E+08 1.68213E+11 2.64054E+08
 -1       152 1.53587E+12-5.34438E+08 5.83427E+11-8.51006E+08 1.65867E+11 3.39235E+08
 -1       153 1.50970E+12-3.36255E+08 5.73560E+11-1.03001E+09 1.62940E+11 4.13271E+08
 -1       154 1.47833E+12-5.24524E+08 5.61567E+11-1.22181E+09 1.59442E+11 4.85910E+08
 -1       155 1.44182E+12-3.02086E+08 5.47778E+11-1.39102E+09 1.55385E+11 5.56898E+08
 -1       156 1.40040E+12-2.78951E+08 5.32046E+11-1.57739E+09 1.50784E+11 6.25991E+08
 -1       157 1.35420E+12-4.76143E+08 5.14416E+11-1.74194E+09 1.45653E+11 6.92954E+08
 -1       158 1.30331E+12-3.39407E+08 4.95128E+11-1.90668E+09 1.40011E+11 7.57558E+08
 -1       159 1.24795E+12-2.80070E+08 4.74114E+11-2.05788E+09 1.33876E+11 8.19578E+08
 -1       160 1.18834E+12-4.90766E+08 4.51383E+11-2.21143E+09 1.27270E+11 8.78805E+08
 -1       161 1.12468E+12-1.68920E+08 4.27312E+11-2.33799E+09 1.20214E+11 9.35036E+08
 -1       162 1.05717E+12-1.49272E+08 4.01667E+11-2.49420E+09 1.12733E+11 9.88076E+08
 -1       163 9.86045E+11-4.31389E+08 3.74533E+11-2.61020E+09 1.04853E+11 1.03775E+09
 -1       164 9.11621E+11-1.75091E+08 3.46349E+11-2.71885E+09 9.65997E+10 1.08388E+09
 -1       165 8.34097E+11-2.95488E+08 3.16845E+11-2.82828E+09 8.80021E+10 1.12632E+09
 -1       166 7.53744E+11-1.46527E+08 2.86367E+11-2.91865E+09 7.90894E+10 1.16492E+09
 -1       167 6.70893E+11-1.28102E+08 2.54890E+11-3.00926E+09 6.98918E+10 1.19955E+09
 -1       168 5.85823E+11-2.12077E+08 2.22532E+11-3.08111E+09 6.04405E+10 1.23010E+09
 -1       169 4.98807E+11-1.03722E+08 1.89507E+11-3.14387E+09 5.07679E+10 1.25647E+09
 -1       170 4.10167E+11-1.26151E+08 1.55816E+11-3.19542E+09 4.09067E+10 1.27857E+09
 -1       171 3.20241E+11-6.00949E+07 1.21669E+11-3.23517E+09 3.08905E+10 1.29633E+09
 -1       172 2.29319E+11-3.50069E+07 8.71279E+10-3.26789E+09 2.07533E+10 1.30969E+09
 -1       173 1.37737E+11-4.80732E+07 5.23216E+10-3.28268E+09 1.05293E+10 1.31862E+09
 -1       174 4.58221E+10 7.56796E+06 1.74153E+10-3.28874E+09 2.53261E+08 1.32308E+09
 -1       175-4.61063E+10 3.39554E+07-1.75075E+10-3.28411E+09-1.00402E+10 1.32308E+09
 -1       176-1.37710E+11 3.26154E+07-5.23174E+10-3.26750E+09-2.03162E+10 1.31861E+09
 -1       177-2.28667E+11 7.47544E+07-8.68650E+10-3.23593E+09-3.05402E+10 1.30971E+09
 -1       178-3.18645E+11 1.10933E+08-1.21043E+11-3.19410E+09-4.06778E+10 1.29640E+09
 -1       179-4.07337E+11 1.25979E+08-1.54740E+11-3.14316E+09-5.06950E+10 1.27876E+09
 -1       180-4.94403E+11 1.40362E+08-1.87820E+11-3.07757E+09-6.05583E+10 1.25684E+09
 -1       181-5.79532E+11 2.23448E+08-2.20137E+11-3.00351E+09-7.02348E+10 1.23073E+09
 -1       182-6.62432E+11 1.63108E+08-2.51662E+11-2.92260E+09-7.96923E+10 1.20055E+09
 -1       183-7.42789E+11 1.71223E+08-2.82195E+11-2.81908E+09-8.88994E+10 1.16639E+09
 -1       184-8.20303E+11 3.14952E+08-3.11596E+11-2.71348E+09-9.78259E+10 1.12839E+09
 -1       185-8.94690E+11 2.11547E+08-3.39902E+11-2.59676E+09-1.06442E+11 1.08670E+09
 -1       186-9.65720E+11 3.83316E+08-3.66828E+11-2.47362E+09-1.14721E+11 1.04148E+09
 -1       187-1.03305E+12 2.31567E+08-3.92471E+11-2.33770E+09-1.22634E+11 9.92893E+08
 -1       188-1.09646E+12 3.19919E+08-4.16532E+11-2.18945E+09-1.30157E+11 9.41128E+08
 -1       189-1.15578E+12 3.88693E+08-4.39049E+11-2.04444E+09-1.37266E+11 8.86379E+08
 -1       190-1.21068E+12 2.18464E+08-4.59974E+11-1.87162E+09-1.43938E+11 8.28853E+08
 -1       191-1.26098E+12 5.84228E+08-4.78949E+11-1.70893E+09-1.50153E+11 7.68769E+08
 -1       192-1.30649E+12 2.78683E+08-4.96360E+11-1.53920E+09-1.55891E+11 7.06357E+08
 -1       193-1.34706E+12 3.17919E+08-5.11762E+11-1.35432E+09-1.61135E+11 6.41853E+08
 -1       194-1.38248E+12 5.41423E+08-5.25137E+11-1.15985E+09-1.65870E+11 5.75500E+08
 -1       195-1.41258E+12 3.42552E+08-5.36651E+11-9.78110E+08-1.70083E+11 5.07554E+08
 -1       196-1.43728E+12 5.72317E+08-5.45949E+11-7.76503E+08-1.73762E+11 4.38276E+08
 -1       197-1.45645E+12 3.33659E+08-5.53325E+11-5.88547E+08-1.76898E+11 3.67932E+08
 -1       198-1.46996E+12 3.75664E+08-5.58441E+11-3.68186E+08-1.79483E+11 2.96794E+08
 -1       199-1.47773E+12 5.48787E+08-5.61330E+11-1.66429E+08-1.81513E+11 2.25137E+08
 -1       200-1.47975E+12 4.49117E+08-5.62136E+11 3.57969E+07-1.82985E+11 1.53242E+08
 -1       201-1.47592E+12 4.03435E+08-5.60697E+11 2.50530E+08-1.83897E+11 8.13910E+07
 -1       202-1.46620E+12 6.74612E+08-5.56901E+11 4.57611E+08-1.84252E+11 9.86879E+06
 -1       203-1.45061E+12 2.90544E+08-5.51123E+11 6.55943E+08-1.84053E+11-6.10384E+07
 -1       204-1.42920E+12 2.75440E+08-5.42990E+11 8.83954E+08-1.83305E+11-1.31045E+08
 -1       205-1.40190E+12 6.98388E+08-5.32457E+11 1.09541E+09-1.82017E+11-1.99868E+08
 -1       206-1.36877E+12 3.33612E+08-5.20005E+11 1.29092E+09-1.80200E+11-2.67223E+08
 -1       207-1.32996E+12 5.83031E+08-5.05163E+11 1.49400E+09-1.77865E+11-3.32829E+08
 -1       208-1.28543E+12 3.42060E+08-4.88333E+11 1.69702E+09-1.75028E+11-3.96409E+08
 -1       209-1.23530E+12 3.51800E+08-4.69282E+11 1.89653E+09-1.71705E+11-4.57688E+08
 -1       210-1.17975E+12 5.27182E+08-4.48104E+11 2.09432E+09-1.67915E+11-5.16398E+08
 -1       211-1.11881E+12 3.50668E+08-4.25016E+11 2.27493E+09-1.63679E+11-5.72277E+08
 -1       212-1.05267E+12 4.86159E+08-3.99830E+11 2.46405E+09-1.59021E+11-6.25067E+08
 -1       213-9.81421E+11 3.24308E+08-3.72817E+11 2.63659E+09-1.53965E+11-6.74518E+08
 -1       214-9.05284E+11 2.93660E+08-3.43896E+11 2.81557E+09-1.48538E+11-7.20385E+08
 -1       215-8.24434E+11 4.89198E+08-3.13099E+11 2.98039E+09-1.42769E+11-7.62435E+08
 -1       216-7.38996E+11 2.69258E+08-2.80716E+11 3.13512E+09-1.36689E+11-8.00446E+08
 -1       217-6.49203E+11 3.20287E+08-2.46575E+11 3.29301E+09-1.30329E+11-8.34195E+08
 -1       218-5.55256E+11 3.38300E+08-2.10869E+11 3.43403E+09-1.23724E+11-8.63478E+08
 -1       219-4.57378E+11 2.39194E+08-1.73713E+11 3.57280E+09-1.16909E+11-8.88098E+08
 -1       220-3.55741E+11 3.21269E+08-1.35060E+11 3.70266E+09-1.09922E+11-9.07868E+08
 -1       221-2.50635E+11 2.38428E+08-9.51507E+10 3.81863E+09-1.02800E+11-9.22613E+08
 -1       222-1.42209E+11 2.50258E+08-5.39445E+10 3.93667E+09-9.55836E+10-9.32167E+08
 -1       223-3.07834E+10 2.01899E+08-1.16210E+10 4.03427E+09-8.83136E+10-9.36377E+08
 -1       224 8.35237E+10 2.15802E+08 3.18210E+10 4.14166E+09-8.10321E+10-9.35100E+08
 -1       225 2.00328E+11 1.87117E+08 7.61958E+10 4.21573E+09-7.37824E+10-9.28204E+08
 -1       226 3.19605E+11 1.61335E+08 1.21511E+11 4.31173E+09-6.66085E+10-9.15569E+08
 -1       227 4.40860E+11 1.44556E+08 1.67582E+11 4.36029E+09-5.95554E+10-8.97087E+08
 -1       228 5.64188E+11 1.17554E+08 2.14436E+11 4.45316E+09-5.26692E+10-8.72660E+08
 -1       229 6.88976E+11 5.96061E+07 2.61833E+11 4.47659E+09-4.59964E+10-8.42202E+08
 -1       230 8.15534E+11 2.38025E+08 3.09993E+11 4.57360E+09-3.95842E+10-8.05635E+08
 -1       231 9.42964E+11 1.42123E+07 3.58332E+11 4.54364E+09-3.34804E+10-7.62891E+08
 -1       232 1.07194E+12 1.20000E+08 4.07383E+11 4.65988E+09-2.77331E+10-7.13916E+08
 -1       233 1.20121E+12-1.04982E+08 4.56421E+11 4.58912E+09-2.23912E+10-6.58661E+08
 -1       234 1.33198E+12 1.15472E+08 5.06194E+11 4.74638E+09-1.75036E+10-5.97089E+08
 -1       235 1.46225E+12 4.18996E+08 5.55815E+11 4.59143E+09-1.31196E+10-5.29169E+08
 -1       236 1.59421E+12-1.48096E+09 6.05238E+11 4.79229E+09-9.28854E+09-4.54873E+08
 -1       237 1.72543E+12 5.53538E+09 6.57766E+11 4.65634E+09-6.06031E+09-3.74189E+08
 -1       238 1.85611E+12-2.06377E+10 6.97480E+11 4.48094E+09-3.48427E+09-2.87091E+08
 -1       239 1.99501E+12 7.60779E+10 7.87013E+11 6.06710E+09-1.61075E+09-1.93632E+08
 -1       240 2.09765E+12-2.79118E+11 6.91043E+11-8.81716E+08-4.89190E+08-9.35760E+07
 -1       241 2.13047E+12 1.01302E+12 1.19452E+12 2.45716E+10-1.21939E+08-4.18179E+07
 -1       242 1.22107E+09 6.07157E+08 6.94727E+08-5.54373E+07 2.36616E+11 1.84747E+09
 -1       243 5.05447E+09 5.58112E+08 2.13278E+09 2.75385E+08 2.29432E+11 1.84735E+09
 -1       244 1.61244E+10 5.53881E+08 6.33776E+09 5.24000E+08 2.15066E+11 1.84684E+09
 -1       245 3.40324E+10 4.84326E+08 1.31164E+10 7.64357E+08 2.00706E+11 1.84562E+09
 -1       246 5.83609E+10 4.63336E+08 2.23532E+10 9.82514E+08 1.86359E+11 1.84337E+09
 -1       247 8.86129E+10 4.49695E+08 3.38438E+10 1.18852E+09 1.72035E+11 1.83981E+09
 -1       248 1.24387E+11 3.75300E+08 4.74098E+10 1.37558E+09 1.57745E+11 1.83463E+09
 -1       249 1.65150E+11 3.59774E+08 6.28937E+10 1.54496E+09 1.43502E+11 1.82759E+09
 -1       250 2.10533E+11 3.44973E+08 8.01334E+10 1.70493E+09 1.29321E+11 1.81846E+09
 -1       251 2.60014E+11 1.98316E+08 9.88807E+10 1.83893E+09 1.15221E+11 1.80702E+09
 -1       252 3.13167E+11 4.02357E+08 1.19156E+11 1.96987E+09 1.01219E+11 1.79309E+09
 -1       253 3.69594E+11 9.33561E+07 1.40481E+11 2.06711E+09 8.73358E+10 1.77649E+09
 -1       254 4.28744E+11 2.39421E+08 1.63014E+11 2.16662E+09 7.35924E+10 1.75709E+09
 -1       255 4.90276E+11 1.82616E+08 1.86374E+11 2.23510E+09 6.00113E+10 1.73475E+09
 -1       256 5.53753E+11-1.41016E+08 2.10373E+11 2.30993E+09 4.66157E+10 1.70937E+09
 -1       257 6.18641E+11 5.20267E+08 2.35281E+11 2.34575E+09 3.34295E+10 1.68087E+09
 -1       258 6.84655E+11-2.51060E+08 2.60074E+11 2.36850E+09 2.04774E+10 1.64919E+09
 -1       259 7.51337E+11 1.16011E+08 2.85552E+11 2.40133E+09 7.78413E+09 1.61428E+09
 -1       260 8.18195E+11-3.86820E+06 3.10913E+11 2.37978E+09-4.62497E+09 1.57613E+09
 -1       261 8.84987E+11-2.20656E+08 3.36211E+11 2.40094E+09-1.67247E+10 1.53472E+09
 -1       262 9.51173E+11 2.38048E+08 3.61536E+11 2.34141E+09-2.84898E+10 1.49009E+09
 -1       263 1.01650E+12-3.02939E+08 3.86154E+11 2.32461E+09-3.98952E+10 1.44226E+09
 -1       264 1.08059E+12-5.84201E+07 4.10601E+11 2.25750E+09-5.09164E+10 1.39128E+09
 -1       265 1.14294E+12-2.43740E+08 4.34224E+11 2.20222E+09-6.15291E+10 1.33723E+09
 -1       266 1.20344E+12-1.14855E+08 4.57262E+11 2.13146E+09-7.17098E+10 1.28019E+09
 -1       267 1.26159E+12-1.31161E+08 4.79354E+11 2.02789E+09-8.14355E+10 1.22027E+09
 -1       268 1.31717E+12-2.92258E+08 5.00414E+11 1.94135E+09-9.06843E+10 1.15758E+09
 -1       269 1.36987E+12-3.32334E+08 5.20426E+11 1.82684E+09-9.94353E+10 1.09226E+09
 -1       270 1.41935E+12-1.91405E+08 5.39278E+11 1.71847E+09-1.07668E+11 1.02446E+09
 -1       271 1.46543E+12-1.87801E+08 5.56791E+11 1.57732E+09-1.15365E+11 9.54333E+08
 -1       272 1.50786E+12-4.37497E+08 5.72821E+11 1.44965E+09-1.22508E+11 8.82054E+08
 -1       273 1.54634E+12-2.51928E+08 5.87514E+11 1.30010E+09-1.29081E+11 8.07808E+08
 -1       274 1.58069E+12-4.71364E+08 6.00484E+11 1.15623E+09-1.35069E+11 7.31792E+08
 -1       275 1.61078E+12-2.27167E+08 6.12011E+11 1.00316E+09-1.40460E+11 6.54210E+08
 -1       276 1.63637E+12-3.76652E+08 6.21678E+11 8.26489E+08-1.45242E+11 5.75275E+08
 -1       277 1.65732E+12-4.30294E+08 6.29619E+11 6.71963E+08-1.49405E+11 4.95208E+08
 -1       278 1.67351E+12-1.80427E+08 6.35865E+11 4.83338E+08-1.52943E+11 4.14237E+08
 -1       279 1.68485E+12-6.77491E+08 6.39984E+11 3.18819E+08-1.55847E+11 3.32597E+08
 -1       280 1.69119E+12-2.54478E+08 6.42554E+11 1.40093E+08-1.58115E+11 2.50528E+08
 -1       281 1.69246E+12-2.90432E+08 6.43024E+11-4.91435E+07-1.59744E+11 1.68275E+08
 -1       282 1.68869E+12-5.43846E+08 6.41494E+11-2.31304E+08-1.60733E+11 8.60819E+07
 -1       283 1.67978E+12-3.65601E+08 6.38179E+11-4.08128E+08-1.61084E+11 4.19631E+06
 -1       284 1.66572E+12-3.84461E+08 6.32829E+11-5.97688E+08-1.60800E+11-7.71307E+07
 -1       285 1.64652E+12-5.05481E+08 6.25485E+11-7.77498E+08-1.59886E+11-1.57650E+08
 -1       286 1.62225E+12-3.15322E+08 6.16336E+11-9.50498E+08-1.58350E+11-2.37111E+08
 -1       287 1.59293E+12-2.76081E+08 6.05208E+11-1.14849E+09-1.56201E+11-3.15269E+08
 -1       288 1.55860E+12-5.37576E+08 5.92063E+11-1.31543E+09-1.53450E+11-3.91881E+08
 -1       289 1.51939E+12-2.61568E+08 5.77267E+11-1.49165E+09-1.50110E+11-4.66705E+08
 -1       290 1.47542E+12-5.98036E+08 5.60431E+11-1.65214E+09-1.46196E+11-5.39507E+08
 -1       291 1.42675E+12-1.94927E+08 5.42092E+11-1.81560E+09-1.41724E+11-6.10059E+08
 -1       292 1.37354E+12-1.47588E+08 5.21889E+11-1.99171E+09-1.36712E+11-6.78131E+08
 -1       293 1.31604E+12-5.67958E+08 4.99881E+11-2.13568E+09-1.31182E+11-7.43513E+08
 -1       294 1.25432E+12-2.17450E+08 4.76558E+11-2.28219E+09-1.25154E+11-8.05998E+08
 -1       295 1.18859E+12-4.06966E+08 4.51510E+11-2.41681E+09-1.18652E+11-8.65384E+08
 -1       296 1.11909E+12-1.96771E+08 4.25181E+11-2.54894E+09-1.11701E+11-9.21484E+08
 -1       297 1.04604E+12-2.01080E+08 3.97419E+11-2.67608E+09-1.04327E+11-9.74116E+08
 -1       298 9.69673E+11-3.26658E+08 3.68352E+11-2.79164E+09-9.65581E+10-1.02312E+09
 -1       299 8.90185E+11-1.96454E+08 3.38196E+11-2.89327E+09-8.84223E+10-1.06833E+09
 -1       300 8.07903E+11-1.95746E+08 3.06929E+11-2.98976E+09-7.99500E+10-1.10961E+09
 -1       301 7.23086E+11-2.16074E+08 2.74690E+11-3.07495E+09-7.11724E+10-1.14683E+09
 -1       302 6.35971E+11-1.30353E+08 2.41620E+11-3.15149E+09-6.21215E+10-1.17987E+09
 -1       303 5.46877E+11-7.76221E+07 2.07784E+11-3.22061E+09-5.28303E+10-1.20862E+09
 -1       304 4.56120E+11-1.88796E+08 1.73254E+11-3.27170E+09-4.33324E+10-1.23300E+09
 -1       305 3.63970E+11-4.34413E+07 1.38292E+11-3.31665E+09-3.36620E+10-1.25294E+09
 -1       306 2.70732E+11-5.69638E+07 1.02857E+11-3.35034E+09-2.38540E+10-1.26837E+09
 -1       307 1.76754E+11-4.82392E+07 6.71481E+10-3.37145E+09-1.39437E+10-1.27925E+09
 -1       308 8.23181E+10 2.80004E+06 3.12819E+10-3.38148E+09-3.96666E+09-1.28555E+09
 -1       309-1.22337E+10 6.80231E+06-4.64620E+09-3.37935E+09 6.04153E+09-1.28725E+09
 -1       310-1.06598E+11 3.25439E+07-4.04949E+10-3.36598E+09 1.60451E+10-1.28437E+09
 -1       311-2.00455E+11 9.37683E+07-7.61374E+10-3.34291E+09 2.60085E+10-1.27690E+09
 -1       312-2.93473E+11 6.92800E+07-1.11493E+11-3.30841E+09 3.58961E+10-1.26490E+09
 -1       313-3.85351E+11 8.96383E+07-1.46399E+11-3.26062E+09 4.56727E+10-1.24840E+09
 -1       314-4.75768E+11 1.72551E+08-1.80726E+11-3.20090E+09 5.53038E+10-1.22746E+09
 -1       315-5.64435E+11 1.29080E+08-2.14436E+11-3.13529E+09 6.47551E+10-1.20218E+09
 -1       316-6.51027E+11 2.61590E+08-2.47291E+11-3.05327E+09 7.39931E+10-1.17263E+09
 -1       317-7.35250E+11 1.34872E+08-2.79344E+11-2.96985E+09 8.29850E+10-1.13893E+09
 -1       318-8.16821E+11 2.53064E+08-3.10296E+11-2.86174E+09 9.16991E+10-1.10120E+09
 -1       319-8.95515E+11 2.48898E+08-3.40201E+11-2.76312E+09 1.00105E+11-1.05958E+09
 -1       320-9.70977E+11 2.17243E+08-3.68889E+11-2.63007E+09 1.08172E+11-1.01421E+09
 -1       321-1.04296E+12 3.20456E+08-3.96204E+11-2.50830E+09 1.15872E+11-9.65249E+08
 -1       322-1.11133E+12 3.89366E+08-4.22156E+11-2.37486E+09 1.23178E+11-9.12880E+08
 -1       323-1.17570E+12 2.64616E+08-4.46666E+11-2.22971E+09 1.30064E+11-8.57285E+08
 -1       324-1.23594E+12 2.48143E+08-4.69563E+11-2.07474E+09 1.36505E+11-7.98661E+08
 -1       325-1.29183E+12 4.72593E+08-4.90717E+11-1.91127E+09 1.42480E+11-7.37212E+08
 -1       326-1.34320E+12 2.95144E+08-5.10303E+11-1.75415E+09 1.47966E+11-6.73157E+08
 -1       327-1.38983E+12 5.21223E+08-5.27939E+11-1.57659E+09 1.52945E+11-6.06719E+08
 -1       328-1.43154E+12 2.83292E+08-5.43877E+11-1.40631E+09 1.57398E+11-5.38134E+08
 -1       329-1.46830E+12 3.19869E+08-5.57833E+11-1.21936E+09 1.61311E+11-4.67642E+08
 -1       330-1.49991E+12 5.46023E+08-5.69757E+11-1.02711E+09 1.64668E+11-3.95486E+08
 -1       331-1.52620E+12 3.08322E+08-5.79840E+11-8.45666E+08 1.67459E+11-3.21924E+08
 -1       332-1.54721E+12 6.84161E+08-5.87680E+11-6.51560E+08 1.69673E+11-2.47211E+08
 -1       333-1.56280E+12 2.26349E+08-5.93779E+11-4.73618E+08 1.71302E+11-1.71608E+08
 -1       334-1.57292E+12 2.40184E+08-5.97620E+11-2.46772E+08 1.72341E+11-9.53820E+07
 -1       335-1.57753E+12 6.98459E+08-5.99197E+11-6.02832E+07 1.72785E+11-1.87958E+07
 -1       336-1.57664E+12 3.03788E+08-5.99006E+11 1.33225E+08 1.72633E+11 5.78806E+07
 -1       337-1.57028E+12 5.76484E+08-5.96488E+11 3.26312E+08 1.71885E+11 1.34380E+08
 -1       338-1.55839E+12 3.45785E+08-5.92056E+11 5.22837E+08 1.70544E+11 2.10437E+08
 -1       339-1.54104E+12 2.94457E+08-5.85482E+11 7.22698E+08 1.68614E+11 2.85781E+08
 -1       340-1.51840E+12 5.57307E+08-5.76780E+11 9.09454E+08 1.66101E+11 3.60154E+08
 -1       341-1.49040E+12 3.75931E+08-5.66209E+11 1.10042E+09 1.63015E+11 4.33297E+08
 -1       342-1.45718E+12 3.66841E+08-5.53590E+11 1.27895E+09 1.59365E+11 5.04951E+08
 -1       343-1.41893E+12 4.96385E+08-5.39007E+11 1.46181E+09 1.55164E+11 5.74869E+08
 -1       344-1.37571E+12 3.03193E+08-5.22654E+11 1.62727E+09 1.50428E+11 6.42806E+08
 -1       345-1.32770E+12 2.44852E+08-5.04434E+11 1.81003E+09 1.45171E+11 7.08524E+08
 -1       346-1.27504E+12 5.59471E+08-4.84303E+11 1.96737E+09 1.39413E+11 7.71796E+08
 -1       347-1.21795E+12 1.97122E+08-4.62745E+11 2.11563E+09 1.33172E+11 8.32401E+08
 -1       348-1.15663E+12 3.40875E+08-4.39391E+11 2.27219E+09 1.26472E+11 8.90126E+08
 -1       349-1.09124E+12 3.29470E+08-4.14547E+11 2.40977E+09 1.19334E+11 9.44772E+08
 -1       350-1.02204E+12 1.71047E+08-3.88311E+11 2.54359E+09 1.11784E+11 9.96145E+08
 -1       351-9.49331E+11 3.69278E+08-3.60606E+11 2.66407E+09 1.03848E+11 1.04407E+09
 -1       352-8.73269E+11 1.88687E+08-3.31771E+11 2.77916E+09 9.55527E+10 1.08838E+09
 -1       353-7.94154E+11 2.80505E+08-3.01672E+11 2.87936E+09 8.69275E+10 1.12891E+09
 -1       354-7.12280E+11 1.46501E+08-2.70611E+11 2.97494E+09 7.80022E+10 1.16553E+09
 -1       355-6.27921E+11 1.33166E+08-2.38559E+11 3.05985E+09 6.88078E+10 1.19811E+09
 -1       356-5.41373E+11 2.07954E+08-2.05643E+11 3.13423E+09 5.93760E+10 1.22654E+09
 -1       357-4.52904E+11 9.31027E+07-1.72068E+11 3.19327E+09 4.97395E+10 1.25071E+09
 -1       358-3.62882E+11 1.30405E+08-1.37846E+11 3.24357E+09 3.99319E+10 1.27054E+09
 -1       359-2.71568E+11 5.46772E+07-1.03175E+11 3.28576E+09 2.99872E+10 1.28597E+09
 -1       360-1.79294E+11 3.91395E+07-6.81169E+10 3.31335E+09 1.99398E+10 1.29693E+09
 -1       361-8.64004E+10 4.26976E+07-3.28159E+10 3.33098E+09 9.82465E+09 1.30339E+09
 -1       362 6.82215E+09-1.35214E+07 2.58728E+09 3.33553E+09-3.23264E+08 1.30533E+09
 -1       363 1.00025E+11-1.08934E+07 3.80055E+10 3.32810E+09-1.04686E+10 1.30273E+09
 -1       364 1.92901E+11-8.22204E+07 7.32711E+10 3.31063E+09-2.05761E+10 1.29561E+09
 -1       365 2.85105E+11-5.38340E+07 1.08319E+11 3.28228E+09-3.06107E+10 1.28399E+09
 -1       366 3.76354E+11-7.64567E+07 1.42985E+11 3.24138E+09-4.05375E+10 1.26792E+09
 -1       367 4.66302E+11-1.68178E+08 1.77131E+11 3.18597E+09-5.03221E+10 1.24743E+09
 -1       368 5.54625E+11-1.08532E+08 2.10716E+11 3.12486E+09-5.99305E+10 1.22262E+09
 -1       369 6.41077E+11-2.46038E+08 2.43516E+11 3.05256E+09-6.93294E+10 1.19355E+09
 -1       370 7.25282E+11-1.47901E+08 2.75551E+11 2.96804E+09-7.84860E+10 1.16034E+09
 -1       371 8.06994E+11-1.66588E+08 3.06594E+11 2.87201E+09-8.73684E+10 1.12309E+09
 -1       372 8.85920E+11-2.95904E+08 3.36537E+11 2.76274E+09-9.59459E+10 1.08194E+09
 -1       373 9.61800E+11-2.82716E+08 3.65377E+11 2.65546E+09-1.04189E+11 1.03702E+09
 -1       374 1.03435E+12-3.30518E+08 3.92929E+11 2.53276E+09-1.12068E+11 9.88499E+08
 -1       375 1.10329E+12-1.45442E+08 4.19197E+11 2.39815E+09-1.19556E+11 9.36537E+08
 -1       376 1.16847E+12-3.39587E+08 4.43888E+11 2.25349E+09-1.26628E+11 8.81313E+08
 -1       377 1.22961E+12-3.91398E+08 4.67103E+11 2.10379E+09-1.33257E+11 8.23017E+08
 -1       378 1.28645E+12-3.38695E+08 4.88721E+11 1.95159E+09-1.39423E+11 7.61855E+08
 -1       379 1.33887E+12-3.31595E+08 5.08644E+11 1.78858E+09-1.45102E+11 6.98036E+08
 -1       380 1.38670E+12-4.88996E+08 5.26759E+11 1.62289E+09-1.50275E+11 6.31780E+08
 -1       381 1.42967E+12-3.07318E+08 5.43160E+11 1.44937E+09-1.54924E+11 5.63317E+08
 -1       382 1.46773E+12-2.89569E+08 5.57627E+11 1.26538E+09-1.59032E+11 4.92884E+08
 -1       383 1.50072E+12-5.41266E+08 5.70068E+11 1.07790E+09-1.62586E+11 4.20723E+08
 -1       384 1.52854E+12-3.32655E+08 5.80720E+11 8.99760E+08-1.65573E+11 3.47084E+08
 -1       385 1.55107E+12-5.77458E+08 5.89188E+11 7.03652E+08-1.67982E+11 2.72221E+08
 -1       386 1.56819E+12-2.69638E+08 5.95810E+11 5.17921E+08-1.69805E+11 1.96394E+08
 -1       387 1.57997E+12-4.64559E+08 6.00212E+11 3.17970E+08-1.71035E+11 1.19865E+08
 -1       388 1.58629E+12-4.66148E+08 6.02614E+11 1.24032E+08-1.71668E+11 4.28951E+07
 -1       389 1.58708E+12-2.54133E+08 6.02992E+11-7.70757E+07-1.71702E+11-3.42475E+07
 -1       390 1.58243E+12-6.88162E+08 6.01060E+11-2.72661E+08-1.71136E+11-1.11297E+08
 -1       391 1.57232E+12-2.84903E+08 5.97374E+11-4.53849E+08-1.69972E+11-1.87987E+08
 -1       392 1.55679E+12-3.42874E+08 5.91451E+11-6.63149E+08-1.68213E+11-2.64054E+08
 -1       393 1.53587E+12-5.34437E+08 5.83427E+11-8.51007E+08-1.65867E+11-3.39235E+08
 -1       394 1.50970E+12-3.36254E+08 5.73560E+11-1.03001E+09-1.62940E+11-4.13271E+08
 -1       395 1.47833E+12-5.24524E+08 5.61567E+11-1.22181E+09-1.59442E+11-4.85910E+08
 -1       396 1.44182E+12-3.02085E+08 5.47778E+11-1.39102E+09-1.55385E+11-5.56898E+08
 -1       397 1.40040E+12-2.78951E+08 5.32046E+11-1.57739E+09-1.50784E+11-6.25991E+08
 -1       398 1.35420E+12-4.76142E+08 5.14416E+11-1.74194E+09-1.45653E+11-6.92954E+08
 -1       399 1.30331E+12-3.39406E+08 4.95128E+11-1.90668E+09-1.40011E+11-7.57558E+08
 -1       400 1.24795E+12-2.80069E+08 4.74114E+11-2.05788E+09-1.33876E+11-8.19578E+08
 -1       401 1.18834E+12-4.90765E+08 4.51383E+11-2.21143E+09-1.27270E+11-8.78805E+08
 -1       402 1.12468E+12-1.68919E+08 4.27312E+11-2.33799E+09-1.20214E+11-9.35036E+08
 -1       403 1.05717E+12-1.49271E+08 4.01667E+11-2.49420E+09-1.12733E+11-9.88076E+08
 -1       404 9.86045E+11-4.31388E+08 3.74533E+11-2.61020E+09-1.04853E+11-1.03775E+09
 -1       405 9.11621E+11-1.75089E+08 3.46349E+11-2.71885E+09-9.65997E+10-1.08388E+09
 -1       406 8.34097E+11-2.95487E+08 3.16845E+11-2.82828E+09-8.80021E+10-1.12632E+09
 -1       407 7.53744E+11-1.46526E+08 2.86367E+11-2.91865E+09-7.90894E+10-1.16492E+09
 -1       408 6.70893E+11-1.28101E+08 2.54890E+11-3.00926E+09-6.98918E+10-1.19955E+09
 -1       409 5.85823E+11-2.12076E+08 2.22532E+11-3.08111E+09-6.04405E+10-1.23010E+09
 -1       410 4.98807E+11-1.03722E+08 1.89507E+11-3.14387E+09-5.07679E+10-1.25647E+09
 -1       411 4.10167E+11-1.26151E+08 1.55816E+11-3.19542E+09-4.09067E+10-1.27857E+09
 -1       412 3.20241E+11-6.00949E+07 1.21669E+11-3.23517E+09-3.08905E+10-1.29633E+09
 -1       413 2.29319E+11-3.50074E+07 8.71279E+10-3.26789E+09-2.07533E+10-1.30969E+09
 -1       414 1.37737E+11-4.80739E+07 5.23216E+10-3.28268E+09-1.05293E+10-1.31862E+09
 -1       415 4.58221E+10 7.56711E+06 1.74153E+10-3.28874E+09-2.53261E+08-1.32308E+09
 -1       416-4.61063E+10 3.39547E+07-1.75075E+10-3.28411E+09 1.00402E+10-1.32308E+09
 -1       417-1.37710E+11 3.26146E+07-5.23174E+10-3.26749E+09 2.03162E+10-1.31861E+09
 -1       418-2.28667E+11 7.47532E+07-8.68650E+10-3.23593E+09 3.05402E+10-1.30971E+09
 -1       419-3.18645E+11 1.10932E+08-1.21043E+11-3.19410E+09 4.06778E+10-1.29640E+09
 -1       420-4.07337E+11 1.25977E+08-1.54740E+11-3.14316E+09 5.06950E+10-1.27876E+09
 -1       421-4.94403E+11 1.40360E+08-1.87820E+11-3.07757E+09 6.05583E+10-1.25684E+09
 -1       422-5.79532E+11 2.23447E+08-2.20137E+11-3.00351E+09 7.02348E+10-1.23073E+09
 -1       423-6.62432E+11 1.63106E+08-2.51662E+11-2.92260E+09 7.96923E+10-1.20055E+09
 -1       424-7.42789E+11 1.71222E+08-2.82195E+11-2.81908E+09 8.88994E+10-1.16639E+09
 -1       425-8.20303E+11 3.14951E+08-3.11596E+11-2.71348E+09 9.78259E+10-1.12839E+09
 -1       426-8.94690E+11 2.11547E+08-3.39902E+11-2.59676E+09 1.06442E+11-1.08670E+09
 -1       427-9.65720E+11 3.83316E+08-3.66828E+11-2.47362E+09 1.14721E+11-1.04148E+09
 -1       428-1.03305E+12 2.31567E+08-3.92471E+11-2.33770E+09 1.22634E+11-9.92893E+08
 -1       429-1.09646E+12 3.19919E+08-4.16532E+11-2.18945E+09 1.30157E+11-9.41128E+08
 -1       430-1.15578E+12 3.88694E+08-4.39049E+11-2.04444E+09 1.37266E+11-8.86379E+08
 -1       431-1.21068E+12 2.18465E+08-4.59974E+11-1.87162E+09 1.43938E+11-8.28853E+08
 -1       432-1.26098E+12 5.84229E+08-4.78949E+11-1.70894E+09 1.50153E+11-7.68769E+08
 -1       433-1.30649E+12 2.78686E+08-4.96360E+11-1.53920E+09 1.55891E+11-7.06357E+08
 -1       434-1.34706E+12 3.17922E+08-5.11762E+11-1.35432E+09 1.61135E+11-6.41853E+08
 -1       435-1.38248E+12 5.41426E+08-5.25137E+11-1.15985E+09 1.65870E+11-5.75500E+08
 -1       436-1.41258E+12 3.42556E+08-5.36651E+11-9.78110E+08 1.70083E+11-5.07554E+08
 -1       437-1.43728E+12 5.72320E+08-5.45949E+11-7.76503E+08 1.73762E+11-4.38276E+08
 -1       438-1.45645E+12 3.33662E+08-5.53325E+11-5.88546E+08 1.76898E+11-3.67932E+08
 -1       439-1.46996E+12 3.75667E+08-5.58441E+11-3.68186E+08 1.79483E+11-2.96794E+08
 -1       440-1.47773E+12 5.48789E+08-5.61330E+11-1.66428E+08 1.81513E+11-2.25137E+08
 -1       441-1.47975E+12 4.49119E+08-5.62136E+11 3.57972E+07 1.82985E+11-1.53242E+08
 -1       442-1.47592E+12 4.03437E+08-5.60697E+11 2.50530E+08 1.83897E+11-8.13909E+07
 -1       443-1.46620E+12 6.74613E+08-5.56901E+11 4.57611E+08 1.84252E+11-9.86874E+06
 -1       444-1.45061E+12 2.90544E+08-5.51123E+11 6.55943E+08 1.84053E+11 6.10384E+07
 -1       445-1.42920E+12 2.75440E+08-5.42990E+11 8.83954E+08 1.83305E+11 1.31045E+08
 -1       446-1.40190E+12 6.98387E+08-5.32457E+11 1.09541E+09 1.82017E+11 1.99868E+08
 -1       447-1.36877E+12 3.33610E+08-5.20005E+11 1.29093E+09 1.80200E+11 2.67223E+08
 -1       448-1.32996E+12 5.83029E+08-5.05163E+11 1.49400E+09 1.77865E+11 3.32829E+08
 -1       449-1.28543E+12 3.42058E+08-4.88333E+11 1.69702E+09 1.75028E+11 3.96410E+08
 -1       450-1.23530E+12 3.51798E+08-4.69282E+11 1.89653E+09 1.71705E+11 4.57688E+08
 -1       451-1.17975E+12 5.27180E+08-4.48104E+11 2.09432E+09 1.67915E+11 5.16398E+08
 -1       452-1.11881E+12 3.50666E+08-4.25016E+11 2.27493E+09 1.63679E+11 5.72277E+08
 -1       453-1.05267E+12 4.86156E+08-3.99830E+11 2.46405E+09 1.59021E+11 6.25067E+08
 -1       454-9.81421E+11 3.24306E+08-3.72817E+11 2.63659E+09 1.53965E+11 6.74518E+08
 -1       455-9.05284E+11 2.93658E+08-3.43896E+11 2.81557E+09 1.48538E+11 7.20385E+08
 -1       456-8.24434E+11 4.89196E+08-3.13099E+11 2.98039E+09 1.42769E+11 7.62435E+08
 -1       457-7.38996E+11 2.69255E+08-2.80716E+11 3.13512E+09 1.36689E+11 8.00446E+08
 -1       458-6.49203E+11 3.20285E+08-2.46575E+11 3.29301E+09 1.30329E+11 8.34195E+08
 -1       459-5.55256E+11 3.38298E+08-2.10869E+11 3.43403E+09 1.23724E+11 8.63478E+08
 -1       460-4.57378E+11 2.39192E+08-1.73713E+11 3.57280E+09 1.16909E+11 8.88098E+08
 -1       461-3.55741E+11 3.21267E+08-1.35060E+11 3.70266E+09 1.09922E+11 9.07868E+08
 -1       462-2.50635E+11 2.38427E+08-9.51507E+10 3.81863E+09 1.02800E+11 9.22613E+08
 -1       463-1.42209E+11 2.50256E+08-5.39445E+10 3.93667E+09 9.55836E+10 9.32167E+08
 -1       464-3.07834E+10 2.01898E+08-1.16210E+10 4.03427E+09 8.83136E+10 9.36377E+08
 -1       465 8.35237E+10 2.15802E+08 3.18210E+10 4.14166E+09 8.10321E+10 9.35100E+08
 -1       466 2.00328E+11 1.87116E+08 7.61958E+10 4.21573E+09 7.37824E+10 9.28204E+08
 -1       467 3.19605E+11 1.61335E+08 1.21511E+11 4.31173E+09 6.66084E+10 9.15569E+08
 -1       468 4.40860E+11 1.44556E+08 1.67582E+11 4.36029E+09 5.95554E+10 8.97087E+08
 -1       469 5.64188E+11 1.17554E+08 2.14436E+11 4.45316E+09 5.26692E+10 8.72660E+08
 -1       470 6.88976E+11 5.96059E+07 2.61833E+11 4.47659E+09 4.59964E+10 8.42202E+08
 -1       471 8.15534E+11 2.38025E+08 3.09993E+11 4.57360E+09 3.95842E+10 8.05635E+08
 -1       472 9.42964E+11 1.42126E+07 3.58332E+11 4.54364E+09 3.34804E+10 7.62891E+08
 -1       473 1.07194E+12 1.20001E+08 4.07383E+11 4.65988E+09 2.77331E+10 7.13916E+08
 -1       474 1.20121E+12-1.04981E+08 4.56421E+11 4.58912E+09 2.23912E+10 6.58661E+08
 -1       475 1.33198E+12 1.15473E+08 5.06194E+11 4.74638E+09 1.75036E+10 5.97089E+08
 -1       476 1.46225E+12 4.18997E+08 5.55815E+11 4.59143E+09 1.31196E+10 5.29168E+08
 -1       477 1.59421E+12-1.48095E+09 6.05238E+11 4.79229E+09 9.28854E+09 4.54873E+08
 -1       478 1.72543E+12 5.53538E+09 6.57766E+11 4.65634E+09 6.06031E+09 3.74189E+08
 -1       479 1.85611E+12-2.06377E+10 6.97480E+11 4.48094E+09 3.48427E+09 2.87091E+08
 -1       480 1.99501E+12 7.60779E+10 7.87013E+11 6.06709E+09 1.61075E+09 1.93632E+08
 -1       481 2.09765E+12-2.79118E+11 6.91043E+11-8.81716E+08 4.89190E+08 9.35760E+07
 -1       482 2.13047E+12 1.01302E+12 1.19452E+12 2.45716E+10 1.21939E+08 4.18179E+07
 -1       483 7.21291E+08 3.80439E+08 4.18657E+08 2.03919E+06-2.36616E+11-1.23169E+09
 -1       484 2.53621E+09 3.65326E+08 1.10258E+09 4.33342E+08-2.29432E+11-1.23161E+09
 -1       485 8.05479E+09 3.48834E+08 3.19338E+09 8.38514E+08-2.15066E+11-1.23127E+09
 -1       486 1.70212E+10 3.17375E+08 6.58867E+09 1.21820E+09-2.00706E+11-1.23046E+09
 -1       487 2.91762E+10 3.06643E+08 1.12035E+10 1.56886E+09-1.86359E+11-1.22896E+09
 -1       488 4.43226E+10 2.51456E+08 1.69381E+10 1.89799E+09-1.72035E+11-1.22658E+09
 -1       489 6.21815E+10 2.90296E+08 2.37393E+10 2.19834E+09-1.57745E+11-1.22313E+09
 -1       490 8.25970E+10 1.95116E+08 3.14610E+10 2.47002E+09-1.43502E+11-1.21844E+09
 -1       491 1.05266E+11 2.28601E+08 4.00881E+10 2.72296E+09-1.29321E+11-1.21235E+09
 -1       492 1.30015E+11 1.80046E+08 4.94742E+10 2.94026E+09-1.15221E+11-1.20473E+09
 -1       493 1.56623E+11 1.28723E+08 5.95656E+10 3.14073E+09-1.01219E+11-1.19544E+09
 -1       494 1.84782E+11 1.99357E+08 7.02928E+10 3.31899E+09-8.73358E+10-1.18437E+09
 -1       495 2.14410E+11 9.11462E+07 8.15103E+10 3.44887E+09-7.35924E+10-1.17143E+09
 -1       496 2.45175E+11 4.99658E+07 9.31853E+10 3.59191E+09-6.00112E+10-1.15654E+09
 -1       497 2.76858E+11 1.30117E+08 1.05256E+11 3.66830E+09-4.66156E+10-1.13962E+09
 -1       498 3.09399E+11 7.99189E+07 1.17602E+11 3.74767E+09-3.34294E+10-1.12062E+09
 -1       499 3.42352E+11-8.00063E+07 1.30063E+11 3.81490E+09-2.04773E+10-1.09950E+09
 -1       500 3.75677E+11 1.66898E+08 1.42821E+11 3.81248E+09-7.78401E+09-1.07623E+09
 -1       501 4.09164E+11-1.29718E+08 1.55433E+11 3.83682E+09 4.62512E+09-1.05079E+09
 -1       502 4.42505E+11 4.06808E+07 1.68167E+11 3.79772E+09 1.67249E+10-1.02319E+09
 -1       503 4.75674E+11-7.02897E+07 1.80729E+11 3.76693E+09 2.84900E+10-9.93430E+08
 -1       504 5.08300E+11-1.48092E+08 1.93098E+11 3.71520E+09 3.98955E+10-9.61540E+08
 -1       505 5.40300E+11 1.01924E+08 2.05353E+11 3.61531E+09 5.09168E+10-9.27556E+08
 -1       506 5.71561E+11-2.66274E+08 2.17092E+11 3.51802E+09 6.15296E+10-8.91519E+08
 -1       507 6.01767E+11-2.49750E+07 2.28662E+11 3.39306E+09 7.17103E+10-8.53492E+08
 -1       508 6.30872E+11-1.63497E+08 2.39669E+11 3.26065E+09 8.14361E+10-8.13543E+08
 -1       509 6.58648E+11-1.45424E+08 2.50231E+11 3.10285E+09 9.06849E+10-7.71749E+08
 -1       510 6.84974E+11-1.02313E+08 2.60251E+11 2.92189E+09 9.94359E+10-7.28203E+08
 -1       511 7.09774E+11-2.20523E+08 2.69630E+11 2.72857E+09 1.07669E+11-6.82999E+08
 -1       512 7.32814E+11-2.30180E+08 2.78382E+11 2.54158E+09 1.15366E+11-6.36244E+08
 -1       513 7.53975E+11-1.47234E+08 2.86455E+11 2.32000E+09 1.22509E+11-5.88058E+08
 -1       514 7.73244E+11-1.50471E+08 2.93776E+11 2.08188E+09 1.29081E+11-5.38561E+08
 -1       515 7.90444E+11-3.36926E+08 3.00241E+11 1.84476E+09 1.35070E+11-4.87881E+08
 -1       516 8.05476E+11-1.45020E+08 3.06026E+11 1.58912E+09 1.40461E+11-4.36158E+08
 -1       517 8.18266E+11-2.56395E+08 3.10844E+11 1.33744E+09 1.45243E+11-3.83533E+08
 -1       518 8.28749E+11-2.25389E+08 3.14839E+11 1.05900E+09 1.49407E+11-3.30153E+08
 -1       519 8.36865E+11-2.58383E+08 3.17910E+11 7.92538E+08 1.52944E+11-2.76170E+08
 -1       520 8.42482E+11-2.51523E+08 3.20047E+11 5.10967E+08 1.55849E+11-2.21742E+08
 -1       521 8.45680E+11-1.90564E+08 3.21286E+11 2.04612E+08 1.58117E+11-1.67029E+08
 -1       522 8.46355E+11-3.14455E+08 3.21495E+11-6.09511E+07 1.59745E+11-1.12190E+08
 -1       523 8.44432E+11-2.97597E+08 3.20771E+11-3.63049E+08 1.60734E+11-5.73920E+07
 -1       524 8.39969E+11-2.17066E+08 3.19106E+11-6.52466E+08 1.61085E+11-2.80046E+06
 -1       525 8.32945E+11-1.88164E+08 3.16448E+11-9.55265E+08 1.60801E+11 5.14187E+07
 -1       526 8.23364E+11-3.81741E+08 3.12733E+11-1.24358E+09 1.59888E+11 1.05100E+08
 -1       527 8.11221E+11-1.87745E+08 3.08192E+11-1.53835E+09 1.58352E+11 1.58076E+08
 -1       528 7.96548E+11-2.13235E+08 3.02607E+11-1.81618E+09 1.56203E+11 2.10184E+08
 -1       529 7.79390E+11-2.85092E+08 2.96060E+11-2.10360E+09 1.53452E+11 2.61260E+08
 -1       530 7.59802E+11-2.79051E+08 2.88619E+11-2.38028E+09 1.50112E+11 3.11145E+08
 -1       531 7.37765E+11-2.35831E+08 2.80261E+11-2.64683E+09 1.46197E+11 3.59681E+08
 -1       532 7.13458E+11-1.28968E+08 2.71065E+11-2.93024E+09 1.41725E+11 4.06715E+08
 -1       533 6.86899E+11-2.99759E+08 2.60908E+11-3.15585E+09 1.36714E+11 4.52100E+08
 -1       534 6.58074E+11-1.85694E+08 2.49997E+11-3.40869E+09 1.31184E+11 4.95691E+08
 -1       535 6.27231E+11-1.69155E+08 2.38284E+11-3.64944E+09 1.25156E+11 5.37347E+08
 -1       536 5.94376E+11-2.24806E+08 2.25778E+11-3.86877E+09 1.18654E+11 5.76939E+08
 -1       537 5.59634E+11-2.03326E+08 2.12584E+11-4.08493E+09 1.11703E+11 6.14340E+08
 -1       538 5.23097E+11-1.46083E+08 1.98721E+11-4.26686E+09 1.04329E+11 6.49431E+08
 -1       539 4.84880E+11-1.16484E+08 1.84210E+11-4.46203E+09 9.65599E+10 6.82099E+08
 -1       540 4.45169E+11-1.78619E+08 1.69096E+11-4.62758E+09 8.84241E+10 7.12242E+08
 -1       541 4.04020E+11-1.43718E+08 1.53473E+11-4.78156E+09 7.99518E+10 7.39763E+08
 -1       542 3.61582E+11-9.42813E+07 1.37366E+11-4.91727E+09 7.11742E+10 7.64577E+08
 -1       543 3.18038E+11-7.48823E+07 1.20826E+11-5.04649E+09 6.21233E+10 7.86603E+08
 -1       544 2.73501E+11-1.26753E+08 1.03882E+11-5.14263E+09 5.28320E+10 8.05774E+08
 -1       545 2.28095E+11-5.88155E+07 8.66537E+10-5.23235E+09 4.33341E+10 8.22030E+08
 -1       546 1.82018E+11-3.40858E+07 6.91537E+10-5.30617E+09 3.36637E+10 8.35322E+08
 -1       547 1.35409E+11-4.57932E+07 5.14379E+10-5.35563E+09 2.38556E+10 8.45609E+08
 -1       548 8.84033E+10-2.91466E+07 3.35822E+10-5.39156E+09 1.39453E+10 8.52862E+08
 -1       549 4.11896E+10-4.30229E+06 1.56504E+10-5.40633E+09 3.96822E+09 8.57062E+08
 -1       550-6.09894E+09 8.37622E+06-2.31441E+09-5.40499E+09-6.04002E+09 8.58198E+08
 -1       551-5.32855E+10 3.49166E+07-2.02352E+10-5.38452E+09-1.60437E+10 8.56273E+08
 -1       552-1.00211E+11 3.24477E+07-3.80678E+10-5.34693E+09-2.60071E+10 8.51298E+08
 -1       553-1.46733E+11 5.21305E+07-5.57388E+10-5.28739E+09-3.58948E+10 8.43294E+08
 -1       554-1.92677E+11 7.68339E+07-7.31880E+10-5.21741E+09-4.56715E+10 8.32292E+08
 -1       555-2.37893E+11 1.09230E+08-9.03577E+10-5.12280E+09-5.53026E+10 8.18337E+08
 -1       556-2.82222E+11 8.50742E+07-1.07212E+11-5.01517E+09-6.47540E+10 8.01480E+08
 -1       557-3.25517E+11 1.03853E+08-1.23657E+11-4.88489E+09-7.39921E+10 7.81783E+08
 -1       558-3.67652E+11 1.36365E+08-1.39656E+11-4.73915E+09-8.29842E+10 7.59316E+08
 -1       559-4.08456E+11 2.14880E+08-1.55132E+11-4.58843E+09-9.16984E+10 7.34162E+08
 -1       560-4.47765E+11 1.05794E+08-1.70111E+11-4.40939E+09-1.00104E+11 7.06412E+08
 -1       561-4.85513E+11 1.03243E+08-1.84456E+11-4.21964E+09-1.08171E+11 6.76164E+08
 -1       562-5.21548E+11 3.08548E+08-1.98071E+11-4.01355E+09-1.15871E+11 6.43524E+08
 -1       563-5.55677E+11 1.30768E+08-2.11108E+11-3.79946E+09-1.23177E+11 6.08610E+08
 -1       564-5.87902E+11 1.91546E+08-2.23330E+11-3.55501E+09-1.30063E+11 5.71547E+08
 -1       565-6.18036E+11 2.45706E+08-2.34760E+11-3.32875E+09-1.36505E+11 5.32462E+08
 -1       566-6.45975E+11 2.62825E+08-2.45371E+11-3.06677E+09-1.42480E+11 4.91495E+08
 -1       567-6.71649E+11 2.14433E+08-2.55145E+11-2.80584E+09-1.47966E+11 4.48790E+08
 -1       568-6.94950E+11 1.67768E+08-2.64017E+11-2.52339E+09-1.52945E+11 4.04498E+08
 -1       569-7.15881E+11 3.78146E+08-2.71891E+11-2.23566E+09-1.57399E+11 3.58773E+08
 -1       570-7.34220E+11 1.99027E+08-2.78928E+11-1.96650E+09-1.61311E+11 3.11775E+08
 -1       571-7.49990E+11 2.12973E+08-2.84915E+11-1.65119E+09-1.64669E+11 2.63672E+08
 -1       572-7.63206E+11 3.13217E+08-2.89899E+11-1.35287E+09-1.67460E+11 2.14628E+08
 -1       573-7.73676E+11 3.60878E+08-2.93860E+11-1.04395E+09-1.69674E+11 1.64818E+08
 -1       574-7.81485E+11 1.85664E+08-2.96894E+11-7.25615E+08-1.71303E+11 1.14415E+08
 -1       575-7.86544E+11 1.93640E+08-2.98813E+11-4.30242E+08-1.72342E+11 6.35950E+07
 -1       576-7.88846E+11 3.68384E+08-2.99622E+11-1.04255E+08-1.72786E+11 1.25364E+07
 -1       577-7.88433E+11 3.17130E+08-2.99484E+11 2.09792E+08-1.72634E+11-3.85834E+07
 -1       578-7.85192E+11 2.25136E+08-2.98287E+11 5.19666E+08-1.71887E+11-8.95848E+07
 -1       579-7.79281E+11 2.11708E+08-2.96046E+11 8.50176E+08-1.70546E+11-1.40289E+08
 -1       580-7.70659E+11 4.02432E+08-2.92698E+11 1.13730E+09-1.68615E+11-1.90522E+08
 -1       581-7.59254E+11 1.85902E+08-2.88446E+11 1.44711E+09-1.66103E+11-2.40107E+08
 -1       582-7.45278E+11 2.29092E+08-2.83119E+11 1.75647E+09-1.63017E+11-2.88868E+08
 -1       583-7.28708E+11 3.02590E+08-2.76794E+11 2.04576E+09-1.59367E+11-3.36640E+08
 -1       584-7.09546E+11 2.76199E+08-2.69523E+11 2.33311E+09-1.55167E+11-3.83254E+08
 -1       585-6.87951E+11 2.12403E+08-2.61341E+11 2.61577E+09-1.50430E+11-4.28546E+08
 -1       586-6.63936E+11 1.82384E+08-2.52227E+11 2.87722E+09-1.45174E+11-4.72361E+08
 -1       587-6.37607E+11 2.99689E+08-2.42177E+11 3.14174E+09-1.39415E+11-5.14543E+08
 -1       588-6.09078E+11 2.18058E+08-2.31367E+11 3.39303E+09-1.33175E+11-5.54948E+08
 -1       589-5.78376E+11 1.32591E+08-2.19733E+11 3.62014E+09-1.26475E+11-5.93433E+08
 -1       590-5.45702E+11 1.86600E+08-2.07296E+11 3.86058E+09-1.19337E+11-6.29864E+08
 -1       591-5.11136E+11 2.59035E+08-1.94133E+11 4.05572E+09-1.11787E+11-6.64115E+08
 -1       592-4.74723E+11 1.18064E+08-1.80350E+11 4.25576E+09-1.03851E+11-6.96066E+08
 -1       593-4.36705E+11 1.34274E+08-1.65897E+11 4.44268E+09-9.55555E+10-7.25605E+08
 -1       594-3.97155E+11 1.65239E+08-1.50856E+11 4.60684E+09-8.69304E+10-7.52629E+08
 -1       595-3.56218E+11 1.38202E+08-1.35310E+11 4.76086E+09-7.80051E+10-7.77045E+08
 -1       596-3.14030E+11 9.93951E+07-1.19293E+11 4.88543E+09-6.88107E+10-7.98768E+08
 -1       597-2.70735E+11 6.63500E+07-1.02854E+11 5.00966E+09-5.93789E+10-8.17719E+08
 -1       598-2.26525E+11 1.21955E+08-8.60332E+10 5.10693E+09-4.97424E+10-8.33834E+08
 -1       599-1.81487E+11 4.29153E+07-6.89488E+10 5.18805E+09-3.99348E+10-8.47057E+08
 -1       600-1.35833E+11 4.08427E+07-5.16010E+10 5.25509E+09-2.99900E+10-8.57341E+08
 -1       601-8.97011E+10 4.80958E+07-3.40681E+10 5.29692E+09-1.99426E+10-8.64649E+08
 -1       602-4.32360E+10 5.80959E+06-1.64275E+10 5.32559E+09-9.82740E+09-8.68957E+08
 -1       603 3.37059E+09 3.74927E+06 1.28225E+09 5.33415E+09 3.20542E+08-8.70249E+08
 -1       604 4.99819E+10-1.81982E+07 1.89862E+10 5.32353E+09 1.04659E+10-8.68518E+08
 -1       605 9.64168E+10-2.68231E+07 3.66282E+10 5.29493E+09 2.05735E+10-8.63772E+08
 -1       606 1.42541E+11-6.68399E+07 5.41402E+10 5.24663E+09 3.06082E+10-8.56026E+08
 -1       607 1.88156E+11-5.57413E+07 7.14782E+10 5.18700E+09 4.05351E+10-8.45308E+08
 -1       608 2.33129E+11-5.46580E+07 8.85682E+10 5.09892E+09 5.03198E+10-8.31653E+08
 -1       609 2.77324E+11-1.47185E+08 1.05327E+11 4.99927E+09 5.99283E+10-8.15108E+08
 -1       610 3.20519E+11-7.77384E+07 1.21768E+11 4.88349E+09 6.93273E+10-7.95731E+08
 -1       611 3.62649E+11-1.11130E+08 1.37765E+11 4.74048E+09 7.84840E+10-7.73589E+08
 -1       612 4.03514E+11-1.58474E+08 1.53275E+11 4.59973E+09 8.73666E+10-7.48756E+08
 -1       613 4.42980E+11-1.74059E+08 1.68266E+11 4.42742E+09 9.59442E+10-7.21321E+08
 -1       614 4.80911E+11-1.82240E+08 1.82677E+11 4.24740E+09 1.04187E+11-6.91377E+08
 -1       615 5.17182E+11-9.77779E+07 1.96492E+11 4.04220E+09 1.12067E+11-6.59028E+08
 -1       616 5.51707E+11-2.53533E+08 2.09552E+11 3.83319E+09 1.19555E+11-6.24384E+08
 -1       617 5.84271E+11-1.94933E+08 2.21949E+11 3.62147E+09 1.26627E+11-5.87566E+08
 -1       618 6.14814E+11-1.65380E+08 2.33566E+11 3.37040E+09 1.33257E+11-5.48703E+08
 -1       619 6.43285E+11-2.59050E+08 2.44350E+11 3.12508E+09 1.39422E+11-5.07927E+08
 -1       620 6.69501E+11-2.83192E+08 2.54303E+11 2.86510E+09 1.45101E+11-4.65379E+08
 -1       621 6.93369E+11-1.85192E+08 2.63410E+11 2.59970E+09 1.50274E+11-4.21208E+08
 -1       622 7.14903E+11-2.16740E+08 2.71581E+11 2.30518E+09 1.54923E+11-3.75565E+08
 -1       623 7.33946E+11-2.95929E+08 2.78787E+11 2.03933E+09 1.59032E+11-3.28608E+08
 -1       624 7.50431E+11-2.94244E+08 2.85052E+11 1.73668E+09 1.62586E+11-2.80499E+08
 -1       625 7.64331E+11-2.40757E+08 2.90354E+11 1.44232E+09 1.65573E+11-2.31405E+08
 -1       626 7.75580E+11-1.89959E+08 2.94648E+11 1.12845E+09 1.67983E+11-1.81496E+08
 -1       627 7.84221E+11-3.89426E+08 2.97856E+11 8.16439E+08 1.69806E+11-1.30943E+08
 -1       628 7.90065E+11-2.67503E+08 3.00123E+11 5.26963E+08 1.71036E+11-7.99199E+07
 -1       629 7.93195E+11-1.79581E+08 3.01346E+11 1.92595E+08 1.71670E+11-2.86064E+07
 -1       630 7.93649E+11-2.85424E+08 3.01478E+11-1.06852E+08 1.71704E+11 2.28237E+07
 -1       631 7.91298E+11-3.59908E+08 3.00556E+11-4.26571E+08 1.71138E+11 7.41921E+07
 -1       632 7.86255E+11-2.31170E+08 2.98689E+11-7.39962E+08 1.69974E+11 1.25320E+08
 -1       633 7.78484E+11-2.02627E+08 2.95747E+11-1.03972E+09 1.68215E+11 1.76033E+08
 -1       634 7.68047E+11-3.81598E+08 2.91713E+11-1.35077E+09 1.65869E+11 2.26156E+08
 -1       635 7.54943E+11-2.07773E+08 2.86799E+11-1.64486E+09 1.62942E+11 2.75516E+08
 -1       636 7.39230E+11-2.01914E+08 2.80831E+11-1.94795E+09 1.59444E+11 3.23942E+08
 -1       637 7.21039E+11-3.01122E+08 2.73880E+11-2.23945E+09 1.55388E+11 3.71268E+08
 -1       638 7.00325E+11-2.82994E+08 2.66016E+11-2.50197E+09 1.50787E+11 4.17334E+08
 -1       639 6.77168E+11-1.81965E+08 2.57255E+11-2.77685E+09 1.45656E+11 4.61978E+08
 -1       640 6.51747E+11-1.96207E+08 2.47589E+11-3.04523E+09 1.40014E+11 5.05048E+08
 -1       641 6.24088E+11-2.46873E+08 2.37059E+11-3.29093E+09 1.33879E+11 5.46397E+08
 -1       642 5.94263E+11-2.63155E+08 2.25720E+11-3.52986E+09 1.27273E+11 5.85883E+08
 -1       643 5.62433E+11-1.37319E+08 2.13672E+11-3.76146E+09 1.20217E+11 6.23371E+08
 -1       644 5.28677E+11-1.07263E+08 2.00857E+11-3.96104E+09 1.12737E+11 6.58733E+08
 -1       645 4.93127E+11-2.81914E+08 1.87281E+11-4.16687E+09 1.04856E+11 6.91848E+08
 -1       646 4.55896E+11-1.07009E+08 1.73200E+11-4.34672E+09 9.66035E+10 7.22606E+08
 -1       647 4.17120E+11-1.18576E+08 1.58461E+11-4.52058E+09 8.80061E+10 7.50899E+08
 -1       648 3.76974E+11-1.55719E+08 1.43191E+11-4.67460E+09 7.90934E+10 7.76634E+08
 -1       649 3.35541E+11-1.25123E+08 1.27458E+11-4.80203E+09 6.98958E+10 7.99725E+08
 -1       650 2.92978E+11-8.03256E+07 1.11301E+11-4.92340E+09 6.04446E+10 8.20095E+08
 -1       651 2.49477E+11-6.18778E+07 9.47777E+10-5.02757E+09 5.07720E+10 8.37675E+08
 -1       652 2.05163E+11-9.82774E+07 7.79246E+10-5.10978E+09 4.09108E+10 8.52408E+08
 -1       653 1.60187E+11-3.46581E+07 6.08577E+10-5.17603E+09 3.08946E+10 8.64248E+08
 -1       654 1.14725E+11-2.63922E+07 4.35854E+10-5.22141E+09 2.07574E+10 8.73157E+08
 -1       655 6.89288E+10-2.86236E+07 2.61821E+10-5.25039E+09 1.05334E+10 8.79107E+08
 -1       656 2.29649E+10 1.00433E+07 8.73046E+09-5.25978E+09 2.57251E+08 8.82084E+08
 -1       657-2.30000E+10 8.25375E+06-8.73687E+09-5.25144E+09-1.00362E+10 8.82082E+08
 -1       658-6.88101E+10 2.92552E+07-2.61367E+10-5.22302E+09-2.03123E+10 8.79105E+08
 -1       659-1.14292E+11 5.11541E+07-4.34115E+10-5.17775E+09-3.05363E+10 8.73169E+08
 -1       660-1.59290E+11 8.07979E+07-6.04997E+10-5.11100E+09-4.06740E+10 8.64301E+08
 -1       661-2.03633E+11 6.85455E+07-7.73544E+10-5.02916E+09-5.06914E+10 8.52537E+08
 -1       662-2.47174E+11 7.71206E+07-9.38969E+10-4.92494E+09-6.05548E+10 8.37925E+08
 -1       663-2.89750E+11 1.55455E+08-1.10046E+11-4.80602E+09-7.02314E+10 8.20522E+08
 -1       664-3.31204E+11 1.01082E+08-1.25819E+11-4.66823E+09-7.96891E+10 8.00396E+08
 -1       665-3.71385E+11 1.28107E+08-1.41077E+11-4.51827E+09-8.88963E+10 7.77624E+08
 -1       666-4.10146E+11 1.67299E+08-1.55792E+11-4.34457E+09-9.78230E+10 7.52293E+08
 -1       667-4.47367E+11 2.07541E+08-1.69921E+11-4.15846E+09-1.06440E+11 7.24499E+08
 -1       668-4.82845E+11 1.52992E+08-1.83423E+11-3.95931E+09-1.14718E+11 6.94350E+08
 -1       669-5.16543E+11 1.44904E+08-1.96231E+11-3.73170E+09-1.22632E+11 6.61959E+08
 -1       670-5.48282E+11 3.42775E+08-2.08217E+11-3.51469E+09-1.30155E+11 6.27447E+08
 -1       671-5.77892E+11 1.25553E+08-2.19551E+11-3.26578E+09-1.37264E+11 5.90947E+08
 -1       672-6.05365E+11 1.79227E+08-2.29971E+11-3.00912E+09-1.43937E+11 5.52597E+08
 -1       673-6.30522E+11 3.02893E+08-2.39483E+11-2.73874E+09-1.50151E+11 5.12540E+08
 -1       674-6.53314E+11 2.84632E+08-2.48151E+11-2.45287E+09-1.55890E+11 4.70930E+08
 -1       675-6.73576E+11 2.25168E+08-2.55873E+11-2.18357E+09-1.61134E+11 4.27925E+08
 -1       676-6.91270E+11 2.17224E+08-2.62600E+11-1.86830E+09-1.65870E+11 3.83690E+08
 -1       677-7.06365E+11 3.18870E+08-2.68298E+11-1.56614E+09-1.70083E+11 3.38392E+08
 -1       678-7.18707E+11 3.13585E+08-2.72990E+11-1.25131E+09-1.73762E+11 2.92204E+08
 -1       679-7.28287E+11 2.46279E+08-2.76656E+11-9.28714E+08-1.76898E+11 2.45307E+08
 -1       680-7.35054E+11 2.28619E+08-2.79234E+11-6.12150E+08-1.79484E+11 1.97880E+08
 -1       681-7.38956E+11 4.05033E+08-2.80649E+11-2.76391E+08-1.81514E+11 1.50107E+08
 -1       682-7.39948E+11 2.31921E+08-2.81092E+11 5.02899E+07-1.82986E+11 1.02176E+08
 -1       683-7.38034E+11 2.47177E+08-2.80359E+11 3.93545E+08-1.83898E+11 5.42741E+07
 -1       684-7.33186E+11 3.80552E+08-2.78466E+11 7.27371E+08-1.84253E+11 6.59168E+06
 -1       685-7.25430E+11 2.98660E+08-2.75550E+11 1.07296E+09-1.84054E+11-4.06820E+07
 -1       686-7.14684E+11 2.19054E+08-2.71497E+11 1.37954E+09-1.83307E+11-8.73560E+07
 -1       687-7.01021E+11 2.71018E+08-2.66285E+11 1.73539E+09-1.82019E+11-1.33239E+08
 -1       688-6.84519E+11 4.01708E+08-2.59965E+11 2.06014E+09-1.80202E+11-1.78144E+08
 -1       689-6.65053E+11 2.14770E+08-2.52638E+11 2.38408E+09-1.77867E+11-2.21883E+08
 -1       690-6.42814E+11 2.51061E+08-2.44174E+11 2.71958E+09-1.75030E+11-2.64270E+08
 -1       691-6.17785E+11 3.22183E+08-2.34636E+11 3.01782E+09-1.71708E+11-3.05125E+08
 -1       692-5.89969E+11 2.81443E+08-2.24081E+11 3.33570E+09-1.67918E+11-3.44268E+08
 -1       693-5.59512E+11 2.46314E+08-2.12521E+11 3.63400E+09-1.63683E+11-3.81522E+08
 -1       694-5.26419E+11 2.12847E+08-1.99958E+11 3.93490E+09-1.59024E+11-4.16716E+08
 -1       695-4.90833E+11 2.83484E+08-1.86409E+11 4.22268E+09-1.53968E+11-4.49684E+08
 -1       696-4.52767E+11 2.55552E+08-1.71954E+11 4.48750E+09-1.48542E+11-4.80265E+08
 -1       697-4.12298E+11 2.25873E+08-1.56588E+11 4.75675E+09-1.42773E+11-5.08300E+08
 -1       698-3.69602E+11 1.74302E+08-1.40382E+11 5.01755E+09-1.36692E+11-5.33641E+08
 -1       699-3.24707E+11 2.34269E+08-1.23300E+11 5.25510E+09-1.30333E+11-5.56142E+08
 -1       700-2.77733E+11 2.04062E+08-1.05461E+11 5.49034E+09-1.23728E+11-5.75666E+08
 -1       701-2.28780E+11 1.62754E+08-8.68745E+10 5.70612E+09-1.16913E+11-5.92080E+08
 -1       702-1.77978E+11 2.00461E+08-6.75553E+10 5.91449E+09-1.09926E+11-6.05261E+08
 -1       703-1.25399E+11 1.55278E+08-4.75925E+10 6.10766E+09-1.02804E+11-6.15092E+08
 -1       704-7.12095E+10 1.61400E+08-2.69983E+10 6.28861E+09-9.55874E+10-6.21463E+08
 -1       705-1.54570E+10 1.23732E+08-5.82664E+09 6.45622E+09-8.83173E+10-6.24270E+08
 -1       706 4.16525E+10 1.55924E+08 1.58872E+10 6.61007E+09-8.10357E+10-6.23419E+08
 -1       707 1.00127E+11 7.75015E+07 3.80776E+10 6.75221E+09-7.37858E+10-6.18822E+08
 -1       708 1.59677E+11 1.48072E+08 6.07337E+10 6.88036E+09-6.66118E+10-6.10400E+08
 -1       709 2.20418E+11 7.31656E+07 8.37865E+10 6.99240E+09-5.95586E+10-5.98079E+08
 -1       710 2.81959E+11 9.80376E+07 1.07182E+11 7.09568E+09-5.26722E+10-5.81795E+08
 -1       711 3.44528E+11 8.22455E+06 1.30924E+11 7.18303E+09-4.59992E+10-5.61489E+08
 -1       712 4.07586E+11 1.82636E+08 1.54952E+11 7.26567E+09-3.95867E+10-5.37111E+08
 -1       713 4.71590E+11-3.36436E+07 1.79191E+11 7.33135E+09-3.34826E+10-5.08615E+08
 -1       714 5.35738E+11 9.53998E+07 2.03617E+11 7.38538E+09-2.77351E+10-4.75965E+08
 -1       715 6.00812E+11-7.62341E+07 2.28280E+11 7.43199E+09-2.23929E+10-4.39128E+08
 -1       716 6.65609E+11 2.38637E+08 2.53022E+11 7.45659E+09-1.75049E+10-3.98081E+08
 -1       717 7.31578E+11-1.09950E+08 2.77958E+11 7.50372E+09-1.31205E+10-3.52797E+08
 -1       718 7.96566E+11-6.00165E+08 3.02467E+11 7.50492E+09-9.28909E+09-3.03267E+08
 -1       719 8.63063E+11 3.46567E+09 3.29281E+11 7.57787E+09-6.06035E+09-2.49478E+08
 -1       720 9.28513E+11-1.36231E+10 3.47658E+11 7.32391E+09-3.48394E+09-1.91410E+08
 -1       721 9.93631E+11 5.07137E+10 3.96851E+11 8.31860E+09-1.60981E+09-1.29107E+08
 -1       722 1.06569E+12-1.86229E+11 3.34195E+11 4.65651E+09-4.87831E+08-6.23863E+07
 -1       723 1.10195E+12 6.75081E+11 6.75271E+11 1.80310E+10-1.20970E+08-2.78645E+07
 -1       724 7.21290E+08 3.80439E+08 4.18657E+08 2.03952E+06 2.36616E+11 1.23169E+09
 -1       725 2.53621E+09 3.65326E+08 1.10258E+09 4.33342E+08 2.29432E+11 1.23161E+09
 -1       726 8.05479E+09 3.48834E+08 3.19338E+09 8.38514E+08 2.15066E+11 1.23127E+09
 -1       727 1.70212E+10 3.17375E+08 6.58867E+09 1.21820E+09 2.00706E+11 1.23046E+09
 -1       728 2.91762E+10 3.06643E+08 1.12035E+10 1.56886E+09 1.86359E+11 1.22896E+09
 -1       729 4.43226E+10 2.51456E+08 1.69381E+10 1.89799E+09 1.72035E+11 1.22658E+09
 -1       730 6.21815E+10 2.90295E+08 2.37393E+10 2.19834E+09 1.57745E+11 1.22313E+09
 -1       731 8.25970E+10 1.95116E+08 3.14610E+10 2.47002E+09 1.43502E+11 1.21844E+09
 -1       732 1.05266E+11 2.28601E+08 4.00881E+10 2.72296E+09 1.29321E+11 1.21235E+09
 -1       733 1.30015E+11 1.80046E+08 4.94742E+10 2.94026E+09 1.15221E+11 1.20473E+09
 -1       734 1.56623E+11 1.28723E+08 5.95656E+10 3.14073E+09 1.01219E+11 1.19544E+09
 -1       735 1.84782E+11 1.99357E+08 7.02928E+10 3.31899E+09 8.73358E+10 1.18437E+09
 -1       736 2.14410E+11 9.11462E+07 8.15103E+10 3.44887E+09 7.35924E+10 1.17143E+09
 -1       737 2.45175E+11 4.99657E+07 9.31853E+10 3.59191E+09 6.00112E+10 1.15654E+09
 -1       738 2.76858E+11 1.30117E+08 1.05256E+11 3.66830E+09 4.66156E+10 1.13962E+09
 -1       739 3.09399E+11 7.99190E+07 1.17602E+11 3.74767E+09 3.34294E+10 1.12062E+09
 -1       740 3.42352E+11-8.00063E+07 1.30063E+11 3.81490E+09 2.04773E+10 1.09950E+09
 -1       741 3.75677E+11 1.66898E+08 1.42821E+11 3.81248E+09 7.78401E+09 1.07623E+09
 -1       742 4.09164E+11-1.29718E+08 1.55433E+11 3.83682E+09-4.62512E+09 1.05079E+09
 -1       743 4.42505E+11 4.06807E+07 1.68167E+11 3.79772E+09-1.67249E+10 1.02319E+09
 -1       744 4.75674E+11-7.02900E+07 1.80729E+11 3.76693E+09-2.84900E+10 9.93430E+08
 -1       745 5.08300E+11-1.48092E+08 1.93098E+11 3.71520E+09-3.98955E+10 9.61540E+08
 -1       746 5.40300E+11 1.01924E+08 2.05353E+11 3.61531E+09-5.09168E+10 9.27556E+08
 -1       747 5.71561E+11-2.66274E+08 2.17092E+11 3.51802E+09-6.15295E+10 8.91519E+08
 -1       748 6.01767E+11-2.49750E+07 2.28662E+11 3.39306E+09-7.17103E+10 8.53492E+08
 -1       749 6.30872E+11-1.63497E+08 2.39669E+11 3.26065E+09-8.14361E+10 8.13543E+08
 -1       750 6.58648E+11-1.45424E+08 2.50231E+11 3.10285E+09-9.06849E+10 7.71749E+08
 -1       751 6.84974E+11-1.02313E+08 2.60251E+11 2.92189E+09-9.94359E+10 7.28203E+08
 -1       752 7.09774E+11-2.20523E+08 2.69630E+11 2.72857E+09-1.07669E+11 6.82998E+08
 -1       753 7.32814E+11-2.30181E+08 2.78382E+11 2.54158E+09-1.15366E+11 6.36244E+08
 -1       754 7.53975E+11-1.47234E+08 2.86455E+11 2.32000E+09-1.22509E+11 5.88058E+08
 -1       755 7.73244E+11-1.50471E+08 2.93776E+11 2.08188E+09-1.29081E+11 5.38561E+08
 -1       756 7.90444E+11-3.36926E+08 3.00241E+11 1.84476E+09-1.35070E+11 4.87881E+08
 -1       757 8.05476E+11-1.45021E+08 3.06026E+11 1.58912E+09-1.40461E+11 4.36158E+08
 -1       758 8.18266E+11-2.56395E+08 3.10844E+11 1.33744E+09-1.45243E+11 3.83533E+08
 -1       759 8.28749E+11-2.25389E+08 3.14839E+11 1.05900E+09-1.49407E+11 3.30153E+08
 -1       760 8.36865E+11-2.58383E+08 3.17910E+11 7.92538E+08-1.52944E+11 2.76170E+08
 -1       761 8.42482E+11-2.51523E+08 3.20047E+11 5.10967E+08-1.55849E+11 2.21742E+08
 -1       762 8.45680E+11-1.90564E+08 3.21286E+11 2.04612E+08-1.58117E+11 1.67029E+08
 -1       763 8.46355E+11-3.14455E+08 3.21495E+11-6.09511E+07-1.59745E+11 1.12190E+08
 -1       764 8.44432E+11-2.97597E+08 3.20771E+11-3.63049E+08-1.60734E+11 5.73920E+07
 -1       765 8.39969E+11-2.17066E+08 3.19106E+11-6.52466E+08-1.61085E+11 2.80044E+06
 -1       766 8.32945E+11-1.88164E+08 3.16448E+11-9.55265E+08-1.60801E+11-5.14187E+07
 -1       767 8.23364E+11-3.81741E+08 3.12733E+11-1.24358E+09-1.59888E+11-1.05100E+08
 -1       768 8.11221E+11-1.87746E+08 3.08192E+11-1.53835E+09-1.58352E+11-1.58076E+08
 -1       769 7.96548E+11-2.13236E+08 3.02607E+11-1.81618E+09-1.56203E+11-2.10184E+08
 -1       770 7.79390E+11-2.85092E+08 2.96060E+11-2.10360E+09-1.53452E+11-2.61260E+08
 -1       771 7.59802E+11-2.79051E+08 2.88619E+11-2.38028E+09-1.50112E+11-3.11145E+08
 -1       772 7.37765E+11-2.35831E+08 2.80261E+11-2.64683E+09-1.46197E+11-3.59681E+08
 -1       773 7.13458E+11-1.28968E+08 2.71065E+11-2.93024E+09-1.41725E+11-4.06715E+08
 -1       774 6.86899E+11-2.99759E+08 2.60908E+11-3.15585E+09-1.36714E+11-4.52100E+08
 -1       775 6.58074E+11-1.85694E+08 2.49997E+11-3.40869E+09-1.31184E+11-4.95691E+08
 -1       776 6.27231E+11-1.69155E+08 2.38284E+11-3.64944E+09-1.25156E+11-5.37347E+08
 -1       777 5.94376E+11-2.24806E+08 2.25778E+11-3.86877E+09-1.18654E+11-5.76939E+08
 -1       778 5.59634E+11-2.03326E+08 2.12584E+11-4.08493E+09-1.11703E+11-6.14340E+08
 -1       779 5.23097E+11-1.46083E+08 1.98721E+11-4.26686E+09-1.04329E+11-6.49431E+08
 -1       780 4.84880E+11-1.16484E+08 1.84210E+11-4.46203E+09-9.65599E+10-6.82099E+08
 -1       781 4.45169E+11-1.78619E+08 1.69096E+11-4.62758E+09-8.84241E+10-7.12241E+08
 -1       782 4.04020E+11-1.43718E+08 1.53473E+11-4.78156E+09-7.99518E+10-7.39763E+08
 -1       783 3.61582E+11-9.42816E+07 1.37366E+11-4.91727E+09-7.11742E+10-7.64577E+08
 -1       784 3.18038E+11-7.48823E+07 1.20826E+11-5.04648E+09-6.21233E+10-7.86603E+08
 -1       785 2.73501E+11-1.26753E+08 1.03882E+11-5.14263E+09-5.28320E+10-8.05774E+08
 -1       786 2.28095E+11-5.88155E+07 8.66537E+10-5.23235E+09-4.33340E+10-8.22030E+08
 -1       787 1.82018E+11-3.40857E+07 6.91537E+10-5.30617E+09-3.36636E+10-8.35322E+08
 -1       788 1.35409E+11-4.57932E+07 5.14379E+10-5.35563E+09-2.38556E+10-8.45609E+08
 -1       789 8.84033E+10-2.91465E+07 3.35822E+10-5.39156E+09-1.39453E+10-8.52862E+08
 -1       790 4.11896E+10-4.30235E+06 1.56504E+10-5.40633E+09-3.96821E+09-8.57062E+08
 -1       791-6.09894E+09 8.37612E+06-2.31441E+09-5.40499E+09 6.04002E+09-8.58198E+08
 -1       792-5.32855E+10 3.49168E+07-2.02352E+10-5.38452E+09 1.60437E+10-8.56273E+08
 -1       793-1.00211E+11 3.24477E+07-3.80678E+10-5.34693E+09 2.60071E+10-8.51298E+08
 -1       794-1.46733E+11 5.21304E+07-5.57388E+10-5.28739E+09 3.58948E+10-8.43294E+08
 -1       795-1.92677E+11 7.68339E+07-7.31880E+10-5.21741E+09 4.56715E+10-8.32292E+08
 -1       796-2.37893E+11 1.09230E+08-9.03577E+10-5.12280E+09 5.53026E+10-8.18337E+08
 -1       797-2.82222E+11 8.50742E+07-1.07212E+11-5.01517E+09 6.47540E+10-8.01480E+08
 -1       798-3.25517E+11 1.03853E+08-1.23657E+11-4.88489E+09 7.39921E+10-7.81783E+08
 -1       799-3.67652E+11 1.36365E+08-1.39656E+11-4.73915E+09 8.29842E+10-7.59316E+08
 -1       800-4.08456E+11 2.14880E+08-1.55132E+11-4.58843E+09 9.16984E+10-7.34162E+08
 -1       801-4.47765E+11 1.05794E+08-1.70111E+11-4.40939E+09 1.00104E+11-7.06412E+08
 -1       802-4.85513E+11 1.03243E+08-1.84456E+11-4.21964E+09 1.08171E+11-6.76164E+08
 -1       803-5.21548E+11 3.08548E+08-1.98071E+11-4.01355E+09 1.15871E+11-6.43524E+08
 -1       804-5.55677E+11 1.30768E+08-2.11108E+11-3.79946E+09 1.23177E+11-6.08610E+08
 -1       805-5.87902E+11 1.91546E+08-2.23330E+11-3.55501E+09 1.30063E+11-5.71547E+08
 -1       806-6.18036E+11 2.45707E+08-2.34760E+11-3.32875E+09 1.36505E+11-5.32462E+08
 -1       807-6.45975E+11 2.62825E+08-2.45371E+11-3.06677E+09 1.42480E+11-4.91495E+08
 -1       808-6.71649E+11 2.14433E+08-2.55145E+11-2.80584E+09 1.47966E+11-4.48790E+08
 -1       809-6.94950E+11 1.67768E+08-2.64017E+11-2.52339E+09 1.52945E+11-4.04498E+08
 -1       810-7.15881E+11 3.78146E+08-2.71891E+11-2.23566E+09 1.57399E+11-3.58773E+08
 -1       811-7.34220E+11 1.99027E+08-2.78928E+11-1.96650E+09 1.61311E+11-3.11775E+08
 -1       812-7.49990E+11 2.12973E+08-2.84915E+11-1.65119E+09 1.64669E+11-2.63672E+08
 -1       813-7.63206E+11 3.13217E+08-2.89899E+11-1.35287E+09 1.67460E+11-2.14628E+08
 -1       814-7.73676E+11 3.60878E+08-2.93860E+11-1.04395E+09 1.69674E+11-1.64818E+08
 -1       815-7.81485E+11 1.85664E+08-2.96894E+11-7.25615E+08 1.71303E+11-1.14415E+08
 -1       816-7.86544E+11 1.93640E+08-2.98813E+11-4.30242E+08 1.72342E+11-6.35949E+07
 -1       817-7.88846E+11 3.68384E+08-2.99622E+11-1.04255E+08 1.72786E+11-1.25363E+07
 -1       818-7.88433E+11 3.17130E+08-2.99484E+11 2.09793E+08 1.72634E+11 3.85834E+07
 -1       819-7.85192E+11 2.25136E+08-2.98287E+11 5.19666E+08 1.71887E+11 8.95848E+07
 -1       820-7.79281E+11 2.11708E+08-2.96046E+11 8.50176E+08 1.70546E+11 1.40289E+08
 -1       821-7.70659E+11 4.02432E+08-2.92698E+11 1.13730E+09 1.68615E+11 1.90522E+08
 -1       822-7.59254E+11 1.85902E+08-2.88446E+11 1.44711E+09 1.66103E+11 2.40107E+08
 -1       823-7.45278E+11 2.29093E+08-2.83119E+11 1.75647E+09 1.63017E+11 2.88868E+08
 -1       824-7.28708E+11 3.02590E+08-2.76794E+11 2.04575E+09 1.59367E+11 3.36640E+08
 -1       825-7.09546E+11 2.76199E+08-2.69523E+11 2.33311E+09 1.55167E+11 3.83254E+08
 -1       826-6.87951E+11 2.12402E+08-2.61341E+11 2.61577E+09 1.50430E+11 4.28546E+08
 -1       827-6.63936E+11 1.82384E+08-2.52227E+11 2.87722E+09 1.45174E+11 4.72361E+08
 -1       828-6.37607E+11 2.99689E+08-2.42177E+11 3.14174E+09 1.39415E+11 5.14543E+08
 -1       829-6.09078E+11 2.18058E+08-2.31367E+11 3.39303E+09 1.33175E+11 5.54948E+08
 -1       830-5.78376E+11 1.32591E+08-2.19733E+11 3.62014E+09 1.26475E+11 5.93433E+08
 -1       831-5.45702E+11 1.86600E+08-2.07296E+11 3.86058E+09 1.19337E+11 6.29864E+08
 -1       832-5.11136E+11 2.59035E+08-1.94133E+11 4.05572E+09 1.11787E+11 6.64115E+08
 -1       833-4.74723E+11 1.18064E+08-1.80350E+11 4.25576E+09 1.03851E+11 6.96066E+08
 -1       834-4.36705E+11 1.34274E+08-1.65897E+11 4.44268E+09 9.55555E+10 7.25605E+08
 -1       835-3.97155E+11 1.65239E+08-1.50856E+11 4.60684E+09 8.69304E+10 7.52629E+08
 -1       836-3.56218E+11 1.38202E+08-1.35310E+11 4.76086E+09 7.80051E+10 7.77045E+08
 -1       837-3.14030E+11 9.93951E+07-1.19293E+11 4.88543E+09 6.88107E+10 7.98768E+08
 -1       838-2.70735E+11 6.63500E+07-1.02854E+11 5.00966E+09 5.93789E+10 8.17719E+08
 -1       839-2.26525E+11 1.21955E+08-8.60332E+10 5.10693E+09 4.97424E+10 8.33834E+08
 -1       840-1.81487E+11 4.29154E+07-6.89488E+10 5.18805E+09 3.99348E+10 8.47057E+08
 -1       841-1.35833E+11 4.08427E+07-5.16010E+10 5.25509E+09 2.99900E+10 8.57341E+08
 -1       842-8.97011E+10 4.80957E+07-3.40681E+10 5.29692E+09 1.99426E+10 8.64649E+08
 -1       843-4.32360E+10 5.80963E+06-1.64275E+10 5.32559E+09 9.82740E+09 8.68957E+08
 -1       844 3.37059E+09 3.74928E+06 1.28225E+09 5.33415E+09-3.20542E+08 8.70249E+08
 -1       845 4.99819E+10-1.81982E+07 1.89862E+10 5.32353E+09-1.04659E+10 8.68518E+08
 -1       846 9.64168E+10-2.68232E+07 3.66282E+10 5.29493E+09-2.05735E+10 8.63772E+08
 -1       847 1.42541E+11-6.68399E+07 5.41402E+10 5.24663E+09-3.06082E+10 8.56026E+08
 -1       848 1.88156E+11-5.57413E+07 7.14782E+10 5.18700E+09-4.05351E+10 8.45308E+08
 -1       849 2.33129E+11-5.46579E+07 8.85682E+10 5.09892E+09-5.03198E+10 8.31653E+08
 -1       850 2.77324E+11-1.47185E+08 1.05327E+11 4.99927E+09-5.99283E+10 8.15108E+08
 -1       851 3.20519E+11-7.77383E+07 1.21768E+11 4.88349E+09-6.93273E+10 7.95731E+08
 -1       852 3.62649E+11-1.11130E+08 1.37765E+11 4.74048E+09-7.84840E+10 7.73589E+08
 -1       853 4.03514E+11-1.58474E+08 1.53275E+11 4.59973E+09-8.73666E+10 7.48756E+08
 -1       854 4.42980E+11-1.74059E+08 1.68266E+11 4.42742E+09-9.59442E+10 7.21321E+08
 -1       855 4.80911E+11-1.82240E+08 1.82677E+11 4.24740E+09-1.04187E+11 6.91377E+08
 -1       856 5.17182E+11-9.77777E+07 1.96492E+11 4.04220E+09-1.12067E+11 6.59028E+08
 -1       857 5.51707E+11-2.53533E+08 2.09552E+11 3.83319E+09-1.19555E+11 6.24384E+08
 -1       858 5.84271E+11-1.94933E+08 2.21949E+11 3.62147E+09-1.26627E+11 5.87566E+08
 -1       859 6.14814E+11-1.65380E+08 2.33566E+11 3.37040E+09-1.33257E+11 5.48703E+08
 -1       860 6.43285E+11-2.59050E+08 2.44350E+11 3.12508E+09-1.39422E+11 5.07927E+08
 -1       861 6.69501E+11-2.83192E+08 2.54303E+11 2.86510E+09-1.45101E+11 4.65379E+08
 -1       862 6.93369E+11-1.85192E+08 2.63410E+11 2.59970E+09-1.50274E+11 4.21208E+08
 -1       863 7.14903E+11-2.16740E+08 2.71581E+11 2.30518E+09-1.54923E+11 3.75565E+08
 -1       864 7.33946E+11-2.95929E+08 2.78787E+11 2.03933E+09-1.59032E+11 3.28608E+08
 -1       865 7.50431E+11-2.94244E+08 2.85052E+11 1.73668E+09-1.62586E+11 2.80499E+08
 -1       866 7.64331E+11-2.40757E+08 2.90354E+11 1.44232E+09-1.65573E+11 2.31405E+08
 -1       867 7.75580E+11-1.89959E+08 2.94648E+11 1.12845E+09-1.67983E+11 1.81496E+08
 -1       868 7.84221E+11-3.89426E+08 2.97856E+11 8.16438E+08-1.69806E+11 1.30943E+08
 -1       869 7.90065E+11-2.67503E+08 3.00123E+11 5.26963E+08-1.71036E+11 7.99199E+07
 -1       870 7.93195E+11-1.79581E+08 3.01346E+11 1.92595E+08-1.71670E+11 2.86064E+07
 -1       871 7.93649E+11-2.85424E+08 3.01478E+11-1.06852E+08-1.71704E+11-2.28237E+07
 -1       872 7.91298E+11-3.59908E+08 3.00556E+11-4.26571E+08-1.71138E+11-7.41921E+07
 -1       873 7.86255E+11-2.31169E+08 2.98689E+11-7.39962E+08-1.69974E+11-1.25320E+08
 -1       874 7.78484E+11-2.02627E+08 2.95747E+11-1.03972E+09-1.68215E+11-1.76033E+08
 -1       875 7.68047E+11-3.81598E+08 2.91713E+11-1.35077E+09-1.65869E+11-2.26156E+08
 -1       876 7.54943E+11-2.07773E+08 2.86799E+11-1.64486E+09-1.62942E+11-2.75516E+08
 -1       877 7.39230E+11-2.01914E+08 2.80831E+11-1.94795E+09-1.59444E+11-3.23942E+08
 -1       878 7.21039E+11-3.01122E+08 2.73880E+11-2.23945E+09-1.55388E+11-3.71268E+08
 -1       879 7.00325E+11-2.82994E+08 2.66016E+11-2.50197E+09-1.50787E+11-4.17334E+08
 -1       880 6.77168E+11-1.81965E+08 2.57255E+11-2.77685E+09-1.45656E+11-4.61978E+08
 -1       881 6.51747E+11-1.96208E+08 2.47589E+11-3.04523E+09-1.40014E+11-5.05048E+08
 -1       882 6.24088E+11-2.46873E+08 2.37059E+11-3.29093E+09-1.33879E+11-5.46397E+08
 -1       883 5.94263E+11-2.63155E+08 2.25720E+11-3.52986E+09-1.27273E+11-5.85883E+08
 -1       884 5.62433E+11-1.37319E+08 2.13672E+11-3.76146E+09-1.20217E+11-6.23371E+08
 -1       885 5.28677E+11-1.07263E+08 2.00857E+11-3.96104E+09-1.12737E+11-6.58733E+08
 -1       886 4.93127E+11-2.81914E+08 1.87281E+11-4.16687E+09-1.04856E+11-6.91848E+08
 -1       887 4.55896E+11-1.07009E+08 1.73200E+11-4.34672E+09-9.66035E+10-7.22606E+08
 -1       888 4.17120E+11-1.18576E+08 1.58461E+11-4.52058E+09-8.80061E+10-7.50899E+08
 -1       889 3.76974E+11-1.55719E+08 1.43191E+11-4.67460E+09-7.90934E+10-7.76634E+08
 -1       890 3.35541E+11-1.25123E+08 1.27458E+11-4.80203E+09-6.98958E+10-7.99725E+08
 -1       891 2.92978E+11-8.03255E+07 1.11301E+11-4.92340E+09-6.04446E+10-8.20095E+08
 -1       892 2.49477E+11-6.18777E+07 9.47777E+10-5.02757E+09-5.07720E+10-8.37675E+08
 -1       893 2.05163E+11-9.82775E+07 7.79246E+10-5.10978E+09-4.09108E+10-8.52408E+08
 -1       894 1.60187E+11-3.46580E+07 6.08577E+10-5.17603E+09-3.08946E+10-8.64248E+08
 -1       895 1.14725E+11-2.63923E+07 4.35854E+10-5.22141E+09-2.07574E+10-8.73157E+08
 -1       896 6.89288E+10-2.86238E+07 2.61821E+10-5.25039E+09-1.05334E+10-8.79107E+08
 -1       897 2.29649E+10 1.00433E+07 8.73046E+09-5.25978E+09-2.57251E+08-8.82084E+08
 -1       898-2.30000E+10 8.25379E+06-8.73687E+09-5.25144E+09 1.00362E+10-8.82082E+08
 -1       899-6.88101E+10 2.92553E+07-2.61367E+10-5.22302E+09 2.03123E+10-8.79105E+08
 -1       900-1.14292E+11 5.11542E+07-4.34115E+10-5.17775E+09 3.05363E+10-8.73169E+08
 -1       901-1.59290E+11 8.07980E+07-6.04997E+10-5.11100E+09 4.06740E+10-8.64301E+08
 -1       902-2.03633E+11 6.85456E+07-7.73544E+10-5.02916E+09 5.06914E+10-8.52537E+08
 -1       903-2.47174E+11 7.71206E+07-9.38969E+10-4.92494E+09 6.05548E+10-8.37925E+08
 -1       904-2.89750E+11 1.55455E+08-1.10046E+11-4.80602E+09 7.02314E+10-8.20522E+08
 -1       905-3.31204E+11 1.01082E+08-1.25819E+11-4.66823E+09 7.96891E+10-8.00396E+08
 -1       906-3.71385E+11 1.28107E+08-1.41077E+11-4.51827E+09 8.88963E+10-7.77624E+08
 -1       907-4.10146E+11 1.67299E+08-1.55792E+11-4.34457E+09 9.78230E+10-7.52293E+08
 -1       908-4.47367E+11 2.07541E+08-1.69921E+11-4.15846E+09 1.06440E+11-7.24499E+08
 -1       909-4.82845E+11 1.52991E+08-1.83423E+11-3.95931E+09 1.14718E+11-6.94350E+08
 -1       910-5.16543E+11 1.44904E+08-1.96231E+11-3.73170E+09 1.22632E+11-6.61959E+08
 -1       911-5.48282E+11 3.42775E+08-2.08217E+11-3.51469E+09 1.30155E+11-6.27447E+08
 -1       912-5.77892E+11 1.25553E+08-2.19551E+11-3.26578E+09 1.37264E+11-5.90947E+08
 -1       913-6.05365E+11 1.79227E+08-2.29971E+11-3.00912E+09 1.43937E+11-5.52597E+08
 -1       914-6.30522E+11 3.02893E+08-2.39483E+11-2.73874E+09 1.50151E+11-5.12540E+08
 -1       915-6.53314E+11 2.84632E+08-2.48151E+11-2.45287E+09 1.55890E+11-4.70930E+08
 -1       916-6.73576E+11 2.25168E+08-2.55873E+11-2.18357E+09 1.61134E+11-4.27925E+08
 -1       917-6.91270E+11 2.17224E+08-2.62600E+11-1.86830E+09 1.65870E+11-3.83690E+08
 -1       918-7.06365E+11 3.18870E+08-2.68298E+11-1.56614E+09 1.70083E+11-3.38392E+08
 -1       919-7.18707E+11 3.13585E+08-2.72990E+11-1.25131E+09 1.73762E+11-2.92204E+08
 -1       920-7.28287E+11 2.46279E+08-2.76656E+11-9.28714E+08 1.76898E+11-2.45307E+08
 -1       921-7.35054E+11 2.28619E+08-2.79234E+11-6.12149E+08 1.79484E+11-1.97880E+08
 -1       922-7.38956E+11 4.05033E+08-2.80649E+11-2.76390E+08 1.81514E+11-1.50107E+08
 -1       923-7.39948E+11 2.31921E+08-2.81092E+11 5.02902E+07 1.82986E+11-1.02176E+08
 -1       924-7.38034E+11 2.47177E+08-2.80359E+11 3.93546E+08 1.83898E+11-5.42741E+07
 -1       925-7.33186E+11 3.80552E+08-2.78466E+11 7.27371E+08 1.84253E+11-6.59165E+06
 -1       926-7.25430E+11 2.98660E+08-2.75550E+11 1.07296E+09 1.84054E+11 4.06820E+07
 -1       927-7.14684E+11 2.19054E+08-2.71497E+11 1.37954E+09 1.83307E+11 8.73560E+07
 -1       928-7.01021E+11 2.71018E+08-2.66285E+11 1.73539E+09 1.82019E+11 1.33239E+08
 -1       929-6.84519E+11 4.01709E+08-2.59965E+11 2.06015E+09 1.80202E+11 1.78144E+08
 -1       930-6.65053E+11 2.14770E+08-2.52638E+11 2.38408E+09 1.77867E+11 2.21883E+08
 -1       931-6.42814E+11 2.51061E+08-2.44174E+11 2.71958E+09 1.75030E+11 2.64270E+08
 -1       932-6.17785E+11 3.22183E+08-2.34636E+11 3.01782E+09 1.71708E+11 3.05125E+08
 -1       933-5.89969E+11 2.81443E+08-2.24081E+11 3.33570E+09 1.67918E+11 3.44268E+08
 -1       934-5.59512E+11 2.46314E+08-2.12521E+11 3.63400E+09 1.63683E+11 3.81522E+08
 -1       935-5.26419E+11 2.12847E+08-1.99958E+11 3.93490E+09 1.59024E+11 4.16716E+08
 -1       936-4.90833E+11 2.83484E+08-1.86409E+11 4.22268E+09 1.53968E+11 4.49684E+08
 -1       937-4.52767E+11 2.55553E+08-1.71954E+11 4.48750E+09 1.48542E+11 4.80265E+08
 -1       938-4.12298E+11 2.25872E+08-1.56588E+11 4.75675E+09 1.42773E+11 5.08300E+08
 -1       939-3.69602E+11 1.74302E+08-1.40382E+11 5.01755E+09 1.36692E+11 5.33641E+08
 -1       940-3.24707E+11 2.34269E+08-1.23300E+11 5.25510E+09 1.30333E+11 5.56142E+08
 -1       941-2.77733E+11 2.04062E+08-1.05461E+11 5.49034E+09 1.23728E+11 5.75666E+08
 -1       942-2.28780E+11 1.62754E+08-8.68745E+10 5.70612E+09 1.16913E+11 5.92080E+08
 -1       943-1.77978E+11 2.00461E+08-6.75553E+10 5.91449E+09 1.09926E+11 6.05261E+08
 -1       944-1.25399E+11 1.55278E+08-4.75925E+10 6.10766E+09 1.02804E+11 6.15092E+08
 -1       945-7.12095E+10 1.61400E+08-2.69983E+10 6.28861E+09 9.55874E+10 6.21463E+08
 -1       946-1.54570E+10 1.23732E+08-5.82664E+09 6.45622E+09 8.83173E+10 6.24270E+08
 -1       947 4.16525E+10 1.55924E+08 1.58872E+10 6.61007E+09 8.10357E+10 6.23419E+08
 -1       948 1.00127E+11 7.75016E+07 3.80776E+10 6.75221E+09 7.37858E+10 6.18822E+08
 -1       949 1.59677E+11 1.48072E+08 6.07337E+10 6.88036E+09 6.66117E+10 6.10400E+08
 -1       950 2.20418E+11 7.31656E+07 8.37865E+10 6.99240E+09 5.95586E+10 5.98079E+08
 -1       951 2.81959E+11 9.80376E+07 1.07182E+11 7.09568E+09 5.26722E+10 5.81795E+08
 -1       952 3.44528E+11 8.22451E+06 1.30924E+11 7.18303E+09 4.59992E+10 5.61489E+08
 -1       953 4.07586E+11 1.82636E+08 1.54952E+11 7.26567E+09 3.95867E+10 5.37111E+08
 -1       954 4.71590E+11-3.36435E+07 1.79191E+11 7.33135E+09 3.34826E+10 5.08615E+08
 -1       955 5.35738E+11 9.53998E+07 2.03617E+11 7.38538E+09 2.77351E+10 4.75965E+08
 -1       956 6.00812E+11-7.62341E+07 2.28280E+11 7.43199E+09 2.23929E+10 4.39128E+08
 -1       957 6.65609E+11 2.38637E+08 2.53022E+11 7.45659E+09 1.75049E+10 3.98081E+08
 -1       958 7.31578E+11-1.09950E+08 2.77958E+11 7.50372E+09 1.31205E+10 3.52797E+08
 -1       959 7.96566E+11-6.00165E+08 3.02467E+11 7.50492E+09 9.28909E+09 3.03267E+08
 -1       960 8.63063E+11 3.46567E+09 3.29281E+11 7.57787E+09 6.06034E+09 2.49478E+08
 -1       961 9.28513E+11-1.36231E+10 3.47658E+11 7.32391E+09 3.48394E+09 1.91410E+08
 -1       962 9.93631E+11 5.07137E+10 3.96851E+11 8.31860E+09 1.60981E+09 1.29107E+08
 -1       963 1.06569E+12-1.86229E+11 3.34195E+11 4.65651E+09 4.87831E+08 6.23863E+07
 -1       964 1.10195E+12 6.75081E+11 6.75271E+11 1.80310E+10 1.20970E+08 2.78645E+07
 -1       965 5.64681E+04 3.00305E+04 3.28810E+04 5.97131E+07-2.36616E+11-9.85256E+04
 -1       966 2.03144E+05 2.88566E+04 8.81476E+04 5.91504E+08-2.29432E+11-9.85191E+04
 -1       967 6.44384E+05 2.80169E+04 2.55503E+05 1.15376E+09-2.15066E+11-9.84917E+04
 -1       968 1.36211E+06 2.43691E+04 5.26878E+05 1.66973E+09-2.00706E+11-9.84267E+04
 -1       969 2.33377E+06 2.48066E+04 8.96258E+05 2.16083E+09-1.86359E+11-9.83070E+04
 -1       970 3.54558E+06 2.04478E+04 1.35509E+06 2.60428E+09-1.72035E+11-9.81164E+04
 -1       971 4.97474E+06 2.11962E+04 1.89847E+06 3.01814E+09-1.57745E+11-9.78403E+04
 -1       972 6.60661E+06 1.71124E+04 2.51702E+06 3.40293E+09-1.43502E+11-9.74650E+04
 -1       973 8.42112E+06 1.68229E+04 3.20642E+06 3.73146E+09-1.29321E+11-9.69780E+04
 -1       974 1.03999E+07 1.48083E+04 3.95758E+06 4.05411E+09-1.15221E+11-9.63681E+04
 -1       975 1.25283E+07 1.16261E+04 4.76517E+06 4.31280E+09-1.01219E+11-9.56249E+04
 -1       976 1.47820E+07 1.23716E+04 5.62185E+06 4.54494E+09-8.73358E+10-9.47398E+04
 -1       977 1.71512E+07 7.71954E+03 6.52040E+06 4.77128E+09-7.35924E+10-9.37048E+04
 -1       978 1.96102E+07 8.97470E+03 7.45530E+06 4.90341E+09-6.00111E+10-9.25134E+04
 -1       979 2.21486E+07 5.40360E+03 8.41850E+06 5.06496E+09-4.66155E+10-9.11599E+04
 -1       980 2.47495E+07 3.84760E+03 9.40626E+06 5.16611E+09-3.34294E+10-8.96399E+04
 -1       981 2.73839E+07 2.84941E+03 1.04070E+07 5.19833E+09-2.04772E+10-8.79503E+04
 -1       982 3.00537E+07 1.38923E+03 1.14209E+07 5.27521E+09-7.78390E+09-8.60887E+04
 -1       983 3.27282E+07-1.50044E+03 1.24361E+07 5.25686E+09 4.62527E+09-8.40539E+04
 -1       984 3.53976E+07-9.10096E+02 1.34507E+07 5.23539E+09 1.67251E+10-8.18459E+04
 -1       985 3.80499E+07-4.49373E+03 1.44573E+07 5.19343E+09 2.84903E+10-7.94654E+04
 -1       986 4.06587E+07-5.14698E+03 1.54484E+07 5.06005E+09 3.98959E+10-7.69144E+04
 -1       987 4.32229E+07-5.31843E+03 1.64227E+07 4.99724E+09 5.09172E+10-7.41957E+04
 -1       988 4.57177E+07-9.52854E+03 1.73691E+07 4.83371E+09 6.15300E+10-7.13130E+04
 -1       989 4.81374E+07-6.92944E+03 1.82896E+07 4.66976E+09 7.17108E+10-6.82711E+04
 -1       990 5.04653E+07-1.24610E+04 1.91721E+07 4.47828E+09 8.14366E+10-6.50753E+04
 -1       991 5.26858E+07-9.84568E+03 2.00169E+07 4.25041E+09 9.06855E+10-6.17320E+04
 -1       992 5.47940E+07-1.30598E+04 2.08167E+07 4.03263E+09 9.94366E+10-5.82485E+04
 -1       993 5.67754E+07-1.38856E+04 2.15694E+07 3.77148E+09 1.07670E+11-5.46324E+04
 -1       994 5.86180E+07-1.40863E+04 2.22695E+07 3.47237E+09 1.15367E+11-5.08924E+04
 -1       995 6.03139E+07-1.59259E+04 2.29132E+07 3.17349E+09 1.22509E+11-4.70377E+04
 -1       996 6.18540E+07-1.61172E+04 2.34984E+07 2.88137E+09 1.29082E+11-4.30781E+04
 -1       997 6.32269E+07-1.69726E+04 2.40198E+07 2.53343E+09 1.35071E+11-3.90241E+04
 -1       998 6.44330E+07-1.78984E+04 2.44777E+07 2.19383E+09 1.40462E+11-3.48865E+04
 -1       999 6.54551E+07-1.86207E+04 2.48659E+07 1.82984E+09 1.45244E+11-3.06768E+04
 -1      1000 6.62930E+07-1.82956E+04 2.51844E+07 1.46523E+09 1.49408E+11-2.64067E+04
 -1      1001 6.69428E+07-2.04535E+04 2.54305E+07 1.08372E+09 1.52945E+11-2.20883E+04
 -1      1002 6.73914E+07-1.86650E+04 2.56017E+07 6.81705E+08 1.55850E+11-1.77344E+04
 -1      1003 6.76492E+07-2.01232E+04 2.56991E+07 3.28960E+08 1.58118E+11-1.33576E+04
 -1      1004 6.77010E+07-2.14798E+04 2.57182E+07-1.11589E+08 1.59747E+11-8.97072E+03
 -1      1005 6.75459E+07-1.84862E+04 2.56604E+07-4.96365E+08 1.60736E+11-4.58718E+03
 -1      1006 6.71927E+07-2.17531E+04 2.55250E+07-9.14477E+08 1.61087E+11-2.20121E+02
 -1      1007 6.66301E+07-2.02053E+04 2.53118E+07-1.29421E+09 1.60803E+11 4.11719E+03
 -1      1008 6.58599E+07-1.94880E+04 2.50194E+07-1.70972E+09 1.59889E+11 8.41133E+03
 -1      1009 6.48927E+07-2.06483E+04 2.46514E+07-2.10780E+09 1.58353E+11 1.26492E+04
 -1      1010 6.37190E+07-1.98544E+04 2.42057E+07-2.50240E+09 1.56204E+11 1.68176E+04
 -1      1011 6.23439E+07-1.90336E+04 2.36834E+07-2.89187E+09 1.53453E+11 2.09035E+04
 -1      1012 6.07772E+07-1.93015E+04 2.30880E+07-3.26903E+09 1.50113E+11 2.48940E+04
 -1      1013 5.90155E+07-1.80049E+04 2.24190E+07-3.65881E+09 1.46199E+11 2.87766E+04
 -1      1014 5.70733E+07-1.81021E+04 2.16810E+07-3.97921E+09 1.41727E+11 3.25392E+04
 -1      1015 5.49455E+07-1.82968E+04 2.08723E+07-4.36831E+09 1.36716E+11 3.61698E+04
 -1      1016 5.26406E+07-1.50453E+04 1.99977E+07-4.69711E+09 1.31186E+11 3.96568E+04
 -1      1017 5.01749E+07-1.69666E+04 1.90600E+07-5.00257E+09 1.25158E+11 4.29892E+04
 -1      1018 4.75445E+07-1.44880E+04 1.80614E+07-5.32019E+09 1.18656E+11 4.61564E+04
 -1      1019 4.47659E+07-1.39129E+04 1.70058E+07-5.59653E+09 1.11705E+11 4.91482E+04
 -1      1020 4.18446E+07-1.40879E+04 1.58956E+07-5.89426E+09 1.04331E+11 5.19554E+04
 -1      1021 3.87874E+07-1.12463E+04 1.47349E+07-6.12117E+09 9.65618E+10 5.45687E+04
 -1      1022 3.56096E+07-1.16821E+04 1.35272E+07-6.36266E+09 8.84259E+10 5.69800E+04
 -1      1023 3.23180E+07-9.93621E+03 1.22771E+07-6.57263E+09 7.99536E+10 5.91817E+04
 -1      1024 2.89246E+07-8.87073E+03 1.09880E+07-6.76821E+09 7.11759E+10 6.11666E+04
 -1      1025 2.54413E+07-8.04256E+03 9.66465E+06-6.92052E+09 6.21250E+10 6.29286E+04
 -1      1026 2.18774E+07-6.67702E+03 8.31087E+06-7.07804E+09 5.28338E+10 6.44622E+04
 -1      1027 1.82459E+07-5.29236E+03 6.93144E+06-7.19823E+09 4.33357E+10 6.57627E+04
 -1      1028 1.45610E+07-4.44164E+03 5.53150E+06-7.28777E+09 3.36653E+10 6.68260E+04
 -1      1029 1.08315E+07-3.27900E+03 4.11474E+06-7.36464E+09 2.38573E+10 6.76490E+04
 -1      1030 7.07174E+06-1.48151E+03 2.68670E+06-7.40887E+09 1.39469E+10 6.82292E+04
 -1      1031 3.29495E+06-7.72492E+02 1.25180E+06-7.43488E+09 3.96978E+09 6.85652E+04
 -1      1032-4.87468E+05 8.75701E+02-1.84892E+05-7.43062E+09-6.03850E+09 6.86562E+04
 -1      1033-4.26216E+06 2.15357E+03-1.61881E+06-7.40332E+09-1.60423E+10 6.85023E+04
 -1      1034-8.01575E+06 2.92235E+03-3.04487E+06-7.34834E+09-2.60057E+10 6.81043E+04
 -1      1035-1.17375E+07 5.08520E+03-4.45830E+06-7.27750E+09-3.58934E+10 6.74641E+04
 -1      1036-1.54121E+07 5.31442E+03-5.85458E+06-7.16658E+09-4.56703E+10 6.65841E+04
 -1      1037-1.90290E+07 7.33311E+03-7.22824E+06-7.04470E+09-5.53015E+10 6.54678E+04
 -1      1038-2.25755E+07 7.84743E+03-8.57571E+06-6.88860E+09-6.47530E+10 6.41193E+04
 -1      1039-2.60390E+07 9.53662E+03-9.89120E+06-6.72363E+09-7.39912E+10 6.25437E+04
 -1      1040-2.94088E+07 1.04889E+04-1.11713E+07-6.52687E+09-8.29833E+10 6.07466E+04
 -1      1041-3.26715E+07 1.13422E+04-1.24108E+07-6.29746E+09-9.16976E+10 5.87345E+04
 -1      1042-3.58190E+07 1.28441E+04-1.36063E+07-6.05597E+09-1.00103E+11 5.65147E+04
 -1      1043-3.88385E+07 1.36153E+04-1.47535E+07-5.80857E+09-1.08170E+11 5.40950E+04
 -1      1044-4.17167E+07 1.50260E+04-1.58466E+07-5.51998E+09-1.15871E+11 5.14841E+04
 -1      1045-4.44508E+07 1.43566E+04-1.68858E+07-5.21052E+09-1.23177E+11 4.86913E+04
 -1      1046-4.70279E+07 1.78684E+04-1.78638E+07-4.92165E+09-1.30063E+11 4.57264E+04
 -1      1047-4.94375E+07 1.65528E+04-1.87800E+07-4.55556E+09-1.36505E+11 4.25998E+04
 -1      1048-5.16711E+07 1.79415E+04-1.96282E+07-4.22162E+09-1.42480E+11 3.93228E+04
 -1      1049-5.37281E+07 1.91415E+04-2.04094E+07-3.84287E+09-1.47966E+11 3.59066E+04
 -1      1050-5.55908E+07 1.88452E+04-2.11173E+07-3.48564E+09-1.52945E+11 3.23635E+04
 -1      1051-5.72631E+07 2.00270E+04-2.17524E+07-3.09882E+09-1.57399E+11 2.87058E+04
 -1      1052-5.87318E+07 2.07915E+04-2.23102E+07-2.66249E+09-1.61312E+11 2.49463E+04
 -1      1053-5.99959E+07 1.99874E+04-2.27909E+07-2.29288E+09-1.64670E+11 2.10982E+04
 -1      1054-6.10477E+07 2.29245E+04-2.31894E+07-1.85967E+09-1.67461E+11 1.71749E+04
 -1      1055-6.18869E+07 1.87352E+04-2.35099E+07-1.43736E+09-1.69675E+11 1.31905E+04
 -1      1056-6.25135E+07 2.40909E+04-2.37460E+07-1.01365E+09-1.71304E+11 9.15864E+03
 -1      1057-6.29216E+07 2.07579E+04-2.39023E+07-5.76746E+08-1.72343E+11 5.09317E+03
 -1      1058-6.30968E+07 2.27230E+04-2.39681E+07-1.48720E+08-1.72788E+11 1.00878E+03
 -1      1059-6.30698E+07 1.96301E+04-2.39591E+07 2.85883E+08-1.72636E+11-3.08041E+03
 -1      1060-6.28077E+07 2.51310E+04-2.38574E+07 7.32480E+08-1.71888E+11-7.16028E+03
 -1      1061-6.23411E+07 1.72533E+04-2.36831E+07 1.12255E+09-1.70547E+11-1.12165E+04
 -1      1062-6.16399E+07 2.67502E+04-2.34130E+07 1.58753E+09-1.68617E+11-1.52348E+04
 -1      1063-6.07411E+07 1.46403E+04-2.30761E+07 2.00355E+09-1.66105E+11-1.92012E+04
 -1      1064-5.96111E+07 2.74378E+04-2.26418E+07 2.39353E+09-1.63019E+11-2.31020E+04
 -1      1065-5.82979E+07 1.32079E+04-2.21482E+07 2.81359E+09-1.59369E+11-2.69235E+04
 -1      1066-5.67475E+07 2.69932E+04-2.15538E+07 3.20497E+09-1.55169E+11-3.06524E+04
 -1      1067-5.50438E+07 1.00912E+04-2.09128E+07 3.58801E+09-1.50432E+11-3.42756E+04
 -1      1068-5.30968E+07 3.00895E+04-2.01654E+07 3.96048E+09-1.45176E+11-3.77806E+04
 -1      1069-5.10191E+07 3.41390E+03-1.93860E+07 4.31628E+09-1.39418E+11-4.11549E+04
 -1      1070-4.87006E+07 3.27904E+04-1.84938E+07 4.65697E+09-1.33178E+11-4.43871E+04
 -1      1071-4.62934E+07-1.52637E+03-1.75921E+07 4.99520E+09-1.26477E+11-4.74658E+04
 -1      1072-4.36209E+07 3.47946E+04-1.65627E+07 5.27406E+09-1.19340E+11-5.03802E+04
 -1      1073-4.09238E+07-7.66058E+03-1.55540E+07 5.59192E+09-1.11790E+11-5.31202E+04
 -1      1074-3.79282E+07 3.71245E+04-1.43986E+07 5.85883E+09-1.03853E+11-5.56761E+04
 -1      1075-3.49919E+07-1.51421E+04-1.33027E+07 6.09575E+09-9.55584E+10-5.80392E+04
 -1      1076-3.16984E+07 4.43252E+04-1.20285E+07 6.33413E+09-8.69333E+10-6.02011E+04
 -1      1077-2.85780E+07-3.91396E+04-1.08745E+07 6.53197E+09-7.80080E+10-6.21543E+04
 -1      1078-2.50308E+07 1.02988E+05-9.47259E+06 6.73373E+09-6.88135E+10-6.38923E+04
 -1      1079-2.17298E+07-2.12799E+05-8.33821E+06 6.87803E+09-5.93817E+10-6.54073E+04
 -1      1080-1.81371E+07 5.56970E+05-6.68049E+06 7.02146E+09-4.97453E+10-6.67001E+04
 -1      1081-1.46990E+07-1.20081E+06-6.04196E+06 7.13642E+09-3.99376E+10-5.96006E+04
 -1      1082-1.06323E+07 9.19571E+05-3.69083E+06 7.21579E+09-2.99928E+10-4.40517E+04
 -1      1083-7.22070E+06-4.37358E+05-2.91007E+06 7.28592E+09-1.99454E+10-3.63126E+04
 -1      1084-3.37274E+06 2.41159E+05-1.19002E+06 7.31978E+09-9.83015E+09-3.64913E+04
 -1      1085 1.76602E+05-1.48205E+05 1.07721E+04 7.33291E+09 3.17820E+08-3.65465E+04
 -1      1086 4.08268E+06 1.00309E+05 1.58952E+06 7.31976E+09 1.04632E+10-3.64735E+04
 -1      1087 7.63589E+06-7.43870E+04 2.87336E+06 7.27950E+09 2.05709E+10-3.62746E+04
 -1      1088 1.14654E+07 5.36027E+04 4.37721E+06 7.21883E+09 3.06056E+10-3.59493E+04
 -1      1089 1.49960E+07-5.24240E+04 5.67853E+06 7.11989E+09 4.05327E+10-3.54992E+04
 -1      1090 1.86905E+07 4.37605E+04 7.11898E+06 7.01723E+09 5.03175E+10-3.49257E+04
 -1      1091 2.21457E+07-4.84620E+04 8.39695E+06 6.87424E+09 5.99261E+10-3.42310E+04
 -1      1092 2.56664E+07 3.33686E+04 9.76589E+06 6.70603E+09 6.93252E+10-3.34172E+04
 -1      1093 2.89807E+07-3.00681E+04 1.10012E+07 6.53917E+09 7.84820E+10-3.24876E+04
 -1      1094 3.22996E+07 6.36966E+03 1.22763E+07 6.30991E+09 8.73647E+10-3.14448E+04
 -1      1095 3.54128E+07-2.17469E+04 1.34486E+07 6.09144E+09 9.59426E+10-3.02926E+04
 -1      1096 3.84820E+07 5.43615E+03 1.46252E+07 5.82899E+09 1.04186E+11-2.90351E+04
 -1      1097 4.13513E+07-2.87191E+03 1.57124E+07 5.57492E+09 1.12065E+11-2.76767E+04
 -1      1098 4.41452E+07-2.03030E+04 1.67675E+07 5.28272E+09 1.19554E+11-2.62219E+04
 -1      1099 4.67241E+07-1.36988E+04 1.77499E+07 4.94936E+09 1.26626E+11-2.46756E+04
 -1      1100 4.91823E+07 8.80643E+03 1.86926E+07 4.65135E+09 1.33256E+11-2.30436E+04
 -1      1101 5.14491E+07-2.15108E+04 1.95425E+07 4.29788E+09 1.39421E+11-2.13313E+04
 -1      1102 5.35588E+07-1.58450E+04 2.03463E+07 3.94213E+09 1.45101E+11-1.95444E+04
 -1      1103 5.54524E+07 2.64877E+03 2.10729E+07 3.56005E+09 1.50274E+11-1.76894E+04
 -1      1104 5.71879E+07-9.25473E+03 2.17279E+07 3.21138E+09 1.54923E+11-1.57728E+04
 -1      1105 5.87069E+07-2.83141E+04 2.22978E+07 2.78005E+09 1.59032E+11-1.38007E+04
 -1      1106 6.00253E+07-4.10912E+03 2.28080E+07 2.39460E+09 1.62587E+11-1.17803E+04
 -1      1107 6.11363E+07-1.60346E+04 2.32257E+07 1.96776E+09 1.65574E+11-9.71856E+03
 -1      1108 6.20330E+07 1.36444E+04 2.35777E+07 1.57148E+09 1.67983E+11-7.62275E+03
 -1      1109 6.27328E+07-4.31161E+04 2.38221E+07 1.14965E+09 1.69807E+11-5.49970E+03
 -1      1110 6.31958E+07-7.12090E+03 2.40117E+07 6.83609E+08 1.71037E+11-3.35678E+03
 -1      1111 6.34420E+07 4.17589E+03 2.41095E+07 2.96577E+08 1.71671E+11-1.20197E+03
 -1      1112 6.34874E+07-2.62642E+04 2.41152E+07-1.55343E+08 1.71705E+11 9.57908E+02
 -1      1113 6.32895E+07-6.07589E+03 2.40477E+07-5.79516E+08 1.71139E+11 3.11522E+03
 -1      1114 6.28940E+07-1.59677E+04 2.38936E+07-1.00862E+09 1.69975E+11 5.26238E+03
 -1      1115 6.22693E+07-8.01004E+03 2.36593E+07-1.43476E+09 1.68217E+11 7.39214E+03
 -1      1116 6.14350E+07-1.99861E+04 2.33377E+07-1.84964E+09 1.65871E+11 9.49711E+03
 -1      1117 6.03866E+07-9.15625E+03 2.29434E+07-2.27696E+09 1.62944E+11 1.15701E+04
 -1      1118 5.91262E+07 6.68097E+03 2.24705E+07-2.65842E+09 1.59447E+11 1.36037E+04
 -1      1119 5.76777E+07-2.56845E+04 2.19078E+07-3.05392E+09 1.55391E+11 1.55912E+04
 -1      1120 5.60216E+07-2.43701E+04 2.12789E+07-3.45923E+09 1.50790E+11 1.75260E+04
 -1      1121 5.41618E+07 5.99262E+03 2.05838E+07-3.82842E+09 1.45660E+11 1.94009E+04
 -1      1122 5.21322E+07-6.39154E+03 1.98078E+07-4.16746E+09 1.40017E+11 2.12096E+04
 -1      1123 4.99221E+07-1.86741E+04 1.89633E+07-4.52411E+09 1.33883E+11 2.29462E+04
 -1      1124 4.75320E+07-4.78355E+03 1.80603E+07-4.84952E+09 1.27276E+11 2.46044E+04
 -1      1125 4.49903E+07-1.04360E+04 1.70924E+07-5.15891E+09 1.20221E+11 2.61788E+04
 -1      1126 4.22900E+07-6.69632E+03 1.60676E+07-5.45303E+09 1.12740E+11 2.76640E+04
 -1      1127 3.94438E+07-1.21528E+04 1.49840E+07-5.72431E+09 1.04860E+11 2.90548E+04
 -1      1128 3.64674E+07-4.40691E+03 1.38559E+07-5.98455E+09 9.66074E+10 3.03464E+04
 -1      1129 3.33634E+07 2.58543E+03 1.26790E+07-6.20335E+09 8.80100E+10 3.15346E+04
 -1      1130 3.01562E+07-1.38483E+04 1.14541E+07-6.41377E+09 7.90974E+10 3.26155E+04
 -1      1131 2.68417E+07-1.04468E+04 1.01959E+07-6.61123E+09 6.98998E+10 3.35855E+04
 -1      1132 2.34340E+07 2.86056E+03 8.90598E+06-6.77255E+09 6.04487E+10 3.44408E+04
 -1      1133 1.99564E+07-2.29658E+03 7.58255E+06-6.90516E+09 5.07761E+10 3.51790E+04
 -1      1134 1.64120E+07-6.03282E+03 6.23428E+06-7.02421E+09 4.09149E+10 3.57979E+04
 -1      1135 1.28142E+07-1.21265E+03 4.86894E+06-7.11392E+09 3.08987E+10 3.62952E+04
 -1      1136 9.17809E+06-1.71010E+03 3.48701E+06-7.17842E+09 2.07614E+10 3.66695E+04
 -1      1137 5.51457E+06-7.48484E+02 2.09525E+06-7.21815E+09 1.05374E+10 3.69194E+04
 -1      1138 1.83810E+06 9.46867E+02 6.98843E+05-7.23104E+09 2.61240E+08 3.70445E+04
 -1      1139-1.83805E+06-1.07070E+03-6.98870E+05-7.21904E+09-1.00323E+10 3.70444E+04
 -1      1140-5.50302E+06 2.25996E+03-2.09030E+06-7.18283E+09-2.03084E+10 3.69195E+04
 -1      1141-9.14085E+06 2.53386E+03-3.47257E+06-7.11533E+09-3.05325E+10 3.66703E+04
 -1      1142-1.27401E+07 4.58652E+03-4.83951E+06-7.02828E+09-4.06703E+10 3.62979E+04
 -1      1143-1.62867E+07 1.68205E+03-6.18833E+06-6.91015E+09-5.06878E+10 3.58039E+04
 -1      1144-1.97694E+07 2.08434E+03-7.51156E+06-6.77776E+09-6.05513E+10 3.51903E+04
 -1      1145-2.31751E+07 7.89976E+03-8.80355E+06-6.60871E+09-7.02281E+10 3.44596E+04
 -1      1146-2.64913E+07 4.35771E+03-1.00650E+07-6.42207E+09-7.96859E+10 3.36144E+04
 -1      1147-2.97059E+07 7.89979E+03-1.12852E+07-6.20953E+09-8.88933E+10 3.26581E+04
 -1      1148-3.28042E+07 3.18818E+03-1.24644E+07-5.97583E+09-9.78201E+10 3.15944E+04
 -1      1149-3.57846E+07 1.74193E+04-1.35915E+07-5.72061E+09-1.06437E+11 3.04271E+04
 -1      1150-3.86178E+07-3.80150E+03-1.46762E+07-5.43316E+09-1.14716E+11 2.91610E+04
 -1      1151-4.13163E+07 6.55309E+03-1.56977E+07-5.16206E+09-1.22630E+11 2.78009E+04
 -1      1152-4.38583E+07 2.99898E+04-1.66548E+07-4.81587E+09-1.30153E+11 2.63515E+04
 -1      1153-4.62201E+07-8.11809E+03-1.75667E+07-4.48620E+09-1.37262E+11 2.48186E+04
 -1      1154-4.84228E+07 1.32076E+04-1.83957E+07-4.14827E+09-1.43935E+11 2.32081E+04
 -1      1155-5.04297E+07 4.16004E+03-1.91617E+07-3.76710E+09-1.50150E+11 2.15261E+04
 -1      1156-5.22595E+07 2.49752E+04-1.98491E+07-3.39866E+09-1.55888E+11 1.97786E+04
 -1      1157-5.38784E+07 1.28425E+04-2.04689E+07-2.96593E+09-1.61133E+11 1.79724E+04
 -1      1158-5.52882E+07-5.28436E+03-2.10115E+07-2.59253E+09-1.65869E+11 1.61149E+04
 -1      1159-5.65030E+07 2.53761E+04-2.14615E+07-2.15425E+09-1.70082E+11 1.42126E+04
 -1      1160-5.74847E+07 7.04033E+03-2.18415E+07-1.72618E+09-1.73762E+11 1.22729E+04
 -1      1161-5.82553E+07 1.54091E+04-2.21312E+07-1.28618E+09-1.76898E+11 1.03034E+04
 -1      1162-5.87950E+07 9.15206E+03-2.23386E+07-8.38431E+08-1.79484E+11 8.31168E+03
 -1      1163-5.91075E+07 2.30189E+04-2.24521E+07-3.86837E+08-1.81514E+11 6.30539E+03
 -1      1164-5.91851E+07 4.22804E+03-2.24887E+07 8.21975E+07-1.82986E+11 4.29246E+03
 -1      1165-5.90336E+07 1.01174E+04-2.24289E+07 5.19134E+08-1.83899E+11 2.28084E+03
 -1      1166-5.86426E+07 9.88785E+03-2.22804E+07 9.96232E+08-1.84254E+11 2.78441E+02
 -1      1167-5.80292E+07 2.66693E+04-2.20410E+07 1.44214E+09-1.84055E+11-1.70693E+03
 -1      1168-5.71684E+07 1.53947E+04-2.17181E+07 1.93968E+09-1.83308E+11-3.66723E+03
 -1      1169-5.60667E+07-8.88327E+03-2.13087E+07 2.35919E+09-1.82021E+11-5.59397E+03
 -1      1170-5.47582E+07 3.89589E+04-2.07933E+07 2.83068E+09-1.80204E+11-7.47985E+03
 -1      1171-5.31914E+07-8.84616E+03-2.02161E+07 3.28804E+09-1.77870E+11-9.31675E+03
 -1      1172-5.14186E+07 1.54822E+04-1.95332E+07 3.69823E+09-1.75033E+11-1.10968E+04
 -1      1173-4.94183E+07 2.49964E+04-1.87694E+07 4.16882E+09-1.71710E+11-1.28127E+04
 -1      1174-4.71879E+07 5.81570E+03-1.79292E+07 4.57681E+09-1.67921E+11-1.44566E+04
 -1      1175-4.47554E+07 1.34108E+04-1.70019E+07 5.00537E+09-1.63686E+11-1.60211E+04
 -1      1176-4.21038E+07-1.58546E+03-1.60001E+07 5.39411E+09-1.59027E+11-1.74991E+04
 -1      1177-3.92633E+07 2.09608E+04-1.49121E+07 5.78680E+09-1.53972E+11-1.88837E+04
 -1      1178-3.62176E+07 1.93030E+04-1.37553E+07 6.18057E+09-1.48545E+11-2.01682E+04
 -1      1179-3.29763E+07-7.30463E+02-1.25312E+07 6.54333E+09-1.42776E+11-2.13455E+04
 -1      1180-2.95636E+07 8.79776E+03-1.12308E+07 6.88252E+09-1.36696E+11-2.24096E+04
 -1      1181-2.59740E+07 1.31238E+04-9.86514E+06 7.22567E+09-1.30336E+11-2.33548E+04
 -1      1182-2.22138E+07 8.03087E+03-8.43817E+06 7.54076E+09-1.23731E+11-2.41748E+04
 -1      1183-1.83012E+07 7.89251E+03-6.95143E+06 7.84524E+09-1.16917E+11-2.48642E+04
 -1      1184-1.42342E+07 8.74131E+03-5.40568E+06 8.12650E+09-1.09929E+11-2.54178E+04
 -1      1185-1.00317E+07 6.35071E+03-3.80963E+06 8.39700E+09-1.02808E+11-2.58307E+04
 -1      1186-5.69390E+06 8.20361E+03-2.16056E+06 8.64177E+09-9.55911E+10-2.60983E+04
 -1      1187-1.23805E+06 3.86044E+03-4.68984E+05 8.87744E+09-8.83209E+10-2.62163E+04
 -1      1188 3.33407E+06 9.88496E+03 1.27071E+06 9.08179E+09-8.10393E+10-2.61807E+04
 -1      1189 8.00769E+06-2.41829E+03 3.04201E+06 9.28540E+09-7.37893E+10-2.59878E+04
 -1      1190 1.27753E+07 1.27323E+04 4.85945E+06 9.44471E+09-6.66151E+10-2.56341E+04
 -1      1191 1.76278E+07-1.37919E+02 6.69850E+06 9.62970E+09-5.95617E+10-2.51167E+04
 -1      1192 2.25584E+07 7.96331E+03 8.57523E+06 9.73805E+09-5.26751E+10-2.44330E+04
 -1      1193 2.75533E+07-3.16414E+03 1.04691E+07 9.89842E+09-4.60019E+10-2.35803E+04
 -1      1194 3.26110E+07 1.01391E+04 1.23960E+07 9.95880E+09-3.95893E+10-2.25566E+04
 -1      1195 3.77141E+07-3.85516E+03 1.43299E+07 1.01096E+10-3.34849E+10-2.13600E+04
 -1      1196 4.28655E+07 1.80976E+03 1.62896E+07 1.01104E+10-2.77371E+10-1.99888E+04
 -1      1197 4.80438E+07 4.60830E+03 1.82584E+07 1.02609E+10-2.23945E+10-1.84419E+04
 -1      1198 5.32581E+07 1.40518E+04 2.02434E+07 1.02140E+10-1.75062E+10-1.67183E+04
 -1      1199 5.85070E+07-2.59293E+04 2.22228E+07 1.03830E+10-1.31214E+10-1.48165E+04
 -1      1200 6.37292E+07-1.34432E+04 2.42120E+07 1.01998E+10-9.28964E+09-1.27363E+04
 -1      1201 6.90470E+07 1.61327E+05 2.62992E+07 1.05181E+10-6.06038E+09-1.04777E+04
 -1      1202 7.41484E+07-5.99615E+05 2.79485E+07 1.01658E+10-3.48362E+09-8.03910E+03
 -1      1203 8.00580E+07 2.15383E+06 3.12405E+07 1.05839E+10-1.60887E+09-5.42249E+03
 -1      1204 8.29883E+07-7.82496E+06 2.85621E+07 1.01829E+10-4.86471E+08-2.62156E+03
 -1      1205 8.24190E+07 2.83881E+07 4.21067E+07 1.14886E+10-1.20001E+08-1.17284E+03
 -1      1206 5.63576E+04 2.98912E+04 3.27630E+04 5.97134E+07 2.36616E+11 9.85257E+04
 -1      1207 2.03164E+05 2.87851E+04 8.81530E+04 5.91504E+08 2.29432E+11 9.85192E+04
 -1      1208 6.44387E+05 2.79657E+04 2.55503E+05 1.15376E+09 2.15066E+11 9.84918E+04
 -1      1209 1.36198E+06 2.42615E+04 5.26754E+05 1.66973E+09 2.00706E+11 9.84269E+04
 -1      1210 2.33381E+06 2.48652E+04 8.96296E+05 2.16083E+09 1.86359E+11 9.83071E+04
 -1      1211 3.54558E+06 2.04543E+04 1.35509E+06 2.60427E+09 1.72035E+11 9.81166E+04
 -1      1212 4.97459E+06 2.09966E+04 1.89831E+06 3.01814E+09 1.57745E+11 9.78405E+04
 -1      1213 6.60666E+06 1.71539E+04 2.51705E+06 3.40293E+09 1.43502E+11 9.74651E+04
 -1      1214 8.42105E+06 1.67272E+04 3.20635E+06 3.73146E+09 1.29321E+11 9.69781E+04
 -1      1215 1.03999E+07 1.48824E+04 3.95763E+06 4.05411E+09 1.15221E+11 9.63682E+04
 -1      1216 1.25286E+07 1.19642E+04 4.76543E+06 4.31280E+09 1.01219E+11 9.56251E+04
 -1      1217 1.47822E+07 1.26764E+04 5.62205E+06 4.54494E+09 8.73358E+10 9.47400E+04
 -1      1218 1.71511E+07 7.58742E+03 6.52031E+06 4.77128E+09 7.35924E+10 9.37050E+04
 -1      1219 1.96102E+07 8.87263E+03 7.45524E+06 4.90341E+09 6.00111E+10 9.25135E+04
 -1      1220 2.21485E+07 5.34417E+03 8.41847E+06 5.06496E+09 4.66155E+10 9.11601E+04
 -1      1221 2.47495E+07 3.87565E+03 9.40628E+06 5.16611E+09 3.34294E+10 8.96401E+04
 -1      1222 2.73839E+07 2.81195E+03 1.04070E+07 5.19833E+09 2.04772E+10 8.79505E+04
 -1      1223 3.00536E+07 1.33053E+03 1.14209E+07 5.27521E+09 7.78390E+09 8.60889E+04
 -1      1224 3.27281E+07-1.57952E+03 1.24361E+07 5.25686E+09-4.62527E+09 8.40541E+04
 -1      1225 3.53977E+07-8.02648E+02 1.34508E+07 5.23539E+09-1.67251E+10 8.18461E+04
 -1      1226 3.80498E+07-4.57635E+03 1.44572E+07 5.19343E+09-2.84903E+10 7.94656E+04
 -1      1227 4.06587E+07-5.14517E+03 1.54484E+07 5.06005E+09-3.98959E+10 7.69146E+04
 -1      1228 4.32229E+07-5.37827E+03 1.64227E+07 4.99724E+09-5.09172E+10 7.41959E+04
 -1      1229 4.57178E+07-9.42061E+03 1.73692E+07 4.83371E+09-6.15300E+10 7.13133E+04
 -1      1230 4.81373E+07-7.12654E+03 1.82895E+07 4.66976E+09-7.17108E+10 6.82713E+04
 -1      1231 5.04653E+07-1.24697E+04 1.91721E+07 4.47828E+09-8.14366E+10 6.50755E+04
 -1      1232 5.26857E+07-9.97190E+03 2.00168E+07 4.25041E+09-9.06855E+10 6.17323E+04
 -1      1233 5.47940E+07-1.29540E+04 2.08168E+07 4.03263E+09-9.94365E+10 5.82488E+04
 -1      1234 5.67753E+07-1.39773E+04 2.15693E+07 3.77148E+09-1.07670E+11 5.46327E+04
 -1      1235 5.86179E+07-1.42297E+04 2.22694E+07 3.47237E+09-1.15367E+11 5.08927E+04
 -1      1236 6.03139E+07-1.58830E+04 2.29132E+07 3.17349E+09-1.22509E+11 4.70380E+04
 -1      1237 6.18540E+07-1.61059E+04 2.34984E+07 2.88137E+09-1.29082E+11 4.30784E+04
 -1      1238 6.32269E+07-1.70098E+04 2.40198E+07 2.53343E+09-1.35071E+11 3.90243E+04
 -1      1239 6.44330E+07-1.78816E+04 2.44777E+07 2.19383E+09-1.40462E+11 3.48868E+04
 -1      1240 6.54550E+07-1.88132E+04 2.48657E+07 1.82984E+09-1.45244E+11 3.06771E+04
 -1      1241 6.62932E+07-1.80962E+04 2.51845E+07 1.46523E+09-1.49408E+11 2.64070E+04
 -1      1242 6.69428E+07-2.05291E+04 2.54305E+07 1.08372E+09-1.52945E+11 2.20886E+04
 -1      1243 6.73916E+07-1.85042E+04 2.56018E+07 6.81705E+08-1.55850E+11 1.77347E+04
 -1      1244 6.76492E+07-2.01953E+04 2.56990E+07 3.28960E+08-1.58118E+11 1.33579E+04
 -1      1245 6.77011E+07-2.14314E+04 2.57183E+07-1.11589E+08-1.59747E+11 8.97113E+03
 -1      1246 6.75460E+07-1.83828E+04 2.56605E+07-4.96365E+08-1.60736E+11 4.58762E+03
 -1      1247 6.71929E+07-2.15931E+04 2.55251E+07-9.14477E+08-1.61087E+11 2.20597E+02
 -1      1248 6.66301E+07-2.03322E+04 2.53117E+07-1.29421E+09-1.60803E+11-4.11668E+03
 -1      1249 6.58600E+07-1.93411E+04 2.50194E+07-1.70972E+09-1.59889E+11-8.41078E+03
 -1      1250 6.48927E+07-2.07387E+04 2.46513E+07-2.10780E+09-1.58353E+11-1.26486E+04
 -1      1251 6.37190E+07-1.99342E+04 2.42056E+07-2.50240E+09-1.56204E+11-1.68170E+04
 -1      1252 6.23439E+07-1.90172E+04 2.36835E+07-2.89187E+09-1.53453E+11-2.09028E+04
 -1      1253 6.07773E+07-1.92725E+04 2.30880E+07-3.26903E+09-1.50113E+11-2.48933E+04
 -1      1254 5.90155E+07-1.80748E+04 2.24190E+07-3.65881E+09-1.46199E+11-2.87759E+04
 -1      1255 5.70734E+07-1.80482E+04 2.16810E+07-3.97921E+09-1.41727E+11-3.25385E+04
 -1      1256 5.49455E+07-1.83311E+04 2.08723E+07-4.36831E+09-1.36716E+11-3.61691E+04
 -1      1257 5.26406E+07-1.51013E+04 1.99977E+07-4.69711E+09-1.31186E+11-3.96560E+04
 -1      1258 5.01749E+07-1.69634E+04 1.90600E+07-5.00257E+09-1.25158E+11-4.29884E+04
 -1      1259 4.75445E+07-1.44897E+04 1.80614E+07-5.32019E+09-1.18656E+11-4.61556E+04
 -1      1260 4.47659E+07-1.39315E+04 1.70057E+07-5.59653E+09-1.11705E+11-4.91474E+04
 -1      1261 4.18446E+07-1.40923E+04 1.58956E+07-5.89426E+09-1.04331E+11-5.19545E+04
 -1      1262 3.87874E+07-1.13245E+04 1.47349E+07-6.12117E+09-9.65618E+10-5.45678E+04
 -1      1263 3.56096E+07-1.16706E+04 1.35272E+07-6.36266E+09-8.84259E+10-5.69791E+04
 -1      1264 3.23180E+07-9.95628E+03 1.22770E+07-6.57263E+09-7.99536E+10-5.91807E+04
 -1      1265 2.89245E+07-9.06190E+03 1.09879E+07-6.76821E+09-7.11759E+10-6.11656E+04
 -1      1266 2.54414E+07-8.06331E+03 9.66466E+06-6.92052E+09-6.21250E+10-6.29276E+04
 -1      1267 2.18774E+07-6.64553E+03 8.31089E+06-7.07804E+09-5.28338E+10-6.44612E+04
 -1      1268 1.82459E+07-5.32021E+03 6.93141E+06-7.19823E+09-4.33357E+10-6.57616E+04
 -1      1269 1.45610E+07-4.40392E+03 5.53151E+06-7.28777E+09-3.36653E+10-6.68249E+04
 -1      1270 1.08317E+07-3.10812E+03 4.11486E+06-7.36464E+09-2.38573E+10-6.76479E+04
 -1      1271 7.07189E+06-1.32511E+03 2.68682E+06-7.40887E+09-1.39469E+10-6.82281E+04
 -1      1272 3.29497E+06-7.80678E+02 1.25178E+06-7.43488E+09-3.96977E+09-6.85641E+04
 -1      1273-4.87442E+05 8.81118E+02-1.84906E+05-7.43062E+09 6.03851E+09-6.86551E+04
 -1      1274-4.26201E+06 2.26874E+03-1.61870E+06-7.40332E+09 1.60423E+10-6.85011E+04
 -1      1275-8.01572E+06 2.90905E+03-3.04488E+06-7.34834E+09 2.60057E+10-6.81031E+04
 -1      1276-1.17375E+07 5.06548E+03-4.45836E+06-7.27750E+09 3.58934E+10-6.74629E+04
 -1      1277-1.54121E+07 5.23674E+03-5.85461E+06-7.16658E+09 4.56703E+10-6.65829E+04
 -1      1278-1.90290E+07 7.27394E+03-7.22826E+06-7.04470E+09 5.53015E+10-6.54666E+04
 -1      1279-2.25754E+07 7.97495E+03-8.57563E+06-6.88860E+09 6.47530E+10-6.41181E+04
 -1      1280-2.60390E+07 9.52701E+03-9.89120E+06-6.72363E+09 7.39912E+10-6.25424E+04
 -1      1281-2.94087E+07 1.06110E+04-1.11713E+07-6.52687E+09 8.29833E+10-6.07453E+04
 -1      1282-3.26714E+07 1.13367E+04-1.24109E+07-6.29746E+09 9.16977E+10-5.87332E+04
 -1      1283-3.58189E+07 1.29304E+04-1.36063E+07-6.05597E+09 1.00103E+11-5.65133E+04
 -1      1284-3.88385E+07 1.36414E+04-1.47534E+07-5.80857E+09 1.08171E+11-5.40935E+04
 -1      1285-4.17167E+07 1.51060E+04-1.58466E+07-5.51998E+09 1.15871E+11-5.14826E+04
 -1      1286-4.44507E+07 1.44080E+04-1.68858E+07-5.21052E+09 1.23177E+11-4.86898E+04
 -1      1287-4.70280E+07 1.76968E+04-1.78639E+07-4.92165E+09 1.30063E+11-4.57249E+04
 -1      1288-4.94375E+07 1.66056E+04-1.87799E+07-4.55556E+09 1.36505E+11-4.25983E+04
 -1      1289-5.16711E+07 1.79618E+04-1.96282E+07-4.22162E+09 1.42480E+11-3.93212E+04
 -1      1290-5.37281E+07 1.91097E+04-2.04094E+07-3.84287E+09 1.47966E+11-3.59051E+04
 -1      1291-5.55906E+07 1.90664E+04-2.11172E+07-3.48564E+09 1.52945E+11-3.23619E+04
 -1      1292-5.72631E+07 1.99879E+04-2.17524E+07-3.09882E+09 1.57399E+11-2.87042E+04
 -1      1293-5.87317E+07 2.08384E+04-2.23101E+07-2.66249E+09 1.61312E+11-2.49447E+04
 -1      1294-5.99959E+07 2.00684E+04-2.27908E+07-2.29288E+09 1.64670E+11-2.10966E+04
 -1      1295-6.10478E+07 2.26659E+04-2.31896E+07-1.85967E+09 1.67461E+11-1.71733E+04
 -1      1296-6.18869E+07 1.87516E+04-2.35099E+07-1.43736E+09 1.69675E+11-1.31889E+04
 -1      1297-6.25134E+07 2.40967E+04-2.37460E+07-1.01365E+09 1.71304E+11-9.15700E+03
 -1      1298-6.29217E+07 2.06035E+04-2.39024E+07-5.76746E+08 1.72343E+11-5.09151E+03
 -1      1299-6.30967E+07 2.28524E+04-2.39681E+07-1.48720E+08 1.72788E+11-1.00712E+03
 -1      1300-6.30698E+07 1.96363E+04-2.39591E+07 2.85883E+08 1.72636E+11 3.08206E+03
 -1      1301-6.28077E+07 2.50689E+04-2.38574E+07 7.32480E+08 1.71888E+11 7.16194E+03
 -1      1302-6.23411E+07 1.72262E+04-2.36831E+07 1.12256E+09 1.70547E+11 1.12181E+04
 -1      1303-6.16398E+07 2.68111E+04-2.34129E+07 1.58753E+09 1.68617E+11 1.52365E+04
 -1      1304-6.07411E+07 1.46101E+04-2.30761E+07 2.00355E+09 1.66105E+11 1.92029E+04
 -1      1305-5.96111E+07 2.74975E+04-2.26418E+07 2.39353E+09 1.63019E+11 2.31037E+04
 -1      1306-5.82979E+07 1.31949E+04-2.21482E+07 2.81359E+09 1.59369E+11 2.69252E+04
 -1      1307-5.67476E+07 2.69121E+04-2.15538E+07 3.20497E+09 1.55169E+11 3.06541E+04
 -1      1308-5.50438E+07 1.01172E+04-2.09128E+07 3.58801E+09 1.50432E+11 3.42773E+04
 -1      1309-5.30969E+07 2.99595E+04-2.01654E+07 3.96048E+09 1.45176E+11 3.77822E+04
 -1      1310-5.10191E+07 3.34303E+03-1.93860E+07 4.31628E+09 1.39418E+11 4.11566E+04
 -1      1311-4.87006E+07 3.27771E+04-1.84938E+07 4.65697E+09 1.33178E+11 4.43887E+04
 -1      1312-4.62934E+07-1.59139E+03-1.75921E+07 4.99520E+09 1.26477E+11 4.74674E+04
 -1      1313-4.36209E+07 3.48511E+04-1.65627E+07 5.27406E+09 1.19340E+11 5.03818E+04
 -1      1314-4.09238E+07-7.61456E+03-1.55539E+07 5.59192E+09 1.11790E+11 5.31217E+04
 -1      1315-3.79282E+07 3.70885E+04-1.43986E+07 5.85883E+09 1.03853E+11 5.56776E+04
 -1      1316-3.49919E+07-1.51215E+04-1.33027E+07 6.09575E+09 9.55584E+10 5.80407E+04
 -1      1317-3.16985E+07 4.42527E+04-1.20286E+07 6.33413E+09 8.69333E+10 6.02025E+04
 -1      1318-2.85781E+07-3.91560E+04-1.08745E+07 6.53197E+09 7.80080E+10 6.21557E+04
 -1      1319-2.50309E+07 1.02981E+05-9.47259E+06 6.73374E+09 6.88135E+10 6.38937E+04
 -1      1320-2.17299E+07-2.12788E+05-8.33822E+06 6.87803E+09 5.93817E+10 6.54086E+04
 -1      1321-1.81371E+07 5.57080E+05-6.68040E+06 7.02146E+09 4.97453E+10 6.67013E+04
 -1      1322-1.46991E+07-1.20074E+06-6.04191E+06 7.13642E+09 3.99376E+10 5.96018E+04
 -1      1323-1.06324E+07 9.19482E+05-3.69091E+06 7.21579E+09 2.99928E+10 4.40529E+04
 -1      1324-7.22080E+06-4.37379E+05-2.91010E+06 7.28592E+09 1.99454E+10 3.63137E+04
 -1      1325-3.37278E+06 2.41201E+05-1.18999E+06 7.31978E+09 9.83015E+09 3.64924E+04
 -1      1326 1.76566E+05-1.48160E+05 1.08129E+04 7.33291E+09-3.17820E+08 3.65475E+04
 -1      1327 4.08260E+06 1.00306E+05 1.58952E+06 7.31976E+09-1.04632E+10 3.64745E+04
 -1      1328 7.63579E+06-7.44193E+04 2.87333E+06 7.27950E+09-2.05709E+10 3.62755E+04
 -1      1329 1.14653E+07 5.35927E+04 4.37720E+06 7.21883E+09-3.06056E+10 3.59501E+04
 -1      1330 1.49959E+07-5.23966E+04 5.67855E+06 7.11989E+09-4.05327E+10 3.55000E+04
 -1      1331 1.86904E+07 4.38202E+04 7.11903E+06 7.01723E+09-5.03175E+10 3.49265E+04
 -1      1332 2.21457E+07-4.84336E+04 8.39697E+06 6.87424E+09-5.99261E+10 3.42318E+04
 -1      1333 2.56663E+07 3.33392E+04 9.76586E+06 6.70603E+09-6.93252E+10 3.34179E+04
 -1      1334 2.89806E+07-3.01223E+04 1.10012E+07 6.53917E+09-7.84820E+10 3.24883E+04
 -1      1335 3.22996E+07 6.41976E+03 1.22763E+07 6.30991E+09-8.73647E+10 3.14454E+04
 -1      1336 3.54126E+07-2.18493E+04 1.34485E+07 6.09144E+09-9.59426E+10 3.02932E+04
 -1      1337 3.84819E+07 5.48659E+03 1.46252E+07 5.82899E+09-1.04186E+11 2.90356E+04
 -1      1338 4.13512E+07-2.94145E+03 1.57123E+07 5.57492E+09-1.12065E+11 2.76772E+04
 -1      1339 4.41451E+07-2.03683E+04 1.67674E+07 5.28272E+09-1.19554E+11 2.62223E+04
 -1      1340 4.67240E+07-1.38273E+04 1.77499E+07 4.94936E+09-1.26626E+11 2.46759E+04
 -1      1341 4.91823E+07 8.84712E+03 1.86927E+07 4.65135E+09-1.33256E+11 2.30439E+04
 -1      1342 5.14490E+07-2.15623E+04 1.95424E+07 4.29788E+09-1.39421E+11 2.13316E+04
 -1      1343 5.35587E+07-1.58861E+04 2.03463E+07 3.94213E+09-1.45101E+11 1.95446E+04
 -1      1344 5.54523E+07 2.68671E+03 2.10729E+07 3.56006E+09-1.50274E+11 1.76896E+04
 -1      1345 5.71879E+07-9.24386E+03 2.17279E+07 3.21138E+09-1.54923E+11 1.57730E+04
 -1      1346 5.87068E+07-2.83810E+04 2.22978E+07 2.78005E+09-1.59032E+11 1.38008E+04
 -1      1347 6.00253E+07-4.02228E+03 2.28081E+07 2.39460E+09-1.62587E+11 1.17803E+04
 -1      1348 6.11362E+07-1.60293E+04 2.32257E+07 1.96776E+09-1.65574E+11 9.71859E+03
 -1      1349 6.20330E+07 1.37278E+04 2.35778E+07 1.57148E+09-1.67983E+11 7.62274E+03
 -1      1350 6.27328E+07-4.30950E+04 2.38221E+07 1.14965E+09-1.69807E+11 5.49966E+03
 -1      1351 6.31957E+07-7.09928E+03 2.40117E+07 6.83608E+08-1.71037E+11 3.35670E+03
 -1      1352 6.34419E+07 4.07236E+03 2.41095E+07 2.96577E+08-1.71671E+11 1.20186E+03
 -1      1353 6.34874E+07-2.60957E+04 2.41153E+07-1.55343E+08-1.71705E+11-9.58050E+02
 -1      1354 6.32895E+07-6.00361E+03 2.40478E+07-5.79516E+08-1.71139E+11-3.11539E+03
 -1      1355 6.28939E+07-1.60056E+04 2.38936E+07-1.00862E+09-1.69975E+11-5.26257E+03
 -1      1356 6.22692E+07-7.95413E+03 2.36593E+07-1.43476E+09-1.68217E+11-7.39236E+03
 -1      1357 6.14350E+07-2.00026E+04 2.33377E+07-1.84964E+09-1.65871E+11-9.49738E+03
 -1      1358 6.03866E+07-9.08211E+03 2.29435E+07-2.27696E+09-1.62944E+11-1.15704E+04
 -1      1359 5.91261E+07 6.58845E+03 2.24704E+07-2.65842E+09-1.59447E+11-1.36040E+04
 -1      1360 5.76777E+07-2.56596E+04 2.19078E+07-3.05392E+09-1.55391E+11-1.55916E+04
 -1      1361 5.60216E+07-2.41867E+04 2.12790E+07-3.45923E+09-1.50790E+11-1.75264E+04
 -1      1362 5.41618E+07 6.06441E+03 2.05838E+07-3.82842E+09-1.45660E+11-1.94013E+04
 -1      1363 5.21322E+07-6.38106E+03 1.98078E+07-4.16746E+09-1.40017E+11-2.12100E+04
 -1      1364 4.99220E+07-1.87124E+04 1.89633E+07-4.52411E+09-1.33883E+11-2.29466E+04
 -1      1365 4.75320E+07-4.76930E+03 1.80603E+07-4.84952E+09-1.27276E+11-2.46049E+04
 -1      1366 4.49904E+07-1.02821E+04 1.70924E+07-5.15891E+09-1.20221E+11-2.61793E+04
 -1      1367 4.22899E+07-6.76949E+03 1.60676E+07-5.45303E+09-1.12740E+11-2.76645E+04
 -1      1368 3.94439E+07-1.19586E+04 1.49841E+07-5.72431E+09-1.04860E+11-2.90553E+04
 -1      1369 3.64673E+07-4.55604E+03 1.38559E+07-5.98455E+09-9.66074E+10-3.03470E+04
 -1      1370 3.33635E+07 2.81505E+03 1.26792E+07-6.20335E+09-8.80100E+10-3.15352E+04
 -1      1371 3.01561E+07-1.38747E+04 1.14541E+07-6.41377E+09-7.90974E+10-3.26162E+04
 -1      1372 2.68416E+07-1.06674E+04 1.01957E+07-6.61123E+09-6.98998E+10-3.35862E+04
 -1      1373 2.34339E+07 2.87039E+03 8.90600E+06-6.77255E+09-6.04487E+10-3.44414E+04
 -1      1374 1.99563E+07-2.41699E+03 7.58248E+06-6.90516E+09-5.07761E+10-3.51797E+04
 -1      1375 1.64119E+07-6.18913E+03 6.23416E+06-7.02421E+09-4.09149E+10-3.57987E+04
 -1      1376 1.28142E+07-1.27657E+03 4.86891E+06-7.11392E+09-3.08987E+10-3.62960E+04
 -1      1377 9.17806E+06-1.76279E+03 3.48700E+06-7.17842E+09-2.07614E+10-3.66702E+04
 -1      1378 5.51437E+06-1.01321E+03 2.09508E+06-7.21815E+09-1.05374E+10-3.69202E+04
 -1      1379 1.83809E+06 9.81037E+02 6.98845E+05-7.23104E+09-2.61240E+08-3.70453E+04
 -1      1380-1.83807E+06-1.10162E+03-6.98879E+05-7.21904E+09 1.00323E+10-3.70452E+04
 -1      1381-5.50286E+06 2.54300E+03-2.09011E+06-7.18283E+09 2.03084E+10-3.69203E+04
 -1      1382-9.14078E+06 2.66783E+03-3.47248E+06-7.11533E+09 3.05325E+10-3.66712E+04
 -1      1383-1.27402E+07 4.48695E+03-4.83956E+06-7.02828E+09 4.06703E+10-3.62988E+04
 -1      1384-1.62866E+07 1.87594E+03-6.18821E+06-6.91015E+09 5.06878E+10-3.58047E+04
 -1      1385-1.97694E+07 2.01687E+03-7.51162E+06-6.77776E+09 6.05513E+10-3.51911E+04
 -1      1386-2.31752E+07 7.89478E+03-8.80356E+06-6.60871E+09 7.02281E+10-3.44604E+04
 -1      1387-2.64913E+07 4.36625E+03-1.00650E+07-6.42207E+09 7.96859E+10-3.36153E+04
 -1      1388-2.97059E+07 7.94007E+03-1.12852E+07-6.20953E+09 8.88933E+10-3.26590E+04
 -1      1389-3.28042E+07 3.25063E+03-1.24644E+07-5.97583E+09 9.78201E+10-3.15953E+04
 -1      1390-3.57847E+07 1.72525E+04-1.35916E+07-5.72061E+09 1.06437E+11-3.04281E+04
 -1      1391-3.86180E+07-4.01095E+03-1.46764E+07-5.43316E+09 1.14716E+11-2.91620E+04
 -1      1392-4.13162E+07 6.66767E+03-1.56976E+07-5.16206E+09 1.22630E+11-2.78019E+04
 -1      1393-4.38583E+07 3.00266E+04-1.66547E+07-4.81587E+09 1.30153E+11-2.63525E+04
 -1      1394-4.62201E+07-8.12015E+03-1.75667E+07-4.48620E+09 1.37262E+11-2.48195E+04
 -1      1395-4.84229E+07 1.31777E+04-1.83957E+07-4.14827E+09 1.43935E+11-2.32091E+04
 -1      1396-5.04297E+07 4.13354E+03-1.91617E+07-3.76710E+09 1.50150E+11-2.15270E+04
 -1      1397-5.22594E+07 2.50490E+04-1.98491E+07-3.39866E+09 1.55888E+11-1.97796E+04
 -1      1398-5.38785E+07 1.26377E+04-2.04690E+07-2.96593E+09 1.61133E+11-1.79734E+04
 -1      1399-5.52881E+07-5.28859E+03-2.10115E+07-2.59253E+09 1.65869E+11-1.61158E+04
 -1      1400-5.65030E+07 2.53822E+04-2.14615E+07-2.15425E+09 1.70082E+11-1.42135E+04
 -1      1401-5.74846E+07 7.14774E+03-2.18414E+07-1.72618E+09 1.73762E+11-1.22738E+04
 -1      1402-5.82554E+07 1.52543E+04-2.21313E+07-1.28618E+09 1.76898E+11-1.03042E+04
 -1      1403-5.87950E+07 9.13621E+03-2.23386E+07-8.38431E+08 1.79484E+11-8.31246E+03
 -1      1404-5.91074E+07 2.30531E+04-2.24521E+07-3.86836E+08 1.81514E+11-6.30613E+03
 -1      1405-5.91851E+07 4.21310E+03-2.24887E+07 8.21978E+07 1.82986E+11-4.29316E+03
 -1      1406-5.90335E+07 1.01858E+04-2.24288E+07 5.19134E+08 1.83899E+11-2.28151E+03
 -1      1407-5.86426E+07 9.69088E+03-2.22805E+07 9.96232E+08 1.84254E+11-2.79079E+02
 -1      1408-5.80291E+07 2.68017E+04-2.20409E+07 1.44214E+09 1.84055E+11 1.70631E+03
 -1      1409-5.71683E+07 1.53924E+04-2.17181E+07 1.93968E+09 1.83308E+11 3.66664E+03
 -1      1410-5.60667E+07-8.85285E+03-2.13087E+07 2.35919E+09 1.82021E+11 5.59340E+03
 -1      1411-5.47581E+07 3.91027E+04-2.07933E+07 2.83068E+09 1.80204E+11 7.47931E+03
 -1      1412-5.31912E+07-8.69962E+03-2.02160E+07 3.28804E+09 1.77870E+11 9.31622E+03
 -1      1413-5.14185E+07 1.54991E+04-1.95332E+07 3.69823E+09 1.75033E+11 1.10963E+04
 -1      1414-4.94182E+07 2.50327E+04-1.87694E+07 4.16882E+09 1.71710E+11 1.28123E+04
 -1      1415-4.71878E+07 5.79301E+03-1.79292E+07 4.57681E+09 1.67921E+11 1.44562E+04
 -1      1416-4.47553E+07 1.34358E+04-1.70019E+07 5.00537E+09 1.63686E+11 1.60207E+04
 -1      1417-4.21038E+07-1.66375E+03-1.60001E+07 5.39411E+09 1.59027E+11 1.74987E+04
 -1      1418-3.92632E+07 2.09950E+04-1.49121E+07 5.78680E+09 1.53972E+11 1.88834E+04
 -1      1419-3.62175E+07 1.93758E+04-1.37553E+07 6.18057E+09 1.48545E+11 2.01679E+04
 -1      1420-3.29762E+07-7.10542E+02-1.25312E+07 6.54333E+09 1.42776E+11 2.13453E+04
 -1      1421-2.95635E+07 8.86175E+03-1.12308E+07 6.88252E+09 1.36696E+11 2.24094E+04
 -1      1422-2.59741E+07 1.30078E+04-9.86521E+06 7.22566E+09 1.30336E+11 2.33546E+04
 -1      1423-2.22138E+07 8.00452E+03-8.43820E+06 7.54076E+09 1.23731E+11 2.41746E+04
 -1      1424-1.83011E+07 7.94720E+03-6.95141E+06 7.84524E+09 1.16917E+11 2.48640E+04
 -1      1425-1.42342E+07 8.76725E+03-5.40566E+06 8.12650E+09 1.09929E+11 2.54177E+04
 -1      1426-1.00317E+07 6.42079E+03-3.80960E+06 8.39700E+09 1.02808E+11 2.58306E+04
 -1      1427-5.69390E+06 8.17151E+03-2.16058E+06 8.64177E+09 9.55911E+10 2.60982E+04
 -1      1428-1.23803E+06 3.84444E+03-4.68999E+05 8.87744E+09 8.83209E+10 2.62162E+04
 -1      1429 3.33409E+06 9.88238E+03 1.27070E+06 9.08179E+09 8.10393E+10 2.61807E+04
 -1      1430 8.00775E+06-2.36777E+03 3.04204E+06 9.28540E+09 7.37892E+10 2.59877E+04
 -1      1431 1.27753E+07 1.27215E+04 4.85944E+06 9.44471E+09 6.66151E+10 2.56340E+04
 -1      1432 1.76278E+07-1.23488E+02 6.69851E+06 9.62970E+09 5.95617E+10 2.51167E+04
 -1      1433 2.25585E+07 7.95978E+03 8.57524E+06 9.73805E+09 5.26751E+10 2.44330E+04
 -1      1434 2.75533E+07-3.21948E+03 1.04690E+07 9.89842E+09 4.60019E+10 2.35802E+04
 -1      1435 3.26110E+07 1.01206E+04 1.23960E+07 9.95880E+09 3.95893E+10 2.25565E+04
 -1      1436 3.77141E+07-3.83287E+03 1.43299E+07 1.01096E+10 3.34849E+10 2.13599E+04
 -1      1437 4.28655E+07 1.82267E+03 1.62896E+07 1.01104E+10 2.77371E+10 1.99888E+04
 -1      1438 4.80438E+07 4.61556E+03 1.82584E+07 1.02609E+10 2.23945E+10 1.84418E+04
 -1      1439 5.32581E+07 1.40168E+04 2.02434E+07 1.02140E+10 1.75062E+10 1.67183E+04
 -1      1440 5.85070E+07-2.59386E+04 2.22228E+07 1.03830E+10 1.31214E+10 1.48165E+04
 -1      1441 6.37292E+07-1.34163E+04 2.42120E+07 1.01998E+10 9.28964E+09 1.27363E+04
 -1      1442 6.90470E+07 1.61324E+05 2.62992E+07 1.05181E+10 6.06038E+09 1.04777E+04
 -1      1443 7.41484E+07-5.99624E+05 2.79485E+07 1.01658E+10 3.48361E+09 8.03910E+03
 -1      1444 8.00580E+07 2.15383E+06 3.12405E+07 1.05839E+10 1.60887E+09 5.42249E+03
 -1      1445 8.29883E+07-7.82496E+06 2.85621E+07 1.01829E+10 4.86471E+08 2.62156E+03
 -1      1446 8.24190E+07 2.83881E+07 4.21067E+07 1.14886E+10 1.20001E+08 1.17284E+03
 -1      1447-7.21186E+08-3.80391E+08-4.18599E+08 2.04995E+06-2.36616E+11 1.23155E+09
 -1      1448-2.53580E+09-3.65282E+08-1.10241E+09 4.33371E+08-2.29432E+11 1.23147E+09
 -1      1449-8.05350E+09-3.48789E+08-3.19287E+09 8.38572E+08-2.15066E+11 1.23112E+09
 -1      1450-1.70185E+10-3.17337E+08-6.58762E+09 1.21828E+09-2.00706E+11 1.23031E+09
 -1      1451-2.91716E+10-3.06605E+08-1.12017E+10 1.56897E+09-1.86359E+11 1.22882E+09
 -1      1452-4.43155E+10-2.51422E+08-1.69354E+10 1.89812E+09-1.72035E+11 1.22643E+09
 -1      1453-6.21716E+10-2.90265E+08-2.37355E+10 2.19849E+09-1.57745E+11 1.22298E+09
 -1      1454-8.25838E+10-1.95089E+08-3.14560E+10 2.47019E+09-1.43502E+11 1.21829E+09
 -1      1455-1.05250E+11-2.28573E+08-4.00817E+10 2.72315E+09-1.29321E+11 1.21221E+09
 -1      1456-1.29995E+11-1.80031E+08-4.94663E+10 2.94046E+09-1.15221E+11 1.20458E+09
 -1      1457-1.56598E+11-1.28691E+08-5.95560E+10 3.14095E+09-1.01219E+11 1.19529E+09
 -1      1458-1.84752E+11-1.99349E+08-7.02816E+10 3.31922E+09-8.73358E+10 1.18423E+09
 -1      1459-2.14375E+11-9.11284E+07-8.14973E+10 3.44911E+09-7.35924E+10 1.17129E+09
 -1      1460-2.45135E+11-4.99494E+07-9.31704E+10 3.59216E+09-6.00112E+10 1.15640E+09
 -1      1461-2.76814E+11-1.30131E+08-1.05239E+11 3.66856E+09-4.66156E+10 1.13949E+09
 -1      1462-3.09349E+11-7.98735E+07-1.17583E+11 3.74794E+09-3.34294E+10 1.12049E+09
 -1      1463-3.42297E+11 7.99816E+07-1.30042E+11 3.81516E+09-2.04773E+10 1.09937E+09
 -1      1464-3.75617E+11-1.66885E+08-1.42798E+11 3.81275E+09-7.78401E+09 1.07610E+09
 -1      1465-4.09099E+11 1.29715E+08-1.55408E+11 3.83708E+09 4.62512E+09 1.05066E+09
 -1      1466-4.42434E+11-4.06976E+07-1.68140E+11 3.79799E+09 1.67249E+10 1.02307E+09
 -1      1467-4.75598E+11 7.03105E+07-1.80700E+11 3.76719E+09 2.84900E+10 9.93311E+08
 -1      1468-5.08219E+11 1.48065E+08-1.93067E+11 3.71546E+09 3.98955E+10 9.61424E+08
 -1      1469-5.40214E+11-1.01924E+08-2.05320E+11 3.61556E+09 5.09168E+10 9.27445E+08
 -1      1470-5.71469E+11 2.66250E+08-2.17057E+11 3.51827E+09 6.15296E+10 8.91413E+08
 -1      1471-6.01671E+11 2.49701E+07-2.28626E+11 3.39330E+09 7.17103E+10 8.53390E+08
 -1      1472-6.30771E+11 1.63484E+08-2.39631E+11 3.26088E+09 8.14361E+10 8.13445E+08
 -1      1473-6.58542E+11 1.45403E+08-2.50191E+11 3.10307E+09 9.06849E+10 7.71657E+08
 -1      1474-6.84864E+11 1.02286E+08-2.60210E+11 2.92210E+09 9.94359E+10 7.28115E+08
 -1      1475-7.09661E+11 2.20507E+08-2.69587E+11 2.72876E+09 1.07669E+11 6.82917E+08
 -1      1476-7.32697E+11 2.30167E+08-2.78337E+11 2.54175E+09 1.15366E+11 6.36168E+08
 -1      1477-7.53855E+11 1.47197E+08-2.86409E+11 2.32016E+09 1.22509E+11 5.87987E+08
 -1      1478-7.73121E+11 1.50453E+08-2.93729E+11 2.08203E+09 1.29081E+11 5.38496E+08
 -1      1479-7.90317E+11 3.36886E+08-3.00193E+11 1.84489E+09 1.35070E+11 4.87823E+08
 -1      1480-8.05347E+11 1.45005E+08-3.05977E+11 1.58924E+09 1.40461E+11 4.36106E+08
 -1      1481-8.18135E+11 2.56364E+08-3.10794E+11 1.33753E+09 1.45243E+11 3.83487E+08
 -1      1482-8.28616E+11 2.25355E+08-3.14789E+11 1.05907E+09 1.49407E+11 3.30113E+08
 -1      1483-8.36731E+11 2.58369E+08-3.17860E+11 7.92592E+08 1.52944E+11 2.76137E+08
 -1      1484-8.42347E+11 2.51468E+08-3.19996E+11 5.11002E+08 1.55849E+11 2.21715E+08
 -1      1485-8.45545E+11 1.90545E+08-3.21235E+11 2.04628E+08 1.58117E+11 1.67009E+08
 -1      1486-8.46220E+11 3.14430E+08-3.21444E+11-6.09572E+07 1.59745E+11 1.12177E+08
 -1      1487-8.44297E+11 2.97555E+08-3.20720E+11-3.63073E+08 1.60734E+11 5.73851E+07
 -1      1488-8.39835E+11 2.17036E+08-3.19055E+11-6.52512E+08 1.61085E+11 2.80013E+06
 -1      1489-8.32812E+11 1.88135E+08-3.16397E+11-9.55331E+08 1.60801E+11-5.14125E+07
 -1      1490-8.23233E+11 3.81700E+08-3.12683E+11-1.24367E+09 1.59888E+11-1.05087E+08
 -1      1491-8.11091E+11 1.87721E+08-3.08143E+11-1.53846E+09 1.58352E+11-1.58057E+08
 -1      1492-7.96420E+11 2.13214E+08-3.02559E+11-1.81631E+09 1.56203E+11-2.10159E+08
 -1      1493-7.79266E+11 2.85048E+08-2.96013E+11-2.10375E+09 1.53452E+11-2.61228E+08
 -1      1494-7.59680E+11 2.79032E+08-2.88573E+11-2.38044E+09 1.50112E+11-3.11107E+08
 -1      1495-7.37647E+11 2.35781E+08-2.80216E+11-2.64702E+09 1.46197E+11-3.59638E+08
 -1      1496-7.13344E+11 1.28955E+08-2.71022E+11-2.93044E+09 1.41725E+11-4.06666E+08
 -1      1497-6.86789E+11 2.99747E+08-2.60866E+11-3.15608E+09 1.36714E+11-4.52046E+08
 -1      1498-6.57968E+11 1.85649E+08-2.49957E+11-3.40893E+09 1.31184E+11-4.95631E+08
 -1      1499-6.27131E+11 1.69138E+08-2.38245E+11-3.64969E+09 1.25156E+11-5.37283E+08
 -1      1500-5.94281E+11 2.24773E+08-2.25741E+11-3.86904E+09 1.18654E+11-5.76870E+08
 -1      1501-5.59544E+11 2.03311E+08-2.12550E+11-4.08521E+09 1.11703E+11-6.14266E+08
 -1      1502-5.23013E+11 1.46066E+08-1.98690E+11-4.26716E+09 1.04329E+11-6.49353E+08
 -1      1503-4.84803E+11 1.16459E+08-1.84181E+11-4.46234E+09 9.65599E+10-6.82017E+08
 -1      1504-4.45098E+11 1.78603E+08-1.69069E+11-4.62790E+09 8.84241E+10-7.12156E+08
 -1      1505-4.03956E+11 1.43703E+08-1.53448E+11-4.78190E+09 7.99518E+10-7.39675E+08
 -1      1506-3.61525E+11 9.42641E+07-1.37344E+11-4.91761E+09 7.11742E+10-7.64485E+08
 -1      1507-3.17987E+11 7.48722E+07-1.20807E+11-5.04684E+09 6.21233E+10-7.86508E+08
 -1      1508-2.73457E+11 1.26747E+08-1.03866E+11-5.14299E+09 5.28320E+10-8.05677E+08
 -1      1509-2.28058E+11 5.88003E+07-8.66399E+10-5.23271E+09 4.33341E+10-8.21932E+08
 -1      1510-1.81988E+11 3.40826E+07-6.91427E+10-5.30654E+09 3.36637E+10-8.35222E+08
 -1      1511-1.35387E+11 4.57885E+07-5.14297E+10-5.35600E+09 2.38556E+10-8.45507E+08
 -1      1512-8.83891E+10 2.91427E+07-3.35768E+10-5.39193E+09 1.39453E+10-8.52759E+08
 -1      1513-4.11830E+10 4.30262E+06-1.56479E+10-5.40671E+09 3.96822E+09-8.56959E+08
 -1      1514 6.09796E+09-8.37568E+06 2.31404E+09-5.40536E+09-6.04002E+09-8.58095E+08
 -1      1515 5.32770E+10-3.49140E+07 2.02320E+10-5.38490E+09-1.60437E+10-8.56170E+08
 -1      1516 1.00195E+11-3.24405E+07 3.80617E+10-5.34730E+09-2.60071E+10-8.51196E+08
 -1      1517 1.46710E+11-5.21247E+07 5.57299E+10-5.28776E+09-3.58948E+10-8.43193E+08
 -1      1518 1.92646E+11-7.68273E+07 7.31763E+10-5.21777E+09-4.56715E+10-8.32193E+08
 -1      1519 2.37855E+11-1.09216E+08 9.03432E+10-5.12316E+09-5.53026E+10-8.18239E+08
 -1      1520 2.82176E+11-8.50649E+07 1.07195E+11-5.01552E+09-6.47540E+10-8.01384E+08
 -1      1521 3.25465E+11-1.03831E+08 1.23637E+11-4.88523E+09-7.39921E+10-7.81689E+08
 -1      1522 3.67593E+11-1.36355E+08 1.39634E+11-4.73948E+09-8.29842E+10-7.59225E+08
 -1      1523 4.08391E+11-2.14860E+08 1.55107E+11-4.58875E+09-9.16984E+10-7.34074E+08
 -1      1524 4.47693E+11-1.05774E+08 1.70083E+11-4.40970E+09-1.00104E+11-7.06327E+08
 -1      1525 4.85435E+11-1.03228E+08 1.84426E+11-4.21994E+09-1.08171E+11-6.76083E+08
 -1      1526 5.21465E+11-3.08521E+08 1.98039E+11-4.01383E+09-1.15871E+11-6.43446E+08
 -1      1527 5.55588E+11-1.30739E+08 2.11074E+11-3.79972E+09-1.23177E+11-6.08537E+08
 -1      1528 5.87808E+11-1.91524E+08 2.23294E+11-3.55526E+09-1.30063E+11-5.71478E+08
 -1      1529 6.17938E+11-2.45688E+08 2.34723E+11-3.32898E+09-1.36505E+11-5.32398E+08
 -1      1530 6.45872E+11-2.62786E+08 2.45331E+11-3.06698E+09-1.42480E+11-4.91436E+08
 -1      1531 6.71542E+11-2.14411E+08 2.55104E+11-2.80603E+09-1.47966E+11-4.48736E+08
 -1      1532 6.94838E+11-1.67726E+08 2.63975E+11-2.52357E+09-1.52945E+11-4.04450E+08
 -1      1533 7.15766E+11-3.78123E+08 2.71847E+11-2.23581E+09-1.57399E+11-3.58730E+08
 -1      1534 7.34103E+11-1.99002E+08 2.78883E+11-1.96664E+09-1.61311E+11-3.11738E+08
 -1      1535 7.49870E+11-2.12930E+08 2.84870E+11-1.65130E+09-1.64669E+11-2.63640E+08
 -1      1536 7.63084E+11-3.13192E+08 2.89853E+11-1.35296E+09-1.67460E+11-2.14603E+08
 -1      1537 7.73552E+11-3.60825E+08 2.93813E+11-1.04403E+09-1.69674E+11-1.64798E+08
 -1      1538 7.81360E+11-1.85644E+08 2.96846E+11-7.25669E+08-1.71303E+11-1.14401E+08
 -1      1539 7.86418E+11-1.93625E+08 2.98765E+11-4.30270E+08-1.72342E+11-6.35873E+07
 -1      1540 7.88720E+11-3.68323E+08 2.99574E+11-1.04264E+08-1.72786E+11-1.25348E+07
 -1      1541 7.88306E+11-3.17113E+08 2.99436E+11 2.09806E+08-1.72634E+11 3.85788E+07
 -1      1542 7.85066E+11-2.25082E+08 2.98240E+11 5.19702E+08-1.71887E+11 8.95740E+07
 -1      1543 7.79156E+11-2.11690E+08 2.95999E+11 8.50233E+08-1.70546E+11 1.40272E+08
 -1      1544 7.70536E+11-4.02399E+08 2.92651E+11 1.13738E+09-1.68615E+11 1.90499E+08
 -1      1545 7.59133E+11-1.85870E+08 2.88400E+11 1.44721E+09-1.66103E+11 2.40078E+08
 -1      1546 7.45158E+11-2.29050E+08 2.83073E+11 1.75659E+09-1.63017E+11 2.88834E+08
 -1      1547 7.28591E+11-3.02576E+08 2.76750E+11 2.04590E+09-1.59367E+11 3.36600E+08
 -1      1548 7.09433E+11-2.76142E+08 2.69479E+11 2.33327E+09-1.55167E+11 3.83208E+08
 -1      1549 6.87841E+11-2.12399E+08 2.61299E+11 2.61595E+09-1.50430E+11 4.28495E+08
 -1      1550 6.63830E+11-1.82341E+08 2.52186E+11 2.87742E+09-1.45174E+11 4.72304E+08
 -1      1551 6.37505E+11-2.99673E+08 2.42138E+11 3.14196E+09-1.39415E+11 5.14481E+08
 -1      1552 6.08981E+11-2.18009E+08 2.31330E+11 3.39327E+09-1.33175E+11 5.54881E+08
 -1      1553 5.78284E+11-1.32605E+08 2.19697E+11 3.62039E+09-1.26475E+11 5.93362E+08
 -1      1554 5.45615E+11-1.86526E+08 2.07263E+11 3.86085E+09-1.19337E+11 6.29788E+08
 -1      1555 5.11054E+11-2.59078E+08 1.94102E+11 4.05601E+09-1.11787E+11 6.64035E+08
 -1      1556 4.74646E+11-1.17970E+08 1.80321E+11 4.25606E+09-1.03851E+11 6.95983E+08
 -1      1557 4.36635E+11-1.34334E+08 1.65870E+11 4.44298E+09-9.55555E+10 7.25518E+08
 -1      1558 3.97091E+11-1.65131E+08 1.50832E+11 4.60717E+09-8.69304E+10 7.52539E+08
 -1      1559 3.56161E+11-1.38287E+08 1.35289E+11 4.76118E+09-7.80051E+10 7.76952E+08
 -1      1560 3.13979E+11-9.92754E+07 1.19274E+11 4.88578E+09-6.88107E+10 7.98672E+08
 -1      1561 2.70691E+11-6.64613E+07 1.02837E+11 5.01000E+09-5.93789E+10 8.17621E+08
 -1      1562 2.26489E+11-1.21800E+08 8.60194E+10 5.10726E+09-4.97424E+10 8.33734E+08
 -1      1563 1.81464E+11-4.03465E+07 6.89411E+10 5.18850E+09-3.99348E+10 8.46972E+08
 -1      1564 1.35826E+11-4.36369E+07 5.15971E+10 5.25513E+09-2.99900E+10 8.57287E+08
 -1      1565 8.97007E+10-4.84338E+07 3.40678E+10 5.29695E+09-1.99426E+10 8.64611E+08
 -1      1566 4.32354E+10-5.54610E+06 1.64273E+10 5.32568E+09-9.82740E+09 8.68919E+08
 -1      1567-3.37035E+09-3.95861E+06-1.28224E+09 5.33421E+09 3.20542E+08 8.70210E+08
 -1      1568-4.99817E+10 1.83667E+07-1.89861E+10 5.32360E+09 1.04659E+10 8.68480E+08
 -1      1569-9.64159E+10 2.66854E+07-3.66279E+10 5.29500E+09 2.05735E+10 8.63734E+08
 -1      1570-1.42540E+11 6.69496E+07-5.41397E+10 5.24670E+09 3.06082E+10 8.55989E+08
 -1      1571-1.88155E+11 5.56412E+07-7.14777E+10 5.18707E+09 4.05351E+10 8.45271E+08
 -1      1572-2.33127E+11 5.47427E+07-8.85675E+10 5.09898E+09 5.03198E+10 8.31616E+08
 -1      1573-2.77321E+11 1.47103E+08-1.05326E+11 4.99933E+09 5.99283E+10 8.15072E+08
 -1      1574-3.20516E+11 7.78005E+07-1.21767E+11 4.88355E+09 6.93273E+10 7.95696E+08
 -1      1575-3.62646E+11 1.11077E+08-1.37763E+11 4.74054E+09 7.84840E+10 7.73555E+08
 -1      1576-4.03511E+11 1.58501E+08-1.53274E+11 4.59979E+09 8.73666E+10 7.48723E+08
 -1      1577-4.42977E+11 1.74021E+08-1.68265E+11 4.42748E+09 9.59442E+10 7.21289E+08
 -1      1578-4.80907E+11 1.82260E+08-1.82675E+11 4.24745E+09 1.04187E+11 6.91346E+08
 -1      1579-5.17178E+11 9.77639E+07-1.96490E+11 4.04226E+09 1.12067E+11 6.58999E+08
 -1      1580-5.51703E+11 2.53524E+08-2.09551E+11 3.83323E+09 1.19555E+11 6.24356E+08
 -1      1581-5.84266E+11 1.94912E+08-2.21947E+11 3.62152E+09 1.26627E+11 5.87540E+08
 -1      1582-6.14809E+11 1.65397E+08-2.33565E+11 3.37045E+09 1.33257E+11 5.48679E+08
 -1      1583-6.43280E+11 2.59024E+08-2.44348E+11 3.12512E+09 1.39422E+11 5.07905E+08
 -1      1584-6.69496E+11 2.83183E+08-2.54301E+11 2.86514E+09 1.45101E+11 4.65358E+08
 -1      1585-6.93363E+11 1.85191E+08-2.63408E+11 2.59974E+09 1.50274E+11 4.21189E+08
 -1      1586-7.14898E+11 2.16735E+08-2.71579E+11 2.30521E+09 1.54923E+11 3.75549E+08
 -1      1587-7.33940E+11 2.95900E+08-2.78785E+11 2.03936E+09 1.59032E+11 3.28593E+08
 -1      1588-7.50425E+11 2.94243E+08-2.85050E+11 1.73671E+09 1.62586E+11 2.80486E+08
 -1      1589-7.64325E+11 2.40741E+08-2.90352E+11 1.44234E+09 1.65573E+11 2.31395E+08
 -1      1590-7.75574E+11 1.89975E+08-2.94646E+11 1.12847E+09 1.67983E+11 1.81488E+08
 -1      1591-7.84215E+11 3.89384E+08-2.97854E+11 8.16450E+08 1.69806E+11 1.30937E+08
 -1      1592-7.90059E+11 2.67499E+08-3.00121E+11 5.26970E+08 1.71036E+11 7.99164E+07
 -1      1593-7.93189E+11 1.79586E+08-3.01344E+11 1.92598E+08 1.71670E+11 2.86051E+07
 -1      1594-7.93643E+11 2.85400E+08-3.01476E+11-1.06853E+08 1.71704E+11-2.28227E+07
 -1      1595-7.91291E+11 3.59902E+08-3.00554E+11-4.26576E+08 1.71138E+11-7.41888E+07
 -1      1596-7.86249E+11 2.31156E+08-2.98687E+11-7.39972E+08 1.69974E+11-1.25315E+08
 -1      1597-7.78478E+11 2.02620E+08-2.95745E+11-1.03973E+09 1.68215E+11-1.76026E+08
 -1      1598-7.68040E+11 3.81579E+08-2.91710E+11-1.35079E+09 1.65869E+11-2.26146E+08
 -1      1599-7.54937E+11 2.07765E+08-2.86797E+11-1.64488E+09 1.62942E+11-2.75504E+08
 -1      1600-7.39224E+11 2.01922E+08-2.80828E+11-1.94798E+09 1.59444E+11-3.23928E+08
 -1      1601-7.21033E+11 3.01098E+08-2.73878E+11-2.23948E+09 1.55388E+11-3.71252E+08
 -1      1602-7.00320E+11 2.82972E+08-2.66014E+11-2.50201E+09 1.50787E+11-4.17316E+08
 -1      1603-6.77162E+11 1.81971E+08-2.57253E+11-2.77689E+09 1.45656E+11-4.61958E+08
 -1      1604-6.51741E+11 1.96202E+08-2.47587E+11-3.04527E+09 1.40014E+11-5.05026E+08
 -1      1605-6.24083E+11 2.46856E+08-2.37058E+11-3.29097E+09 1.33879E+11-5.46373E+08
 -1      1606-5.94259E+11 2.63151E+08-2.25718E+11-3.52991E+09 1.27273E+11-5.85857E+08
 -1      1607-5.62428E+11 1.37310E+08-2.13671E+11-3.76151E+09 1.20217E+11-6.23344E+08
 -1      1608-5.28673E+11 1.07258E+08-2.00855E+11-3.96109E+09 1.12737E+11-6.58704E+08
 -1      1609-4.93123E+11 2.81902E+08-1.87280E+11-4.16693E+09 1.04856E+11-6.91818E+08
 -1      1610-4.55892E+11 1.07006E+08-1.73198E+11-4.34677E+09 9.66035E+10-7.22574E+08
 -1      1611-4.17117E+11 1.18579E+08-1.58459E+11-4.52064E+09 8.80061E+10-7.50866E+08
 -1      1612-3.76971E+11 1.55706E+08-1.43190E+11-4.67466E+09 7.90934E+10-7.76600E+08
 -1      1613-3.35538E+11 1.25113E+08-1.27457E+11-4.80209E+09 6.98958E+10-7.99690E+08
 -1      1614-2.92976E+11 8.03286E+07-1.11300E+11-4.92346E+09 6.04446E+10-8.20059E+08
 -1      1615-2.49475E+11 6.18761E+07-9.47769E+10-5.02764E+09 5.07720E+10-8.37638E+08
 -1      1616-2.05161E+11 9.82716E+07-7.79240E+10-5.10985E+09 4.09108E+10-8.52370E+08
 -1      1617-1.60185E+11 3.46572E+07-6.08572E+10-5.17610E+09 3.08946E+10-8.64210E+08
 -1      1618-1.14724E+11 2.63908E+07-4.35851E+10-5.22147E+09 2.07574E+10-8.73118E+08
 -1      1619-6.89282E+10 2.86228E+07-2.61818E+10-5.25045E+09 1.05334E+10-8.79068E+08
 -1      1620-2.29647E+10-1.00422E+07-8.73039E+09-5.25984E+09 2.57251E+08-8.82045E+08
 -1      1621 2.29998E+10-8.25502E+06 8.73680E+09-5.25151E+09-1.00362E+10-8.82044E+08
 -1      1622 6.88096E+10-2.92532E+07 2.61365E+10-5.22308E+09-2.03123E+10-8.79067E+08
 -1      1623 1.14291E+11-5.11518E+07 4.34111E+10-5.17782E+09-3.05363E+10-8.73130E+08
 -1      1624 1.59289E+11-8.07936E+07 6.04992E+10-5.11107E+09-4.06740E+10-8.64263E+08
 -1      1625 2.03631E+11-6.85442E+07 7.73538E+10-5.02923E+09-5.06914E+10-8.52500E+08
 -1      1626 2.47172E+11-7.71191E+07 9.38961E+10-4.92500E+09-6.05548E+10-8.37888E+08
 -1      1627 2.89748E+11-1.55447E+08 1.10045E+11-4.80608E+09-7.02314E+10-8.20486E+08
 -1      1628 3.31201E+11-1.01078E+08 1.25818E+11-4.66829E+09-7.96891E+10-8.00361E+08
 -1      1629 3.71382E+11-1.28100E+08 1.41076E+11-4.51833E+09-8.88963E+10-7.77589E+08
 -1      1630 4.10143E+11-1.67297E+08 1.55791E+11-4.34463E+09-9.78230E+10-7.52260E+08
 -1      1631 4.47363E+11-2.07525E+08 1.69919E+11-4.15851E+09-1.06440E+11-7.24467E+08
 -1      1632 4.82841E+11-1.52996E+08 1.83421E+11-3.95936E+09-1.14718E+11-6.94320E+08
 -1      1633 5.16538E+11-1.44899E+08 1.96230E+11-3.73175E+09-1.22632E+11-6.61930E+08
 -1      1634 5.48278E+11-3.42746E+08 2.08215E+11-3.51473E+09-1.30155E+11-6.27419E+08
 -1      1635 5.77888E+11-1.25561E+08 2.19550E+11-3.26582E+09-1.37264E+11-5.90921E+08
 -1      1636 6.05360E+11-1.79215E+08 2.29969E+11-3.00916E+09-1.43937E+11-5.52572E+08
 -1      1637 6.30517E+11-3.02890E+08 2.39481E+11-2.73878E+09-1.50151E+11-5.12517E+08
 -1      1638 6.53308E+11-2.84608E+08 2.48149E+11-2.45290E+09-1.55890E+11-4.70909E+08
 -1      1639 6.73570E+11-2.25157E+08 2.55871E+11-2.18360E+09-1.61134E+11-4.27906E+08
 -1      1640 6.91264E+11-2.17230E+08 2.62598E+11-1.86832E+09-1.65870E+11-3.83673E+08
 -1      1641 7.06359E+11-3.18846E+08 2.68295E+11-1.56617E+09-1.70083E+11-3.38377E+08
 -1      1642 7.18701E+11-3.13579E+08 2.72987E+11-1.25133E+09-1.73762E+11-2.92192E+08
 -1      1643 7.28282E+11-2.46265E+08 2.76653E+11-9.28727E+08-1.76898E+11-2.45296E+08
 -1      1644 7.35049E+11-2.28612E+08 2.79232E+11-6.12158E+08-1.79484E+11-1.97871E+08
 -1      1645 7.38950E+11-4.05012E+08 2.80647E+11-2.76395E+08-1.81514E+11-1.50100E+08
 -1      1646 7.39942E+11-2.31918E+08 2.81090E+11 5.02904E+07-1.82986E+11-1.02171E+08
 -1      1647 7.38028E+11-2.47169E+08 2.80357E+11 3.93550E+08-1.83898E+11-5.42717E+07
 -1      1648 7.33181E+11-3.80543E+08 2.78464E+11 7.27380E+08-1.84253E+11-6.59139E+06
 -1      1649 7.25424E+11-2.98636E+08 2.75548E+11 1.07297E+09-1.84054E+11 4.06802E+07
 -1      1650 7.14678E+11-2.19041E+08 2.71494E+11 1.37956E+09-1.83307E+11 8.73522E+07
 -1      1651 7.01015E+11-2.71027E+08 2.66283E+11 1.73541E+09-1.82019E+11 1.33233E+08
 -1      1652 6.84514E+11-4.01672E+08 2.59963E+11 2.06017E+09-1.80202E+11 1.78136E+08
 -1      1653 6.65047E+11-2.14780E+08 2.52636E+11 2.38412E+09-1.77867E+11 2.21873E+08
 -1      1654 6.42809E+11-2.51047E+08 2.44172E+11 2.71961E+09-1.75030E+11 2.64259E+08
 -1      1655 6.17780E+11-3.22159E+08 2.34634E+11 3.01785E+09-1.71708E+11 3.05112E+08
 -1      1656 5.89964E+11-2.81438E+08 2.24079E+11 3.33575E+09-1.67918E+11 3.44253E+08
 -1      1657 5.59508E+11-2.46303E+08 2.12519E+11 3.63405E+09-1.63683E+11 3.81505E+08
 -1      1658 5.26415E+11-2.12849E+08 1.99957E+11 3.93495E+09-1.59024E+11 4.16698E+08
 -1      1659 4.90829E+11-2.83465E+08 1.86407E+11 4.22274E+09-1.53968E+11 4.49664E+08
 -1      1660 4.52763E+11-2.55534E+08 1.71953E+11 4.48756E+09-1.48542E+11 4.80243E+08
 -1      1661 4.12295E+11-2.25874E+08 1.56586E+11 4.75681E+09-1.42773E+11 5.08278E+08
 -1      1662 3.69599E+11-1.74295E+08 1.40381E+11 5.01761E+09-1.36692E+11 5.33617E+08
 -1      1663 3.24705E+11-2.34258E+08 1.23299E+11 5.25517E+09-1.30333E+11 5.56117E+08
 -1      1664 2.77731E+11-2.04054E+08 1.05460E+11 5.49041E+09-1.23728E+11 5.75640E+08
 -1      1665 2.28778E+11-1.62748E+08 8.68738E+10 5.70619E+09-1.16913E+11 5.92054E+08
 -1      1666 1.77976E+11-2.00452E+08 6.75548E+10 5.91456E+09-1.09926E+11 6.05234E+08
 -1      1667 1.25398E+11-1.55273E+08 4.75921E+10 6.10774E+09-1.02804E+11 6.15065E+08
 -1      1668 7.12090E+10-1.61391E+08 2.69981E+10 6.28869E+09-9.55874E+10 6.21435E+08
 -1      1669 1.54569E+10-1.23730E+08 5.82660E+09 6.45631E+09-8.83173E+10 6.24242E+08
 -1      1670-4.16522E+10-1.55913E+08-1.58871E+10 6.61016E+09-8.10357E+10 6.23391E+08
 -1      1671-1.00126E+11-7.75069E+07-3.80773E+10 6.75230E+09-7.37858E+10 6.18795E+08
 -1      1672-1.59676E+11-1.48058E+08-6.07332E+10 6.88045E+09-6.66118E+10 6.10373E+08
 -1      1673-2.20416E+11-7.31695E+07-8.37858E+10 6.99249E+09-5.95586E+10 5.98053E+08
 -1      1674-2.81957E+11-9.80262E+07-1.07181E+11 7.09577E+09-5.26722E+10 5.81769E+08
 -1      1675-3.44525E+11-8.23300E+06-1.30923E+11 7.18313E+09-4.59992E+10 5.61465E+08
 -1      1676-4.07583E+11-1.82620E+08-1.54951E+11 7.26576E+09-3.95867E+10 5.37088E+08
 -1      1677-4.71586E+11 3.36325E+07-1.79190E+11 7.33144E+09-3.34826E+10 5.08593E+08
 -1      1678-5.35733E+11-9.53900E+07-2.03615E+11 7.38548E+09-2.77351E+10 4.75944E+08
 -1      1679-6.00807E+11 7.62282E+07-2.28278E+11 7.43208E+09-2.23929E+10 4.39109E+08
 -1      1680-6.65603E+11-2.38611E+08-2.53020E+11 7.45669E+09-1.75049E+10 3.98063E+08
 -1      1681-7.31572E+11 1.09911E+08-2.77956E+11 7.50381E+09-1.31205E+10 3.52782E+08
 -1      1682-7.96560E+11 6.00164E+08-3.02465E+11 7.50503E+09-9.28909E+09 3.03253E+08
 -1      1683-8.63056E+11-3.46551E+09-3.29278E+11 7.57795E+09-6.06035E+09 2.49467E+08
 -1      1684-9.28506E+11 1.36225E+10-3.47656E+11 7.32402E+09-3.48394E+09 1.91402E+08
 -1      1685-9.93624E+11-5.07115E+10-3.96847E+11 8.31870E+09-1.60981E+09 1.29102E+08
 -1      1686-1.06568E+12 1.86221E+11-3.34195E+11 4.65655E+09-4.87831E+08 6.23835E+07
 -1      1687-1.10193E+12-6.75051E+11-6.75254E+11 1.80303E+10-1.20970E+08 2.78632E+07
 -1      1688-7.21186E+08-3.80391E+08-4.18599E+08 2.05027E+06 2.36616E+11-1.23155E+09
 -1      1689-2.53580E+09-3.65282E+08-1.10241E+09 4.33372E+08 2.29432E+11-1.23147E+09
 -1      1690-8.05350E+09-3.48789E+08-3.19287E+09 8.38572E+08 2.15066E+11-1.23112E+09
 -1      1691-1.70185E+10-3.17337E+08-6.58762E+09 1.21828E+09 2.00706E+11-1.23031E+09
 -1      1692-2.91716E+10-3.06605E+08-1.12017E+10 1.56897E+09 1.86359E+11-1.22882E+09
 -1      1693-4.43155E+10-2.51422E+08-1.69354E+10 1.89812E+09 1.72035E+11-1.22643E+09
 -1      1694-6.21716E+10-2.90265E+08-2.37355E+10 2.19849E+09 1.57745E+11-1.22298E+09
 -1      1695-8.25838E+10-1.95089E+08-3.14560E+10 2.47019E+09 1.43502E+11-1.21829E+09
 -1      1696-1.05250E+11-2.28573E+08-4.00817E+10 2.72315E+09 1.29321E+11-1.21221E+09
 -1      1697-1.29995E+11-1.80031E+08-4.94663E+10 2.94046E+09 1.15221E+11-1.20458E+09
 -1      1698-1.56598E+11-1.28691E+08-5.95560E+10 3.14095E+09 1.01219E+11-1.19529E+09
 -1      1699-1.84752E+11-1.99349E+08-7.02816E+10 3.31922E+09 8.73358E+10-1.18423E+09
 -1      1700-2.14375E+11-9.11284E+07-8.14973E+10 3.44911E+09 7.35924E+10-1.17129E+09
 -1      1701-2.45135E+11-4.99494E+07-9.31704E+10 3.59216E+09 6.00112E+10-1.15640E+09
 -1      1702-2.76814E+11-1.30131E+08-1.05239E+11 3.66856E+09 4.66156E+10-1.13949E+09
 -1      1703-3.09349E+11-7.98734E+07-1.17583E+11 3.74794E+09 3.34294E+10-1.12049E+09
 -1      1704-3.42297E+11 7.99817E+07-1.30042E+11 3.81516E+09 2.04773E+10-1.09937E+09
 -1      1705-3.75617E+11-1.66885E+08-1.42798E+11 3.81275E+09 7.78401E+09-1.07610E+09
 -1      1706-4.09099E+11 1.29715E+08-1.55408E+11 3.83708E+09-4.62512E+09-1.05066E+09
 -1      1707-4.42434E+11-4.06975E+07-1.68140E+11 3.79799E+09-1.67249E+10-1.02307E+09
 -1      1708-4.75598E+11 7.03105E+07-1.80700E+11 3.76719E+09-2.84900E+10-9.93311E+08
 -1      1709-5.08219E+11 1.48065E+08-1.93067E+11 3.71546E+09-3.98955E+10-9.61424E+08
 -1      1710-5.40214E+11-1.01924E+08-2.05320E+11 3.61556E+09-5.09168E+10-9.27445E+08
 -1      1711-5.71469E+11 2.66249E+08-2.17057E+11 3.51827E+09-6.15295E+10-8.91412E+08
 -1      1712-6.01671E+11 2.49701E+07-2.28626E+11 3.39330E+09-7.17103E+10-8.53390E+08
 -1      1713-6.30771E+11 1.63484E+08-2.39631E+11 3.26088E+09-8.14361E+10-8.13445E+08
 -1      1714-6.58542E+11 1.45402E+08-2.50191E+11 3.10307E+09-9.06849E+10-7.71657E+08
 -1      1715-6.84864E+11 1.02286E+08-2.60210E+11 2.92210E+09-9.94359E+10-7.28115E+08
 -1      1716-7.09661E+11 2.20507E+08-2.69587E+11 2.72876E+09-1.07669E+11-6.82917E+08
 -1      1717-7.32697E+11 2.30167E+08-2.78337E+11 2.54175E+09-1.15366E+11-6.36168E+08
 -1      1718-7.53855E+11 1.47197E+08-2.86409E+11 2.32016E+09-1.22509E+11-5.87987E+08
 -1      1719-7.73121E+11 1.50453E+08-2.93729E+11 2.08203E+09-1.29081E+11-5.38496E+08
 -1      1720-7.90317E+11 3.36886E+08-3.00193E+11 1.84489E+09-1.35070E+11-4.87823E+08
 -1      1721-8.05347E+11 1.45005E+08-3.05977E+11 1.58924E+09-1.40461E+11-4.36106E+08
 -1      1722-8.18135E+11 2.56364E+08-3.10794E+11 1.33753E+09-1.45243E+11-3.83487E+08
 -1      1723-8.28616E+11 2.25355E+08-3.14789E+11 1.05907E+09-1.49407E+11-3.30113E+08
 -1      1724-8.36731E+11 2.58369E+08-3.17860E+11 7.92592E+08-1.52944E+11-2.76137E+08
 -1      1725-8.42347E+11 2.51468E+08-3.19996E+11 5.11003E+08-1.55849E+11-2.21715E+08
 -1      1726-8.45545E+11 1.90545E+08-3.21235E+11 2.04628E+08-1.58117E+11-1.67009E+08
 -1      1727-8.46220E+11 3.14430E+08-3.21444E+11-6.09572E+07-1.59745E+11-1.12177E+08
 -1      1728-8.44297E+11 2.97555E+08-3.20720E+11-3.63073E+08-1.60734E+11-5.73851E+07
 -1      1729-8.39835E+11 2.17036E+08-3.19055E+11-6.52512E+08-1.61085E+11-2.80011E+06
 -1      1730-8.32812E+11 1.88135E+08-3.16397E+11-9.55332E+08-1.60801E+11 5.14125E+07
 -1      1731-8.23233E+11 3.81700E+08-3.12683E+11-1.24367E+09-1.59888E+11 1.05087E+08
 -1      1732-8.11091E+11 1.87721E+08-3.08143E+11-1.53846E+09-1.58352E+11 1.58057E+08
 -1      1733-7.96420E+11 2.13214E+08-3.02559E+11-1.81631E+09-1.56203E+11 2.10159E+08
 -1      1734-7.79266E+11 2.85048E+08-2.96013E+11-2.10375E+09-1.53452E+11 2.61228E+08
 -1      1735-7.59680E+11 2.79032E+08-2.88573E+11-2.38044E+09-1.50112E+11 3.11107E+08
 -1      1736-7.37647E+11 2.35781E+08-2.80216E+11-2.64702E+09-1.46197E+11 3.59638E+08
 -1      1737-7.13344E+11 1.28954E+08-2.71022E+11-2.93044E+09-1.41725E+11 4.06666E+08
 -1      1738-6.86789E+11 2.99747E+08-2.60866E+11-3.15608E+09-1.36714E+11 4.52046E+08
 -1      1739-6.57968E+11 1.85649E+08-2.49957E+11-3.40893E+09-1.31184E+11 4.95631E+08
 -1      1740-6.27131E+11 1.69138E+08-2.38245E+11-3.64969E+09-1.25156E+11 5.37283E+08
 -1      1741-5.94281E+11 2.24773E+08-2.25741E+11-3.86904E+09-1.18654E+11 5.76870E+08
 -1      1742-5.59544E+11 2.03311E+08-2.12550E+11-4.08521E+09-1.11703E+11 6.14266E+08
 -1      1743-5.23013E+11 1.46066E+08-1.98690E+11-4.26716E+09-1.04329E+11 6.49353E+08
 -1      1744-4.84803E+11 1.16459E+08-1.84181E+11-4.46234E+09-9.65599E+10 6.82017E+08
 -1      1745-4.45098E+11 1.78603E+08-1.69069E+11-4.62790E+09-8.84241E+10 7.12156E+08
 -1      1746-4.03956E+11 1.43703E+08-1.53448E+11-4.78190E+09-7.99518E+10 7.39675E+08
 -1      1747-3.61525E+11 9.42640E+07-1.37344E+11-4.91761E+09-7.11742E+10 7.64485E+08
 -1      1748-3.17987E+11 7.48722E+07-1.20807E+11-5.04684E+09-6.21233E+10 7.86508E+08
 -1      1749-2.73457E+11 1.26747E+08-1.03866E+11-5.14299E+09-5.28320E+10 8.05677E+08
 -1      1750-2.28058E+11 5.88004E+07-8.66399E+10-5.23271E+09-4.33340E+10 8.21931E+08
 -1      1751-1.81988E+11 3.40824E+07-6.91427E+10-5.30654E+09-3.36636E+10 8.35222E+08
 -1      1752-1.35387E+11 4.57885E+07-5.14297E+10-5.35600E+09-2.38556E+10 8.45507E+08
 -1      1753-8.83891E+10 2.91429E+07-3.35768E+10-5.39193E+09-1.39453E+10 8.52759E+08
 -1      1754-4.11830E+10 4.30257E+06-1.56479E+10-5.40671E+09-3.96821E+09 8.56959E+08
 -1      1755 6.09796E+09-8.37572E+06 2.31404E+09-5.40536E+09 6.04002E+09 8.58095E+08
 -1      1756 5.32770E+10-3.49140E+07 2.02320E+10-5.38490E+09 1.60437E+10 8.56170E+08
 -1      1757 1.00195E+11-3.24405E+07 3.80617E+10-5.34730E+09 2.60071E+10 8.51196E+08
 -1      1758 1.46710E+11-5.21246E+07 5.57299E+10-5.28776E+09 3.58948E+10 8.43193E+08
 -1      1759 1.92646E+11-7.68275E+07 7.31763E+10-5.21777E+09 4.56715E+10 8.32193E+08
 -1      1760 2.37855E+11-1.09216E+08 9.03432E+10-5.12316E+09 5.53026E+10 8.18239E+08
 -1      1761 2.82176E+11-8.50649E+07 1.07195E+11-5.01552E+09 6.47540E+10 8.01384E+08
 -1      1762 3.25465E+11-1.03831E+08 1.23637E+11-4.88523E+09 7.39921E+10 7.81689E+08
 -1      1763 3.67593E+11-1.36355E+08 1.39634E+11-4.73948E+09 8.29842E+10 7.59225E+08
 -1      1764 4.08391E+11-2.14860E+08 1.55107E+11-4.58875E+09 9.16984E+10 7.34074E+08
 -1      1765 4.47693E+11-1.05774E+08 1.70083E+11-4.40970E+09 1.00104E+11 7.06327E+08
 -1      1766 4.85435E+11-1.03227E+08 1.84426E+11-4.21994E+09 1.08171E+11 6.76083E+08
 -1      1767 5.21465E+11-3.08521E+08 1.98039E+11-4.01383E+09 1.15871E+11 6.43446E+08
 -1      1768 5.55588E+11-1.30739E+08 2.11074E+11-3.79972E+09 1.23177E+11 6.08537E+08
 -1      1769 5.87808E+11-1.91524E+08 2.23294E+11-3.55526E+09 1.30063E+11 5.71478E+08
 -1      1770 6.17938E+11-2.45688E+08 2.34723E+11-3.32898E+09 1.36505E+11 5.32398E+08
 -1      1771 6.45872E+11-2.62786E+08 2.45331E+11-3.06698E+09 1.42480E+11 4.91436E+08
 -1      1772 6.71542E+11-2.14411E+08 2.55104E+11-2.80603E+09 1.47966E+11 4.48736E+08
 -1      1773 6.94838E+11-1.67726E+08 2.63975E+11-2.52357E+09 1.52945E+11 4.04450E+08
 -1      1774 7.15766E+11-3.78123E+08 2.71847E+11-2.23581E+09 1.57399E+11 3.58730E+08
 -1      1775 7.34103E+11-1.99002E+08 2.78883E+11-1.96664E+09 1.61311E+11 3.11738E+08
 -1      1776 7.49870E+11-2.12930E+08 2.84870E+11-1.65130E+09 1.64669E+11 2.63640E+08
 -1      1777 7.63084E+11-3.13192E+08 2.89853E+11-1.35296E+09 1.67460E+11 2.14603E+08
 -1      1778 7.73552E+11-3.60825E+08 2.93813E+11-1.04403E+09 1.69674E+11 1.64798E+08
 -1      1779 7.81360E+11-1.85644E+08 2.96846E+11-7.25668E+08 1.71303E+11 1.14401E+08
 -1      1780 7.86418E+11-1.93625E+08 2.98765E+11-4.30269E+08 1.72342E+11 6.35873E+07
 -1      1781 7.88720E+11-3.68323E+08 2.99574E+11-1.04263E+08 1.72786E+11 1.25348E+07
 -1      1782 7.88306E+11-3.17113E+08 2.99436E+11 2.09807E+08 1.72634E+11-3.85788E+07
 -1      1783 7.85066E+11-2.25082E+08 2.98240E+11 5.19703E+08 1.71887E+11-8.95740E+07
 -1      1784 7.79156E+11-2.11690E+08 2.95999E+11 8.50234E+08 1.70546E+11-1.40272E+08
 -1      1785 7.70536E+11-4.02399E+08 2.92651E+11 1.13738E+09 1.68615E+11-1.90499E+08
 -1      1786 7.59133E+11-1.85870E+08 2.88400E+11 1.44721E+09 1.66103E+11-2.40078E+08
 -1      1787 7.45158E+11-2.29050E+08 2.83073E+11 1.75659E+09 1.63017E+11-2.88834E+08
 -1      1788 7.28591E+11-3.02576E+08 2.76750E+11 2.04590E+09 1.59367E+11-3.36600E+08
 -1      1789 7.09433E+11-2.76142E+08 2.69479E+11 2.33327E+09 1.55167E+11-3.83208E+08
 -1      1790 6.87841E+11-2.12399E+08 2.61299E+11 2.61595E+09 1.50430E+11-4.28495E+08
 -1      1791 6.63830E+11-1.82341E+08 2.52186E+11 2.87742E+09 1.45174E+11-4.72304E+08
 -1      1792 6.37505E+11-2.99673E+08 2.42138E+11 3.14196E+09 1.39415E+11-5.14481E+08
 -1      1793 6.08981E+11-2.18009E+08 2.31330E+11 3.39327E+09 1.33175E+11-5.54881E+08
 -1      1794 5.78284E+11-1.32605E+08 2.19697E+11 3.62039E+09 1.26475E+11-5.93362E+08
 -1      1795 5.45615E+11-1.86526E+08 2.07263E+11 3.86085E+09 1.19337E+11-6.29788E+08
 -1      1796 5.11054E+11-2.59078E+08 1.94102E+11 4.05601E+09 1.11787E+11-6.64035E+08
 -1      1797 4.74646E+11-1.17970E+08 1.80321E+11 4.25606E+09 1.03851E+11-6.95983E+08
 -1      1798 4.36635E+11-1.34334E+08 1.65870E+11 4.44298E+09 9.55555E+10-7.25518E+08
 -1      1799 3.97091E+11-1.65131E+08 1.50832E+11 4.60717E+09 8.69304E+10-7.52539E+08
 -1      1800 3.56161E+11-1.38287E+08 1.35289E+11 4.76118E+09 7.80051E+10-7.76952E+08
 -1      1801 3.13979E+11-9.92754E+07 1.19274E+11 4.88578E+09 6.88107E+10-7.98672E+08
 -1      1802 2.70691E+11-6.64613E+07 1.02837E+11 5.01000E+09 5.93789E+10-8.17621E+08
 -1      1803 2.26489E+11-1.21800E+08 8.60194E+10 5.10726E+09 4.97424E+10-8.33734E+08
 -1      1804 1.81464E+11-4.03465E+07 6.89411E+10 5.18850E+09 3.99348E+10-8.46972E+08
 -1      1805 1.35826E+11-4.36370E+07 5.15971E+10 5.25513E+09 2.99900E+10-8.57287E+08
 -1      1806 8.97007E+10-4.84338E+07 3.40678E+10 5.29695E+09 1.99426E+10-8.64611E+08
 -1      1807 4.32354E+10-5.54609E+06 1.64273E+10 5.32568E+09 9.82740E+09-8.68919E+08
 -1      1808-3.37035E+09-3.95857E+06-1.28224E+09 5.33421E+09-3.20542E+08-8.70210E+08
 -1      1809-4.99817E+10 1.83667E+07-1.89861E+10 5.32360E+09-1.04659E+10-8.68480E+08
 -1      1810-9.64159E+10 2.66854E+07-3.66279E+10 5.29500E+09-2.05735E+10-8.63734E+08
 -1      1811-1.42540E+11 6.69497E+07-5.41397E+10 5.24670E+09-3.06082E+10-8.55989E+08
 -1      1812-1.88155E+11 5.56412E+07-7.14777E+10 5.18707E+09-4.05351E+10-8.45271E+08
 -1      1813-2.33127E+11 5.47427E+07-8.85675E+10 5.09898E+09-5.03198E+10-8.31616E+08
 -1      1814-2.77321E+11 1.47103E+08-1.05326E+11 4.99933E+09-5.99283E+10-8.15072E+08
 -1      1815-3.20516E+11 7.78005E+07-1.21767E+11 4.88355E+09-6.93273E+10-7.95696E+08
 -1      1816-3.62646E+11 1.11077E+08-1.37763E+11 4.74054E+09-7.84840E+10-7.73555E+08
 -1      1817-4.03511E+11 1.58501E+08-1.53274E+11 4.59979E+09-8.73666E+10-7.48723E+08
 -1      1818-4.42977E+11 1.74021E+08-1.68265E+11 4.42748E+09-9.59442E+10-7.21289E+08
 -1      1819-4.80907E+11 1.82260E+08-1.82675E+11 4.24745E+09-1.04187E+11-6.91346E+08
 -1      1820-5.17178E+11 9.77638E+07-1.96490E+11 4.04226E+09-1.12067E+11-6.58999E+08
 -1      1821-5.51703E+11 2.53524E+08-2.09551E+11 3.83323E+09-1.19555E+11-6.24356E+08
 -1      1822-5.84266E+11 1.94912E+08-2.21947E+11 3.62152E+09-1.26627E+11-5.87540E+08
 -1      1823-6.14809E+11 1.65397E+08-2.33565E+11 3.37045E+09-1.33257E+11-5.48679E+08
 -1      1824-6.43280E+11 2.59023E+08-2.44348E+11 3.12512E+09-1.39422E+11-5.07905E+08
 -1      1825-6.69496E+11 2.83183E+08-2.54301E+11 2.86514E+09-1.45101E+11-4.65358E+08
 -1      1826-6.93363E+11 1.85191E+08-2.63408E+11 2.59974E+09-1.50274E+11-4.21189E+08
 -1      1827-7.14898E+11 2.16736E+08-2.71579E+11 2.30521E+09-1.54923E+11-3.75549E+08
 -1      1828-7.33940E+11 2.95900E+08-2.78785E+11 2.03936E+09-1.59032E+11-3.28593E+08
 -1      1829-7.50425E+11 2.94243E+08-2.85050E+11 1.73671E+09-1.62586E+11-2.80486E+08
 -1      1830-7.64325E+11 2.40741E+08-2.90352E+11 1.44234E+09-1.65573E+11-2.31395E+08
 -1      1831-7.75574E+11 1.89975E+08-2.94646E+11 1.12847E+09-1.67983E+11-1.81488E+08
 -1      1832-7.84215E+11 3.89384E+08-2.97854E+11 8.16450E+08-1.69806E+11-1.30937E+08
 -1      1833-7.90059E+11 2.67499E+08-3.00121E+11 5.26970E+08-1.71036E+11-7.99164E+07
 -1      1834-7.93189E+11 1.79586E+08-3.01344E+11 1.92597E+08-1.71670E+11-2.86051E+07
 -1      1835-7.93643E+11 2.85401E+08-3.01476E+11-1.06853E+08-1.71704E+11 2.28227E+07
 -1      1836-7.91291E+11 3.59902E+08-3.00554E+11-4.26576E+08-1.71138E+11 7.41888E+07
 -1      1837-7.86249E+11 2.31156E+08-2.98687E+11-7.39972E+08-1.69974E+11 1.25315E+08
 -1      1838-7.78478E+11 2.02620E+08-2.95745E+11-1.03973E+09-1.68215E+11 1.76026E+08
 -1      1839-7.68040E+11 3.81579E+08-2.91710E+11-1.35079E+09-1.65869E+11 2.26146E+08
 -1      1840-7.54937E+11 2.07765E+08-2.86797E+11-1.64488E+09-1.62942E+11 2.75504E+08
 -1      1841-7.39224E+11 2.01921E+08-2.80828E+11-1.94798E+09-1.59444E+11 3.23928E+08
 -1      1842-7.21033E+11 3.01098E+08-2.73878E+11-2.23948E+09-1.55388E+11 3.71252E+08
 -1      1843-7.00320E+11 2.82972E+08-2.66014E+11-2.50201E+09-1.50787E+11 4.17316E+08
 -1      1844-6.77162E+11 1.81971E+08-2.57253E+11-2.77689E+09-1.45656E+11 4.61958E+08
 -1      1845-6.51741E+11 1.96202E+08-2.47587E+11-3.04527E+09-1.40014E+11 5.05026E+08
 -1      1846-6.24083E+11 2.46856E+08-2.37058E+11-3.29097E+09-1.33879E+11 5.46373E+08
 -1      1847-5.94259E+11 2.63151E+08-2.25718E+11-3.52991E+09-1.27273E+11 5.85857E+08
 -1      1848-5.62428E+11 1.37310E+08-2.13671E+11-3.76151E+09-1.20217E+11 6.23344E+08
 -1      1849-5.28673E+11 1.07258E+08-2.00855E+11-3.96109E+09-1.12737E+11 6.58704E+08
 -1      1850-4.93123E+11 2.81903E+08-1.87280E+11-4.16693E+09-1.04856E+11 6.91818E+08
 -1      1851-4.55892E+11 1.07006E+08-1.73198E+11-4.34677E+09-9.66035E+10 7.22574E+08
 -1      1852-4.17117E+11 1.18579E+08-1.58459E+11-4.52064E+09-8.80061E+10 7.50866E+08
 -1      1853-3.76971E+11 1.55706E+08-1.43190E+11-4.67466E+09-7.90934E+10 7.76600E+08
 -1      1854-3.35538E+11 1.25113E+08-1.27457E+11-4.80209E+09-6.98958E+10 7.99690E+08
 -1      1855-2.92976E+11 8.03287E+07-1.11300E+11-4.92346E+09-6.04446E+10 8.20059E+08
 -1      1856-2.49475E+11 6.18758E+07-9.47769E+10-5.02764E+09-5.07720E+10 8.37638E+08
 -1      1857-2.05161E+11 9.82716E+07-7.79240E+10-5.10985E+09-4.09108E+10 8.52370E+08
 -1      1858-1.60185E+11 3.46571E+07-6.08572E+10-5.17610E+09-3.08946E+10 8.64210E+08
 -1      1859-1.14724E+11 2.63907E+07-4.35851E+10-5.22147E+09-2.07574E+10 8.73118E+08
 -1      1860-6.89282E+10 2.86229E+07-2.61818E+10-5.25045E+09-1.05334E+10 8.79068E+08
 -1      1861-2.29647E+10-1.00424E+07-8.73039E+09-5.25984E+09-2.57251E+08 8.82045E+08
 -1      1862 2.29998E+10-8.25495E+06 8.73680E+09-5.25151E+09 1.00362E+10 8.82044E+08
 -1      1863 6.88096E+10-2.92530E+07 2.61365E+10-5.22308E+09 2.03123E+10 8.79067E+08
 -1      1864 1.14291E+11-5.11518E+07 4.34111E+10-5.17782E+09 3.05363E+10 8.73130E+08
 -1      1865 1.59289E+11-8.07936E+07 6.04992E+10-5.11107E+09 4.06740E+10 8.64263E+08
 -1      1866 2.03631E+11-6.85442E+07 7.73538E+10-5.02923E+09 5.06914E+10 8.52500E+08
 -1      1867 2.47172E+11-7.71190E+07 9.38961E+10-4.92500E+09 6.05548E+10 8.37888E+08
 -1      1868 2.89748E+11-1.55447E+08 1.10045E+11-4.80608E+09 7.02314E+10 8.20486E+08
 -1      1869 3.31201E+11-1.01078E+08 1.25818E+11-4.66829E+09 7.96891E+10 8.00361E+08
 -1      1870 3.71382E+11-1.28100E+08 1.41076E+11-4.51833E+09 8.88963E+10 7.77589E+08
 -1      1871 4.10143E+11-1.67296E+08 1.55791E+11-4.34463E+09 9.78230E+10 7.52260E+08
 -1      1872 4.47363E+11-2.07525E+08 1.69919E+11-4.15851E+09 1.06440E+11 7.24467E+08
 -1      1873 4.82841E+11-1.52996E+08 1.83421E+11-3.95937E+09 1.14718E+11 6.94320E+08
 -1      1874 5.16538E+11-1.44899E+08 1.96230E+11-3.73175E+09 1.22632E+11 6.61930E+08
 -1      1875 5.48278E+11-3.42746E+08 2.08215E+11-3.51473E+09 1.30155E+11 6.27419E+08
 -1      1876 5.77888E+11-1.25562E+08 2.19550E+11-3.26582E+09 1.37264E+11 5.90921E+08
 -1      1877 6.05360E+11-1.79215E+08 2.29969E+11-3.00916E+09 1.43937E+11 5.52572E+08
 -1      1878 6.30517E+11-3.02890E+08 2.39481E+11-2.73878E+09 1.50151E+11 5.12517E+08
 -1      1879 6.53308E+11-2.84608E+08 2.48149E+11-2.45290E+09 1.55890E+11 4.70909E+08
 -1      1880 6.73570E+11-2.25157E+08 2.55871E+11-2.18360E+09 1.61134E+11 4.27906E+08
 -1      1881 6.91264E+11-2.17230E+08 2.62598E+11-1.86832E+09 1.65870E+11 3.83673E+08
 -1      1882 7.06359E+11-3.18846E+08 2.68295E+11-1.56617E+09 1.70083E+11 3.38377E+08
 -1      1883 7.18701E+11-3.13579E+08 2.72987E+11-1.25133E+09 1.73762E+11 2.92192E+08
 -1      1884 7.28282E+11-2.46265E+08 2.76653E+11-9.28726E+08 1.76898E+11 2.45296E+08
 -1      1885 7.35049E+11-2.28612E+08 2.79232E+11-6.12157E+08 1.79484E+11 1.97871E+08
 -1      1886 7.38950E+11-4.05012E+08 2.80647E+11-2.76394E+08 1.81514E+11 1.50100E+08
 -1      1887 7.39942E+11-2.31918E+08 2.81090E+11 5.02907E+07 1.82986E+11 1.02171E+08
 -1      1888 7.38028E+11-2.47169E+08 2.80357E+11 3.93550E+08 1.83898E+11 5.42717E+07
 -1      1889 7.33181E+11-3.80543E+08 2.78464E+11 7.27380E+08 1.84253E+11 6.59136E+06
 -1      1890 7.25424E+11-2.98636E+08 2.75548E+11 1.07297E+09 1.84054E+11-4.06802E+07
 -1      1891 7.14678E+11-2.19041E+08 2.71494E+11 1.37956E+09 1.83307E+11-8.73522E+07
 -1      1892 7.01015E+11-2.71027E+08 2.66283E+11 1.73541E+09 1.82019E+11-1.33233E+08
 -1      1893 6.84514E+11-4.01671E+08 2.59963E+11 2.06017E+09 1.80202E+11-1.78136E+08
 -1      1894 6.65047E+11-2.14780E+08 2.52636E+11 2.38412E+09 1.77867E+11-2.21873E+08
 -1      1895 6.42809E+11-2.51047E+08 2.44172E+11 2.71961E+09 1.75030E+11-2.64259E+08
 -1      1896 6.17780E+11-3.22159E+08 2.34634E+11 3.01786E+09 1.71708E+11-3.05112E+08
 -1      1897 5.89964E+11-2.81438E+08 2.24079E+11 3.33575E+09 1.67918E+11-3.44253E+08
 -1      1898 5.59508E+11-2.46303E+08 2.12519E+11 3.63405E+09 1.63683E+11-3.81505E+08
 -1      1899 5.26415E+11-2.12849E+08 1.99957E+11 3.93495E+09 1.59024E+11-4.16698E+08
 -1      1900 4.90829E+11-2.83465E+08 1.86407E+11 4.22274E+09 1.53968E+11-4.49664E+08
 -1      1901 4.52763E+11-2.55534E+08 1.71953E+11 4.48756E+09 1.48542E+11-4.80243E+08
 -1      1902 4.12295E+11-2.25874E+08 1.56586E+11 4.75681E+09 1.42773E+11-5.08278E+08
 -1      1903 3.69599E+11-1.74295E+08 1.40381E+11 5.01761E+09 1.36692E+11-5.33617E+08
 -1      1904 3.24705E+11-2.34258E+08 1.23299E+11 5.25517E+09 1.30333E+11-5.56117E+08
 -1      1905 2.77731E+11-2.04054E+08 1.05460E+11 5.49041E+09 1.23728E+11-5.75640E+08
 -1      1906 2.28778E+11-1.62748E+08 8.68738E+10 5.70619E+09 1.16913E+11-5.92054E+08
 -1      1907 1.77976E+11-2.00452E+08 6.75548E+10 5.91456E+09 1.09926E+11-6.05234E+08
 -1      1908 1.25398E+11-1.55273E+08 4.75921E+10 6.10774E+09 1.02804E+11-6.15065E+08
 -1      1909 7.12090E+10-1.61391E+08 2.69981E+10 6.28869E+09 9.55874E+10-6.21435E+08
 -1      1910 1.54569E+10-1.23730E+08 5.82660E+09 6.45631E+09 8.83173E+10-6.24242E+08
 -1      1911-4.16522E+10-1.55913E+08-1.58871E+10 6.61016E+09 8.10357E+10-6.23391E+08
 -1      1912-1.00126E+11-7.75069E+07-3.80773E+10 6.75230E+09 7.37858E+10-6.18795E+08
 -1      1913-1.59676E+11-1.48058E+08-6.07332E+10 6.88045E+09 6.66117E+10-6.10373E+08
 -1      1914-2.20416E+11-7.31695E+07-8.37858E+10 6.99249E+09 5.95586E+10-5.98053E+08
 -1      1915-2.81957E+11-9.80262E+07-1.07181E+11 7.09577E+09 5.26722E+10-5.81769E+08
 -1      1916-3.44525E+11-8.23303E+06-1.30923E+11 7.18313E+09 4.59992E+10-5.61465E+08
 -1      1917-4.07583E+11-1.82620E+08-1.54951E+11 7.26576E+09 3.95867E+10-5.37088E+08
 -1      1918-4.71586E+11 3.36325E+07-1.79190E+11 7.33144E+09 3.34826E+10-5.08593E+08
 -1      1919-5.35733E+11-9.53900E+07-2.03615E+11 7.38548E+09 2.77351E+10-4.75944E+08
 -1      1920-6.00807E+11 7.62281E+07-2.28278E+11 7.43208E+09 2.23929E+10-4.39109E+08
 -1      1921-6.65603E+11-2.38611E+08-2.53020E+11 7.45669E+09 1.75049E+10-3.98063E+08
 -1      1922-7.31572E+11 1.09911E+08-2.77956E+11 7.50381E+09 1.31205E+10-3.52782E+08
 -1      1923-7.96560E+11 6.00164E+08-3.02465E+11 7.50503E+09 9.28909E+09-3.03253E+08
 -1      1924-8.63056E+11-3.46551E+09-3.29278E+11 7.57795E+09 6.06034E+09-2.49467E+08
 -1      1925-9.28506E+11 1.36225E+10-3.47656E+11 7.32402E+09 3.48394E+09-1.91402E+08
 -1      1926-9.93624E+11-5.07115E+10-3.96847E+11 8.31870E+09 1.60981E+09-1.29102E+08
 -1      1927-1.06568E+12 1.86221E+11-3.34195E+11 4.65655E+09 4.87830E+08-6.23835E+07
 -1      1928-1.10193E+12-6.75051E+11-6.75254E+11 1.80303E+10 1.20970E+08-2.78632E+07
 -1      1929-1.22110E+09-6.07127E+08-6.94725E+08-5.54254E+07-2.36616E+11 1.84737E+09
 -1      1930-5.05448E+09-5.58089E+08-2.13278E+09 2.75419E+08-2.29432E+11 1.84725E+09
 -1      1931-1.61244E+10-5.53854E+08-6.33775E+09 5.24066E+08-2.15066E+11 1.84674E+09
 -1      1932-3.40324E+10-4.84305E+08-1.31164E+10 7.64454E+08-2.00706E+11 1.84552E+09
 -1      1933-5.83609E+10-4.63315E+08-2.23532E+10 9.82640E+08-1.86359E+11 1.84328E+09
 -1      1934-8.86129E+10-4.49671E+08-3.38438E+10 1.18867E+09-1.72035E+11 1.83971E+09
 -1      1935-1.24387E+11-3.75284E+08-4.74098E+10 1.37575E+09-1.57745E+11 1.83453E+09
 -1      1936-1.65150E+11-3.59757E+08-6.28937E+10 1.54515E+09-1.43502E+11 1.82749E+09
 -1      1937-2.10533E+11-3.44953E+08-8.01334E+10 1.70514E+09-1.29321E+11 1.81836E+09
 -1      1938-2.60014E+11-1.98318E+08-9.88807E+10 1.83916E+09-1.15221E+11 1.80692E+09
 -1      1939-3.13167E+11-4.02318E+08-1.19156E+11 1.97012E+09-1.01219E+11 1.79300E+09
 -1      1940-3.69594E+11-9.33667E+07-1.40481E+11 2.06737E+09-8.73358E+10 1.77640E+09
 -1      1941-4.28744E+11-2.39403E+08-1.63014E+11 2.16690E+09-7.35924E+10 1.75699E+09
 -1      1942-4.90276E+11-1.82603E+08-1.86374E+11 2.23538E+09-6.00113E+10 1.73465E+09
 -1      1943-5.53753E+11 1.40976E+08-2.10373E+11 2.31022E+09-4.66157E+10 1.70928E+09
 -1      1944-6.18641E+11-5.20185E+08-2.35281E+11 2.34605E+09-3.34295E+10 1.68078E+09
 -1      1945-6.84655E+11 2.51004E+08-2.60074E+11 2.36881E+09-2.04774E+10 1.64910E+09
 -1      1946-7.51337E+11-1.15988E+08-2.85552E+11 2.40164E+09-7.78413E+09 1.61419E+09
 -1      1947-8.18195E+11 3.86465E+06-3.10913E+11 2.38008E+09 4.62497E+09 1.57604E+09
 -1      1948-8.84987E+11 2.20623E+08-3.36211E+11 2.40125E+09 1.67247E+10 1.53464E+09
 -1      1949-9.51173E+11-2.37998E+08-3.61536E+11 2.34171E+09 2.84898E+10 1.49001E+09
 -1      1950-1.01650E+12 3.02894E+08-3.86154E+11 2.32491E+09 3.98952E+10 1.44218E+09
 -1      1951-1.08059E+12 5.84319E+07-4.10601E+11 2.25778E+09 5.09164E+10 1.39121E+09
 -1      1952-1.14294E+12 2.43711E+08-4.34224E+11 2.20250E+09 6.15291E+10 1.33716E+09
 -1      1953-1.20344E+12 1.14861E+08-4.57262E+11 2.13173E+09 7.17098E+10 1.28012E+09
 -1      1954-1.26159E+12 1.31161E+08-4.79354E+11 2.02815E+09 8.14355E+10 1.22020E+09
 -1      1955-1.31717E+12 2.92236E+08-5.00414E+11 1.94160E+09 9.06843E+10 1.15752E+09
 -1      1956-1.36987E+12 3.32309E+08-5.20426E+11 1.82707E+09 9.94353E+10 1.09220E+09
 -1      1957-1.41935E+12 1.91405E+08-5.39278E+11 1.71869E+09 1.07668E+11 1.02440E+09
 -1      1958-1.46543E+12 1.87806E+08-5.56791E+11 1.57752E+09 1.15365E+11 9.54282E+08
 -1      1959-1.50786E+12 4.37461E+08-5.72821E+11 1.44983E+09 1.22508E+11 8.82007E+08
 -1      1960-1.54634E+12 2.51929E+08-5.87514E+11 1.30027E+09 1.29081E+11 8.07765E+08
 -1      1961-1.58069E+12 4.71323E+08-6.00484E+11 1.15637E+09 1.35069E+11 7.31753E+08
 -1      1962-1.61078E+12 2.27177E+08-6.12011E+11 1.00329E+09 1.40460E+11 6.54176E+08
 -1      1963-1.63637E+12 3.76633E+08-6.21678E+11 8.26594E+08 1.45242E+11 5.75245E+08
 -1      1964-1.65732E+12 4.30269E+08-6.29619E+11 6.72050E+08 1.49405E+11 4.95181E+08
 -1      1965-1.67351E+12 1.80447E+08-6.35865E+11 4.83400E+08 1.52943E+11 4.14215E+08
 -1      1966-1.68485E+12 6.77423E+08-6.39984E+11 3.18860E+08 1.55847E+11 3.32580E+08
 -1      1967-1.69119E+12 2.54486E+08-6.42554E+11 1.40112E+08 1.58115E+11 2.50515E+08
 -1      1968-1.69246E+12 2.90432E+08-6.43024E+11-4.91506E+07 1.59744E+11 1.68266E+08
 -1      1969-1.68869E+12 5.43804E+08-6.41494E+11-2.31332E+08 1.60733E+11 8.60773E+07
 -1      1970-1.67978E+12 3.65590E+08-6.38179E+11-4.08180E+08 1.61084E+11 4.19613E+06
 -1      1971-1.66572E+12 3.84450E+08-6.32829E+11-5.97763E+08 1.60800E+11-7.71266E+07
 -1      1972-1.64652E+12 5.05443E+08-6.25485E+11-7.77597E+08 1.59886E+11-1.57641E+08
 -1      1973-1.62225E+12 3.15322E+08-6.16336E+11-9.50619E+08 1.58350E+11-2.37099E+08
 -1      1974-1.59293E+12 2.76084E+08-6.05208E+11-1.14864E+09 1.56201E+11-3.15253E+08
 -1      1975-1.55860E+12 5.37534E+08-5.92063E+11-1.31560E+09 1.53450E+11-3.91860E+08
 -1      1976-1.51939E+12 2.61576E+08-5.77267E+11-1.49183E+09 1.50110E+11-4.66680E+08
 -1      1977-1.47542E+12 5.97981E+08-5.60431E+11-1.65236E+09 1.46196E+11-5.39479E+08
 -1      1978-1.42675E+12 1.94943E+08-5.42092E+11-1.81583E+09 1.41724E+11-6.10026E+08
 -1      1979-1.37354E+12 1.47606E+08-5.21889E+11-1.99196E+09 1.36712E+11-6.78095E+08
 -1      1980-1.31604E+12 5.67906E+08-4.99881E+11-2.13595E+09 1.31182E+11-7.43474E+08
 -1      1981-1.25432E+12 2.17456E+08-4.76558E+11-2.28248E+09 1.25154E+11-8.05955E+08
 -1      1982-1.18859E+12 4.06936E+08-4.51510E+11-2.41712E+09 1.18652E+11-8.65338E+08
 -1      1983-1.11909E+12 1.96774E+08-4.25181E+11-2.54927E+09 1.11701E+11-9.21434E+08
 -1      1984-1.04604E+12 2.01080E+08-3.97419E+11-2.67642E+09 1.04327E+11-9.74065E+08
 -1      1985-9.69673E+11 3.26634E+08-3.68352E+11-2.79199E+09 9.65581E+10-1.02306E+09
 -1      1986-8.90185E+11 1.96449E+08-3.38196E+11-2.89364E+09 8.84223E+10-1.06827E+09
 -1      1987-8.07903E+11 1.95738E+08-3.06929E+11-2.99014E+09 7.99500E+10-1.10955E+09
 -1      1988-7.23086E+11 2.16060E+08-2.74690E+11-3.07534E+09 7.11724E+10-1.14677E+09
 -1      1989-6.35971E+11 1.30352E+08-2.41620E+11-3.15189E+09 6.21215E+10-1.17980E+09
 -1      1990-5.46877E+11 7.76248E+07-2.07784E+11-3.22102E+09 5.28303E+10-1.20856E+09
 -1      1991-4.56120E+11 1.88778E+08-1.73254E+11-3.27212E+09 4.33324E+10-1.23294E+09
 -1      1992-3.63970E+11 4.34445E+07-1.38292E+11-3.31708E+09 3.36620E+10-1.25288E+09
 -1      1993-2.70732E+11 5.69610E+07-1.02857E+11-3.35077E+09 2.38540E+10-1.26830E+09
 -1      1994-1.76754E+11 4.82343E+07-6.71481E+10-3.37188E+09 1.39437E+10-1.27918E+09
 -1      1995-8.23181E+10-2.79877E+06-3.12819E+10-3.38191E+09 3.96666E+09-1.28548E+09
 -1      1996 1.22337E+10-6.80430E+06 4.64620E+09-3.37978E+09-6.04153E+09-1.28718E+09
 -1      1997 1.06598E+11-3.25443E+07 4.04949E+10-3.36641E+09-1.60451E+10-1.28430E+09
 -1      1998 2.00455E+11-9.37617E+07 7.61374E+10-3.34334E+09-2.60085E+10-1.27683E+09
 -1      1999 2.93473E+11-6.92806E+07 1.11493E+11-3.30883E+09-3.58961E+10-1.26483E+09
 -1      2000 3.85351E+11-8.96381E+07 1.46399E+11-3.26104E+09-4.56727E+10-1.24833E+09
 -1      2001 4.75768E+11-1.72539E+08 1.80726E+11-3.20131E+09-5.53038E+10-1.22740E+09
 -1      2002 5.64435E+11-1.29080E+08 2.14436E+11-3.13569E+09-6.47551E+10-1.20211E+09
 -1      2003 6.51027E+11-2.61568E+08 2.47291E+11-3.05366E+09-7.39931E+10-1.17257E+09
 -1      2004 7.35250E+11-1.34876E+08 2.79344E+11-2.97023E+09-8.29850E+10-1.13887E+09
 -1      2005 8.16821E+11-2.53049E+08 3.10296E+11-2.86211E+09-9.16991E+10-1.10115E+09
 -1      2006 8.95515E+11-2.48887E+08 3.40201E+11-2.76348E+09-1.00105E+11-1.05952E+09
 -1      2007 9.70977E+11-2.17242E+08 3.68889E+11-2.63041E+09-1.08172E+11-1.01415E+09
 -1      2008 1.04296E+12-3.20435E+08 3.96204E+11-2.50862E+09-1.15872E+11-9.65197E+08
 -1      2009 1.11133E+12-3.89340E+08 4.22156E+11-2.37516E+09-1.23178E+11-9.12831E+08
 -1      2010 1.17570E+12-2.64609E+08 4.46666E+11-2.22999E+09-1.30064E+11-8.57239E+08
 -1      2011 1.23594E+12-2.48143E+08 4.69563E+11-2.07501E+09-1.36505E+11-7.98618E+08
 -1      2012 1.29183E+12-4.72555E+08 4.90717E+11-1.91152E+09-1.42480E+11-7.37173E+08
 -1      2013 1.34320E+12-2.95141E+08 5.10303E+11-1.75437E+09-1.47966E+11-6.73121E+08
 -1      2014 1.38983E+12-5.21182E+08 5.27939E+11-1.57679E+09-1.52945E+11-6.06686E+08
 -1      2015 1.43154E+12-2.83290E+08 5.43877E+11-1.40649E+09-1.57398E+11-5.38105E+08
 -1      2016 1.46830E+12-3.19864E+08 5.57833E+11-1.21952E+09-1.61311E+11-4.67617E+08
 -1      2017 1.49991E+12-5.45981E+08 5.69757E+11-1.02725E+09-1.64668E+11-3.95465E+08
 -1      2018 1.52620E+12-3.08322E+08 5.79840E+11-8.45775E+08-1.67459E+11-3.21907E+08
 -1      2019 1.54721E+12-6.84097E+08 5.87680E+11-6.51644E+08-1.69673E+11-2.47198E+08
 -1      2020 1.56280E+12-2.26361E+08 5.93779E+11-4.73680E+08-1.71302E+11-1.71599E+08
 -1      2021 1.57292E+12-2.40202E+08 5.97620E+11-2.46803E+08-1.72341E+11-9.53769E+07
 -1      2022 1.57753E+12-6.98388E+08 5.99197E+11-6.02958E+07-1.72785E+11-1.87948E+07
 -1      2023 1.57664E+12-3.03800E+08 5.99006E+11 1.33243E+08-1.72633E+11 5.78775E+07
 -1      2024 1.57028E+12-5.76433E+08 5.96488E+11 3.26351E+08-1.71885E+11 1.34373E+08
 -1      2025 1.55839E+12-3.45790E+08 5.92056E+11 5.22905E+08-1.70544E+11 2.10426E+08
 -1      2026 1.54104E+12-2.94449E+08 5.85482E+11 7.22787E+08-1.68614E+11 2.85766E+08
 -1      2027 1.51840E+12-5.57278E+08 5.76780E+11 9.09572E+08-1.66101E+11 3.60135E+08
 -1      2028 1.49040E+12-3.75906E+08 5.66209E+11 1.10055E+09-1.63015E+11 4.33274E+08
 -1      2029 1.45718E+12-3.66845E+08 5.53590E+11 1.27912E+09-1.59365E+11 5.04924E+08
 -1      2030 1.41893E+12-4.96330E+08 5.39007E+11 1.46199E+09-1.55164E+11 5.74838E+08
 -1      2031 1.37571E+12-3.03211E+08 5.22654E+11 1.62749E+09-1.50428E+11 6.42772E+08
 -1      2032 1.32770E+12-2.44830E+08 5.04434E+11 1.81025E+09-1.45171E+11 7.08486E+08
 -1      2033 1.27504E+12-5.59450E+08 4.84303E+11 1.96763E+09-1.39413E+11 7.71754E+08
 -1      2034 1.21795E+12-1.97092E+08 4.62745E+11 2.11588E+09-1.33172E+11 8.32356E+08
 -1      2035 1.15663E+12-3.40903E+08 4.39391E+11 2.27249E+09-1.26472E+11 8.90079E+08
 -1      2036 1.09124E+12-3.29394E+08 4.14547E+11 2.41006E+09-1.19334E+11 9.44721E+08
 -1      2037 1.02204E+12-1.71119E+08 3.88311E+11 2.54394E+09-1.11784E+11 9.96092E+08
 -1      2038 9.49332E+11-3.69166E+08 3.60606E+11 2.66439E+09-1.03848E+11 1.04401E+09
 -1      2039 8.73269E+11-1.88779E+08 3.31771E+11 2.77955E+09-9.55527E+10 1.08832E+09
 -1      2040 7.94154E+11-2.80379E+08 3.01672E+11 2.87970E+09-8.69275E+10 1.12885E+09
 -1      2041 7.12280E+11-1.46594E+08 2.70611E+11 2.97535E+09-7.80022E+10 1.16547E+09
 -1      2042 6.27921E+11-1.33134E+08 2.38560E+11 3.06020E+09-6.88078E+10 1.19805E+09
 -1      2043 5.41373E+11-2.07752E+08 2.05643E+11 3.13469E+09-5.93760E+10 1.22647E+09
 -1      2044 4.52904E+11-9.39072E+07 1.72068E+11 3.19359E+09-4.97395E+10 1.25064E+09
 -1      2045 3.62870E+11-1.34707E+08 1.37839E+11 3.24372E+09-3.99320E+10 1.27049E+09
 -1      2046 2.71580E+11-5.02635E+07 1.03181E+11 3.28569E+09-2.99872E+10 1.28595E+09
 -1      2047 1.79294E+11-3.89404E+07 6.81167E+10 3.31322E+09-1.99398E+10 1.29693E+09
 -1      2048 8.64007E+10-4.26527E+07 3.28161E+10 3.33110E+09-9.82465E+09 1.30339E+09
 -1      2049-6.82240E+09 1.33991E+07-2.58742E+09 3.33548E+09 3.23264E+08 1.30532E+09
 -1      2050-1.00025E+11 1.10293E+07-3.80053E+10 3.32819E+09 1.04686E+10 1.30273E+09
 -1      2051-1.92901E+11 8.20929E+07-7.32712E+10 3.31060E+09 2.05761E+10 1.29561E+09
 -1      2052-2.85105E+11 5.39452E+07-1.08319E+11 3.28234E+09 3.06107E+10 1.28399E+09
 -1      2053-3.76354E+11 7.63600E+07-1.42986E+11 3.24137E+09 4.05375E+10 1.26791E+09
 -1      2054-4.66302E+11 1.68258E+08-1.77131E+11 3.18601E+09 5.03221E+10 1.24743E+09
 -1      2055-5.54625E+11 1.08463E+08-2.10716E+11 3.12486E+09 5.99305E+10 1.22261E+09
 -1      2056-6.41077E+11 2.46093E+08-2.43516E+11 3.05260E+09 6.93294E+10 1.19355E+09
 -1      2057-7.25282E+11 1.47853E+08-2.75551E+11 2.96804E+09 7.84860E+10 1.16034E+09
 -1      2058-8.06994E+11 1.66628E+08-3.06594E+11 2.87204E+09 8.73684E+10 1.12309E+09
 -1      2059-8.85920E+11 2.95869E+08-3.36537E+11 2.76275E+09 9.59459E+10 1.08194E+09
 -1      2060-9.61800E+11 2.82743E+08-3.65377E+11 2.65549E+09 1.04189E+11 1.03702E+09
 -1      2061-1.03435E+12 3.30494E+08-3.92929E+11 2.53277E+09 1.12068E+11 9.88497E+08
 -1      2062-1.10329E+12 1.45463E+08-4.19197E+11 2.39818E+09 1.19556E+11 9.36534E+08
 -1      2063-1.16847E+12 3.39569E+08-4.43888E+11 2.25349E+09 1.26628E+11 8.81310E+08
 -1      2064-1.22961E+12 3.91411E+08-4.67103E+11 2.10380E+09 1.33257E+11 8.23015E+08
 -1      2065-1.28645E+12 3.38683E+08-4.88721E+11 1.95160E+09 1.39423E+11 7.61852E+08
 -1      2066-1.33887E+12 3.31604E+08-5.08644E+11 1.78860E+09 1.45102E+11 6.98034E+08
 -1      2067-1.38670E+12 4.88987E+08-5.26759E+11 1.62290E+09 1.50275E+11 6.31778E+08
 -1      2068-1.42967E+12 3.07324E+08-5.43160E+11 1.44938E+09 1.54924E+11 5.63315E+08
 -1      2069-1.46773E+12 2.89563E+08-5.57627E+11 1.26538E+09 1.59032E+11 4.92883E+08
 -1      2070-1.50072E+12 5.41268E+08-5.70068E+11 1.07791E+09 1.62586E+11 4.20722E+08
 -1      2071-1.52854E+12 3.32650E+08-5.80720E+11 8.99765E+08 1.65573E+11 3.47083E+08
 -1      2072-1.55107E+12 5.77458E+08-5.89188E+11 7.03657E+08 1.67982E+11 2.72220E+08
 -1      2073-1.56819E+12 2.69635E+08-5.95810E+11 5.17924E+08 1.69805E+11 1.96394E+08
 -1      2074-1.57997E+12 4.64559E+08-6.00212E+11 3.17973E+08 1.71035E+11 1.19865E+08
 -1      2075-1.58629E+12 4.66144E+08-6.02614E+11 1.24033E+08 1.71668E+11 4.28950E+07
 -1      2076-1.58708E+12 2.54135E+08-6.02992E+11-7.70754E+07 1.71702E+11-3.42474E+07
 -1      2077-1.58243E+12 6.88157E+08-6.01060E+11-2.72663E+08 1.71136E+11-1.11297E+08
 -1      2078-1.57232E+12 2.84904E+08-5.97374E+11-4.53851E+08 1.69972E+11-1.87987E+08
 -1      2079-1.55679E+12 3.42873E+08-5.91451E+11-6.63154E+08 1.68213E+11-2.64053E+08
 -1      2080-1.53587E+12 5.34437E+08-5.83427E+11-8.51011E+08 1.65867E+11-3.39234E+08
 -1      2081-1.50970E+12 3.36254E+08-5.73560E+11-1.03001E+09 1.62940E+11-4.13270E+08
 -1      2082-1.47833E+12 5.24523E+08-5.61567E+11-1.22182E+09 1.59442E+11-4.85908E+08
 -1      2083-1.44182E+12 3.02085E+08-5.47778E+11-1.39103E+09 1.55385E+11-5.56896E+08
 -1      2084-1.40040E+12 2.78952E+08-5.32046E+11-1.57740E+09 1.50784E+11-6.25989E+08
 -1      2085-1.35420E+12 4.76141E+08-5.14416E+11-1.74195E+09 1.45653E+11-6.92952E+08
 -1      2086-1.30331E+12 3.39406E+08-4.95128E+11-1.90669E+09 1.40011E+11-7.57556E+08
 -1      2087-1.24795E+12 2.80069E+08-4.74114E+11-2.05789E+09 1.33876E+11-8.19576E+08
 -1      2088-1.18834E+12 4.90764E+08-4.51383E+11-2.21145E+09 1.27270E+11-8.78802E+08
 -1      2089-1.12468E+12 1.68920E+08-4.27312E+11-2.33800E+09 1.20214E+11-9.35033E+08
 -1      2090-1.05717E+12 1.49273E+08-4.01667E+11-2.49421E+09 1.12733E+11-9.88073E+08
 -1      2091-9.86045E+11 4.31387E+08-3.74533E+11-2.61022E+09 1.04853E+11-1.03774E+09
 -1      2092-9.11621E+11 1.75090E+08-3.46349E+11-2.71887E+09 9.65997E+10-1.08388E+09
 -1      2093-8.34097E+11 2.95487E+08-3.16845E+11-2.82830E+09 8.80021E+10-1.12631E+09
 -1      2094-7.53744E+11 1.46527E+08-2.86367E+11-2.91867E+09 7.90894E+10-1.16492E+09
 -1      2095-6.70893E+11 1.28102E+08-2.54890E+11-3.00928E+09 6.98918E+10-1.19955E+09
 -1      2096-5.85823E+11 2.12076E+08-2.22532E+11-3.08113E+09 6.04405E+10-1.23010E+09
 -1      2097-4.98807E+11 1.03722E+08-1.89507E+11-3.14389E+09 5.07679E+10-1.25647E+09
 -1      2098-4.10167E+11 1.26150E+08-1.55816E+11-3.19544E+09 4.09067E+10-1.27857E+09
 -1      2099-3.20241E+11 6.00948E+07-1.21669E+11-3.23519E+09 3.08905E+10-1.29633E+09
 -1      2100-2.29319E+11 3.50070E+07-8.71279E+10-3.26791E+09 2.07533E+10-1.30969E+09
 -1      2101-1.37737E+11 4.80729E+07-5.23216E+10-3.28270E+09 1.05293E+10-1.31861E+09
 -1      2102-4.58221E+10-7.56771E+06-1.74153E+10-3.28876E+09 2.53261E+08-1.32308E+09
 -1      2103 4.61063E+10-3.39556E+07 1.75075E+10-3.28413E+09-1.00402E+10-1.32307E+09
 -1      2104 1.37710E+11-3.26155E+07 5.23174E+10-3.26752E+09-2.03162E+10-1.31861E+09
 -1      2105 2.28667E+11-7.47543E+07 8.68650E+10-3.23596E+09-3.05402E+10-1.30970E+09
 -1      2106 3.18645E+11-1.10933E+08 1.21043E+11-3.19412E+09-4.06778E+10-1.29640E+09
 -1      2107 4.07337E+11-1.25979E+08 1.54740E+11-3.14318E+09-5.06950E+10-1.27875E+09
 -1      2108 4.94403E+11-1.40361E+08 1.87820E+11-3.07759E+09-6.05583E+10-1.25684E+09
 -1      2109 5.79532E+11-2.23448E+08 2.20137E+11-3.00353E+09-7.02348E+10-1.23073E+09
 -1      2110 6.62432E+11-1.63107E+08 2.51662E+11-2.92261E+09-7.96923E+10-1.20054E+09
 -1      2111 7.42789E+11-1.71223E+08 2.82195E+11-2.81910E+09-8.88994E+10-1.16639E+09
 -1      2112 8.20303E+11-3.14951E+08 3.11596E+11-2.71350E+09-9.78259E+10-1.12839E+09
 -1      2113 8.94690E+11-2.11547E+08 3.39902E+11-2.59677E+09-1.06442E+11-1.08670E+09
 -1      2114 9.65720E+11-3.83315E+08 3.66828E+11-2.47363E+09-1.14721E+11-1.04148E+09
 -1      2115 1.03305E+12-2.31567E+08 3.92471E+11-2.33771E+09-1.22634E+11-9.92891E+08
 -1      2116 1.09646E+12-3.19918E+08 4.16532E+11-2.18946E+09-1.30157E+11-9.41126E+08
 -1      2117 1.15578E+12-3.88692E+08 4.39049E+11-2.04446E+09-1.37266E+11-8.86377E+08
 -1      2118 1.21068E+12-2.18465E+08 4.59974E+11-1.87163E+09-1.43938E+11-8.28851E+08
 -1      2119 1.26098E+12-5.84225E+08 4.78949E+11-1.70895E+09-1.50153E+11-7.68767E+08
 -1      2120 1.30649E+12-2.78683E+08 4.96360E+11-1.53921E+09-1.55891E+11-7.06355E+08
 -1      2121 1.34706E+12-3.17919E+08 5.11762E+11-1.35433E+09-1.61135E+11-6.41851E+08
 -1      2122 1.38248E+12-5.41420E+08 5.25137E+11-1.15985E+09-1.65870E+11-5.75498E+08
 -1      2123 1.41258E+12-3.42552E+08 5.36651E+11-9.78116E+08-1.70083E+11-5.07553E+08
 -1      2124 1.43728E+12-5.72314E+08 5.45949E+11-7.76508E+08-1.73762E+11-4.38275E+08
 -1      2125 1.45645E+12-3.33659E+08 5.53325E+11-5.88551E+08-1.76898E+11-3.67931E+08
 -1      2126 1.46996E+12-3.75664E+08 5.58441E+11-3.68188E+08-1.79483E+11-2.96793E+08
 -1      2127 1.47773E+12-5.48785E+08 5.61330E+11-1.66430E+08-1.81513E+11-2.25136E+08
 -1      2128 1.47975E+12-4.49116E+08 5.62136E+11 3.57970E+07-1.82985E+11-1.53241E+08
 -1      2129 1.47592E+12-4.03435E+08 5.60697E+11 2.50531E+08-1.83897E+11-8.13908E+07
 -1      2130 1.46620E+12-6.74609E+08 5.56901E+11 4.57614E+08-1.84252E+11-9.86876E+06
 -1      2131 1.45061E+12-2.90544E+08 5.51123E+11 6.55947E+08-1.84053E+11 6.10382E+07
 -1      2132 1.42920E+12-2.75441E+08 5.42990E+11 8.83959E+08-1.83305E+11 1.31044E+08
 -1      2133 1.40190E+12-6.98385E+08 5.32457E+11 1.09542E+09-1.82017E+11 1.99868E+08
 -1      2134 1.36877E+12-3.33612E+08 5.20005E+11 1.29093E+09-1.80200E+11 2.67222E+08
 -1      2135 1.32996E+12-5.83029E+08 5.05163E+11 1.49401E+09-1.77865E+11 3.32828E+08
 -1      2136 1.28543E+12-3.42060E+08 4.88333E+11 1.69703E+09-1.75028E+11 3.96408E+08
 -1      2137 1.23530E+12-3.51800E+08 4.69282E+11 1.89654E+09-1.71705E+11 4.57687E+08
 -1      2138 1.17975E+12-5.27180E+08 4.48104E+11 2.09433E+09-1.67915E+11 5.16397E+08
 -1      2139 1.11881E+12-3.50668E+08 4.25016E+11 2.27494E+09-1.63679E+11 5.72276E+08
 -1      2140 1.05267E+12-4.86157E+08 3.99830E+11 2.46407E+09-1.59021E+11 6.25065E+08
 -1      2141 9.81421E+11-3.24309E+08 3.72817E+11 2.63660E+09-1.53965E+11 6.74516E+08
 -1      2142 9.05284E+11-2.93659E+08 3.43896E+11 2.81559E+09-1.48538E+11 7.20383E+08
 -1      2143 8.24434E+11-4.89197E+08 3.13099E+11 2.98041E+09-1.42769E+11 7.62433E+08
 -1      2144 7.38996E+11-2.69256E+08 2.80716E+11 3.13514E+09-1.36689E+11 8.00443E+08
 -1      2145 6.49203E+11-3.20288E+08 2.46575E+11 3.29303E+09-1.30329E+11 8.34193E+08
 -1      2146 5.55256E+11-3.38297E+08 2.10869E+11 3.43405E+09-1.23724E+11 8.63476E+08
 -1      2147 4.57378E+11-2.39196E+08 1.73713E+11 3.57282E+09-1.16909E+11 8.88096E+08
 -1      2148 3.55741E+11-3.21266E+08 1.35060E+11 3.70268E+09-1.09922E+11 9.07866E+08
 -1      2149 2.50635E+11-2.38430E+08 9.51507E+10 3.81866E+09-1.02800E+11 9.22610E+08
 -1      2150 1.42209E+11-2.50254E+08 5.39445E+10 3.93670E+09-9.55836E+10 9.32164E+08
 -1      2151 3.07834E+10-2.01902E+08 1.16210E+10 4.03430E+09-8.83136E+10 9.36374E+08
 -1      2152-8.35237E+10-2.15798E+08-3.18210E+10 4.14169E+09-8.10321E+10 9.35097E+08
 -1      2153-2.00328E+11-1.87121E+08-7.61958E+10 4.21576E+09-7.37824E+10 9.28202E+08
 -1      2154-3.19605E+11-1.61330E+08-1.21511E+11 4.31175E+09-6.66085E+10 9.15567E+08
 -1      2155-4.40860E+11-1.44562E+08-1.67582E+11 4.36032E+09-5.95554E+10 8.97085E+08
 -1      2156-5.64188E+11-1.17546E+08-2.14436E+11 4.45318E+09-5.26692E+10 8.72658E+08
 -1      2157-6.88976E+11-5.96156E+07-2.61833E+11 4.47662E+09-4.59964E+10 8.42200E+08
 -1      2158-8.15534E+11-2.38012E+08-3.09993E+11 4.57363E+09-3.95842E+10 8.05633E+08
 -1      2159-9.42964E+11-1.42260E+07-3.58332E+11 4.54367E+09-3.34804E+10 7.62889E+08
 -1      2160-1.07194E+12-1.19984E+08-4.07383E+11 4.65991E+09-2.77331E+10 7.13914E+08
 -1      2161-1.20121E+12 1.04961E+08-4.56421E+11 4.58915E+09-2.23912E+10 6.58660E+08
 -1      2162-1.33198E+12-1.15448E+08-5.06194E+11 4.74641E+09-1.75036E+10 5.97087E+08
 -1      2163-1.46225E+12-4.19021E+08-5.55815E+11 4.59145E+09-1.31196E+10 5.29167E+08
 -1      2164-1.59421E+12 1.48098E+09-6.05238E+11 4.79233E+09-9.28854E+09 4.54872E+08
 -1      2165-1.72543E+12-5.53539E+09-6.57766E+11 4.65635E+09-6.06031E+09 3.74188E+08
 -1      2166-1.85611E+12 2.06377E+10-6.97480E+11 4.48099E+09-3.48427E+09 2.87090E+08
 -1      2167-1.99501E+12-7.60777E+10-7.87013E+11 6.06709E+09-1.61075E+09 1.93632E+08
 -1      2168-2.09765E+12 2.79118E+11-6.91043E+11-8.81621E+08-4.89190E+08 9.35758E+07
 -1      2169-2.13046E+12-1.01302E+12-1.19452E+12 2.45715E+10-1.21939E+08 4.18178E+07
 -1      2170-1.22110E+09-6.07127E+08-6.94724E+08-5.54250E+07 2.36616E+11-1.84737E+09
 -1      2171-5.05448E+09-5.58088E+08-2.13278E+09 2.75419E+08 2.29432E+11-1.84725E+09
 -1      2172-1.61244E+10-5.53853E+08-6.33775E+09 5.24067E+08 2.15066E+11-1.84674E+09
 -1      2173-3.40324E+10-4.84304E+08-1.31164E+10 7.64454E+08 2.00706E+11-1.84552E+09
 -1      2174-5.83609E+10-4.63315E+08-2.23532E+10 9.82640E+08 1.86359E+11-1.84328E+09
 -1      2175-8.86129E+10-4.49671E+08-3.38438E+10 1.18867E+09 1.72035E+11-1.83971E+09
 -1      2176-1.24387E+11-3.75284E+08-4.74098E+10 1.37575E+09 1.57745E+11-1.83453E+09
 -1      2177-1.65150E+11-3.59757E+08-6.28937E+10 1.54515E+09 1.43502E+11-1.82749E+09
 -1      2178-2.10533E+11-3.44953E+08-8.01334E+10 1.70514E+09 1.29321E+11-1.81836E+09
 -1      2179-2.60014E+11-1.98319E+08-9.88807E+10 1.83916E+09 1.15221E+11-1.80692E+09
 -1      2180-3.13167E+11-4.02319E+08-1.19156E+11 1.97012E+09 1.01219E+11-1.79300E+09
 -1      2181-3.69594E+11-9.33675E+07-1.40481E+11 2.06737E+09 8.73358E+10-1.77640E+09
 -1      2182-4.28744E+11-2.39403E+08-1.63014E+11 2.16690E+09 7.35924E+10-1.75699E+09
 -1      2183-4.90276E+11-1.82603E+08-1.86374E+11 2.23538E+09 6.00113E+10-1.73465E+09
 -1      2184-5.53753E+11 1.40976E+08-2.10373E+11 2.31022E+09 4.66157E+10-1.70928E+09
 -1      2185-6.18641E+11-5.20185E+08-2.35281E+11 2.34605E+09 3.34295E+10-1.68078E+09
 -1      2186-6.84655E+11 2.51005E+08-2.60074E+11 2.36881E+09 2.04774E+10-1.64910E+09
 -1      2187-7.51337E+11-1.15987E+08-2.85552E+11 2.40164E+09 7.78413E+09-1.61419E+09
 -1      2188-8.18195E+11 3.86520E+06-3.10913E+11 2.38008E+09-4.62497E+09-1.57604E+09
 -1      2189-8.84987E+11 2.20624E+08-3.36211E+11 2.40125E+09-1.67247E+10-1.53464E+09
 -1      2190-9.51173E+11-2.37997E+08-3.61536E+11 2.34171E+09-2.84898E+10-1.49001E+09
 -1      2191-1.01650E+12 3.02895E+08-3.86154E+11 2.32491E+09-3.98952E+10-1.44218E+09
 -1      2192-1.08059E+12 5.84326E+07-4.10601E+11 2.25778E+09-5.09164E+10-1.39121E+09
 -1      2193-1.14294E+12 2.43711E+08-4.34224E+11 2.20250E+09-6.15291E+10-1.33716E+09
 -1      2194-1.20344E+12 1.14861E+08-4.57262E+11 2.13173E+09-7.17098E+10-1.28012E+09
 -1      2195-1.26159E+12 1.31161E+08-4.79354E+11 2.02815E+09-8.14355E+10-1.22020E+09
 -1      2196-1.31717E+12 2.92237E+08-5.00414E+11 1.94160E+09-9.06843E+10-1.15752E+09
 -1      2197-1.36987E+12 3.32309E+08-5.20426E+11 1.82707E+09-9.94353E+10-1.09220E+09
 -1      2198-1.41935E+12 1.91405E+08-5.39278E+11 1.71869E+09-1.07668E+11-1.02440E+09
 -1      2199-1.46543E+12 1.87805E+08-5.56791E+11 1.57752E+09-1.15365E+11-9.54282E+08
 -1      2200-1.50786E+12 4.37459E+08-5.72821E+11 1.44983E+09-1.22508E+11-8.82007E+08
 -1      2201-1.54634E+12 2.51928E+08-5.87514E+11 1.30027E+09-1.29081E+11-8.07765E+08
 -1      2202-1.58069E+12 4.71322E+08-6.00484E+11 1.15637E+09-1.35069E+11-7.31753E+08
 -1      2203-1.61078E+12 2.27175E+08-6.12011E+11 1.00329E+09-1.40460E+11-6.54176E+08
 -1      2204-1.63637E+12 3.76631E+08-6.21678E+11 8.26594E+08-1.45242E+11-5.75245E+08
 -1      2205-1.65732E+12 4.30267E+08-6.29619E+11 6.72050E+08-1.49405E+11-4.95181E+08
 -1      2206-1.67351E+12 1.80445E+08-6.35865E+11 4.83400E+08-1.52943E+11-4.14215E+08
 -1      2207-1.68485E+12 6.77422E+08-6.39984E+11 3.18860E+08-1.55847E+11-3.32580E+08
 -1      2208-1.69119E+12 2.54485E+08-6.42554E+11 1.40112E+08-1.58115E+11-2.50515E+08
 -1      2209-1.69246E+12 2.90431E+08-6.43024E+11-4.91506E+07-1.59744E+11-1.68266E+08
 -1      2210-1.68869E+12 5.43803E+08-6.41494E+11-2.31332E+08-1.60733E+11-8.60773E+07
 -1      2211-1.67978E+12 3.65588E+08-6.38179E+11-4.08180E+08-1.61084E+11-4.19609E+06
 -1      2212-1.66572E+12 3.84448E+08-6.32829E+11-5.97764E+08-1.60800E+11 7.71266E+07
 -1      2213-1.64652E+12 5.05440E+08-6.25485E+11-7.77598E+08-1.59886E+11 1.57641E+08
 -1      2214-1.62225E+12 3.15319E+08-6.16336E+11-9.50619E+08-1.58350E+11 2.37099E+08
 -1      2215-1.59293E+12 2.76081E+08-6.05208E+11-1.14864E+09-1.56201E+11 3.15253E+08
 -1      2216-1.55860E+12 5.37531E+08-5.92063E+11-1.31560E+09-1.53450E+11 3.91860E+08
 -1      2217-1.51939E+12 2.61572E+08-5.77267E+11-1.49184E+09-1.50110E+11 4.66680E+08
 -1      2218-1.47542E+12 5.97978E+08-5.60431E+11-1.65236E+09-1.46196E+11 5.39479E+08
 -1      2219-1.42675E+12 1.94939E+08-5.42092E+11-1.81583E+09-1.41724E+11 6.10026E+08
 -1      2220-1.37354E+12 1.47603E+08-5.21889E+11-1.99196E+09-1.36712E+11 6.78095E+08
 -1      2221-1.31604E+12 5.67902E+08-4.99881E+11-2.13595E+09-1.31182E+11 7.43474E+08
 -1      2222-1.25432E+12 2.17453E+08-4.76558E+11-2.28248E+09-1.25154E+11 8.05955E+08
 -1      2223-1.18859E+12 4.06933E+08-4.51510E+11-2.41712E+09-1.18652E+11 8.65338E+08
 -1      2224-1.11909E+12 1.96772E+08-4.25181E+11-2.54926E+09-1.11701E+11 9.21434E+08
 -1      2225-1.04604E+12 2.01078E+08-3.97419E+11-2.67642E+09-1.04327E+11 9.74065E+08
 -1      2226-9.69673E+11 3.26632E+08-3.68352E+11-2.79199E+09-9.65581E+10 1.02306E+09
 -1      2227-8.90185E+11 1.96448E+08-3.38196E+11-2.89364E+09-8.84223E+10 1.06827E+09
 -1      2228-8.07903E+11 1.95737E+08-3.06929E+11-2.99014E+09-7.99500E+10 1.10955E+09
 -1      2229-7.23086E+11 2.16059E+08-2.74690E+11-3.07534E+09-7.11724E+10 1.14677E+09
 -1      2230-6.35971E+11 1.30351E+08-2.41620E+11-3.15189E+09-6.21215E+10 1.17980E+09
 -1      2231-5.46877E+11 7.76243E+07-2.07784E+11-3.22102E+09-5.28303E+10 1.20856E+09
 -1      2232-4.56120E+11 1.88778E+08-1.73254E+11-3.27212E+09-4.33324E+10 1.23294E+09
 -1      2233-3.63970E+11 4.34444E+07-1.38292E+11-3.31708E+09-3.36620E+10 1.25288E+09
 -1      2234-2.70732E+11 5.69612E+07-1.02857E+11-3.35077E+09-2.38540E+10 1.26830E+09
 -1      2235-1.76754E+11 4.82351E+07-6.71481E+10-3.37188E+09-1.39437E+10 1.27918E+09
 -1      2236-8.23181E+10-2.79805E+06-3.12819E+10-3.38191E+09-3.96666E+09 1.28548E+09
 -1      2237 1.22337E+10-6.80338E+06 4.64620E+09-3.37978E+09 6.04153E+09 1.28718E+09
 -1      2238 1.06598E+11-3.25431E+07 4.04949E+10-3.36641E+09 1.60451E+10 1.28430E+09
 -1      2239 2.00455E+11-9.37604E+07 7.61374E+10-3.34334E+09 2.60085E+10 1.27683E+09
 -1      2240 2.93473E+11-6.92795E+07 1.11493E+11-3.30883E+09 3.58961E+10 1.26483E+09
 -1      2241 3.85351E+11-8.96371E+07 1.46399E+11-3.26104E+09 4.56727E+10 1.24833E+09
 -1      2242 4.75768E+11-1.72538E+08 1.80726E+11-3.20131E+09 5.53038E+10 1.22740E+09
 -1      2243 5.64435E+11-1.29079E+08 2.14436E+11-3.13569E+09 6.47551E+10 1.20211E+09
 -1      2244 6.51027E+11-2.61567E+08 2.47291E+11-3.05366E+09 7.39931E+10 1.17257E+09
 -1      2245 7.35250E+11-1.34875E+08 2.79344E+11-2.97023E+09 8.29850E+10 1.13887E+09
 -1      2246 8.16821E+11-2.53049E+08 3.10296E+11-2.86211E+09 9.16991E+10 1.10115E+09
 -1      2247 8.95515E+11-2.48886E+08 3.40201E+11-2.76348E+09 1.00105E+11 1.05952E+09
 -1      2248 9.70977E+11-2.17241E+08 3.68889E+11-2.63041E+09 1.08172E+11 1.01415E+09
 -1      2249 1.04296E+12-3.20434E+08 3.96204E+11-2.50862E+09 1.15872E+11 9.65197E+08
 -1      2250 1.11133E+12-3.89340E+08 4.22156E+11-2.37516E+09 1.23178E+11 9.12831E+08
 -1      2251 1.17570E+12-2.64609E+08 4.46666E+11-2.23000E+09 1.30064E+11 8.57239E+08
 -1      2252 1.23594E+12-2.48143E+08 4.69563E+11-2.07501E+09 1.36505E+11 7.98618E+08
 -1      2253 1.29183E+12-4.72555E+08 4.90717E+11-1.91152E+09 1.42480E+11 7.37173E+08
 -1      2254 1.34320E+12-2.95142E+08 5.10303E+11-1.75437E+09 1.47966E+11 6.73121E+08
 -1      2255 1.38983E+12-5.21182E+08 5.27939E+11-1.57679E+09 1.52945E+11 6.06686E+08
 -1      2256 1.43154E+12-2.83291E+08 5.43877E+11-1.40649E+09 1.57398E+11 5.38105E+08
 -1      2257 1.46830E+12-3.19864E+08 5.57833E+11-1.21952E+09 1.61311E+11 4.67617E+08
 -1      2258 1.49991E+12-5.45981E+08 5.69757E+11-1.02725E+09 1.64668E+11 3.95465E+08
 -1      2259 1.52620E+12-3.08322E+08 5.79840E+11-8.45775E+08 1.67459E+11 3.21907E+08
 -1      2260 1.54721E+12-6.84097E+08 5.87680E+11-6.51644E+08 1.69673E+11 2.47198E+08
 -1      2261 1.56280E+12-2.26361E+08 5.93779E+11-4.73680E+08 1.71302E+11 1.71599E+08
 -1      2262 1.57292E+12-2.40201E+08 5.97620E+11-2.46803E+08 1.72341E+11 9.53769E+07
 -1      2263 1.57753E+12-6.98387E+08 5.99197E+11-6.02953E+07 1.72785E+11 1.87948E+07
 -1      2264 1.57664E+12-3.03798E+08 5.99006E+11 1.33243E+08 1.72633E+11-5.78775E+07
 -1      2265 1.57028E+12-5.76431E+08 5.96488E+11 3.26352E+08 1.71885E+11-1.34373E+08
 -1      2266 1.55839E+12-3.45788E+08 5.92056E+11 5.22905E+08 1.70544E+11-2.10426E+08
 -1      2267 1.54104E+12-2.94447E+08 5.85482E+11 7.22787E+08 1.68614E+11-2.85766E+08
 -1      2268 1.51840E+12-5.57275E+08 5.76780E+11 9.09572E+08 1.66101E+11-3.60135E+08
 -1      2269 1.49040E+12-3.75904E+08 5.66209E+11 1.10055E+09 1.63015E+11-4.33274E+08
 -1      2270 1.45718E+12-3.66843E+08 5.53590E+11 1.27912E+09 1.59365E+11-5.04924E+08
 -1      2271 1.41893E+12-4.96329E+08 5.39007E+11 1.46199E+09 1.55164E+11-5.74838E+08
 -1      2272 1.37571E+12-3.03210E+08 5.22654E+11 1.62749E+09 1.50428E+11-6.42772E+08
 -1      2273 1.32770E+12-2.44829E+08 5.04434E+11 1.81025E+09 1.45171E+11-7.08486E+08
 -1      2274 1.27504E+12-5.59449E+08 4.84303E+11 1.96763E+09 1.39413E+11-7.71754E+08
 -1      2275 1.21795E+12-1.97092E+08 4.62745E+11 2.11588E+09 1.33172E+11-8.32356E+08
 -1      2276 1.15663E+12-3.40903E+08 4.39391E+11 2.27249E+09 1.26472E+11-8.90079E+08
 -1      2277 1.09124E+12-3.29394E+08 4.14547E+11 2.41006E+09 1.19334E+11-9.44721E+08
 -1      2278 1.02204E+12-1.71119E+08 3.88311E+11 2.54394E+09 1.11784E+11-9.96092E+08
 -1      2279 9.49332E+11-3.69166E+08 3.60606E+11 2.66439E+09 1.03848E+11-1.04401E+09
 -1      2280 8.73269E+11-1.88780E+08 3.31771E+11 2.77955E+09 9.55527E+10-1.08832E+09
 -1      2281 7.94154E+11-2.80380E+08 3.01672E+11 2.87970E+09 8.69275E+10-1.12885E+09
 -1      2282 7.12280E+11-1.46595E+08 2.70611E+11 2.97535E+09 7.80022E+10-1.16547E+09
 -1      2283 6.27921E+11-1.33134E+08 2.38560E+11 3.06020E+09 6.88078E+10-1.19805E+09
 -1      2284 5.41373E+11-2.07753E+08 2.05643E+11 3.13469E+09 5.93760E+10-1.22647E+09
 -1      2285 4.52904E+11-9.39075E+07 1.72068E+11 3.19359E+09 4.97395E+10-1.25064E+09
 -1      2286 3.62870E+11-1.34707E+08 1.37839E+11 3.24372E+09 3.99320E+10-1.27049E+09
 -1      2287 2.71580E+11-5.02636E+07 1.03181E+11 3.28569E+09 2.99872E+10-1.28595E+09
 -1      2288 1.79294E+11-3.89404E+07 6.81167E+10 3.31322E+09 1.99398E+10-1.29693E+09
 -1      2289 8.64007E+10-4.26527E+07 3.28161E+10 3.33110E+09 9.82465E+09-1.30339E+09
 -1      2290-6.82240E+09 1.33992E+07-2.58742E+09 3.33548E+09-3.23264E+08-1.30532E+09
 -1      2291-1.00025E+11 1.10294E+07-3.80053E+10 3.32819E+09-1.04686E+10-1.30273E+09
 -1      2292-1.92901E+11 8.20932E+07-7.32712E+10 3.31060E+09-2.05761E+10-1.29561E+09
 -1      2293-2.85105E+11 5.39457E+07-1.08319E+11 3.28234E+09-3.06107E+10-1.28399E+09
 -1      2294-3.76354E+11 7.63606E+07-1.42986E+11 3.24137E+09-4.05375E+10-1.26791E+09
 -1      2295-4.66302E+11 1.68259E+08-1.77131E+11 3.18601E+09-5.03221E+10-1.24743E+09
 -1      2296-5.54625E+11 1.08463E+08-2.10716E+11 3.12486E+09-5.99305E+10-1.22261E+09
 -1      2297-6.41077E+11 2.46094E+08-2.43516E+11 3.05260E+09-6.93294E+10-1.19355E+09
 -1      2298-7.25282E+11 1.47853E+08-2.75551E+11 2.96804E+09-7.84860E+10-1.16034E+09
 -1      2299-8.06994E+11 1.66628E+08-3.06594E+11 2.87204E+09-8.73684E+10-1.12309E+09
 -1      2300-8.85920E+11 2.95869E+08-3.36537E+11 2.76275E+09-9.59459E+10-1.08194E+09
 -1      2301-9.61800E+11 2.82743E+08-3.65377E+11 2.65549E+09-1.04189E+11-1.03702E+09
 -1      2302-1.03435E+12 3.30494E+08-3.92929E+11 2.53277E+09-1.12068E+11-9.88497E+08
 -1      2303-1.10329E+12 1.45462E+08-4.19197E+11 2.39818E+09-1.19556E+11-9.36534E+08
 -1      2304-1.16847E+12 3.39569E+08-4.43888E+11 2.25349E+09-1.26628E+11-8.81310E+08
 -1      2305-1.22961E+12 3.91410E+08-4.67103E+11 2.10380E+09-1.33257E+11-8.23015E+08
 -1      2306-1.28645E+12 3.38683E+08-4.88721E+11 1.95160E+09-1.39423E+11-7.61852E+08
 -1      2307-1.33887E+12 3.31604E+08-5.08644E+11 1.78860E+09-1.45102E+11-6.98034E+08
 -1      2308-1.38670E+12 4.88987E+08-5.26759E+11 1.62290E+09-1.50275E+11-6.31778E+08
 -1      2309-1.42967E+12 3.07324E+08-5.43160E+11 1.44938E+09-1.54924E+11-5.63315E+08
 -1      2310-1.46773E+12 2.89564E+08-5.57627E+11 1.26538E+09-1.59032E+11-4.92883E+08
 -1      2311-1.50072E+12 5.41269E+08-5.70068E+11 1.07791E+09-1.62586E+11-4.20722E+08
 -1      2312-1.52854E+12 3.32651E+08-5.80720E+11 8.99765E+08-1.65573E+11-3.47083E+08
 -1      2313-1.55107E+12 5.77458E+08-5.89188E+11 7.03657E+08-1.67982E+11-2.72220E+08
 -1      2314-1.56819E+12 2.69636E+08-5.95810E+11 5.17923E+08-1.69805E+11-1.96394E+08
 -1      2315-1.57997E+12 4.64560E+08-6.00212E+11 3.17973E+08-1.71035E+11-1.19865E+08
 -1      2316-1.58629E+12 4.66145E+08-6.02614E+11 1.24033E+08-1.71668E+11-4.28950E+07
 -1      2317-1.58708E+12 2.54135E+08-6.02992E+11-7.70757E+07-1.71702E+11 3.42474E+07
 -1      2318-1.58243E+12 6.88157E+08-6.01060E+11-2.72663E+08-1.71136E+11 1.11297E+08
 -1      2319-1.57232E+12 2.84904E+08-5.97374E+11-4.53851E+08-1.69972E+11 1.87987E+08
 -1      2320-1.55679E+12 3.42873E+08-5.91451E+11-6.63154E+08-1.68213E+11 2.64053E+08
 -1      2321-1.53587E+12 5.34436E+08-5.83427E+11-8.51012E+08-1.65867E+11 3.39234E+08
 -1      2322-1.50970E+12 3.36254E+08-5.73560E+11-1.03001E+09-1.62940E+11 4.13270E+08
 -1      2323-1.47833E+12 5.24522E+08-5.61567E+11-1.22182E+09-1.59442E+11 4.85908E+08
 -1      2324-1.44182E+12 3.02084E+08-5.47778E+11-1.39103E+09-1.55385E+11 5.56896E+08
 -1      2325-1.40040E+12 2.78951E+08-5.32046E+11-1.57740E+09-1.50784E+11 6.25989E+08
 -1      2326-1.35420E+12 4.76140E+08-5.14416E+11-1.74195E+09-1.45653E+11 6.92952E+08
 -1      2327-1.30331E+12 3.39405E+08-4.95128E+11-1.90669E+09-1.40011E+11 7.57556E+08
 -1      2328-1.24795E+12 2.80068E+08-4.74114E+11-2.05789E+09-1.33876E+11 8.19576E+08
 -1      2329-1.18834E+12 4.90763E+08-4.51383E+11-2.21145E+09-1.27270E+11 8.78802E+08
 -1      2330-1.12468E+12 1.68919E+08-4.27312E+11-2.33800E+09-1.20214E+11 9.35033E+08
 -1      2331-1.05717E+12 1.49271E+08-4.01667E+11-2.49421E+09-1.12733E+11 9.88073E+08
 -1      2332-9.86045E+11 4.31386E+08-3.74533E+11-2.61022E+09-1.04853E+11 1.03774E+09
 -1      2333-9.11621E+11 1.75089E+08-3.46349E+11-2.71887E+09-9.65997E+10 1.08388E+09
 -1      2334-8.34097E+11 2.95486E+08-3.16845E+11-2.82830E+09-8.80021E+10 1.12631E+09
 -1      2335-7.53744E+11 1.46526E+08-2.86367E+11-2.91867E+09-7.90894E+10 1.16492E+09
 -1      2336-6.70893E+11 1.28101E+08-2.54890E+11-3.00928E+09-6.98918E+10 1.19955E+09
 -1      2337-5.85823E+11 2.12076E+08-2.22532E+11-3.08113E+09-6.04405E+10 1.23010E+09
 -1      2338-4.98807E+11 1.03722E+08-1.89507E+11-3.14389E+09-5.07679E+10 1.25647E+09
 -1      2339-4.10167E+11 1.26150E+08-1.55816E+11-3.19544E+09-4.09067E+10 1.27857E+09
 -1      2340-3.20241E+11 6.00950E+07-1.21669E+11-3.23519E+09-3.08905E+10 1.29633E+09
 -1      2341-2.29319E+11 3.50073E+07-8.71279E+10-3.26791E+09-2.07533E+10 1.30969E+09
 -1      2342-1.37737E+11 4.80738E+07-5.23216E+10-3.28270E+09-1.05293E+10 1.31861E+09
 -1      2343-4.58221E+10-7.56722E+06-1.74153E+10-3.28876E+09-2.53261E+08 1.32308E+09
 -1      2344 4.61063E+10-3.39546E+07 1.75075E+10-3.28413E+09 1.00402E+10 1.32307E+09
 -1      2345 1.37710E+11-3.26144E+07 5.23174E+10-3.26752E+09 2.03162E+10 1.31861E+09
 -1      2346 2.28667E+11-7.47532E+07 8.68650E+10-3.23596E+09 3.05402E+10 1.30970E+09
 -1      2347 3.18645E+11-1.10931E+08 1.21043E+11-3.19412E+09 4.06778E+10 1.29640E+09
 -1      2348 4.07337E+11-1.25977E+08 1.54740E+11-3.14318E+09 5.06950E+10 1.27875E+09
 -1      2349 4.94403E+11-1.40360E+08 1.87820E+11-3.07759E+09 6.05583E+10 1.25684E+09
 -1      2350 5.79532E+11-2.23446E+08 2.20137E+11-3.00353E+09 7.02348E+10 1.23073E+09
 -1      2351 6.62432E+11-1.63106E+08 2.51662E+11-2.92261E+09 7.96923E+10 1.20054E+09
 -1      2352 7.42789E+11-1.71222E+08 2.82195E+11-2.81910E+09 8.88994E+10 1.16639E+09
 -1      2353 8.20303E+11-3.14950E+08 3.11596E+11-2.71350E+09 9.78259E+10 1.12839E+09
 -1      2354 8.94690E+11-2.11546E+08 3.39902E+11-2.59677E+09 1.06442E+11 1.08670E+09
 -1      2355 9.65720E+11-3.83314E+08 3.66828E+11-2.47363E+09 1.14721E+11 1.04148E+09
 -1      2356 1.03305E+12-2.31567E+08 3.92471E+11-2.33771E+09 1.22634E+11 9.92891E+08
 -1      2357 1.09646E+12-3.19918E+08 4.16532E+11-2.18946E+09 1.30157E+11 9.41126E+08
 -1      2358 1.15578E+12-3.88692E+08 4.39049E+11-2.04446E+09 1.37266E+11 8.86377E+08
 -1      2359 1.21068E+12-2.18466E+08 4.59974E+11-1.87163E+09 1.43938E+11 8.28851E+08
 -1      2360 1.26098E+12-5.84227E+08 4.78949E+11-1.70895E+09 1.50153E+11 7.68767E+08
 -1      2361 1.30649E+12-2.78685E+08 4.96360E+11-1.53921E+09 1.55891E+11 7.06355E+08
 -1      2362 1.34706E+12-3.17922E+08 5.11762E+11-1.35433E+09 1.61135E+11 6.41851E+08
 -1      2363 1.38248E+12-5.41423E+08 5.25137E+11-1.15986E+09 1.65870E+11 5.75498E+08
 -1      2364 1.41258E+12-3.42556E+08 5.36651E+11-9.78116E+08 1.70083E+11 5.07553E+08
 -1      2365 1.43728E+12-5.72318E+08 5.45949E+11-7.76508E+08 1.73762E+11 4.38275E+08
 -1      2366 1.45645E+12-3.33662E+08 5.53325E+11-5.88550E+08 1.76898E+11 3.67931E+08
 -1      2367 1.46996E+12-3.75666E+08 5.58441E+11-3.68188E+08 1.79483E+11 2.96793E+08
 -1      2368 1.47773E+12-5.48788E+08 5.61330E+11-1.66430E+08 1.81513E+11 2.25136E+08
 -1      2369 1.47975E+12-4.49118E+08 5.62136E+11 3.57973E+07 1.82985E+11 1.53241E+08
 -1      2370 1.47592E+12-4.03437E+08 5.60697E+11 2.50532E+08 1.83897E+11 8.13907E+07
 -1      2371 1.46620E+12-6.74610E+08 5.56901E+11 4.57614E+08 1.84252E+11 9.86871E+06
 -1      2372 1.45061E+12-2.90545E+08 5.51123E+11 6.55948E+08 1.84053E+11-6.10383E+07
 -1      2373 1.42920E+12-2.75441E+08 5.42990E+11 8.83960E+08 1.83305E+11-1.31044E+08
 -1      2374 1.40190E+12-6.98384E+08 5.32457E+11 1.09542E+09 1.82017E+11-1.99868E+08
 -1      2375 1.36877E+12-3.33610E+08 5.20005E+11 1.29093E+09 1.80200E+11-2.67222E+08
 -1      2376 1.32996E+12-5.83027E+08 5.05163E+11 1.49401E+09 1.77865E+11-3.32828E+08
 -1      2377 1.28543E+12-3.42058E+08 4.88333E+11 1.69703E+09 1.75028E+11-3.96408E+08
 -1      2378 1.23530E+12-3.51798E+08 4.69282E+11 1.89654E+09 1.71705E+11-4.57687E+08
 -1      2379 1.17975E+12-5.27178E+08 4.48104E+11 2.09433E+09 1.67915E+11-5.16397E+08
 -1      2380 1.11881E+12-3.50666E+08 4.25016E+11 2.27494E+09 1.63679E+11-5.72276E+08
 -1      2381 1.05267E+12-4.86154E+08 3.99830E+11 2.46407E+09 1.59021E+11-6.25065E+08
 -1      2382 9.81421E+11-3.24306E+08 3.72817E+11 2.63660E+09 1.53965E+11-6.74516E+08
 -1      2383 9.05284E+11-2.93656E+08 3.43896E+11 2.81559E+09 1.48538E+11-7.20383E+08
 -1      2384 8.24434E+11-4.89195E+08 3.13099E+11 2.98041E+09 1.42769E+11-7.62433E+08
 -1      2385 7.38996E+11-2.69254E+08 2.80716E+11 3.13514E+09 1.36689E+11-8.00443E+08
 -1      2386 6.49203E+11-3.20286E+08 2.46575E+11 3.29303E+09 1.30329E+11-8.34193E+08
 -1      2387 5.55256E+11-3.38295E+08 2.10869E+11 3.43405E+09 1.23724E+11-8.63476E+08
 -1      2388 4.57378E+11-2.39194E+08 1.73713E+11 3.57282E+09 1.16909E+11-8.88096E+08
 -1      2389 3.55741E+11-3.21264E+08 1.35060E+11 3.70268E+09 1.09922E+11-9.07866E+08
 -1      2390 2.50635E+11-2.38429E+08 9.51507E+10 3.81866E+09 1.02800E+11-9.22610E+08
 -1      2391 1.42209E+11-2.50253E+08 5.39445E+10 3.93670E+09 9.55836E+10-9.32164E+08
 -1      2392 3.07834E+10-2.01901E+08 1.16210E+10 4.03430E+09 8.83136E+10-9.36374E+08
 -1      2393-8.35237E+10-2.15797E+08-3.18210E+10 4.14168E+09 8.10321E+10-9.35097E+08
 -1      2394-2.00328E+11-1.87120E+08-7.61958E+10 4.21576E+09 7.37824E+10-9.28202E+08
 -1      2395-3.19605E+11-1.61329E+08-1.21511E+11 4.31175E+09 6.66084E+10-9.15567E+08
 -1      2396-4.40860E+11-1.44562E+08-1.67582E+11 4.36032E+09 5.95554E+10-8.97085E+08
 -1      2397-5.64188E+11-1.17546E+08-2.14436E+11 4.45318E+09 5.26692E+10-8.72658E+08
 -1      2398-6.88976E+11-5.96155E+07-2.61833E+11 4.47662E+09 4.59964E+10-8.42200E+08
 -1      2399-8.15534E+11-2.38012E+08-3.09993E+11 4.57363E+09 3.95842E+10-8.05633E+08
 -1      2400-9.42964E+11-1.42261E+07-3.58332E+11 4.54367E+09 3.34804E+10-7.62889E+08
 -1      2401-1.07194E+12-1.19984E+08-4.07383E+11 4.65991E+09 2.77331E+10-7.13914E+08
 -1      2402-1.20121E+12 1.04961E+08-4.56421E+11 4.58915E+09 2.23912E+10-6.58660E+08
 -1      2403-1.33198E+12-1.15449E+08-5.06194E+11 4.74641E+09 1.75036E+10-5.97087E+08
 -1      2404-1.46225E+12-4.19022E+08-5.55815E+11 4.59145E+09 1.31196E+10-5.29167E+08
 -1      2405-1.59421E+12 1.48098E+09-6.05238E+11 4.79233E+09 9.28854E+09-4.54871E+08
 -1      2406-1.72543E+12-5.53539E+09-6.57766E+11 4.65635E+09 6.06031E+09-3.74188E+08
 -1      2407-1.85611E+12 2.06377E+10-6.97480E+11 4.48099E+09 3.48427E+09-2.87090E+08
 -1      2408-1.99501E+12-7.60777E+10-7.87013E+11 6.06709E+09 1.61075E+09-1.93632E+08
 -1      2409-2.09765E+12 2.79118E+11-6.91043E+11-8.81622E+08 4.89190E+08-9.35758E+07
 -1      2410-2.13046E+12-1.01302E+12-1.19452E+12 2.45716E+10 1.21939E+08-4.18178E+07
 -3
    1PSTEP                        19           1           1          
    1PGM                1.000000E+00                                  
    1PGK                2.162072E+07                                  
    1PHID                         -1                                  
    1PSUBC                         0                                  
    1PMODE                         5                                  
  100CL  105 740.0400698        2410                     2    5MODAL      1
 -4  TOSTRAIN    6    1
 -5  EXX         1    4    1    1
 -5  EYY         1    4    2    2
 -5  EZZ         1    4    3    3
 -5  EXY         1    4    1    2
 -5  EYZ         1    4    2    3
 -5  EZX         1    4    3    1
 -1         1 1.51167E-01-2.51502E-02-1.22935E-08-1.59217E-02-6.79564E+01-5.30595E-01
 -1         2 8.39111E-01-4.52246E-01-3.32965E-08 7.90907E-02-6.58931E+01-5.30560E-01
 -1         3 2.81074E+00-1.66113E+00-5.38636E-08 1.50493E-01-6.17671E+01-5.30413E-01
 -1         4 6.00711E+00-3.62793E+00-4.78702E-08 2.19524E-01-5.76429E+01-5.30063E-01
 -1         5 1.03414E+01-6.28679E+00-2.87678E-08 2.82179E-01-5.35225E+01-5.29418E-01
 -1         6 1.57297E+01-9.59081E+00 3.87596E-09 3.41345E-01-4.94086E+01-5.28394E-01
 -1         7 2.21080E+01-1.35083E+01 3.69898E-08 3.95067E-01-4.53044E+01-5.26906E-01
 -1         8 2.93681E+01-1.79598E+01 5.38374E-08 4.43713E-01-4.12138E+01-5.24885E-01
 -1         9 3.74507E+01-2.29153E+01 6.78640E-08 4.89656E-01-3.71412E+01-5.22263E-01
 -1        10 4.62776E+01-2.83417E+01 7.52195E-08 5.28142E-01-3.30915E+01-5.18978E-01
 -1        11 5.57199E+01-3.41062E+01 6.29113E-08 5.65749E-01-2.90702E+01-5.14977E-01
 -1        12 6.58014E+01-4.03195E+01 4.30247E-08 5.93676E-01-2.50829E+01-5.10210E-01
 -1        13 7.63180E+01-4.67489E+01 2.36375E-08 6.22255E-01-2.11358E+01-5.04637E-01
 -1        14 8.72807E+01-5.34743E+01 7.33362E-09 6.41922E-01-1.72353E+01-4.98221E-01
 -1        15 9.86191E+01-6.04597E+01-1.24379E-08 6.63413E-01-1.33881E+01-4.90932E-01
 -1        16 1.10101E+02-6.74236E+01-3.03462E-08 6.73701E-01-9.60098E+00-4.82749E-01
 -1        17 1.21940E+02-7.47655E+01-4.60836E-08 6.80236E-01-5.88111E+00-4.73648E-01
 -1        18 1.33774E+02-8.19775E+01-5.51097E-08 6.89663E-01-2.23561E+00-4.63623E-01
 -1        19 1.45692E+02-8.92955E+01-5.85297E-08 6.83474E-01 1.32830E+00-4.52665E-01
 -1        20 1.57609E+02-9.66236E+01-6.80404E-08 6.89553E-01 4.80335E+00-4.40774E-01
 -1        21 1.69344E+02-1.03765E+02-7.60128E-08 6.72456E-01 8.18228E+00-4.27956E-01
 -1        22 1.81035E+02-1.10991E+02-7.90376E-08 6.67630E-01 1.14579E+01-4.14218E-01
 -1        23 1.92420E+02-1.17942E+02-8.33062E-08 6.48354E-01 1.46232E+01-3.99577E-01
 -1        24 2.03543E+02-1.24780E+02-8.79327E-08 6.32478E-01 1.76712E+01-3.84053E-01
 -1        25 2.14302E+02-1.31359E+02-7.74048E-08 6.12156E-01 2.05951E+01-3.67672E-01
 -1        26 2.24659E+02-1.37708E+02-5.52097E-08 5.82412E-01 2.33884E+01-3.50462E-01
 -1        27 2.34573E+02-1.43803E+02-2.13357E-08 5.57558E-01 2.60446E+01-3.32458E-01
 -1        28 2.43962E+02-1.49562E+02 2.60323E-08 5.24669E-01 2.85579E+01-3.13698E-01
 -1        29 2.52756E+02-1.54936E+02 7.09280E-08 4.93545E-01 3.09225E+01-2.94225E-01
 -1        30 2.60961E+02-1.59965E+02 1.05913E-07 4.53007E-01 3.31329E+01-2.74085E-01
 -1        31 2.68544E+02-1.64640E+02 1.32835E-07 4.16340E-01 3.51843E+01-2.53327E-01
 -1        32 2.75376E+02-1.68807E+02 1.63356E-07 3.73391E-01 3.70720E+01-2.32003E-01
 -1        33 2.81517E+02-1.72595E+02 1.97870E-07 3.32069E-01 3.87919E+01-2.10171E-01
 -1        34 2.86848E+02-1.75835E+02 2.16061E-07 2.88109E-01 4.03402E+01-1.87890E-01
 -1        35 2.91421E+02-1.78655E+02 2.02469E-07 2.37368E-01 4.17136E+01-1.65220E-01
 -1        36 2.95157E+02-1.80951E+02 1.77106E-07 1.92988E-01 4.29094E+01-1.42224E-01
 -1        37 2.98012E+02-1.82673E+02 1.59596E-07 1.38815E-01 4.39253E+01-1.18969E-01
 -1        38 3.00085E+02-1.83998E+02 1.46065E-07 9.15651E-02 4.47595E+01-9.55223E-02
 -1        39 3.01168E+02-1.84615E+02 1.35858E-07 4.02348E-02 4.54108E+01-7.19519E-02
 -1        40 3.01399E+02-1.84760E+02 1.29716E-07-1.41141E-02 4.58786E+01-4.83288E-02
 -1        41 3.00754E+02-1.84394E+02 1.31145E-07-6.64307E-02 4.61627E+01-2.47228E-02
 -1        42 2.99150E+02-1.83390E+02 1.47198E-07-1.17215E-01 4.62634E+01-1.20519E-03
 -1        43 2.96648E+02-1.81859E+02 1.78821E-07-1.71656E-01 4.61818E+01 2.21520E-02
 -1        44 2.93242E+02-1.79785E+02 2.28728E-07-2.23298E-01 4.59194E+01 4.52771E-02
 -1        45 2.88900E+02-1.77103E+02 2.75662E-07-2.72984E-01 4.54783E+01 6.80986E-02
 -1        46 2.83674E+02-1.73895E+02 3.02920E-07-3.29848E-01 4.48611E+01 9.05456E-02
 -1        47 2.77590E+02-1.70195E+02 3.24262E-07-3.77793E-01 4.40710E+01 1.12549E-01
 -1        48 2.70577E+02-1.65867E+02 3.41469E-07-4.28402E-01 4.31117E+01 1.34038E-01
 -1        49 2.62784E+02-1.61128E+02 3.51929E-07-4.74497E-01 4.19875E+01 1.54947E-01
 -1        50 2.54075E+02-1.55745E+02 3.59513E-07-5.21440E-01 4.07031E+01 1.75209E-01
 -1        51 2.44595E+02-1.49929E+02 3.70167E-07-5.72019E-01 3.92639E+01 1.94760E-01
 -1        52 2.34403E+02-1.43729E+02 3.68994E-07-6.13369E-01 3.76756E+01 2.13538E-01
 -1        53 2.23373E+02-1.36930E+02 3.40365E-07-6.55446E-01 3.59444E+01 2.31483E-01
 -1        54 2.11690E+02-1.29791E+02 2.97801E-07-6.94109E-01 3.40771E+01 2.48539E-01
 -1        55 1.99293E+02-1.22169E+02 2.56805E-07-7.32058E-01 3.20807E+01 2.64651E-01
 -1        56 1.86285E+02-1.14197E+02 2.22979E-07-7.68572E-01 2.99629E+01 2.79767E-01
 -1        57 1.72700E+02-1.05885E+02 1.91910E-07-8.01760E-01 2.77316E+01 2.93840E-01
 -1        58 1.58532E+02-9.71865E+01 1.56417E-07-8.30950E-01 2.53950E+01 3.06825E-01
 -1        59 1.43880E+02-8.82064E+01 1.20220E-07-8.58661E-01 2.29617E+01 3.18681E-01
 -1        60 1.28779E+02-7.89534E+01 9.28555E-08-8.83128E-01 2.04408E+01 3.29370E-01
 -1        61 1.13258E+02-6.94308E+01 7.34258E-08-9.05111E-01 1.78414E+01 3.38859E-01
 -1        62 9.73878E+01-5.96979E+01 5.04067E-08-9.24961E-01 1.51729E+01 3.47117E-01
 -1        63 8.12393E+01-4.98128E+01 2.17491E-08-9.39635E-01 1.24451E+01 3.54120E-01
 -1        64 6.48150E+01-3.97301E+01-7.47119E-09-9.52546E-01 9.66775E+00 3.59846E-01
 -1        65 4.82140E+01-2.95568E+01-3.68070E-08-9.62221E-01 6.85088E+00 3.64277E-01
 -1        66 3.14789E+01-1.92989E+01-6.38909E-08-9.68283E-01 4.00464E+00 3.67402E-01
 -1        67 1.46576E+01-8.98339E+00-8.37791E-08-9.71164E-01 1.13923E+00 3.69211E-01
 -1        68-2.17912E+00 1.33635E+00-1.02651E-07-9.70553E-01-1.73513E+00 3.69700E-01
 -1        69-1.89849E+01 1.16395E+01-1.15915E-07-9.66713E-01-4.60818E+00 3.68871E-01
 -1        70-3.57042E+01 2.18936E+01-1.18159E-07-9.60087E-01-7.46966E+00 3.66727E-01
 -1        71-5.22647E+01 3.20409E+01-1.18369E-07-9.50177E-01-1.03094E+01 3.63279E-01
 -1        72-6.86271E+01 4.20717E+01-1.18378E-07-9.36453E-01-1.31172E+01 3.58540E-01
 -1        73-8.47363E+01 5.19543E+01-1.14046E-07-9.19300E-01-1.58833E+01 3.52528E-01
 -1        74-1.00520E+02 6.16233E+01-1.00617E-07-9.00457E-01-1.85977E+01 3.45266E-01
 -1        75-1.15953E+02 7.10973E+01-8.81699E-08-8.76901E-01-2.12509E+01 3.36780E-01
 -1        76-1.30937E+02 8.02665E+01-8.18514E-08-8.52944E-01-2.38334E+01 3.27102E-01
 -1        77-1.45475E+02 8.91899E+01-7.68798E-08-8.21895E-01-2.63361E+01 3.16267E-01
 -1        78-1.59487E+02 9.77775E+01-7.15058E-08-7.93571E-01-2.87501E+01 3.04312E-01
 -1        79-1.72920E+02 1.06008E+02-6.77178E-08-7.55360E-01-3.10670E+01 2.91281E-01
 -1        80-1.85750E+02 1.13882E+02-6.41390E-08-7.20384E-01-3.32785E+01 2.77220E-01
 -1        81-1.97930E+02 1.21356E+02-5.10401E-08-6.82061E-01-3.53767E+01 2.62180E-01
 -1        82-2.09379E+02 1.28359E+02-3.06455E-08-6.40374E-01-3.73544E+01 2.46213E-01
 -1        83-2.20104E+02 1.34930E+02-8.41525E-09-5.95867E-01-3.92044E+01 2.29376E-01
 -1        84-2.30081E+02 1.41070E+02 5.20281E-09-5.48919E-01-4.09203E+01 2.11728E-01
 -1        85-2.39208E+02 1.46644E+02 1.12858E-08-5.03792E-01-4.24960E+01 1.93331E-01
 -1        86-2.47537E+02 1.51774E+02 2.61555E-08-4.52797E-01-4.39259E+01 1.74250E-01
 -1        87-2.54937E+02 1.56283E+02 2.70224E-08-4.03892E-01-4.52049E+01 1.54552E-01
 -1        88-2.61488E+02 1.60302E+02 5.21959E-09-3.50202E-01-4.63286E+01 1.34307E-01
 -1        89-2.67140E+02 1.63792E+02-2.76560E-09-2.94987E-01-4.72929E+01 1.13584E-01
 -1        90-2.71796E+02 1.66619E+02 5.81304E-09-2.42876E-01-4.80944E+01 9.24568E-02
 -1        91-2.75578E+02 1.68979E+02 5.80361E-09-1.87129E-01-4.87302E+01 7.09991E-02
 -1        92-2.78304E+02 1.70599E+02-1.54124E-08-1.36024E-01-4.91981E+01 4.92861E-02
 -1        93-2.80108E+02 1.71706E+02-5.64303E-08-7.08733E-02-4.94964E+01 2.73938E-02
 -1        94-2.80979E+02 1.72291E+02-1.03650E-07-1.73135E-02-4.96240E+01 5.39819E-03
 -1        95-2.80776E+02 1.72122E+02-1.47404E-07 3.82623E-02-4.95803E+01-1.66233E-02
 -1        96-2.79674E+02 1.71477E+02-1.82091E-07 9.37171E-02-4.93656E+01-3.85941E-02
 -1        97-2.77531E+02 1.70138E+02-2.06112E-07 1.50159E-01-4.89803E+01-6.04376E-02
 -1        98-2.74436E+02 1.68235E+02-2.26675E-07 2.07559E-01-4.84260E+01-8.20766E-02
 -1        99-2.70434E+02 1.65812E+02-2.35578E-07 2.61196E-01-4.77044E+01-1.03437E-01
 -1       100-2.65428E+02 1.62724E+02-2.16573E-07 3.16041E-01-4.68179E+01-1.24443E-01
 -1       101-2.59513E+02 1.59097E+02-1.77268E-07 3.67315E-01-4.57697E+01-1.45022E-01
 -1       102-2.52716E+02 1.54946E+02-1.32795E-07 4.19834E-01-4.45633E+01-1.65103E-01
 -1       103-2.44998E+02 1.50194E+02-9.88278E-08 4.67355E-01-4.32030E+01-1.84614E-01
 -1       104-2.36443E+02 1.44944E+02-8.59894E-08 5.19842E-01-4.16933E+01-2.03489E-01
 -1       105-2.27101E+02 1.39253E+02-7.35257E-08 5.65032E-01-4.00395E+01-2.21660E-01
 -1       106-2.16895E+02 1.32957E+02-4.58570E-08 6.07610E-01-3.82472E+01-2.39066E-01
 -1       107-2.05993E+02 1.26291E+02-1.55360E-08 6.52574E-01-3.63228E+01-2.55645E-01
 -1       108-1.94347E+02 1.19153E+02 1.01722E-08 6.92088E-01-3.42729E+01-2.71339E-01
 -1       109-1.82008E+02 1.11572E+02 3.56382E-08 7.30522E-01-3.21045E+01-2.86094E-01
 -1       110-1.69083E+02 1.03672E+02 6.07938E-08 7.65124E-01-2.98252E+01-2.99857E-01
 -1       111-1.55519E+02 9.53390E+01 7.51774E-08 7.98178E-01-2.74428E+01-3.12582E-01
 -1       112-1.41441E+02 8.67210E+01 7.62717E-08 8.26955E-01-2.49657E+01-3.24224E-01
 -1       113-1.26848E+02 7.77617E+01 6.84186E-08 8.54404E-01-2.24023E+01-3.34742E-01
 -1       114-1.11825E+02 6.85527E+01 5.31521E-08 8.78791E-01-1.97617E+01-3.44099E-01
 -1       115-9.64221E+01 5.91205E+01 3.98394E-08 9.00154E-01-1.70528E+01-3.52263E-01
 -1       116-8.06563E+01 4.94448E+01 3.09062E-08 9.17110E-01-1.42852E+01-3.59205E-01
 -1       117-6.46306E+01 3.96268E+01 2.09986E-08 9.31557E-01-1.14685E+01-3.64901E-01
 -1       118-4.83626E+01 2.96477E+01 1.29314E-08 9.43673E-01-8.61234E+00-3.69332E-01
 -1       119-3.19302E+01 1.95745E+01 6.76318E-09 9.51596E-01-5.72674E+00-3.72480E-01
 -1       120-1.53895E+01 9.43702E+00-4.27341E-09 9.56661E-01-2.82165E+00-3.74335E-01
 -1       121 1.21626E+00-7.46952E-01-1.44172E-08 9.57968E-01 9.28416E-02-3.74891E-01
 -1       122 1.78121E+01-1.09183E+01-2.40249E-08 9.55834E-01 3.00659E+00-3.74146E-01
 -1       123 3.43578E+01-2.10671E+01-3.52077E-08 9.50816E-01 5.90947E+00-3.72101E-01
 -1       124 5.07729E+01-3.11249E+01-4.59329E-08 9.42672E-01 8.79141E+00-3.68764E-01
 -1       125 6.70236E+01-4.10875E+01-5.83765E-08 9.30927E-01 1.16424E+01-3.64147E-01
 -1       126 8.30502E+01-5.09205E+01-6.54038E-08 9.15012E-01 1.44525E+01-3.58264E-01
 -1       127 9.87708E+01-6.05490E+01-7.43998E-08 8.97462E-01 1.72121E+01-3.51137E-01
 -1       128 1.14180E+02-7.00086E+01-7.89795E-08 8.76698E-01 1.99115E+01-3.42789E-01
 -1       129 1.29163E+02-7.91810E+01-6.58993E-08 8.52424E-01 2.25412E+01-3.33250E-01
 -1       130 1.43715E+02-8.81020E+01-3.86531E-08 8.24845E-01 2.50923E+01-3.22553E-01
 -1       131 1.57783E+02-9.67387E+01-2.94937E-09 7.93461E-01 2.75557E+01-3.10734E-01
 -1       132 1.71293E+02-1.05018E+02 1.82924E-08 7.62651E-01 2.99231E+01-2.97834E-01
 -1       133 1.84218E+02-1.12944E+02 2.02296E-08 7.27412E-01 3.21860E+01-2.83898E-01
 -1       134 1.96473E+02-1.20435E+02 2.07922E-08 6.88752E-01 3.43367E+01-2.68974E-01
 -1       135 2.08100E+02-1.27583E+02 2.20361E-08 6.47203E-01 3.63676E+01-2.53114E-01
 -1       136 2.18992E+02-1.34265E+02 1.90327E-08 6.04209E-01 3.82717E+01-2.36371E-01
 -1       137 2.29107E+02-1.40458E+02 1.77014E-08 5.60498E-01 4.00423E+01-2.18805E-01
 -1       138 2.38441E+02-1.46178E+02 1.73513E-08 5.13683E-01 4.16733E+01-2.00476E-01
 -1       139 2.46975E+02-1.51426E+02 8.02055E-09 4.66096E-01 4.31590E+01-1.81448E-01
 -1       140 2.54608E+02-1.56084E+02-1.61090E-08 4.16259E-01 4.44942E+01-1.61785E-01
 -1       141 2.61382E+02-1.60234E+02-5.75307E-08 3.63417E-01 4.56742E+01-1.41557E-01
 -1       142 2.67284E+02-1.63879E+02-9.71888E-08 3.09575E-01 4.66948E+01-1.20832E-01
 -1       143 2.72216E+02-1.66879E+02-1.13960E-07 2.58412E-01 4.75527E+01-9.96829E-02
 -1       144 2.76254E+02-1.69381E+02-1.07899E-07 2.02089E-01 4.82446E+01-7.81821E-02
 -1       145 2.79269E+02-1.71195E+02-8.28581E-08 1.48747E-01 4.87681E+01-5.64046E-02
 -1       146 2.81387E+02-1.72515E+02-5.37316E-08 9.13213E-02 4.91214E+01-3.44254E-02
 -1       147 2.82513E+02-1.73205E+02-2.91357E-08 3.56223E-02 4.93033E+01-1.23195E-02
 -1       148 2.82630E+02-1.73253E+02-2.98668E-09-2.21361E-02 4.93130E+01 9.83592E-03
 -1       149 2.81849E+02-1.72823E+02 1.72003E-08-7.83084E-02 4.91504E+01 3.19646E-02
 -1       150 2.80006E+02-1.71648E+02 2.41510E-08-1.30346E-01 4.88160E+01 5.39901E-02
 -1       151 2.77247E+02-1.69964E+02 2.47264E-08-1.90457E-01 4.83110E+01 7.58364E-02
 -1       152 2.73542E+02-1.67714E+02 3.69412E-08-2.44410E-01 4.76371E+01 9.74284E-02
 -1       153 2.68862E+02-1.64823E+02 5.97700E-08-2.95818E-01 4.67964E+01 1.18692E-01
 -1       154 2.63296E+02-1.61433E+02 7.00067E-08-3.50905E-01 4.57918E+01 1.39554E-01
 -1       155 2.56771E+02-1.57409E+02 7.54032E-08-3.99501E-01 4.46268E+01 1.59942E-01
 -1       156 2.49392E+02-1.52884E+02 8.62974E-08-4.53028E-01 4.33053E+01 1.79785E-01
 -1       157 2.41187E+02-1.47877E+02 8.40211E-08-5.00287E-01 4.18318E+01 1.99017E-01
 -1       158 2.32110E+02-1.42299E+02 7.68051E-08-5.47601E-01 4.02113E+01 2.17571E-01
 -1       159 2.22246E+02-1.36246E+02 8.95706E-08-5.91025E-01 3.84493E+01 2.35384E-01
 -1       160 2.11655E+02-1.29778E+02 1.20262E-07-6.35125E-01 3.65519E+01 2.52393E-01
 -1       161 2.00283E+02-1.22773E+02 1.46361E-07-6.71471E-01 3.45255E+01 2.68543E-01
 -1       162 1.88261E+02-1.15402E+02 1.54881E-07-7.16335E-01 3.23770E+01 2.83776E-01
 -1       163 1.75627E+02-1.07690E+02 1.47772E-07-7.49652E-01 3.01138E+01 2.98041E-01
 -1       164 1.62346E+02-9.95221E+01 1.30216E-07-7.80857E-01 2.77435E+01 3.11291E-01
 -1       165 1.48555E+02-9.10829E+01 1.01457E-07-8.12284E-01 2.52743E+01 3.23479E-01
 -1       166 1.34231E+02-8.22870E+01 6.62663E-08-8.38240E-01 2.27145E+01 3.34566E-01
 -1       167 1.19476E+02-7.32416E+01 4.04603E-08-8.64262E-01 2.00730E+01 3.44513E-01
 -1       168 1.04337E+02-6.39723E+01 2.28934E-08-8.84898E-01 1.73586E+01 3.53287E-01
 -1       169 8.88311E+01-5.44564E+01 1.09820E-08-9.02921E-01 1.45806E+01 3.60860E-01
 -1       170 7.30500E+01-4.47866E+01-3.48948E-09-9.17727E-01 1.17484E+01 3.67207E-01
 -1       171 5.70301E+01-3.49606E+01-2.22206E-08-9.29144E-01 8.87178E+00 3.72307E-01
 -1       172 4.08374E+01-2.50333E+01-3.72540E-08-9.38542E-01 5.96036E+00 3.76145E-01
 -1       173 2.45312E+01-1.50406E+01-4.98558E-08-9.42789E-01 3.02403E+00 3.78708E-01
 -1       174 8.15847E+00-4.99951E+00-6.58322E-08-9.44529E-01 7.27368E-02 3.79990E-01
 -1       175-8.21360E+00 5.03792E+00-8.50622E-08-9.43200E-01-2.88355E+00 3.79989E-01
 -1       176-2.45248E+01 1.50350E+01-1.02847E-07-9.38427E-01-5.83484E+00 3.78707E-01
 -1       177-4.07256E+01 2.49692E+01-1.20373E-07-9.29363E-01-8.77117E+00 3.76149E-01
 -1       178-5.67515E+01 3.47955E+01-1.37939E-07-9.17349E-01-1.16827E+01 3.72328E-01
 -1       179-7.25460E+01 4.44777E+01-1.56248E-07-9.02718E-01-1.45596E+01 3.67260E-01
 -1       180-8.80509E+01 5.39823E+01-1.67872E-07-8.83881E-01-1.73924E+01 3.60965E-01
 -1       181-1.03218E+02 6.32877E+01-1.65918E-07-8.62610E-01-2.01715E+01 3.53468E-01
 -1       182-1.17973E+02 7.23244E+01-1.59953E-07-8.39372E-01-2.28877E+01 3.44798E-01
 -1       183-1.32283E+02 8.10957E+01-1.45974E-07-8.09641E-01-2.55320E+01 3.34988E-01
 -1       184-1.46101E+02 8.95810E+01-1.13833E-07-7.79314E-01-2.80957E+01 3.24075E-01
 -1       185-1.59336E+02 9.76809E+01-7.91000E-08-7.45790E-01-3.05704E+01 3.12102E-01
 -1       186-1.72002E+02 1.05463E+02-5.30668E-08-7.10425E-01-3.29479E+01 2.99114E-01
 -1       187-1.83975E+02 1.12785E+02-3.07320E-08-6.71388E-01-3.52207E+01 2.85160E-01
 -1       188-1.95275E+02 1.19720E+02-2.33920E-09-6.28812E-01-3.73813E+01 2.70293E-01
 -1       189-2.05846E+02 1.26207E+02 3.81619E-08-5.87165E-01-3.94230E+01 2.54569E-01
 -1       190-2.15603E+02 1.32168E+02 8.75743E-08-5.37530E-01-4.13392E+01 2.38047E-01
 -1       191-2.24599E+02 1.37722E+02 1.49943E-07-4.90807E-01-4.31240E+01 2.20791E-01
 -1       192-2.32670E+02 1.42635E+02 2.25637E-07-4.42059E-01-4.47720E+01 2.02866E-01
 -1       193-2.39898E+02 1.47070E+02 3.02962E-07-3.88961E-01-4.62781E+01 1.84341E-01
 -1       194-2.46230E+02 1.50975E+02 3.62573E-07-3.33109E-01-4.76381E+01 1.65284E-01
 -1       195-2.51568E+02 1.54225E+02 3.81126E-07-2.80914E-01-4.88480E+01 1.45770E-01
 -1       196-2.55991E+02 1.56961E+02 3.60331E-07-2.23012E-01-4.99046E+01 1.25873E-01
 -1       197-2.59379E+02 1.59011E+02 3.20137E-07-1.69031E-01-5.08053E+01 1.05670E-01
 -1       198-2.61788E+02 1.60493E+02 2.78896E-07-1.05743E-01-5.15478E+01 8.52394E-02
 -1       199-2.63192E+02 1.61372E+02 2.43801E-07-4.77984E-02-5.21308E+01 6.46595E-02
 -1       200-2.63541E+02 1.61575E+02 2.12031E-07 1.02809E-02-5.25535E+01 4.40112E-02
 -1       201-2.62853E+02 1.61148E+02 1.82290E-07 7.19524E-02-5.28155E+01 2.33756E-02
 -1       202-2.61153E+02 1.60136E+02 1.44226E-07 1.31426E-01-5.29173E+01 2.83432E-03
 -1       203-2.58335E+02 1.58366E+02 8.27033E-08 1.88387E-01-5.28601E+01-1.75303E-02
 -1       204-2.54519E+02 1.56026E+02 7.83719E-09 2.53872E-01-5.26453E+01-3.76361E-02
 -1       205-2.49705E+02 1.53123E+02-7.06234E-08 3.14602E-01-5.22755E+01-5.74023E-02
 -1       206-2.43765E+02 1.49442E+02-1.50771E-07 3.70755E-01-5.17535E+01-7.67467E-02
 -1       207-2.36882E+02 1.45251E+02-2.05833E-07 4.29079E-01-5.10830E+01-9.55887E-02
 -1       208-2.28927E+02 1.40348E+02-2.27115E-07 4.87385E-01-5.02681E+01-1.13849E-01
 -1       209-2.20002E+02 1.34879E+02-2.36913E-07 5.44684E-01-4.93138E+01-1.31448E-01
 -1       210-2.10129E+02 1.28847E+02-2.47079E-07 6.01490E-01-4.82253E+01-1.48310E-01
 -1       211-1.99259E+02 1.22166E+02-2.59592E-07 6.53361E-01-4.70089E+01-1.64358E-01
 -1       212-1.87496E+02 1.14971E+02-2.70866E-07 7.07677E-01-4.56710E+01-1.79520E-01
 -1       213-1.74792E+02 1.07166E+02-2.70718E-07 7.57230E-01-4.42189E+01-1.93722E-01
 -1       214-1.61231E+02 9.88516E+01-2.54602E-07 8.08635E-01-4.26603E+01-2.06895E-01
 -1       215-1.46856E+02 9.00628E+01-2.35717E-07 8.55970E-01-4.10034E+01-2.18972E-01
 -1       216-1.31618E+02 8.06993E+01-2.28440E-07 9.00408E-01-3.92571E+01-2.29889E-01
 -1       217-1.15635E+02 7.09086E+01-2.24463E-07 9.45755E-01-3.74306E+01-2.39582E-01
 -1       218-9.89084E+01 6.06589E+01-2.19494E-07 9.86256E-01-3.55336E+01-2.47992E-01
 -1       219-8.14689E+01 4.99592E+01-2.10949E-07 1.02611E+00-3.35764E+01-2.55063E-01
 -1       220-6.33800E+01 3.88815E+01-1.90359E-07 1.06341E+00-3.15696E+01-2.60740E-01
 -1       221-4.46552E+01 2.73958E+01-1.69687E-07 1.09671E+00-2.95243E+01-2.64975E-01
 -1       222-2.53497E+01 1.55648E+01-1.55166E-07 1.13062E+00-2.74517E+01-2.67719E-01
 -1       223-5.50347E+00 3.39554E+00-1.34691E-07 1.15865E+00-2.53638E+01-2.68928E-01
 -1       224 1.48490E+01-9.07704E+00-1.08862E-07 1.18949E+00-2.32725E+01-2.68561E-01
 -1       225 3.56509E+01-2.18298E+01-8.50481E-08 1.21076E+00-2.11904E+01-2.66581E-01
 -1       226 5.68928E+01-3.48518E+01-6.35775E-08 1.23833E+00-1.91300E+01-2.62952E-01
 -1       227 7.84857E+01-4.80881E+01-4.51486E-08 1.25228E+00-1.71044E+01-2.57644E-01
 -1       228 1.00449E+02-6.15525E+01-2.98979E-08 1.27895E+00-1.51266E+01-2.50629E-01
 -1       229 1.22676E+02-7.51817E+01-1.56408E-08 1.28568E+00-1.32102E+01-2.41881E-01
 -1       230 1.45192E+02-8.89619E+01-2.74956E-09 1.31354E+00-1.13686E+01-2.31379E-01
 -1       231 1.67907E+02-1.02909E+02 1.46333E-08 1.30494E+00-9.61559E+00-2.19103E-01
 -1       232 1.90861E+02-1.16966E+02 4.08175E-08 1.33832E+00-7.96497E+00-2.05037E-01
 -1       233 2.13905E+02-1.31115E+02 7.06425E-08 1.31800E+00-6.43078E+00-1.89168E-01
 -1       234 2.37165E+02-1.45346E+02 1.05559E-07 1.36317E+00-5.02705E+00-1.71484E-01
 -1       235 2.60329E+02-1.59510E+02 1.41833E-07 1.31866E+00-3.76797E+00-1.51978E-01
 -1       236 2.84034E+02-1.74250E+02 1.76515E-07 1.37635E+00-2.66768E+00-1.30640E-01
 -1       237 3.06633E+02-1.87321E+02 2.12192E-07 1.33730E+00-1.74053E+00-1.07467E-01
 -1       238 3.32760E+02-2.06244E+02 2.48346E-07 1.28693E+00-1.00069E+00-8.24527E-02
 -1       239 3.46937E+02-2.04181E+02 2.77517E-07 1.74247E+00-4.62609E-01-5.56114E-02
 -1       240 4.03979E+02-2.78631E+02 3.53555E-07-2.53230E-01-1.40496E-01-2.68751E-02
 -1       241 2.68803E+02-5.21285E+01 4.18878E-07 7.05698E+00-3.50209E-02-1.20101E-02
 -1       242 1.51167E-01-2.51502E-02 1.22935E-08-1.59216E-02 6.79564E+01 5.30595E-01
 -1       243 8.39110E-01-4.52246E-01 3.32965E-08 7.90908E-02 6.58931E+01 5.30560E-01
 -1       244 2.81074E+00-1.66113E+00 5.38636E-08 1.50493E-01 6.17671E+01 5.30413E-01
 -1       245 6.00711E+00-3.62793E+00 4.78702E-08 2.19524E-01 5.76429E+01 5.30063E-01
 -1       246 1.03414E+01-6.28679E+00 2.87678E-08 2.82179E-01 5.35225E+01 5.29418E-01
 -1       247 1.57297E+01-9.59081E+00-3.87596E-09 3.41345E-01 4.94086E+01 5.28394E-01
 -1       248 2.21080E+01-1.35083E+01-3.69898E-08 3.95067E-01 4.53044E+01 5.26906E-01
 -1       249 2.93681E+01-1.79598E+01-5.38374E-08 4.43713E-01 4.12138E+01 5.24885E-01
 -1       250 3.74507E+01-2.29153E+01-6.78640E-08 4.89656E-01 3.71412E+01 5.22263E-01
 -1       251 4.62776E+01-2.83417E+01-7.52195E-08 5.28142E-01 3.30915E+01 5.18978E-01
 -1       252 5.57199E+01-3.41062E+01-6.29113E-08 5.65749E-01 2.90702E+01 5.14977E-01
 -1       253 6.58014E+01-4.03195E+01-4.30247E-08 5.93676E-01 2.50829E+01 5.10210E-01
 -1       254 7.63180E+01-4.67489E+01-2.36375E-08 6.22255E-01 2.11358E+01 5.04637E-01
 -1       255 8.72807E+01-5.34743E+01-7.33362E-09 6.41922E-01 1.72353E+01 4.98221E-01
 -1       256 9.86191E+01-6.04597E+01 1.24379E-08 6.63413E-01 1.33881E+01 4.90932E-01
 -1       257 1.10101E+02-6.74236E+01 3.03462E-08 6.73701E-01 9.60098E+00 4.82748E-01
 -1       258 1.21940E+02-7.47655E+01 4.60836E-08 6.80236E-01 5.88111E+00 4.73648E-01
 -1       259 1.33774E+02-8.19775E+01 5.51097E-08 6.89663E-01 2.23561E+00 4.63623E-01
 -1       260 1.45692E+02-8.92955E+01 5.85297E-08 6.83474E-01-1.32830E+00 4.52665E-01
 -1       261 1.57609E+02-9.66236E+01 6.80404E-08 6.89553E-01-4.80335E+00 4.40774E-01
 -1       262 1.69344E+02-1.03765E+02 7.60128E-08 6.72456E-01-8.18228E+00 4.27956E-01
 -1       263 1.81035E+02-1.10991E+02 7.90376E-08 6.67630E-01-1.14579E+01 4.14218E-01
 -1       264 1.92420E+02-1.17942E+02 8.33062E-08 6.48354E-01-1.46232E+01 3.99577E-01
 -1       265 2.03543E+02-1.24780E+02 8.79327E-08 6.32478E-01-1.76712E+01 3.84053E-01
 -1       266 2.14302E+02-1.31359E+02 7.74048E-08 6.12156E-01-2.05951E+01 3.67672E-01
 -1       267 2.24659E+02-1.37708E+02 5.52097E-08 5.82412E-01-2.33883E+01 3.50462E-01
 -1       268 2.34573E+02-1.43803E+02 2.13357E-08 5.57558E-01-2.60446E+01 3.32458E-01
 -1       269 2.43962E+02-1.49562E+02-2.60323E-08 5.24669E-01-2.85579E+01 3.13698E-01
 -1       270 2.52756E+02-1.54936E+02-7.09280E-08 4.93545E-01-3.09225E+01 2.94225E-01
 -1       271 2.60961E+02-1.59965E+02-1.05913E-07 4.53007E-01-3.31329E+01 2.74085E-01
 -1       272 2.68544E+02-1.64640E+02-1.32835E-07 4.16340E-01-3.51843E+01 2.53327E-01
 -1       273 2.75376E+02-1.68807E+02-1.63356E-07 3.73391E-01-3.70720E+01 2.32003E-01
 -1       274 2.81517E+02-1.72595E+02-1.97870E-07 3.32069E-01-3.87919E+01 2.10171E-01
 -1       275 2.86848E+02-1.75835E+02-2.16061E-07 2.88109E-01-4.03402E+01 1.87890E-01
 -1       276 2.91421E+02-1.78655E+02-2.02469E-07 2.37368E-01-4.17136E+01 1.65220E-01
 -1       277 2.95157E+02-1.80951E+02-1.77106E-07 1.92988E-01-4.29094E+01 1.42224E-01
 -1       278 2.98012E+02-1.82673E+02-1.59596E-07 1.38815E-01-4.39253E+01 1.18969E-01
 -1       279 3.00085E+02-1.83998E+02-1.46065E-07 9.15651E-02-4.47595E+01 9.55222E-02
 -1       280 3.01168E+02-1.84615E+02-1.35858E-07 4.02348E-02-4.54108E+01 7.19519E-02
 -1       281 3.01399E+02-1.84760E+02-1.29716E-07-1.41141E-02-4.58786E+01 4.83288E-02
 -1       282 3.00754E+02-1.84394E+02-1.31145E-07-6.64308E-02-4.61627E+01 2.47228E-02
 -1       283 2.99150E+02-1.83390E+02-1.47198E-07-1.17215E-01-4.62634E+01 1.20518E-03
 -1       284 2.96648E+02-1.81859E+02-1.78821E-07-1.71657E-01-4.61818E+01-2.21520E-02
 -1       285 2.93242E+02-1.79785E+02-2.28728E-07-2.23298E-01-4.59194E+01-4.52771E-02
 -1       286 2.88900E+02-1.77103E+02-2.75662E-07-2.72984E-01-4.54783E+01-6.80986E-02
 -1       287 2.83674E+02-1.73895E+02-3.02920E-07-3.29849E-01-4.48611E+01-9.05456E-02
 -1       288 2.77590E+02-1.70195E+02-3.24262E-07-3.77793E-01-4.40710E+01-1.12549E-01
 -1       289 2.70577E+02-1.65867E+02-3.41469E-07-4.28402E-01-4.31117E+01-1.34038E-01
 -1       290 2.62784E+02-1.61128E+02-3.51929E-07-4.74497E-01-4.19875E+01-1.54947E-01
 -1       291 2.54075E+02-1.55745E+02-3.59513E-07-5.21440E-01-4.07031E+01-1.75209E-01
 -1       292 2.44595E+02-1.49929E+02-3.70167E-07-5.72019E-01-3.92639E+01-1.94760E-01
 -1       293 2.34403E+02-1.43729E+02-3.68994E-07-6.13369E-01-3.76756E+01-2.13538E-01
 -1       294 2.23373E+02-1.36930E+02-3.40365E-07-6.55445E-01-3.59444E+01-2.31483E-01
 -1       295 2.11690E+02-1.29791E+02-2.97801E-07-6.94109E-01-3.40771E+01-2.48539E-01
 -1       296 1.99293E+02-1.22169E+02-2.56805E-07-7.32058E-01-3.20807E+01-2.64651E-01
 -1       297 1.86285E+02-1.14197E+02-2.22979E-07-7.68572E-01-2.99629E+01-2.79767E-01
 -1       298 1.72700E+02-1.05885E+02-1.91910E-07-8.01760E-01-2.77316E+01-2.93840E-01
 -1       299 1.58532E+02-9.71865E+01-1.56417E-07-8.30950E-01-2.53950E+01-3.06825E-01
 -1       300 1.43880E+02-8.82064E+01-1.20220E-07-8.58661E-01-2.29617E+01-3.18681E-01
 -1       301 1.28779E+02-7.89534E+01-9.28555E-08-8.83128E-01-2.04408E+01-3.29370E-01
 -1       302 1.13258E+02-6.94308E+01-7.34258E-08-9.05111E-01-1.78414E+01-3.38859E-01
 -1       303 9.73878E+01-5.96979E+01-5.04067E-08-9.24961E-01-1.51729E+01-3.47117E-01
 -1       304 8.12393E+01-4.98128E+01-2.17491E-08-9.39635E-01-1.24451E+01-3.54120E-01
 -1       305 6.48150E+01-3.97301E+01 7.47119E-09-9.52546E-01-9.66774E+00-3.59846E-01
 -1       306 4.82140E+01-2.95568E+01 3.68070E-08-9.62221E-01-6.85088E+00-3.64277E-01
 -1       307 3.14789E+01-1.92989E+01 6.38909E-08-9.68283E-01-4.00464E+00-3.67402E-01
 -1       308 1.46576E+01-8.98339E+00 8.37791E-08-9.71164E-01-1.13923E+00-3.69211E-01
 -1       309-2.17912E+00 1.33635E+00 1.02651E-07-9.70553E-01 1.73513E+00-3.69700E-01
 -1       310-1.89849E+01 1.16395E+01 1.15915E-07-9.66713E-01 4.60818E+00-3.68871E-01
 -1       311-3.57042E+01 2.18936E+01 1.18159E-07-9.60087E-01 7.46966E+00-3.66727E-01
 -1       312-5.22647E+01 3.20409E+01 1.18369E-07-9.50177E-01 1.03094E+01-3.63279E-01
 -1       313-6.86271E+01 4.20717E+01 1.18378E-07-9.36453E-01 1.31172E+01-3.58540E-01
 -1       314-8.47363E+01 5.19543E+01 1.14046E-07-9.19300E-01 1.58833E+01-3.52528E-01
 -1       315-1.00520E+02 6.16233E+01 1.00617E-07-9.00457E-01 1.85977E+01-3.45266E-01
 -1       316-1.15953E+02 7.10973E+01 8.81699E-08-8.76901E-01 2.12509E+01-3.36780E-01
 -1       317-1.30937E+02 8.02665E+01 8.18514E-08-8.52944E-01 2.38334E+01-3.27102E-01
 -1       318-1.45475E+02 8.91899E+01 7.68798E-08-8.21895E-01 2.63361E+01-3.16267E-01
 -1       319-1.59487E+02 9.77775E+01 7.15058E-08-7.93572E-01 2.87501E+01-3.04312E-01
 -1       320-1.72920E+02 1.06008E+02 6.77178E-08-7.55360E-01 3.10670E+01-2.91281E-01
 -1       321-1.85750E+02 1.13882E+02 6.41390E-08-7.20384E-01 3.32785E+01-2.77220E-01
 -1       322-1.97930E+02 1.21356E+02 5.10401E-08-6.82061E-01 3.53767E+01-2.62180E-01
 -1       323-2.09379E+02 1.28359E+02 3.06455E-08-6.40374E-01 3.73544E+01-2.46213E-01
 -1       324-2.20104E+02 1.34930E+02 8.41525E-09-5.95867E-01 3.92044E+01-2.29376E-01
 -1       325-2.30081E+02 1.41070E+02-5.20281E-09-5.48919E-01 4.09203E+01-2.11728E-01
 -1       326-2.39208E+02 1.46644E+02-1.12858E-08-5.03793E-01 4.24960E+01-1.93331E-01
 -1       327-2.47537E+02 1.51774E+02-2.61555E-08-4.52797E-01 4.39259E+01-1.74250E-01
 -1       328-2.54937E+02 1.56283E+02-2.70224E-08-4.03892E-01 4.52049E+01-1.54552E-01
 -1       329-2.61488E+02 1.60302E+02-5.21959E-09-3.50202E-01 4.63286E+01-1.34307E-01
 -1       330-2.67140E+02 1.63792E+02 2.76560E-09-2.94987E-01 4.72929E+01-1.13584E-01
 -1       331-2.71796E+02 1.66619E+02-5.81304E-09-2.42876E-01 4.80944E+01-9.24568E-02
 -1       332-2.75578E+02 1.68979E+02-5.80361E-09-1.87129E-01 4.87302E+01-7.09991E-02
 -1       333-2.78304E+02 1.70599E+02 1.54124E-08-1.36023E-01 4.91981E+01-4.92861E-02
 -1       334-2.80108E+02 1.71706E+02 5.64303E-08-7.08732E-02 4.94964E+01-2.73938E-02
 -1       335-2.80979E+02 1.72291E+02 1.03650E-07-1.73134E-02 4.96240E+01-5.39818E-03
 -1       336-2.80776E+02 1.72122E+02 1.47404E-07 3.82624E-02 4.95803E+01 1.66234E-02
 -1       337-2.79674E+02 1.71477E+02 1.82091E-07 9.37172E-02 4.93656E+01 3.85942E-02
 -1       338-2.77531E+02 1.70138E+02 2.06112E-07 1.50159E-01 4.89803E+01 6.04376E-02
 -1       339-2.74436E+02 1.68235E+02 2.26675E-07 2.07560E-01 4.84260E+01 8.20766E-02
 -1       340-2.70434E+02 1.65812E+02 2.35578E-07 2.61196E-01 4.77044E+01 1.03437E-01
 -1       341-2.65428E+02 1.62724E+02 2.16573E-07 3.16041E-01 4.68179E+01 1.24443E-01
 -1       342-2.59513E+02 1.59097E+02 1.77268E-07 3.67315E-01 4.57697E+01 1.45022E-01
 -1       343-2.52716E+02 1.54946E+02 1.32795E-07 4.19834E-01 4.45633E+01 1.65103E-01
 -1       344-2.44998E+02 1.50194E+02 9.88278E-08 4.67355E-01 4.32030E+01 1.84614E-01
 -1       345-2.36443E+02 1.44944E+02 8.59894E-08 5.19842E-01 4.16933E+01 2.03489E-01
 -1       346-2.27101E+02 1.39253E+02 7.35257E-08 5.65032E-01 4.00395E+01 2.21660E-01
 -1       347-2.16895E+02 1.32957E+02 4.58570E-08 6.07610E-01 3.82472E+01 2.39066E-01
 -1       348-2.05993E+02 1.26291E+02 1.55360E-08 6.52574E-01 3.63228E+01 2.55645E-01
 -1       349-1.94347E+02 1.19153E+02-1.01722E-08 6.92088E-01 3.42729E+01 2.71339E-01
 -1       350-1.82008E+02 1.11572E+02-3.56382E-08 7.30522E-01 3.21045E+01 2.86094E-01
 -1       351-1.69083E+02 1.03672E+02-6.07938E-08 7.65124E-01 2.98252E+01 2.99857E-01
 -1       352-1.55519E+02 9.53390E+01-7.51774E-08 7.98178E-01 2.74428E+01 3.12582E-01
 -1       353-1.41441E+02 8.67210E+01-7.62717E-08 8.26955E-01 2.49657E+01 3.24224E-01
 -1       354-1.26848E+02 7.77617E+01-6.84186E-08 8.54404E-01 2.24023E+01 3.34742E-01
 -1       355-1.11825E+02 6.85527E+01-5.31521E-08 8.78791E-01 1.97617E+01 3.44099E-01
 -1       356-9.64221E+01 5.91205E+01-3.98394E-08 9.00154E-01 1.70528E+01 3.52263E-01
 -1       357-8.06563E+01 4.94448E+01-3.09062E-08 9.17110E-01 1.42852E+01 3.59205E-01
 -1       358-6.46306E+01 3.96268E+01-2.09986E-08 9.31557E-01 1.14685E+01 3.64901E-01
 -1       359-4.83626E+01 2.96477E+01-1.29314E-08 9.43673E-01 8.61234E+00 3.69332E-01
 -1       360-3.19302E+01 1.95745E+01-6.76318E-09 9.51596E-01 5.72674E+00 3.72480E-01
 -1       361-1.53895E+01 9.43702E+00 4.27341E-09 9.56661E-01 2.82165E+00 3.74335E-01
 -1       362 1.21626E+00-7.46952E-01 1.44172E-08 9.57968E-01-9.28418E-02 3.74891E-01
 -1       363 1.78121E+01-1.09183E+01 2.40249E-08 9.55834E-01-3.00659E+00 3.74146E-01
 -1       364 3.43578E+01-2.10671E+01 3.52077E-08 9.50816E-01-5.90947E+00 3.72101E-01
 -1       365 5.07729E+01-3.11249E+01 4.59329E-08 9.42672E-01-8.79141E+00 3.68764E-01
 -1       366 6.70236E+01-4.10875E+01 5.83765E-08 9.30927E-01-1.16424E+01 3.64147E-01
 -1       367 8.30502E+01-5.09205E+01 6.54038E-08 9.15012E-01-1.44525E+01 3.58264E-01
 -1       368 9.87708E+01-6.05490E+01 7.43998E-08 8.97462E-01-1.72121E+01 3.51137E-01
 -1       369 1.14180E+02-7.00086E+01 7.89795E-08 8.76698E-01-1.99115E+01 3.42789E-01
 -1       370 1.29163E+02-7.91810E+01 6.58993E-08 8.52424E-01-2.25412E+01 3.33250E-01
 -1       371 1.43715E+02-8.81020E+01 3.86531E-08 8.24844E-01-2.50923E+01 3.22553E-01
 -1       372 1.57783E+02-9.67387E+01 2.94937E-09 7.93461E-01-2.75557E+01 3.10734E-01
 -1       373 1.71293E+02-1.05018E+02-1.82924E-08 7.62651E-01-2.99231E+01 2.97834E-01
 -1       374 1.84218E+02-1.12944E+02-2.02296E-08 7.27412E-01-3.21860E+01 2.83898E-01
 -1       375 1.96473E+02-1.20435E+02-2.07922E-08 6.88752E-01-3.43367E+01 2.68974E-01
 -1       376 2.08100E+02-1.27583E+02-2.20361E-08 6.47203E-01-3.63676E+01 2.53114E-01
 -1       377 2.18992E+02-1.34265E+02-1.90327E-08 6.04209E-01-3.82717E+01 2.36371E-01
 -1       378 2.29107E+02-1.40458E+02-1.77014E-08 5.60498E-01-4.00423E+01 2.18805E-01
 -1       379 2.38441E+02-1.46178E+02-1.73513E-08 5.13683E-01-4.16733E+01 2.00476E-01
 -1       380 2.46975E+02-1.51426E+02-8.02055E-09 4.66096E-01-4.31590E+01 1.81448E-01
 -1       381 2.54608E+02-1.56084E+02 1.61090E-08 4.16259E-01-4.44942E+01 1.61785E-01
 -1       382 2.61382E+02-1.60234E+02 5.75307E-08 3.63418E-01-4.56742E+01 1.41557E-01
 -1       383 2.67284E+02-1.63879E+02 9.71888E-08 3.09575E-01-4.66948E+01 1.20832E-01
 -1       384 2.72216E+02-1.66879E+02 1.13960E-07 2.58412E-01-4.75527E+01 9.96829E-02
 -1       385 2.76254E+02-1.69381E+02 1.07899E-07 2.02089E-01-4.82446E+01 7.81821E-02
 -1       386 2.79269E+02-1.71195E+02 8.28581E-08 1.48747E-01-4.87681E+01 5.64046E-02
 -1       387 2.81387E+02-1.72515E+02 5.37316E-08 9.13213E-02-4.91214E+01 3.44254E-02
 -1       388 2.82513E+02-1.73205E+02 2.91357E-08 3.56222E-02-4.93033E+01 1.23195E-02
 -1       389 2.82630E+02-1.73253E+02 2.98668E-09-2.21362E-02-4.93130E+01-9.83592E-03
 -1       390 2.81849E+02-1.72823E+02-1.72003E-08-7.83084E-02-4.91504E+01-3.19646E-02
 -1       391 2.80006E+02-1.71648E+02-2.41510E-08-1.30346E-01-4.88160E+01-5.39901E-02
 -1       392 2.77247E+02-1.69964E+02-2.47264E-08-1.90457E-01-4.83110E+01-7.58364E-02
 -1       393 2.73542E+02-1.67714E+02-3.69412E-08-2.44410E-01-4.76371E+01-9.74284E-02
 -1       394 2.68862E+02-1.64823E+02-5.97700E-08-2.95818E-01-4.67964E+01-1.18692E-01
 -1       395 2.63296E+02-1.61433E+02-7.00067E-08-3.50905E-01-4.57918E+01-1.39554E-01
 -1       396 2.56771E+02-1.57409E+02-7.54032E-08-3.99501E-01-4.46268E+01-1.59942E-01
 -1       397 2.49392E+02-1.52884E+02-8.62974E-08-4.53028E-01-4.33053E+01-1.79785E-01
 -1       398 2.41187E+02-1.47877E+02-8.40211E-08-5.00287E-01-4.18318E+01-1.99017E-01
 -1       399 2.32110E+02-1.42299E+02-7.68051E-08-5.47601E-01-4.02113E+01-2.17571E-01
 -1       400 2.22246E+02-1.36246E+02-8.95706E-08-5.91025E-01-3.84493E+01-2.35384E-01
 -1       401 2.11655E+02-1.29778E+02-1.20262E-07-6.35125E-01-3.65519E+01-2.52393E-01
 -1       402 2.00283E+02-1.22773E+02-1.46361E-07-6.71471E-01-3.45255E+01-2.68543E-01
 -1       403 1.88261E+02-1.15402E+02-1.54881E-07-7.16335E-01-3.23770E+01-2.83776E-01
 -1       404 1.75627E+02-1.07690E+02-1.47772E-07-7.49652E-01-3.01138E+01-2.98041E-01
 -1       405 1.62346E+02-9.95221E+01-1.30216E-07-7.80857E-01-2.77435E+01-3.11291E-01
 -1       406 1.48555E+02-9.10829E+01-1.01457E-07-8.12284E-01-2.52743E+01-3.23479E-01
 -1       407 1.34231E+02-8.22870E+01-6.62663E-08-8.38240E-01-2.27145E+01-3.34566E-01
 -1       408 1.19476E+02-7.32416E+01-4.04603E-08-8.64262E-01-2.00730E+01-3.44513E-01
 -1       409 1.04337E+02-6.39723E+01-2.28934E-08-8.84898E-01-1.73586E+01-3.53287E-01
 -1       410 8.88311E+01-5.44564E+01-1.09820E-08-9.02921E-01-1.45806E+01-3.60860E-01
 -1       411 7.30500E+01-4.47866E+01 3.48948E-09-9.17727E-01-1.17484E+01-3.67207E-01
 -1       412 5.70301E+01-3.49606E+01 2.22206E-08-9.29144E-01-8.87178E+00-3.72307E-01
 -1       413 4.08374E+01-2.50333E+01 3.72540E-08-9.38542E-01-5.96036E+00-3.76145E-01
 -1       414 2.45312E+01-1.50406E+01 4.98558E-08-9.42789E-01-3.02403E+00-3.78708E-01
 -1       415 8.15847E+00-4.99951E+00 6.58322E-08-9.44528E-01-7.27368E-02-3.79990E-01
 -1       416-8.21361E+00 5.03792E+00 8.50622E-08-9.43200E-01 2.88355E+00-3.79989E-01
 -1       417-2.45248E+01 1.50350E+01 1.02847E-07-9.38427E-01 5.83484E+00-3.78707E-01
 -1       418-4.07256E+01 2.49692E+01 1.20373E-07-9.29363E-01 8.77117E+00-3.76149E-01
 -1       419-5.67515E+01 3.47955E+01 1.37939E-07-9.17349E-01 1.16827E+01-3.72328E-01
 -1       420-7.25460E+01 4.44777E+01 1.56248E-07-9.02718E-01 1.45596E+01-3.67260E-01
 -1       421-8.80509E+01 5.39823E+01 1.67872E-07-8.83881E-01 1.73924E+01-3.60965E-01
 -1       422-1.03218E+02 6.32877E+01 1.65918E-07-8.62610E-01 2.01715E+01-3.53468E-01
 -1       423-1.17973E+02 7.23244E+01 1.59953E-07-8.39372E-01 2.28877E+01-3.44798E-01
 -1       424-1.32283E+02 8.10957E+01 1.45974E-07-8.09641E-01 2.55320E+01-3.34988E-01
 -1       425-1.46101E+02 8.95810E+01 1.13833E-07-7.79314E-01 2.80957E+01-3.24075E-01
 -1       426-1.59336E+02 9.76809E+01 7.91000E-08-7.45790E-01 3.05704E+01-3.12102E-01
 -1       427-1.72002E+02 1.05463E+02 5.30668E-08-7.10425E-01 3.29479E+01-2.99114E-01
 -1       428-1.83975E+02 1.12785E+02 3.07320E-08-6.71389E-01 3.52207E+01-2.85160E-01
 -1       429-1.95275E+02 1.19720E+02 2.33920E-09-6.28812E-01 3.73813E+01-2.70293E-01
 -1       430-2.05846E+02 1.26207E+02-3.81619E-08-5.87166E-01 3.94230E+01-2.54569E-01
 -1       431-2.15603E+02 1.32168E+02-8.75743E-08-5.37530E-01 4.13392E+01-2.38047E-01
 -1       432-2.24599E+02 1.37722E+02-1.49943E-07-4.90808E-01 4.31240E+01-2.20791E-01
 -1       433-2.32670E+02 1.42635E+02-2.25637E-07-4.42059E-01 4.47720E+01-2.02866E-01
 -1       434-2.39898E+02 1.47070E+02-3.02962E-07-3.88962E-01 4.62781E+01-1.84341E-01
 -1       435-2.46230E+02 1.50975E+02-3.62573E-07-3.33109E-01 4.76381E+01-1.65284E-01
 -1       436-2.51568E+02 1.54225E+02-3.81126E-07-2.80914E-01 4.88480E+01-1.45770E-01
 -1       437-2.55991E+02 1.56961E+02-3.60331E-07-2.23012E-01 4.99046E+01-1.25873E-01
 -1       438-2.59379E+02 1.59011E+02-3.20137E-07-1.69031E-01 5.08053E+01-1.05670E-01
 -1       439-2.61788E+02 1.60493E+02-2.78896E-07-1.05743E-01 5.15478E+01-8.52394E-02
 -1       440-2.63192E+02 1.61372E+02-2.43801E-07-4.77983E-02 5.21308E+01-6.46595E-02
 -1       441-2.63541E+02 1.61575E+02-2.12031E-07 1.02810E-02 5.25535E+01-4.40112E-02
 -1       442-2.62853E+02 1.61148E+02-1.82290E-07 7.19525E-02 5.28155E+01-2.33755E-02
 -1       443-2.61153E+02 1.60136E+02-1.44226E-07 1.31426E-01 5.29173E+01-2.83431E-03
 -1       444-2.58335E+02 1.58366E+02-8.27033E-08 1.88388E-01 5.28601E+01 1.75303E-02
 -1       445-2.54519E+02 1.56026E+02-7.83719E-09 2.53872E-01 5.26453E+01 3.76361E-02
 -1       446-2.49705E+02 1.53123E+02 7.06234E-08 3.14602E-01 5.22755E+01 5.74023E-02
 -1       447-2.43765E+02 1.49442E+02 1.50771E-07 3.70755E-01 5.17535E+01 7.67467E-02
 -1       448-2.36882E+02 1.45251E+02 2.05833E-07 4.29079E-01 5.10830E+01 9.55888E-02
 -1       449-2.28927E+02 1.40348E+02 2.27115E-07 4.87385E-01 5.02681E+01 1.13849E-01
 -1       450-2.20002E+02 1.34879E+02 2.36913E-07 5.44684E-01 4.93138E+01 1.31448E-01
 -1       451-2.10129E+02 1.28847E+02 2.47079E-07 6.01490E-01 4.82253E+01 1.48310E-01
 -1       452-1.99259E+02 1.22166E+02 2.59592E-07 6.53361E-01 4.70089E+01 1.64358E-01
 -1       453-1.87496E+02 1.14971E+02 2.70866E-07 7.07677E-01 4.56710E+01 1.79520E-01
 -1       454-1.74792E+02 1.07166E+02 2.70718E-07 7.57230E-01 4.42189E+01 1.93722E-01
 -1       455-1.61231E+02 9.88516E+01 2.54602E-07 8.08635E-01 4.26603E+01 2.06895E-01
 -1       456-1.46856E+02 9.00628E+01 2.35717E-07 8.55970E-01 4.10034E+01 2.18972E-01
 -1       457-1.31618E+02 8.06993E+01 2.28440E-07 9.00408E-01 3.92571E+01 2.29889E-01
 -1       458-1.15635E+02 7.09086E+01 2.24463E-07 9.45755E-01 3.74306E+01 2.39582E-01
 -1       459-9.89084E+01 6.06589E+01 2.19494E-07 9.86256E-01 3.55336E+01 2.47992E-01
 -1       460-8.14689E+01 4.99592E+01 2.10949E-07 1.02611E+00 3.35764E+01 2.55063E-01
 -1       461-6.33800E+01 3.88815E+01 1.90359E-07 1.06341E+00 3.15696E+01 2.60740E-01
 -1       462-4.46552E+01 2.73958E+01 1.69687E-07 1.09671E+00 2.95243E+01 2.64975E-01
 -1       463-2.53498E+01 1.55648E+01 1.55166E-07 1.13062E+00 2.74517E+01 2.67719E-01
 -1       464-5.50347E+00 3.39554E+00 1.34691E-07 1.15865E+00 2.53637E+01 2.68928E-01
 -1       465 1.48490E+01-9.07704E+00 1.08862E-07 1.18949E+00 2.32725E+01 2.68561E-01
 -1       466 3.56509E+01-2.18298E+01 8.50481E-08 1.21076E+00 2.11904E+01 2.66581E-01
 -1       467 5.68928E+01-3.48518E+01 6.35775E-08 1.23833E+00 1.91300E+01 2.62952E-01
 -1       468 7.84857E+01-4.80881E+01 4.51486E-08 1.25228E+00 1.71044E+01 2.57644E-01
 -1       469 1.00449E+02-6.15525E+01 2.98979E-08 1.27895E+00 1.51266E+01 2.50629E-01
 -1       470 1.22676E+02-7.51817E+01 1.56408E-08 1.28568E+00 1.32102E+01 2.41881E-01
 -1       471 1.45192E+02-8.89619E+01 2.74956E-09 1.31354E+00 1.13686E+01 2.31379E-01
 -1       472 1.67907E+02-1.02909E+02-1.46333E-08 1.30494E+00 9.61559E+00 2.19103E-01
 -1       473 1.90861E+02-1.16966E+02-4.08175E-08 1.33832E+00 7.96497E+00 2.05037E-01
 -1       474 2.13905E+02-1.31115E+02-7.06425E-08 1.31800E+00 6.43078E+00 1.89168E-01
 -1       475 2.37165E+02-1.45346E+02-1.05559E-07 1.36316E+00 5.02705E+00 1.71484E-01
 -1       476 2.60329E+02-1.59510E+02-1.41833E-07 1.31866E+00 3.76797E+00 1.51978E-01
 -1       477 2.84034E+02-1.74250E+02-1.76515E-07 1.37635E+00 2.66768E+00 1.30640E-01
 -1       478 3.06633E+02-1.87321E+02-2.12192E-07 1.33730E+00 1.74052E+00 1.07467E-01
 -1       479 3.32760E+02-2.06244E+02-2.48346E-07 1.28693E+00 1.00069E+00 8.24527E-02
 -1       480 3.46937E+02-2.04181E+02-2.77517E-07 1.74247E+00 4.62609E-01 5.56114E-02
 -1       481 4.03979E+02-2.78631E+02-3.53555E-07-2.53230E-01 1.40496E-01 2.68751E-02
 -1       482 2.68803E+02-5.21285E+01-4.18878E-07 7.05698E+00 3.50209E-02 1.20101E-02
 -1       483 8.69165E-02-1.09763E-02-7.28537E-09 5.85657E-04-6.79564E+01-3.53744E-01
 -1       484 4.11738E-01-2.11741E-01-2.31211E-08 1.24456E-01-6.58931E+01-3.53720E-01
 -1       485 1.39620E+00-8.16955E-01-3.67729E-08 2.40822E-01-6.17671E+01-3.53622E-01
 -1       486 2.99624E+00-1.80112E+00-2.97862E-08 3.49868E-01-5.76429E+01-3.53389E-01
 -1       487 5.16179E+00-3.12959E+00-1.88497E-08 4.50579E-01-5.35225E+01-3.52959E-01
 -1       488 7.86484E+00-4.79243E+00 2.95013E-09 5.45103E-01-4.94086E+01-3.52275E-01
 -1       489 1.10406E+01-6.73457E+00 2.57249E-08 6.31365E-01-4.53044E+01-3.51284E-01
 -1       490 1.46863E+01-8.97959E+00 3.63707E-08 7.09392E-01-4.12138E+01-3.49937E-01
 -1       491 1.87193E+01-1.14477E+01 4.52847E-08 7.82036E-01-3.71412E+01-3.48188E-01
 -1       492 2.31315E+01-1.41573E+01 4.74527E-08 8.44445E-01-3.30915E+01-3.45998E-01
 -1       493 2.78749E+01-1.70703E+01 4.13491E-08 9.02020E-01-2.90702E+01-3.43330E-01
 -1       494 3.28813E+01-2.01309E+01 3.05425E-08 9.53217E-01-2.50829E+01-3.40153E-01
 -1       495 3.81688E+01-2.33837E+01 1.57050E-08 9.90518E-01-2.11358E+01-3.36437E-01
 -1       496 4.36514E+01-2.67486E+01 3.60564E-09 1.03160E+00-1.72353E+01-3.32159E-01
 -1       497 4.92845E+01-3.01921E+01-7.96666E-09 1.05354E+00-1.33880E+01-3.27301E-01
 -1       498 5.50842E+01-3.37524E+01-2.01940E-08 1.07634E+00-9.60096E+00-3.21844E-01
 -1       499 6.09694E+01-3.73772E+01-3.12969E-08 1.09564E+00-5.88109E+00-3.15777E-01
 -1       500 6.68766E+01-4.09703E+01-3.47987E-08 1.09495E+00-2.23558E+00-3.09094E-01
 -1       501 7.28718E+01-4.46778E+01-3.86860E-08 1.10194E+00 1.32834E+00-3.01788E-01
 -1       502 7.87899E+01-4.82861E+01-4.65112E-08 1.09071E+00 4.80341E+00-2.93860E-01
 -1       503 8.47083E+01-5.19258E+01-4.99958E-08 1.08187E+00 8.18236E+00-2.85314E-01
 -1       504 9.05264E+01-5.55004E+01-5.13090E-08 1.06701E+00 1.14580E+01-2.76155E-01
 -1       505 9.61972E+01-5.89482E+01-5.52900E-08 1.03832E+00 1.46233E+01-2.66395E-01
 -1       506 1.01804E+02-6.24255E+01-5.89625E-08 1.01038E+00 1.76713E+01-2.56045E-01
 -1       507 1.07156E+02-6.56791E+01-5.19583E-08 9.74489E-01 2.05953E+01-2.45124E-01
 -1       508 1.12354E+02-6.88801E+01-3.63467E-08 9.36462E-01 2.33885E+01-2.33650E-01
 -1       509 1.17298E+02-7.19083E+01-1.31504E-08 8.91141E-01 2.60448E+01-2.21647E-01
 -1       510 1.21981E+02-7.47737E+01 1.71256E-08 8.39170E-01 2.85581E+01-2.09140E-01
 -1       511 1.26410E+02-7.75014E+01 4.69072E-08 7.83648E-01 3.09227E+01-1.96158E-01
 -1       512 1.30513E+02-8.00176E+01 7.05627E-08 7.29943E-01 3.31332E+01-1.82730E-01
 -1       513 1.34272E+02-8.23123E+01 9.00269E-08 6.66306E-01 3.51846E+01-1.68891E-01
 -1       514 1.37704E+02-8.44158E+01 1.10810E-07 5.97918E-01 3.70723E+01-1.54675E-01
 -1       515 1.40787E+02-8.63261E+01 1.32450E-07 5.29817E-01 3.87922E+01-1.40120E-01
 -1       516 1.43443E+02-8.79325E+01 1.44099E-07 4.56398E-01 4.03405E+01-1.25265E-01
 -1       517 1.45732E+02-8.93482E+01 1.35524E-07 3.84114E-01 4.17139E+01-1.10151E-01
 -1       518 1.47595E+02-9.04867E+01 1.18454E-07 3.04145E-01 4.29097E+01-9.48202E-02
 -1       519 1.49044E+02-9.13783E+01 1.07090E-07 2.27618E-01 4.39256E+01-7.93162E-02
 -1       520 1.50044E+02-9.19901E+01 9.82821E-08 1.46750E-01 4.47599E+01-6.36845E-02
 -1       521 1.50606E+02-9.23283E+01 9.10048E-08 5.87646E-02 4.54112E+01-4.79709E-02
 -1       522 1.50740E+02-9.24241E+01 8.68153E-08-1.75052E-02 4.58790E+01-3.22211E-02
 -1       523 1.50396E+02-9.22112E+01 8.83505E-08-1.04268E-01 4.61631E+01-1.64830E-02
 -1       524 1.49592E+02-9.17098E+01 9.91982E-08-1.87389E-01 4.62638E+01-8.04293E-04
 -1       525 1.48339E+02-9.09381E+01 1.19968E-07-2.74353E-01 4.61822E+01 1.47675E-02
 -1       526 1.46654E+02-8.99269E+01 1.53313E-07-3.57158E-01 4.59199E+01 3.01847E-02
 -1       527 1.44470E+02-8.85670E+01 1.84920E-07-4.41815E-01 4.54788E+01 4.53997E-02
 -1       528 1.41860E+02-8.69702E+01 2.02524E-07-5.21609E-01 4.48616E+01 6.03650E-02
 -1       529 1.38813E+02-8.51105E+01 2.16578E-07-6.04156E-01 4.40715E+01 7.50340E-02
 -1       530 1.35324E+02-8.29717E+01 2.27443E-07-6.83617E-01 4.31122E+01 8.93610E-02
 -1       531 1.31396E+02-8.05590E+01 2.34481E-07-7.60173E-01 4.19880E+01 1.03301E-01
 -1       532 1.27056E+02-7.78871E+01 2.40383E-07-8.41567E-01 4.07036E+01 1.16809E-01
 -1       533 1.22345E+02-7.50190E+01 2.46729E-07-9.06364E-01 3.92644E+01 1.29844E-01
 -1       534 1.17200E+02-7.18528E+01 2.46964E-07-9.78978E-01 3.76761E+01 1.42363E-01
 -1       535 1.11706E+02-6.84838E+01 2.27998E-07-1.04812E+00 3.59449E+01 1.54327E-01
 -1       536 1.05862E+02-6.49081E+01 1.99308E-07-1.11111E+00 3.40776E+01 1.65697E-01
 -1       537 9.96731E+01-6.11126E+01 1.72285E-07-1.17319E+00 3.20813E+01 1.76439E-01
 -1       538 9.31609E+01-5.71149E+01 1.48826E-07-1.22545E+00 2.99634E+01 1.86517E-01
 -1       539 8.63527E+01-5.29388E+01 1.27746E-07-1.28150E+00 2.77321E+01 1.95899E-01
 -1       540 7.92884E+01-4.86159E+01 1.04468E-07-1.32904E+00 2.53955E+01 2.04556E-01
 -1       541 7.19573E+01-4.41189E+01 8.05533E-08-1.37327E+00 2.29622E+01 2.12461E-01
 -1       542 6.43953E+01-3.94786E+01 6.12020E-08-1.41224E+00 2.04413E+01 2.19587E-01
 -1       543 5.66395E+01-3.47229E+01 4.82919E-08-1.44935E+00 1.78419E+01 2.25913E-01
 -1       544 4.87147E+01-2.98715E+01 3.45168E-08-1.47697E+00 1.51734E+01 2.31419E-01
 -1       545 4.06220E+01-2.49039E+01 1.59066E-08-1.50273E+00 1.24456E+01 2.36088E-01
 -1       546 3.24146E+01-1.98708E+01-5.12015E-09-1.52394E+00 9.66823E+00 2.39905E-01
 -1       547 2.41165E+01-1.47862E+01-2.48542E-08-1.53814E+00 6.85136E+00 2.42860E-01
 -1       548 1.57447E+01-9.65320E+00-4.17718E-08-1.54846E+00 4.00510E+00 2.44943E-01
 -1       549 7.33488E+00-4.49605E+00-5.49292E-08-1.55270E+00 1.13968E+00 2.46149E-01
 -1       550-1.08692E+00 6.67107E-01-6.68848E-08-1.55232E+00-1.73470E+00 2.46475E-01
 -1       551-9.49206E+00 5.82160E+00-7.83043E-08-1.54644E+00-4.60776E+00 2.45922E-01
 -1       552-1.78475E+01 1.09424E+01-7.90115E-08-1.53564E+00-7.46926E+00 2.44493E-01
 -1       553-2.61337E+01 1.60232E+01-7.62670E-08-1.51854E+00-1.03090E+01 2.42195E-01
 -1       554-3.43173E+01 2.10417E+01-7.85429E-08-1.49844E+00-1.31169E+01 2.39035E-01
 -1       555-4.23721E+01 2.59822E+01-7.62689E-08-1.47127E+00-1.58830E+01 2.35027E-01
 -1       556-5.02629E+01 3.08158E+01-6.69515E-08-1.44036E+00-1.85974E+01 2.30186E-01
 -1       557-5.79744E+01 3.55442E+01-5.85378E-08-1.40295E+00-2.12506E+01 2.24529E-01
 -1       558-6.54807E+01 4.01485E+01-5.35922E-08-1.36109E+00-2.38331E+01 2.18076E-01
 -1       559-7.27550E+01 4.46157E+01-5.05444E-08-1.31780E+00-2.63358E+01 2.10852E-01
 -1       560-7.97426E+01 4.88863E+01-4.69128E-08-1.26638E+00-2.87499E+01 2.02882E-01
 -1       561-8.64638E+01 5.30054E+01-4.50401E-08-1.21188E+00-3.10668E+01 1.94195E-01
 -1       562-9.29029E+01 5.69748E+01-4.30167E-08-1.15269E+00-3.32783E+01 1.84821E-01
 -1       563-9.89606E+01 6.06678E+01-3.33424E-08-1.09121E+00-3.53766E+01 1.74793E-01
 -1       564-1.04705E+02 6.41956E+01-1.92857E-08-1.02100E+00-3.73543E+01 1.64149E-01
 -1       565-1.10077E+02 6.74940E+01-4.36424E-09-9.56020E-01-3.92044E+01 1.52923E-01
 -1       566-1.15054E+02 7.05461E+01 4.57122E-09-8.80777E-01-4.09203E+01 1.41158E-01
 -1       567-1.19620E+02 7.33395E+01 7.99907E-09-8.05839E-01-4.24960E+01 1.28893E-01
 -1       568-1.23764E+02 7.58741E+01 1.73188E-08-7.24719E-01-4.39259E+01 1.16172E-01
 -1       569-1.27514E+02 7.81959E+01 1.75833E-08-6.42082E-01-4.52050E+01 1.03040E-01
 -1       570-1.30760E+02 8.01655E+01 3.78442E-09-5.64782E-01-4.63287E+01 8.95420E-02
 -1       571-1.33570E+02 8.18891E+01-1.01275E-09-4.74223E-01-4.72931E+01 7.57267E-02
 -1       572-1.35934E+02 8.33493E+01 3.55405E-09-3.88545E-01-4.80946E+01 6.16415E-02
 -1       573-1.37804E+02 8.45004E+01 3.83685E-09-2.99825E-01-4.87305E+01 4.73358E-02
 -1       574-1.39175E+02 8.53214E+01-9.79774E-09-2.08397E-01-4.91984E+01 3.28601E-02
 -1       575-1.40077E+02 8.58750E+01-3.74963E-08-1.23566E-01-4.94968E+01 1.82645E-02
 -1       576-1.40506E+02 8.61574E+01-6.91184E-08-2.99421E-02-4.96244E+01 3.60045E-03
 -1       577-1.40426E+02 8.61031E+01-9.82249E-08 6.02525E-02-4.95808E+01-1.10812E-02
 -1       578-1.39839E+02 8.57330E+01-1.21181E-07 1.49249E-01-4.93660E+01-2.57288E-02
 -1       579-1.38785E+02 8.50855E+01-1.37403E-07 2.44171E-01-4.89808E+01-4.02911E-02
 -1       580-1.37271E+02 8.41786E+01-1.51230E-07 3.26633E-01-4.84265E+01-5.47182E-02
 -1       581-1.35217E+02 8.28953E+01-1.56939E-07 4.15611E-01-4.77049E+01-6.89589E-02
 -1       582-1.32733E+02 8.13777E+01-1.44528E-07 5.04460E-01-4.68185E+01-8.29633E-02
 -1       583-1.29790E+02 7.95824E+01-1.18530E-07 5.87543E-01-4.57703E+01-9.66833E-02
 -1       584-1.26375E+02 7.74864E+01-8.87007E-08 6.70071E-01-4.45640E+01-1.10071E-01
 -1       585-1.22523E+02 7.51182E+01-6.65883E-08 7.51252E-01-4.32036E+01-1.23079E-01
 -1       586-1.18243E+02 7.24921E+01-5.78273E-08 8.26339E-01-4.16940E+01-1.35662E-01
 -1       587-1.13568E+02 6.96395E+01-4.88909E-08 9.02311E-01-4.00402E+01-1.47777E-01
 -1       588-1.08479E+02 6.65114E+01-3.10878E-08 9.74482E-01-3.82480E+01-1.59382E-01
 -1       589-1.03003E+02 6.31455E+01-1.14356E-08 1.03971E+00-3.63236E+01-1.70435E-01
 -1       590-9.71906E+01 5.95892E+01 5.92497E-09 1.10876E+00-3.42737E+01-1.80897E-01
 -1       591-9.10434E+01 5.58296E+01 2.34064E-08 1.16481E+00-3.21053E+01-1.90734E-01
 -1       592-8.45441E+01 5.18305E+01 4.05521E-08 1.22226E+00-2.98260E+01-1.99911E-01
 -1       593-7.77763E+01 4.76842E+01 4.97807E-08 1.27594E+00-2.74436E+01-2.08394E-01
 -1       594-7.07372E+01 4.33734E+01 4.95649E-08 1.32309E+00-2.49665E+01-2.16156E-01
 -1       595-6.34448E+01 3.89009E+01 4.43610E-08 1.36732E+00-2.24031E+01-2.23168E-01
 -1       596-5.59284E+01 3.42897E+01 3.47001E-08 1.40310E+00-1.97625E+01-2.29407E-01
 -1       597-4.82155E+01 2.95588E+01 2.58998E-08 1.43878E+00-1.70537E+01-2.34850E-01
 -1       598-4.03494E+01 2.47438E+01 1.92396E-08 1.46671E+00-1.42861E+01-2.39478E-01
 -1       599-3.23211E+01 1.98145E+01 1.28631E-08 1.49001E+00-1.14693E+01-2.43276E-01
 -1       600-2.41915E+01 1.48316E+01 8.76772E-09 1.50926E+00-8.61316E+00-2.46229E-01
 -1       601-1.59778E+01 9.79821E+00 3.75990E-09 1.52128E+00-5.72754E+00-2.48328E-01
 -1       602-7.69943E+00 4.71965E+00-3.97129E-09 1.52952E+00-2.82244E+00-2.49565E-01
 -1       603 5.99774E-01-3.67187E-01-1.05533E-08 1.53197E+00 9.20598E-02-2.49936E-01
 -1       604 8.90199E+00-5.45808E+00-1.66911E-08 1.52892E+00 3.00581E+00-2.49439E-01
 -1       605 1.71713E+01-1.05274E+01-2.40310E-08 1.52071E+00 5.90872E+00-2.48076E-01
 -1       606 2.53888E+01-1.55683E+01-3.18745E-08 1.50684E+00 8.79069E+00-2.45851E-01
 -1       607 3.35101E+01-2.05446E+01-3.94740E-08 1.48971E+00 1.16417E+01-2.42773E-01
 -1       608 4.15179E+01-2.54526E+01-4.47490E-08 1.46441E+00 1.44519E+01-2.38851E-01
 -1       609 4.93976E+01-3.02923E+01-5.11356E-08 1.43579E+00 1.72115E+01-2.34100E-01
 -1       610 5.70815E+01-3.49941E+01-5.31142E-08 1.40254E+00 1.99109E+01-2.28535E-01
 -1       611 6.45871E+01-3.95980E+01-4.63001E-08 1.36147E+00 2.25407E+01-2.22175E-01
 -1       612 7.18689E+01-4.40663E+01-2.80486E-08 1.32105E+00 2.50918E+01-2.15043E-01
 -1       613 7.88981E+01-4.83762E+01-2.38042E-09 1.27156E+00 2.75553E+01-2.07164E-01
 -1       614 8.56531E+01-5.25173E+01 1.12316E-08 1.21986E+00 2.99226E+01-1.98564E-01
 -1       615 9.21024E+01-5.64607E+01 1.33119E-08 1.16092E+00 3.21856E+01-1.89273E-01
 -1       616 9.82672E+01-6.02564E+01 1.36347E-08 1.10089E+00 3.43363E+01-1.79324E-01
 -1       617 1.04059E+02-6.37999E+01 1.24471E-08 1.04009E+00 3.63673E+01-1.68749E-01
 -1       618 1.09495E+02-6.71280E+01 1.08287E-08 9.67982E-01 3.82714E+01-1.57588E-01
 -1       619 1.14575E+02-7.02519E+01 1.12022E-08 8.97525E-01 4.00421E+01-1.45877E-01
 -1       620 1.19245E+02-7.31173E+01 1.15891E-08 8.22860E-01 4.16731E+01-1.33657E-01
 -1       621 1.23485E+02-7.57047E+01 5.30985E-09 7.46637E-01 4.31589E+01-1.20971E-01
 -1       622 1.27323E+02-7.80605E+01-1.22497E-08 6.62049E-01 4.44941E+01-1.07863E-01
 -1       623 1.30722E+02-8.01528E+01-3.96066E-08 5.85698E-01 4.56742E+01-9.43764E-02
 -1       624 1.33657E+02-8.19517E+01-6.54574E-08 4.98777E-01 4.66949E+01-8.05594E-02
 -1       625 1.36127E+02-8.34591E+01-7.71282E-08 4.14237E-01 4.75528E+01-6.64596E-02
 -1       626 1.38124E+02-8.46778E+01-7.27317E-08 3.24093E-01 4.82447E+01-5.21258E-02
 -1       627 1.39684E+02-8.56563E+01-5.60592E-08 2.34482E-01 4.87684E+01-3.76068E-02
 -1       628 1.40712E+02-8.62725E+01-3.61077E-08 1.51344E-01 4.91217E+01-2.29531E-02
 -1       629 1.41260E+02-8.65984E+01-1.90005E-08 5.53134E-02 4.93037E+01-8.21578E-03
 -1       630 1.41352E+02-8.66668E+01-2.61667E-09-3.06880E-02 4.93134E+01 6.55499E-03
 -1       631 1.40941E+02-8.64234E+01 1.03904E-08-1.22511E-01 4.91509E+01 2.13080E-02
 -1       632 1.40029E+02-8.58501E+01 1.54482E-08-2.12518E-01 4.88166E+01 3.59921E-02
 -1       633 1.38643E+02-8.49970E+01 1.60511E-08-2.98608E-01 4.83116E+01 5.05569E-02
 -1       634 1.36803E+02-8.38897E+01 2.31262E-08-3.87943E-01 4.76377E+01 6.49522E-02
 -1       635 1.34451E+02-8.24287E+01 3.72884E-08-4.72404E-01 4.67971E+01 7.91284E-02
 -1       636 1.31653E+02-8.07128E+01 4.46112E-08-5.59454E-01 4.57926E+01 9.30364E-02
 -1       637 1.28424E+02-7.87451E+01 4.91366E-08-6.43171E-01 4.46276E+01 1.06629E-01
 -1       638 1.24734E+02-7.64813E+01 5.65716E-08-7.18569E-01 4.33061E+01 1.19859E-01
 -1       639 1.20599E+02-7.39360E+01 5.52096E-08-7.97514E-01 4.18327E+01 1.32681E-01
 -1       640 1.16074E+02-7.11642E+01 5.08866E-08-8.74592E-01 4.02122E+01 1.45050E-01
 -1       641 1.11155E+02-6.81546E+01 5.86654E-08-9.45157E-01 3.84503E+01 1.56926E-01
 -1       642 1.05846E+02-6.49026E+01 7.91765E-08-1.01378E+00 3.65529E+01 1.68266E-01
 -1       643 1.00164E+02-6.14063E+01 9.75435E-08-1.08030E+00 3.45265E+01 1.79033E-01
 -1       644 9.41504E+01-5.77170E+01 1.02912E-07-1.13761E+00 3.23781E+01 1.89189E-01
 -1       645 8.78392E+01-5.38683E+01 9.80642E-08-1.19673E+00 3.01149E+01 1.98699E-01
 -1       646 8.11906E+01-4.97739E+01 8.54980E-08-1.24838E+00 2.77446E+01 2.07533E-01
 -1       647 7.42873E+01-4.55441E+01 6.62098E-08-1.29831E+00 2.52754E+01 2.15659E-01
 -1       648 6.71427E+01-4.11693E+01 4.43273E-08-1.34255E+00 2.27157E+01 2.23050E-01
 -1       649 5.97615E+01-3.66419E+01 2.79733E-08-1.37915E+00 2.00741E+01 2.29682E-01
 -1       650 5.21778E+01-3.19889E+01 1.50204E-08-1.41400E+00 1.73597E+01 2.35532E-01
 -1       651 4.44297E+01-2.72380E+01 6.91625E-09-1.44392E+00 1.45818E+01 2.40581E-01
 -1       652 3.65430E+01-2.24082E+01-1.44109E-09-1.46753E+00 1.17496E+01 2.44812E-01
 -1       653 2.85273E+01-1.74883E+01-1.51816E-08-1.48656E+00 8.87295E+00 2.48213E-01
 -1       654 2.04313E+01-1.25254E+01-2.57854E-08-1.49959E+00 5.96153E+00 2.50771E-01
 -1       655 1.22769E+01-7.52773E+00-3.31001E-08-1.50792E+00 3.02519E+00 2.52480E-01
 -1       656 4.08813E+00-2.50451E+00-4.41734E-08-1.51061E+00 7.38826E-02 2.53335E-01
 -1       657-4.09639E+00 2.51161E+00-5.76984E-08-1.50822E+00-2.88242E+00 2.53335E-01
 -1       658-1.22558E+01 7.51490E+00-6.84721E-08-1.50005E+00-5.83371E+00 2.52480E-01
 -1       659-2.03569E+01 1.24825E+01-8.07010E-08-1.48705E+00-8.77006E+00 2.50775E-01
 -1       660-2.83728E+01 1.73988E+01-9.32933E-08-1.46788E+00-1.16816E+01 2.48228E-01
 -1       661-3.62672E+01 2.22359E+01-1.04820E-07-1.44438E+00-1.45586E+01 2.44849E-01
 -1       662-4.40214E+01 2.69894E+01-1.11040E-07-1.41445E+00-1.73914E+01 2.40653E-01
 -1       663-5.16112E+01 3.16500E+01-1.10730E-07-1.38029E+00-2.01705E+01 2.35655E-01
 -1       664-5.89867E+01 3.61644E+01-1.07203E-07-1.34072E+00-2.28868E+01 2.29874E-01
 -1       665-6.61444E+01 4.05544E+01-9.69068E-08-1.29765E+00-2.55311E+01 2.23334E-01
 -1       666-7.30508E+01 4.47917E+01-7.64507E-08-1.24776E+00-2.80948E+01 2.16059E-01
 -1       667-7.96828E+01 4.88609E+01-5.36242E-08-1.19431E+00-3.05696E+01 2.08077E-01
 -1       668-8.59942E+01 5.27231E+01-3.60500E-08-1.13712E+00-3.29472E+01 1.99418E-01
 -1       669-9.19937E+01 5.63994E+01-1.97278E-08-1.07175E+00-3.52200E+01 1.90115E-01
 -1       670-9.76670E+01 5.98985E+01-8.97771E-10-1.00942E+00-3.73807E+01 1.80203E-01
 -1       671-1.02916E+02 6.30914E+01 2.54177E-08-9.37935E-01-3.94224E+01 1.69721E-01
 -1       672-1.07814E+02 6.60992E+01 5.88576E-08-8.64222E-01-4.13387E+01 1.58706E-01
 -1       673-1.12307E+02 6.88667E+01 1.00087E-07-7.86569E-01-4.31236E+01 1.47202E-01
 -1       674-1.16363E+02 7.13509E+01 1.50591E-07-7.04465E-01-4.47716E+01 1.35251E-01
 -1       675-1.19965E+02 7.35517E+01 2.01865E-07-6.27124E-01-4.62779E+01 1.22900E-01
 -1       676-1.23114E+02 7.54813E+01 2.42223E-07-5.36576E-01-4.76379E+01 1.10196E-01
 -1       677-1.25813E+02 7.71469E+01 2.55512E-07-4.49798E-01-4.88479E+01 9.71864E-02
 -1       678-1.28010E+02 7.84929E+01 2.41145E-07-3.59377E-01-4.99046E+01 8.39214E-02
 -1       679-1.29709E+02 7.95265E+01 2.14643E-07-2.66728E-01-5.08053E+01 7.04524E-02
 -1       680-1.30912E+02 8.02618E+01 1.87357E-07-1.75810E-01-5.15479E+01 5.68313E-02
 -1       681-1.31626E+02 8.07190E+01 1.63170E-07-7.93796E-02-5.21310E+01 4.31109E-02
 -1       682-1.31784E+02 8.07965E+01 1.41393E-07 1.44433E-02-5.25537E+01 2.93449E-02
 -1       683-1.31445E+02 8.05903E+01 1.21194E-07 1.13027E-01-5.28158E+01 1.55876E-02
 -1       684-1.30596E+02 8.00850E+01 9.54209E-08 2.08901E-01-5.29177E+01 1.89314E-03
 -1       685-1.29206E+02 7.92239E+01 5.51469E-08 3.08155E-01-5.28605E+01-1.16839E-02
 -1       686-1.27284E+02 7.80369E+01 5.91390E-09 3.96206E-01-5.26458E+01-2.50887E-02
 -1       687-1.24857E+02 7.65551E+01-4.52358E-08 4.98405E-01-5.22761E+01-3.82662E-02
 -1       688-1.21932E+02 7.47774E+01-9.73744E-08 5.91675E-01-5.17541E+01-5.11630E-02
 -1       689-1.18446E+02 7.26197E+01-1.34999E-07 6.84711E-01-5.10837E+01-6.37250E-02
 -1       690-1.14490E+02 7.01991E+01-1.50048E-07 7.81065E-01-5.02689E+01-7.58986E-02
 -1       691-1.10041E+02 6.74801E+01-1.56768E-07 8.66719E-01-4.93146E+01-8.76322E-02
 -1       692-1.05083E+02 6.44371E+01-1.63809E-07 9.58017E-01-4.82262E+01-9.88740E-02
 -1       693-9.96562E+01 6.11070E+01-1.71864E-07 1.04369E+00-4.70098E+01-1.09573E-01
 -1       694-9.37598E+01 5.74894E+01-1.79836E-07 1.13011E+00-4.56719E+01-1.19681E-01
 -1       695-8.74309E+01 5.36182E+01-1.80033E-07 1.21276E+00-4.42198E+01-1.29150E-01
 -1       696-8.06496E+01 4.94588E+01-1.69044E-07 1.28881E+00-4.26612E+01-1.37932E-01
 -1       697-7.34404E+01 4.50370E+01-1.56750E-07 1.36614E+00-4.10044E+01-1.45984E-01
 -1       698-6.58320E+01 4.03680E+01-1.51775E-07 1.44104E+00-3.92581E+01-1.53262E-01
 -1       699-5.78444E+01 3.54791E+01-1.49755E-07 1.50927E+00-3.74316E+01-1.59724E-01
 -1       700-4.94767E+01 3.03471E+01-1.46185E-07 1.57683E+00-3.55347E+01-1.65332E-01
 -1       701-4.07553E+01 2.49972E+01-1.39645E-07 1.63880E+00-3.35775E+01-1.70046E-01
 -1       702-3.17134E+01 1.94595E+01-1.26584E-07 1.69865E+00-3.15707E+01-1.73831E-01
 -1       703-2.23460E+01 1.37132E+01-1.12537E-07 1.75412E+00-2.95253E+01-1.76655E-01
 -1       704-1.26975E+01 7.80029E+00-1.02190E-07 1.80609E+00-2.74528E+01-1.78485E-01
 -1       705-2.76585E+00 1.70895E+00-8.92085E-08 1.85423E+00-2.53648E+01-1.79291E-01
 -1       706 7.39982E+00-4.51804E+00-7.18123E-08 1.89842E+00-2.32735E+01-1.79046E-01
 -1       707 1.78206E+01-1.09137E+01-5.58447E-08 1.93924E+00-2.11913E+01-1.77726E-01
 -1       708 2.84167E+01-1.74002E+01-4.24135E-08 1.97605E+00-1.91310E+01-1.75307E-01
 -1       709 3.92406E+01-2.40425E+01-3.00535E-08 2.00822E+00-1.71053E+01-1.71769E-01
 -1       710 5.01962E+01-3.07545E+01-1.94166E-08 2.03788E+00-1.51275E+01-1.67092E-01
 -1       711 6.13474E+01-3.75991E+01-1.02763E-08 2.06297E+00-1.32110E+01-1.61260E-01
 -1       712 7.25567E+01-4.44499E+01-1.91288E-09 2.08671E+00-1.13693E+01-1.54259E-01
 -1       713 8.39771E+01-5.14736E+01 1.03374E-08 2.10557E+00-9.61624E+00-1.46075E-01
 -1       714 9.53855E+01-5.84514E+01 2.71084E-08 2.12109E+00-7.96554E+00-1.36697E-01
 -1       715 1.06992E+02-6.55840E+01 4.66892E-08 2.13447E+00-6.43125E+00-1.26118E-01
 -1       716 1.18495E+02-7.25996E+01 7.05196E-08 2.14154E+00-5.02743E+00-1.14329E-01
 -1       717 1.30280E+02-7.98613E+01 9.44861E-08 2.15508E+00-3.76823E+00-1.01324E-01
 -1       718 1.41906E+02-8.70411E+01 1.17568E-07 2.15542E+00-2.66783E+00-8.70985E-02
 -1       719 1.53303E+02-9.35744E+01 1.41513E-07 2.17637E+00-1.74054E+00-7.16502E-02
 -1       720 1.66822E+02-1.03760E+02 1.65701E-07 2.10343E+00-1.00059E+00-5.49731E-02
 -1       721 1.71396E+02-9.94109E+01 1.85140E-07 2.38911E+00-4.62338E-01-3.70798E-02
 -1       722 2.10086E+02-1.49466E+02 2.35765E-07 1.33735E+00-1.40105E-01-1.79174E-02
 -1       723 1.22542E+02-5.45096E-02 2.79272E-07 5.17852E+00-3.47426E-02-8.00270E-03
 -1       724 8.69165E-02-1.09763E-02 7.28537E-09 5.85751E-04 6.79564E+01 3.53744E-01
 -1       725 4.11738E-01-2.11741E-01 2.31211E-08 1.24456E-01 6.58931E+01 3.53720E-01
 -1       726 1.39620E+00-8.16955E-01 3.67729E-08 2.40822E-01 6.17671E+01 3.53622E-01
 -1       727 2.99624E+00-1.80112E+00 2.97862E-08 3.49868E-01 5.76429E+01 3.53389E-01
 -1       728 5.16179E+00-3.12959E+00 1.88497E-08 4.50579E-01 5.35225E+01 3.52959E-01
 -1       729 7.86484E+00-4.79243E+00-2.95013E-09 5.45103E-01 4.94086E+01 3.52275E-01
 -1       730 1.10406E+01-6.73457E+00-2.57249E-08 6.31365E-01 4.53044E+01 3.51284E-01
 -1       731 1.46863E+01-8.97959E+00-3.63707E-08 7.09392E-01 4.12138E+01 3.49937E-01
 -1       732 1.87193E+01-1.14477E+01-4.52847E-08 7.82036E-01 3.71412E+01 3.48188E-01
 -1       733 2.31315E+01-1.41573E+01-4.74527E-08 8.44445E-01 3.30915E+01 3.45998E-01
 -1       734 2.78749E+01-1.70703E+01-4.13491E-08 9.02020E-01 2.90702E+01 3.43330E-01
 -1       735 3.28813E+01-2.01309E+01-3.05425E-08 9.53218E-01 2.50829E+01 3.40153E-01
 -1       736 3.81688E+01-2.33837E+01-1.57050E-08 9.90518E-01 2.11358E+01 3.36437E-01
 -1       737 4.36514E+01-2.67486E+01-3.60564E-09 1.03160E+00 1.72353E+01 3.32159E-01
 -1       738 4.92845E+01-3.01921E+01 7.96666E-09 1.05354E+00 1.33880E+01 3.27301E-01
 -1       739 5.50842E+01-3.37524E+01 2.01940E-08 1.07634E+00 9.60096E+00 3.21844E-01
 -1       740 6.09694E+01-3.73772E+01 3.12969E-08 1.09564E+00 5.88109E+00 3.15777E-01
 -1       741 6.68766E+01-4.09703E+01 3.47987E-08 1.09495E+00 2.23558E+00 3.09094E-01
 -1       742 7.28718E+01-4.46778E+01 3.86860E-08 1.10194E+00-1.32834E+00 3.01788E-01
 -1       743 7.87899E+01-4.82861E+01 4.65112E-08 1.09071E+00-4.80341E+00 2.93860E-01
 -1       744 8.47083E+01-5.19258E+01 4.99958E-08 1.08187E+00-8.18236E+00 2.85314E-01
 -1       745 9.05264E+01-5.55004E+01 5.13090E-08 1.06701E+00-1.14580E+01 2.76155E-01
 -1       746 9.61972E+01-5.89482E+01 5.52900E-08 1.03832E+00-1.46233E+01 2.66395E-01
 -1       747 1.01804E+02-6.24255E+01 5.89625E-08 1.01038E+00-1.76713E+01 2.56045E-01
 -1       748 1.07156E+02-6.56791E+01 5.19583E-08 9.74489E-01-2.05953E+01 2.45124E-01
 -1       749 1.12354E+02-6.88801E+01 3.63467E-08 9.36462E-01-2.33885E+01 2.33650E-01
 -1       750 1.17298E+02-7.19083E+01 1.31504E-08 8.91141E-01-2.60448E+01 2.21647E-01
 -1       751 1.21981E+02-7.47737E+01-1.71256E-08 8.39170E-01-2.85581E+01 2.09140E-01
 -1       752 1.26410E+02-7.75014E+01-4.69072E-08 7.83648E-01-3.09227E+01 1.96158E-01
 -1       753 1.30513E+02-8.00176E+01-7.05627E-08 7.29943E-01-3.31331E+01 1.82730E-01
 -1       754 1.34272E+02-8.23123E+01-9.00269E-08 6.66306E-01-3.51846E+01 1.68891E-01
 -1       755 1.37704E+02-8.44158E+01-1.10810E-07 5.97918E-01-3.70723E+01 1.54675E-01
 -1       756 1.40787E+02-8.63261E+01-1.32450E-07 5.29817E-01-3.87922E+01 1.40120E-01
 -1       757 1.43443E+02-8.79325E+01-1.44099E-07 4.56398E-01-4.03405E+01 1.25265E-01
 -1       758 1.45732E+02-8.93482E+01-1.35524E-07 3.84114E-01-4.17139E+01 1.10151E-01
 -1       759 1.47595E+02-9.04867E+01-1.18454E-07 3.04145E-01-4.29097E+01 9.48202E-02
 -1       760 1.49044E+02-9.13783E+01-1.07090E-07 2.27618E-01-4.39256E+01 7.93162E-02
 -1       761 1.50044E+02-9.19901E+01-9.82821E-08 1.46750E-01-4.47598E+01 6.36845E-02
 -1       762 1.50606E+02-9.23283E+01-9.10048E-08 5.87647E-02-4.54112E+01 4.79709E-02
 -1       763 1.50740E+02-9.24241E+01-8.68153E-08-1.75052E-02-4.58790E+01 3.22211E-02
 -1       764 1.50396E+02-9.22112E+01-8.83505E-08-1.04268E-01-4.61630E+01 1.64830E-02
 -1       765 1.49592E+02-9.17098E+01-9.91982E-08-1.87389E-01-4.62638E+01 8.04287E-04
 -1       766 1.48339E+02-9.09381E+01-1.19968E-07-2.74353E-01-4.61822E+01-1.47675E-02
 -1       767 1.46654E+02-8.99269E+01-1.53313E-07-3.57158E-01-4.59199E+01-3.01847E-02
 -1       768 1.44470E+02-8.85670E+01-1.84920E-07-4.41815E-01-4.54788E+01-4.53997E-02
 -1       769 1.41860E+02-8.69702E+01-2.02524E-07-5.21609E-01-4.48616E+01-6.03650E-02
 -1       770 1.38813E+02-8.51105E+01-2.16578E-07-6.04156E-01-4.40715E+01-7.50340E-02
 -1       771 1.35324E+02-8.29717E+01-2.27443E-07-6.83617E-01-4.31122E+01-8.93610E-02
 -1       772 1.31396E+02-8.05590E+01-2.34481E-07-7.60173E-01-4.19880E+01-1.03301E-01
 -1       773 1.27056E+02-7.78871E+01-2.40383E-07-8.41567E-01-4.07036E+01-1.16809E-01
 -1       774 1.22345E+02-7.50190E+01-2.46729E-07-9.06364E-01-3.92644E+01-1.29844E-01
 -1       775 1.17200E+02-7.18528E+01-2.46964E-07-9.78978E-01-3.76761E+01-1.42363E-01
 -1       776 1.11706E+02-6.84838E+01-2.27998E-07-1.04812E+00-3.59449E+01-1.54327E-01
 -1       777 1.05862E+02-6.49081E+01-1.99308E-07-1.11111E+00-3.40776E+01-1.65697E-01
 -1       778 9.96731E+01-6.11126E+01-1.72285E-07-1.17319E+00-3.20812E+01-1.76439E-01
 -1       779 9.31609E+01-5.71149E+01-1.48826E-07-1.22545E+00-2.99634E+01-1.86517E-01
 -1       780 8.63527E+01-5.29388E+01-1.27746E-07-1.28150E+00-2.77321E+01-1.95899E-01
 -1       781 7.92884E+01-4.86159E+01-1.04468E-07-1.32904E+00-2.53955E+01-2.04556E-01
 -1       782 7.19573E+01-4.41189E+01-8.05533E-08-1.37327E+00-2.29622E+01-2.12461E-01
 -1       783 6.43953E+01-3.94786E+01-6.12020E-08-1.41224E+00-2.04413E+01-2.19587E-01
 -1       784 5.66395E+01-3.47229E+01-4.82919E-08-1.44935E+00-1.78419E+01-2.25913E-01
 -1       785 4.87147E+01-2.98715E+01-3.45168E-08-1.47697E+00-1.51734E+01-2.31419E-01
 -1       786 4.06220E+01-2.49039E+01-1.59066E-08-1.50273E+00-1.24456E+01-2.36088E-01
 -1       787 3.24146E+01-1.98708E+01 5.12015E-09-1.52394E+00-9.66823E+00-2.39905E-01
 -1       788 2.41165E+01-1.47862E+01 2.48542E-08-1.53814E+00-6.85136E+00-2.42860E-01
 -1       789 1.57447E+01-9.65320E+00 4.17718E-08-1.54846E+00-4.00510E+00-2.44943E-01
 -1       790 7.33488E+00-4.49605E+00 5.49292E-08-1.55270E+00-1.13967E+00-2.46149E-01
 -1       791-1.08692E+00 6.67107E-01 6.68848E-08-1.55232E+00 1.73470E+00-2.46475E-01
 -1       792-9.49206E+00 5.82160E+00 7.83043E-08-1.54644E+00 4.60776E+00-2.45922E-01
 -1       793-1.78475E+01 1.09424E+01 7.90115E-08-1.53564E+00 7.46927E+00-2.44493E-01
 -1       794-2.61337E+01 1.60232E+01 7.62670E-08-1.51854E+00 1.03090E+01-2.42195E-01
 -1       795-3.43173E+01 2.10417E+01 7.85429E-08-1.49844E+00 1.31169E+01-2.39035E-01
 -1       796-4.23721E+01 2.59822E+01 7.62689E-08-1.47127E+00 1.58830E+01-2.35027E-01
 -1       797-5.02629E+01 3.08158E+01 6.69515E-08-1.44036E+00 1.85974E+01-2.30186E-01
 -1       798-5.79744E+01 3.55442E+01 5.85378E-08-1.40295E+00 2.12506E+01-2.24529E-01
 -1       799-6.54807E+01 4.01485E+01 5.35922E-08-1.36109E+00 2.38331E+01-2.18076E-01
 -1       800-7.27550E+01 4.46157E+01 5.05444E-08-1.31780E+00 2.63359E+01-2.10852E-01
 -1       801-7.97426E+01 4.88863E+01 4.69128E-08-1.26638E+00 2.87499E+01-2.02882E-01
 -1       802-8.64638E+01 5.30054E+01 4.50401E-08-1.21188E+00 3.10668E+01-1.94195E-01
 -1       803-9.29029E+01 5.69748E+01 4.30167E-08-1.15269E+00 3.32783E+01-1.84820E-01
 -1       804-9.89606E+01 6.06678E+01 3.33424E-08-1.09121E+00 3.53766E+01-1.74793E-01
 -1       805-1.04705E+02 6.41956E+01 1.92857E-08-1.02100E+00 3.73543E+01-1.64149E-01
 -1       806-1.10077E+02 6.74940E+01 4.36424E-09-9.56020E-01 3.92044E+01-1.52923E-01
 -1       807-1.15054E+02 7.05461E+01-4.57122E-09-8.80777E-01 4.09203E+01-1.41158E-01
 -1       808-1.19620E+02 7.33395E+01-7.99907E-09-8.05839E-01 4.24960E+01-1.28893E-01
 -1       809-1.23764E+02 7.58741E+01-1.73188E-08-7.24719E-01 4.39259E+01-1.16172E-01
 -1       810-1.27514E+02 7.81959E+01-1.75833E-08-6.42082E-01 4.52050E+01-1.03040E-01
 -1       811-1.30760E+02 8.01655E+01-3.78442E-09-5.64782E-01 4.63287E+01-8.95420E-02
 -1       812-1.33570E+02 8.18891E+01 1.01275E-09-4.74223E-01 4.72931E+01-7.57267E-02
 -1       813-1.35934E+02 8.33493E+01-3.55405E-09-3.88545E-01 4.80946E+01-6.16414E-02
 -1       814-1.37804E+02 8.45004E+01-3.83685E-09-2.99824E-01 4.87305E+01-4.73358E-02
 -1       815-1.39175E+02 8.53214E+01 9.79774E-09-2.08397E-01 4.91984E+01-3.28601E-02
 -1       816-1.40077E+02 8.58750E+01 3.74963E-08-1.23566E-01 4.94968E+01-1.82645E-02
 -1       817-1.40506E+02 8.61574E+01 6.91184E-08-2.99420E-02 4.96244E+01-3.60045E-03
 -1       818-1.40426E+02 8.61031E+01 9.82249E-08 6.02526E-02 4.95808E+01 1.10812E-02
 -1       819-1.39839E+02 8.57330E+01 1.21181E-07 1.49249E-01 4.93660E+01 2.57288E-02
 -1       820-1.38785E+02 8.50855E+01 1.37403E-07 2.44171E-01 4.89808E+01 4.02911E-02
 -1       821-1.37271E+02 8.41786E+01 1.51230E-07 3.26633E-01 4.84265E+01 5.47182E-02
 -1       822-1.35217E+02 8.28953E+01 1.56939E-07 4.15611E-01 4.77049E+01 6.89589E-02
 -1       823-1.32733E+02 8.13777E+01 1.44528E-07 5.04460E-01 4.68185E+01 8.29633E-02
 -1       824-1.29790E+02 7.95824E+01 1.18530E-07 5.87542E-01 4.57703E+01 9.66833E-02
 -1       825-1.26375E+02 7.74864E+01 8.87007E-08 6.70071E-01 4.45640E+01 1.10071E-01
 -1       826-1.22523E+02 7.51182E+01 6.65883E-08 7.51252E-01 4.32036E+01 1.23079E-01
 -1       827-1.18243E+02 7.24921E+01 5.78273E-08 8.26339E-01 4.16940E+01 1.35662E-01
 -1       828-1.13568E+02 6.96395E+01 4.88909E-08 9.02311E-01 4.00402E+01 1.47777E-01
 -1       829-1.08479E+02 6.65114E+01 3.10878E-08 9.74482E-01 3.82480E+01 1.59382E-01
 -1       830-1.03003E+02 6.31455E+01 1.14356E-08 1.03971E+00 3.63236E+01 1.70435E-01
 -1       831-9.71906E+01 5.95892E+01-5.92497E-09 1.10876E+00 3.42737E+01 1.80897E-01
 -1       832-9.10434E+01 5.58296E+01-2.34064E-08 1.16481E+00 3.21053E+01 1.90734E-01
 -1       833-8.45441E+01 5.18305E+01-4.05521E-08 1.22226E+00 2.98260E+01 1.99911E-01
 -1       834-7.77763E+01 4.76842E+01-4.97807E-08 1.27594E+00 2.74436E+01 2.08394E-01
 -1       835-7.07372E+01 4.33734E+01-4.95649E-08 1.32309E+00 2.49665E+01 2.16156E-01
 -1       836-6.34448E+01 3.89009E+01-4.43610E-08 1.36732E+00 2.24031E+01 2.23168E-01
 -1       837-5.59284E+01 3.42897E+01-3.47001E-08 1.40310E+00 1.97625E+01 2.29407E-01
 -1       838-4.82155E+01 2.95588E+01-2.58998E-08 1.43878E+00 1.70537E+01 2.34850E-01
 -1       839-4.03494E+01 2.47438E+01-1.92396E-08 1.46671E+00 1.42861E+01 2.39478E-01
 -1       840-3.23211E+01 1.98145E+01-1.28631E-08 1.49001E+00 1.14693E+01 2.43276E-01
 -1       841-2.41915E+01 1.48316E+01-8.76772E-09 1.50926E+00 8.61316E+00 2.46229E-01
 -1       842-1.59778E+01 9.79821E+00-3.75990E-09 1.52128E+00 5.72754E+00 2.48328E-01
 -1       843-7.69943E+00 4.71965E+00 3.97129E-09 1.52952E+00 2.82244E+00 2.49565E-01
 -1       844 5.99774E-01-3.67187E-01 1.05533E-08 1.53197E+00-9.20600E-02 2.49936E-01
 -1       845 8.90199E+00-5.45808E+00 1.66911E-08 1.52892E+00-3.00581E+00 2.49439E-01
 -1       846 1.71713E+01-1.05274E+01 2.40310E-08 1.52071E+00-5.90872E+00 2.48076E-01
 -1       847 2.53888E+01-1.55683E+01 3.18745E-08 1.50684E+00-8.79069E+00 2.45851E-01
 -1       848 3.35101E+01-2.05446E+01 3.94740E-08 1.48971E+00-1.16417E+01 2.42773E-01
 -1       849 4.15179E+01-2.54526E+01 4.47490E-08 1.46441E+00-1.44519E+01 2.38851E-01
 -1       850 4.93976E+01-3.02923E+01 5.11356E-08 1.43579E+00-1.72115E+01 2.34100E-01
 -1       851 5.70815E+01-3.49941E+01 5.31142E-08 1.40254E+00-1.99109E+01 2.28535E-01
 -1       852 6.45871E+01-3.95980E+01 4.63001E-08 1.36147E+00-2.25407E+01 2.22175E-01
 -1       853 7.18689E+01-4.40663E+01 2.80486E-08 1.32105E+00-2.50918E+01 2.15043E-01
 -1       854 7.88981E+01-4.83762E+01 2.38042E-09 1.27156E+00-2.75553E+01 2.07164E-01
 -1       855 8.56531E+01-5.25173E+01-1.12316E-08 1.21986E+00-2.99226E+01 1.98564E-01
 -1       856 9.21024E+01-5.64607E+01-1.33119E-08 1.16092E+00-3.21856E+01 1.89273E-01
 -1       857 9.82672E+01-6.02564E+01-1.36347E-08 1.10089E+00-3.43363E+01 1.79324E-01
 -1       858 1.04059E+02-6.37999E+01-1.24471E-08 1.04009E+00-3.63673E+01 1.68749E-01
 -1       859 1.09495E+02-6.71280E+01-1.08287E-08 9.67982E-01-3.82714E+01 1.57588E-01
 -1       860 1.14575E+02-7.02519E+01-1.12022E-08 8.97525E-01-4.00421E+01 1.45877E-01
 -1       861 1.19245E+02-7.31173E+01-1.15891E-08 8.22860E-01-4.16731E+01 1.33657E-01
 -1       862 1.23485E+02-7.57047E+01-5.30985E-09 7.46637E-01-4.31589E+01 1.20971E-01
 -1       863 1.27323E+02-7.80605E+01 1.22497E-08 6.62049E-01-4.44941E+01 1.07863E-01
 -1       864 1.30722E+02-8.01528E+01 3.96066E-08 5.85698E-01-4.56742E+01 9.43764E-02
 -1       865 1.33657E+02-8.19517E+01 6.54574E-08 4.98777E-01-4.66949E+01 8.05594E-02
 -1       866 1.36127E+02-8.34591E+01 7.71282E-08 4.14237E-01-4.75528E+01 6.64596E-02
 -1       867 1.38124E+02-8.46778E+01 7.27317E-08 3.24092E-01-4.82447E+01 5.21258E-02
 -1       868 1.39684E+02-8.56563E+01 5.60592E-08 2.34482E-01-4.87684E+01 3.76068E-02
 -1       869 1.40712E+02-8.62725E+01 3.61077E-08 1.51344E-01-4.91217E+01 2.29531E-02
 -1       870 1.41260E+02-8.65984E+01 1.90005E-08 5.53133E-02-4.93037E+01 8.21578E-03
 -1       871 1.41352E+02-8.66668E+01 2.61667E-09-3.06880E-02-4.93134E+01-6.55499E-03
 -1       872 1.40941E+02-8.64234E+01-1.03904E-08-1.22511E-01-4.91509E+01-2.13080E-02
 -1       873 1.40029E+02-8.58501E+01-1.54482E-08-2.12518E-01-4.88166E+01-3.59921E-02
 -1       874 1.38643E+02-8.49970E+01-1.60511E-08-2.98608E-01-4.83116E+01-5.05569E-02
 -1       875 1.36803E+02-8.38897E+01-2.31262E-08-3.87943E-01-4.76377E+01-6.49522E-02
 -1       876 1.34451E+02-8.24287E+01-3.72884E-08-4.72404E-01-4.67971E+01-7.91284E-02
 -1       877 1.31653E+02-8.07128E+01-4.46112E-08-5.59454E-01-4.57926E+01-9.30364E-02
 -1       878 1.28424E+02-7.87451E+01-4.91366E-08-6.43171E-01-4.46276E+01-1.06629E-01
 -1       879 1.24734E+02-7.64813E+01-5.65716E-08-7.18569E-01-4.33061E+01-1.19859E-01
 -1       880 1.20599E+02-7.39360E+01-5.52096E-08-7.97514E-01-4.18327E+01-1.32681E-01
 -1       881 1.16074E+02-7.11642E+01-5.08866E-08-8.74592E-01-4.02122E+01-1.45050E-01
 -1       882 1.11155E+02-6.81546E+01-5.86654E-08-9.45157E-01-3.84503E+01-1.56926E-01
 -1       883 1.05846E+02-6.49026E+01-7.91765E-08-1.01378E+00-3.65529E+01-1.68266E-01
 -1       884 1.00164E+02-6.14063E+01-9.75435E-08-1.08030E+00-3.45265E+01-1.79033E-01
 -1       885 9.41504E+01-5.77170E+01-1.02912E-07-1.13761E+00-3.23781E+01-1.89189E-01
 -1       886 8.78392E+01-5.38683E+01-9.80642E-08-1.19673E+00-3.01149E+01-1.98699E-01
 -1       887 8.11906E+01-4.97739E+01-8.54980E-08-1.24838E+00-2.77446E+01-2.07533E-01
 -1       888 7.42873E+01-4.55441E+01-6.62098E-08-1.29831E+00-2.52754E+01-2.15659E-01
 -1       889 6.71427E+01-4.11693E+01-4.43273E-08-1.34255E+00-2.27157E+01-2.23050E-01
 -1       890 5.97615E+01-3.66419E+01-2.79733E-08-1.37915E+00-2.00741E+01-2.29682E-01
 -1       891 5.21778E+01-3.19889E+01-1.50204E-08-1.41400E+00-1.73597E+01-2.35532E-01
 -1       892 4.44297E+01-2.72380E+01-6.91625E-09-1.44392E+00-1.45818E+01-2.40581E-01
 -1       893 3.65430E+01-2.24082E+01 1.44109E-09-1.46753E+00-1.17496E+01-2.44812E-01
 -1       894 2.85273E+01-1.74883E+01 1.51816E-08-1.48656E+00-8.87295E+00-2.48213E-01
 -1       895 2.04313E+01-1.25254E+01 2.57854E-08-1.49959E+00-5.96153E+00-2.50771E-01
 -1       896 1.22769E+01-7.52773E+00 3.31001E-08-1.50792E+00-3.02519E+00-2.52480E-01
 -1       897 4.08813E+00-2.50451E+00 4.41734E-08-1.51061E+00-7.38827E-02-2.53335E-01
 -1       898-4.09639E+00 2.51161E+00 5.76984E-08-1.50822E+00 2.88242E+00-2.53335E-01
 -1       899-1.22558E+01 7.51490E+00 6.84721E-08-1.50005E+00 5.83371E+00-2.52480E-01
 -1       900-2.03569E+01 1.24825E+01 8.07010E-08-1.48705E+00 8.77006E+00-2.50775E-01
 -1       901-2.83728E+01 1.73988E+01 9.32933E-08-1.46788E+00 1.16816E+01-2.48228E-01
 -1       902-3.62672E+01 2.22359E+01 1.04820E-07-1.44438E+00 1.45586E+01-2.44849E-01
 -1       903-4.40214E+01 2.69894E+01 1.11040E-07-1.41445E+00 1.73914E+01-2.40653E-01
 -1       904-5.16112E+01 3.16500E+01 1.10730E-07-1.38029E+00 2.01705E+01-2.35655E-01
 -1       905-5.89867E+01 3.61644E+01 1.07203E-07-1.34072E+00 2.28868E+01-2.29874E-01
 -1       906-6.61444E+01 4.05544E+01 9.69068E-08-1.29765E+00 2.55311E+01-2.23334E-01
 -1       907-7.30508E+01 4.47917E+01 7.64507E-08-1.24776E+00 2.80948E+01-2.16059E-01
 -1       908-7.96828E+01 4.88609E+01 5.36242E-08-1.19431E+00 3.05696E+01-2.08077E-01
 -1       909-8.59942E+01 5.27231E+01 3.60500E-08-1.13712E+00 3.29472E+01-1.99418E-01
 -1       910-9.19937E+01 5.63994E+01 1.97278E-08-1.07175E+00 3.52200E+01-1.90115E-01
 -1       911-9.76670E+01 5.98985E+01 8.97771E-10-1.00942E+00 3.73807E+01-1.80203E-01
 -1       912-1.02916E+02 6.30914E+01-2.54177E-08-9.37935E-01 3.94224E+01-1.69721E-01
 -1       913-1.07814E+02 6.60992E+01-5.88576E-08-8.64222E-01 4.13387E+01-1.58706E-01
 -1       914-1.12307E+02 6.88667E+01-1.00087E-07-7.86569E-01 4.31236E+01-1.47202E-01
 -1       915-1.16363E+02 7.13509E+01-1.50591E-07-7.04465E-01 4.47716E+01-1.35251E-01
 -1       916-1.19965E+02 7.35517E+01-2.01865E-07-6.27124E-01 4.62779E+01-1.22900E-01
 -1       917-1.23114E+02 7.54813E+01-2.42223E-07-5.36576E-01 4.76379E+01-1.10196E-01
 -1       918-1.25813E+02 7.71469E+01-2.55512E-07-4.49798E-01 4.88479E+01-9.71864E-02
 -1       919-1.28010E+02 7.84929E+01-2.41145E-07-3.59377E-01 4.99046E+01-8.39214E-02
 -1       920-1.29709E+02 7.95265E+01-2.14643E-07-2.66727E-01 5.08053E+01-7.04524E-02
 -1       921-1.30912E+02 8.02618E+01-1.87357E-07-1.75810E-01 5.15479E+01-5.68313E-02
 -1       922-1.31626E+02 8.07190E+01-1.63170E-07-7.93795E-02 5.21310E+01-4.31109E-02
 -1       923-1.31784E+02 8.07965E+01-1.41393E-07 1.44434E-02 5.25537E+01-2.93449E-02
 -1       924-1.31445E+02 8.05903E+01-1.21194E-07 1.13027E-01 5.28158E+01-1.55876E-02
 -1       925-1.30596E+02 8.00850E+01-9.54209E-08 2.08902E-01 5.29177E+01-1.89313E-03
 -1       926-1.29206E+02 7.92239E+01-5.51469E-08 3.08155E-01 5.28605E+01 1.16839E-02
 -1       927-1.27284E+02 7.80369E+01-5.91390E-09 3.96206E-01 5.26458E+01 2.50887E-02
 -1       928-1.24857E+02 7.65551E+01 4.52358E-08 4.98405E-01 5.22761E+01 3.82662E-02
 -1       929-1.21932E+02 7.47774E+01 9.73744E-08 5.91675E-01 5.17541E+01 5.11630E-02
 -1       930-1.18446E+02 7.26197E+01 1.34999E-07 6.84711E-01 5.10837E+01 6.37250E-02
 -1       931-1.14490E+02 7.01991E+01 1.50048E-07 7.81065E-01 5.02689E+01 7.58986E-02
 -1       932-1.10041E+02 6.74801E+01 1.56768E-07 8.66719E-01 4.93146E+01 8.76322E-02
 -1       933-1.05083E+02 6.44371E+01 1.63809E-07 9.58017E-01 4.82262E+01 9.88740E-02
 -1       934-9.96562E+01 6.11070E+01 1.71864E-07 1.04369E+00 4.70098E+01 1.09573E-01
 -1       935-9.37598E+01 5.74894E+01 1.79836E-07 1.13011E+00 4.56719E+01 1.19681E-01
 -1       936-8.74309E+01 5.36182E+01 1.80033E-07 1.21276E+00 4.42198E+01 1.29150E-01
 -1       937-8.06496E+01 4.94588E+01 1.69044E-07 1.28881E+00 4.26612E+01 1.37932E-01
 -1       938-7.34404E+01 4.50370E+01 1.56750E-07 1.36614E+00 4.10044E+01 1.45984E-01
 -1       939-6.58320E+01 4.03680E+01 1.51775E-07 1.44104E+00 3.92581E+01 1.53262E-01
 -1       940-5.78444E+01 3.54791E+01 1.49755E-07 1.50927E+00 3.74316E+01 1.59724E-01
 -1       941-4.94767E+01 3.03471E+01 1.46185E-07 1.57683E+00 3.55347E+01 1.65332E-01
 -1       942-4.07553E+01 2.49972E+01 1.39645E-07 1.63880E+00 3.35775E+01 1.70046E-01
 -1       943-3.17134E+01 1.94595E+01 1.26584E-07 1.69865E+00 3.15707E+01 1.73831E-01
 -1       944-2.23460E+01 1.37132E+01 1.12537E-07 1.75412E+00 2.95253E+01 1.76655E-01
 -1       945-1.26975E+01 7.80029E+00 1.02190E-07 1.80609E+00 2.74528E+01 1.78485E-01
 -1       946-2.76585E+00 1.70895E+00 8.92085E-08 1.85423E+00 2.53648E+01 1.79291E-01
 -1       947 7.39982E+00-4.51804E+00 7.18123E-08 1.89842E+00 2.32735E+01 1.79046E-01
 -1       948 1.78206E+01-1.09137E+01 5.58447E-08 1.93924E+00 2.11913E+01 1.77726E-01
 -1       949 2.84167E+01-1.74002E+01 4.24135E-08 1.97605E+00 1.91309E+01 1.75307E-01
 -1       950 3.92406E+01-2.40425E+01 3.00535E-08 2.00822E+00 1.71053E+01 1.71769E-01
 -1       951 5.01962E+01-3.07545E+01 1.94166E-08 2.03788E+00 1.51275E+01 1.67092E-01
 -1       952 6.13474E+01-3.75991E+01 1.02763E-08 2.06297E+00 1.32110E+01 1.61260E-01
 -1       953 7.25567E+01-4.44499E+01 1.91288E-09 2.08671E+00 1.13693E+01 1.54259E-01
 -1       954 8.39771E+01-5.14736E+01-1.03374E-08 2.10557E+00 9.61624E+00 1.46075E-01
 -1       955 9.53855E+01-5.84514E+01-2.71084E-08 2.12109E+00 7.96554E+00 1.36697E-01
 -1       956 1.06992E+02-6.55840E+01-4.66892E-08 2.13447E+00 6.43125E+00 1.26118E-01
 -1       957 1.18495E+02-7.25996E+01-7.05196E-08 2.14154E+00 5.02743E+00 1.14329E-01
 -1       958 1.30280E+02-7.98613E+01-9.44861E-08 2.15507E+00 3.76823E+00 1.01324E-01
 -1       959 1.41906E+02-8.70411E+01-1.17568E-07 2.15542E+00 2.66783E+00 8.70985E-02
 -1       960 1.53303E+02-9.35744E+01-1.41513E-07 2.17637E+00 1.74054E+00 7.16502E-02
 -1       961 1.66822E+02-1.03760E+02-1.65701E-07 2.10343E+00 1.00059E+00 5.49731E-02
 -1       962 1.71396E+02-9.94109E+01-1.85140E-07 2.38911E+00 4.62338E-01 3.70798E-02
 -1       963 2.10086E+02-1.49466E+02-2.35765E-07 1.33735E+00 1.40105E-01 1.79174E-02
 -1       964 1.22542E+02-5.45097E-02-2.79272E-07 5.17852E+00 3.47426E-02 8.00269E-03
 -1       965 6.77663E-06-8.16270E-07 2.40950E-09 1.71496E-02-6.79564E+01-2.82966E-05
 -1       966 3.30244E-05-1.70310E-05-2.60721E-09 1.69880E-01-6.58931E+01-2.82948E-05
 -1       967 1.11685E-04-6.53361E-05-1.89406E-09 3.31362E-01-6.17671E+01-2.82869E-05
 -1       968 2.39882E-04-1.44317E-04 3.60814E-09 4.79549E-01-5.76429E+01-2.82682E-05
 -1       969 4.12854E-04-2.50282E-04-6.65061E-11 6.20591E-01-5.35226E+01-2.82338E-05
 -1       970 6.29110E-04-3.83310E-04 4.99089E-10 7.47950E-01-4.94086E+01-2.81791E-05
 -1       971 8.83510E-04-5.39152E-04 3.00746E-09 8.66813E-01-4.53045E+01-2.80998E-05
 -1       972 1.17454E-03-7.17974E-04 4.59713E-11 9.77324E-01-4.12139E+01-2.79920E-05
 -1       973 1.49767E-03-9.16054E-04 1.16890E-09 1.07168E+00-3.71412E+01-2.78522E-05
 -1       974 1.85023E-03-1.13237E-03-2.45347E-10 1.16434E+00-3.30915E+01-2.76770E-05
 -1       975 2.22959E-03-1.36523E-03-3.61285E-09 1.23864E+00-2.90702E+01-2.74636E-05
 -1       976 2.63080E-03-1.61105E-03-8.80679E-12 1.30531E+00-2.50829E+01-2.72094E-05
 -1       977 3.05318E-03-1.87045E-03 1.67916E-09 1.37032E+00-2.11358E+01-2.69121E-05
 -1       978 3.49091E-03-2.13859E-03-4.52746E-11 1.40826E+00-1.72352E+01-2.65699E-05
 -1       979 3.94328E-03-2.41625E-03 8.93377E-11 1.45466E+00-1.33880E+01-2.61812E-05
 -1       980 4.40658E-03-2.70038E-03 4.99196E-10 1.48371E+00-9.60094E+00-2.57447E-05
 -1       981 4.87579E-03-2.98807E-03-1.09937E-09 1.49297E+00-5.88106E+00-2.52594E-05
 -1       982 5.35134E-03-3.27970E-03 1.12281E-09 1.51505E+00-2.23554E+00-2.47247E-05
 -1       983 5.82789E-03-3.57210E-03 1.94507E-09 1.50977E+00 1.32838E+00-2.41403E-05
 -1       984 6.30316E-03-3.86333E-03-7.24258E-10 1.50361E+00 4.80347E+00-2.35062E-05
 -1       985 6.77583E-03-4.15343E-03 1.57252E-09 1.49156E+00 8.18245E+00-2.28225E-05
 -1       986 7.24044E-03-4.43826E-03 2.84404E-09 1.45325E+00 1.14581E+01-2.20899E-05
 -1       987 7.69704E-03-4.71813E-03-8.46010E-10 1.43521E+00 1.46235E+01-2.13091E-05
 -1       988 8.14174E-03-4.99116E-03-1.84860E-09 1.38825E+00 1.76715E+01-2.04812E-05
 -1       989 8.57231E-03-5.25477E-03 3.42078E-11 1.34116E+00 2.05954E+01-1.96075E-05
 -1       990 8.98745E-03-5.50982E-03 1.63425E-09 1.28617E+00 2.33887E+01-1.86897E-05
 -1       991 9.38255E-03-5.75169E-03 9.38205E-10 1.22072E+00 2.60450E+01-1.77295E-05
 -1       992 9.75829E-03-5.98234E-03-6.78389E-10 1.15818E+00 2.85583E+01-1.67290E-05
 -1       993 1.01112E-02-6.19873E-03 4.19676E-10 1.08317E+00 3.09229E+01-1.56905E-05
 -1       994 1.04393E-02-6.39986E-03 1.06312E-09 9.97269E-01 3.31334E+01-1.46163E-05
 -1       995 1.07415E-02-6.58527E-03 2.00661E-09 9.11429E-01 3.51848E+01-1.35093E-05
 -1       996 1.10158E-02-6.75339E-03 2.86117E-09 8.27532E-01 3.70726E+01-1.23721E-05
 -1       997 1.12603E-02-6.90338E-03 1.21367E-09 7.27603E-01 3.87925E+01-1.12078E-05
 -1       998 1.14752E-02-7.03516E-03 1.20148E-10 6.30069E-01 4.03408E+01-1.00194E-05
 -1       999 1.16573E-02-7.14684E-03 1.19207E-09 5.25532E-01 4.17142E+01-8.81040E-06
 -1      1000 1.18064E-02-7.23824E-03 1.74626E-09 4.20814E-01 4.29100E+01-7.58402E-06
 -1      1001 1.19224E-02-7.30954E-03 1.88747E-09 3.11246E-01 4.39259E+01-6.34378E-06
 -1      1002 1.20021E-02-7.35818E-03 1.98426E-09 1.95786E-01 4.47602E+01-5.09332E-06
 -1      1003 1.20481E-02-7.38657E-03 1.32784E-09 9.44777E-02 4.54116E+01-3.83631E-06
 -1      1004 1.20575E-02-7.39247E-03 1.32418E-09-3.20484E-02 4.58794E+01-2.57640E-06
 -1      1005 1.20295E-02-7.37500E-03 2.85968E-09-1.42556E-01 4.61634E+01-1.31744E-06
 -1      1006 1.19670E-02-7.33704E-03 3.08284E-09-2.62638E-01 4.62642E+01-6.32189E-08
 -1      1007 1.18667E-02-7.27537E-03 2.18627E-09-3.71698E-01 4.61827E+01 1.18246E-06
 -1      1008 1.17294E-02-7.19117E-03 1.79244E-09-4.91033E-01 4.59203E+01 2.41574E-06
 -1      1009 1.15573E-02-7.08583E-03 1.87177E-09-6.05362E-01 4.54792E+01 3.63286E-06
 -1      1010 1.13483E-02-6.95759E-03 1.21990E-09-7.18692E-01 4.48620E+01 4.83004E-06
 -1      1011 1.11033E-02-6.80737E-03 9.68342E-10-8.30548E-01 4.40719E+01 6.00350E-06
 -1      1012 1.08244E-02-6.63643E-03 3.20075E-11-9.38867E-01 4.31127E+01 7.14957E-06
 -1      1013 1.05105E-02-6.44394E-03 5.92411E-11-1.05081E+00 4.19885E+01 8.26467E-06
 -1      1014 1.01647E-02-6.23200E-03 2.05839E-09-1.14283E+00 4.07041E+01 9.34529E-06
 -1      1015 9.78583E-03-5.99980E-03 1.98074E-09-1.25458E+00 3.92649E+01 1.03880E-05
 -1      1016 9.37506E-03-5.74768E-03 2.60278E-09-1.34901E+00 3.76766E+01 1.13895E-05
 -1      1017 8.93622E-03-5.47893E-03 2.12402E-09-1.43674E+00 3.59454E+01 1.23465E-05
 -1      1018 8.46757E-03-5.19141E-03 1.14656E-09-1.52796E+00 3.40781E+01 1.32561E-05
 -1      1019 7.97273E-03-4.88806E-03 2.58890E-09-1.60733E+00 3.20818E+01 1.41154E-05
 -1      1020 7.45257E-03-4.56927E-03 1.50367E-09-1.69284E+00 2.99640E+01 1.49216E-05
 -1      1021 6.90788E-03-4.23511E-03-7.67645E-11-1.75800E+00 2.77326E+01 1.56722E-05
 -1      1022 6.34208E-03-3.88838E-03 8.98292E-10-1.82736E+00 2.53960E+01 1.63647E-05
 -1      1023 5.75577E-03-3.52883E-03 1.71410E-09-1.88766E+00 2.29627E+01 1.69970E-05
 -1      1024 5.15142E-03-3.15831E-03 2.29904E-10-1.94384E+00 2.04418E+01 1.75671E-05
 -1      1025 4.53108E-03-2.77800E-03-5.09700E-10-1.98758E+00 1.78424E+01 1.80731E-05
 -1      1026 3.89631E-03-2.38880E-03 1.06356E-09-2.03282E+00 1.51739E+01 1.85136E-05
 -1      1027 3.24952E-03-1.99223E-03 2.77026E-09-2.06734E+00 1.24461E+01 1.88871E-05
 -1      1028 2.59328E-03-1.58993E-03 2.29515E-09-2.09305E+00 9.66871E+00 1.91925E-05
 -1      1029 1.92907E-03-1.18270E-03 6.45237E-10-2.11513E+00 6.85184E+00 1.94288E-05
 -1      1030 1.25939E-03-7.72048E-04-3.96833E-11-2.12783E+00 4.00557E+00 1.95955E-05
 -1      1031 5.86797E-04-3.59737E-04 2.19601E-09-2.13530E+00 1.14012E+00 1.96920E-05
 -1      1032-8.68974E-05 5.33554E-05 2.73880E-09-2.13408E+00-1.73426E+00 1.97181E-05
 -1      1033-7.59173E-04 4.65540E-04-1.36347E-09-2.12624E+00-4.60735E+00 1.96739E-05
 -1      1034-1.42764E-03 8.75329E-04 1.59782E-09-2.11045E+00-7.46887E+00 1.95596E-05
 -1      1035-2.09059E-03 1.28189E-03 4.44520E-09-2.09011E+00-1.03086E+01 1.93757E-05
 -1      1036-2.74493E-03 1.68297E-03 1.39576E-10-2.05825E+00-1.31165E+01 1.91230E-05
 -1      1037-3.38919E-03 2.07806E-03 3.58164E-10-2.02324E+00-1.58826E+01 1.88024E-05
 -1      1038-4.02076E-03 2.46521E-03 1.74008E-09-1.97841E+00-1.85971E+01 1.84151E-05
 -1      1039-4.63767E-03 2.84350E-03 1.11815E-09-1.93103E+00-2.12503E+01 1.79626E-05
 -1      1040-5.23781E-03 3.21143E-03 3.03907E-09-1.87452E+00-2.38329E+01 1.74465E-05
 -1      1041-5.81887E-03 3.56766E-03 1.93899E-09-1.80864E+00-2.63356E+01 1.68686E-05
 -1      1042-6.37949E-03 3.91144E-03 7.15363E-10-1.73928E+00-2.87497E+01 1.62311E-05
 -1      1043-6.91725E-03 4.24112E-03 2.02320E-09-1.66823E+00-3.10667E+01 1.55361E-05
 -1      1044-7.42991E-03 4.55549E-03 1.29192E-09-1.58534E+00-3.32782E+01 1.47863E-05
 -1      1045-7.91667E-03 4.85375E-03 1.54362E-09-1.49646E+00-3.53765E+01 1.39842E-05
 -1      1046-8.37595E-03 5.13563E-03 2.88106E-09-1.41350E+00-3.73542E+01 1.31327E-05
 -1      1047-8.80487E-03 5.39837E-03 2.69582E-09-1.30836E+00-3.92043E+01 1.22347E-05
 -1      1048-9.20276E-03 5.64239E-03 1.59978E-09-1.21245E+00-4.09203E+01 1.12935E-05
 -1      1049-9.56916E-03 5.86710E-03 3.40571E-10-1.10368E+00-4.24961E+01 1.03124E-05
 -1      1050-9.90080E-03 6.07033E-03 4.56117E-10-1.00108E+00-4.39260E+01 9.29482E-06
 -1      1051-1.01987E-02 6.25305E-03 1.90770E-10-8.89983E-01-4.52051E+01 8.24433E-06
 -1      1052-1.04603E-02 6.41347E-03 4.93502E-10-7.64670E-01-4.63289E+01 7.16460E-06
 -1      1053-1.06853E-02 6.55130E-03 1.71706E-09-6.58518E-01-4.72933E+01 6.05942E-06
 -1      1054-1.08729E-02 6.66660E-03 3.77424E-10-5.34098E-01-4.80948E+01 4.93266E-06
 -1      1055-1.10219E-02 6.75745E-03 4.20728E-10-4.12812E-01-4.87308E+01 3.78833E-06
 -1      1056-1.11341E-02 6.82678E-03 9.23145E-10-2.91121E-01-4.91988E+01 2.63037E-06
 -1      1057-1.12064E-02 6.87073E-03 2.05903E-10-1.65642E-01-4.94971E+01 1.46276E-06
 -1      1058-1.12378E-02 6.89019E-03 4.98412E-10-4.27125E-02-4.96248E+01 2.89722E-07
 -1      1059-1.12326E-02 6.88670E-03 5.21163E-10 8.21057E-02-4.95812E+01-8.84695E-07
 -1      1060-1.11866E-02 6.85908E-03-3.94571E-11 2.10369E-01-4.93665E+01-2.05644E-06
 -1      1061-1.11026E-02 6.80675E-03-3.48747E-10 3.22399E-01-4.89813E+01-3.22138E-06
 -1      1062-1.09788E-02 6.73191E-03 2.59507E-10 4.55940E-01-4.84270E+01-4.37545E-06
 -1      1063-1.08174E-02 6.63167E-03 8.21771E-10 5.75421E-01-4.77054E+01-5.51461E-06
 -1      1064-1.06176E-02 6.51062E-03 5.63407E-10 6.87424E-01-4.68191E+01-6.63491E-06
 -1      1065-1.03822E-02 6.36477E-03 2.46845E-10 8.08064E-01-4.57709E+01-7.73247E-06
 -1      1066-1.01077E-02 6.19802E-03-5.19659E-10 9.20471E-01-4.45646E+01-8.80339E-06
 -1      1067-9.80245E-03 6.00908E-03-1.35077E-09 1.03048E+00-4.32043E+01-9.84398E-06
 -1      1068-9.45795E-03 5.80015E-03-1.16677E-09 1.13745E+00-4.16946E+01-1.08506E-05
 -1      1069-9.08506E-03 5.56864E-03-9.49780E-10 1.23964E+00-4.00409E+01-1.18197E-05
 -1      1070-8.67542E-03 5.32084E-03-7.68265E-10 1.33749E+00-3.82487E+01-1.27480E-05
 -1      1071-8.24304E-03 5.05202E-03-1.58880E-09 1.43463E+00-3.63243E+01-1.36322E-05
 -1      1072-7.77114E-03 4.76682E-03-2.22559E-09 1.51471E+00-3.42744E+01-1.44692E-05
 -1      1073-7.28624E-03 4.46491E-03-1.68469E-09 1.60600E+00-3.21061E+01-1.52562E-05
 -1      1074-6.75771E-03 4.14595E-03-2.13611E-09 1.68266E+00-2.98268E+01-1.59902E-05
 -1      1075-6.22915E-03 3.81619E-03-1.96462E-09 1.75070E+00-2.74444E+01-1.66689E-05
 -1      1076-5.64919E-03 3.46734E-03-1.47818E-09 1.81917E+00-2.49673E+01-1.72898E-05
 -1      1077-5.08446E-03 3.11193E-03-2.44621E-09 1.87599E+00-2.24040E+01-1.78508E-05
 -1      1078-4.46834E-03 2.75011E-03-2.88696E-09 1.93393E+00-1.97633E+01-1.83499E-05
 -1      1079-3.84609E-03 2.33362E-03-1.99433E-09 1.97537E+00-1.70545E+01-1.87850E-05
 -1      1080-3.29037E-03 2.07860E-03-4.04422E-09 2.01657E+00-1.42869E+01-1.91563E-05
 -1      1081-2.48632E-03 1.39038E-03-3.81644E-09 2.04959E+00-1.14701E+01-1.71173E-05
 -1      1082-1.99359E-03 1.32411E-03-5.34291E-10 2.07238E+00-8.61397E+00-1.26517E-05
 -1      1083-1.23802E-03 7.10164E-04-1.57916E-09 2.09252E+00-5.72834E+00-1.04290E-05
 -1      1084-6.26884E-04 4.11032E-04-3.21919E-09 2.10225E+00-2.82323E+00-1.04803E-05
 -1      1085 4.76226E-05-4.56622E-05-3.92764E-09 2.10602E+00 9.12780E-02-1.04962E-05
 -1      1086 7.16034E-04-4.27706E-04-3.29524E-09 2.10224E+00 3.00504E+00-1.04752E-05
 -1      1087 1.36780E-03-8.46598E-04-1.99198E-09 2.09068E+00 5.90797E+00-1.04181E-05
 -1      1088 2.03573E-03-1.24175E-03-2.49746E-09 2.07325E+00 8.78997E+00-1.03247E-05
 -1      1089 2.67597E-03-1.64594E-03-3.19683E-09 2.04484E+00 1.16410E+01-1.01954E-05
 -1      1090 3.32333E-03-2.03201E-03-3.81749E-09 2.01535E+00 1.44512E+01-1.00307E-05
 -1      1091 3.94866E-03-2.42553E-03-3.12979E-09 1.97429E+00 1.72108E+01-9.83118E-06
 -1      1092 4.56663E-03-2.79519E-03-2.30551E-09 1.92598E+00 1.99103E+01-9.59746E-06
 -1      1093 5.16371E-03-3.16820E-03-4.55371E-09 1.87805E+00 2.25401E+01-9.33047E-06
 -1      1094 5.75073E-03-3.52393E-03-4.40054E-09 1.81221E+00 2.50912E+01-9.03098E-06
 -1      1095 6.30813E-03-3.86869E-03-2.76413E-09 1.74947E+00 2.75548E+01-8.70006E-06
 -1      1096 6.85168E-03-4.19881E-03-2.62301E-09 1.67409E+00 2.99222E+01-8.33890E-06
 -1      1097 7.36351E-03-4.51344E-03-1.19300E-09 1.60112E+00 3.21852E+01-7.94878E-06
 -1      1098 7.86292E-03-4.82146E-03-1.49766E-09 1.51720E+00 3.43360E+01-7.53095E-06
 -1      1099 8.32140E-03-5.10173E-03-3.88905E-09 1.42146E+00 3.63670E+01-7.08684E-06
 -1      1100 8.75667E-03-5.36601E-03-4.86304E-09 1.33587E+00 3.82711E+01-6.61814E-06
 -1      1101 9.16360E-03-5.61879E-03-3.49663E-09 1.23436E+00 4.00419E+01-6.12637E-06
 -1      1102 9.53864E-03-5.84803E-03-1.00710E-09 1.13218E+00 4.16730E+01-5.61316E-06
 -1      1103 9.87381E-03-6.05140E-03-8.50056E-10 1.02245E+00 4.31588E+01-5.08042E-06
 -1      1104 1.01842E-02-6.24293E-03-2.76052E-09 9.22310E-01 4.44941E+01-4.52997E-06
 -1      1105 1.04567E-02-6.41209E-03-2.47921E-09 7.98434E-01 4.56742E+01-3.96358E-06
 -1      1106 1.06888E-02-6.55167E-03-1.66751E-09 6.87731E-01 4.66950E+01-3.38330E-06
 -1      1107 1.08879E-02-6.67504E-03-2.02249E-09 5.65141E-01 4.75529E+01-2.79118E-06
 -1      1108 1.10444E-02-6.76763E-03-2.04629E-09 4.51329E-01 4.82449E+01-2.18926E-06
 -1      1109 1.11752E-02-6.85411E-03-2.47447E-09 3.30181E-01 4.87686E+01-1.57952E-06
 -1      1110 1.12537E-02-6.89822E-03-1.79945E-09 1.96333E-01 4.91221E+01-9.64071E-07
 -1      1111 1.12963E-02-6.92308E-03-5.63590E-10 8.51773E-02 4.93040E+01-3.45207E-07
 -1      1112 1.13077E-02-6.93345E-03-1.12406E-09-4.46147E-02 4.93138E+01 2.75112E-07
 -1      1113 1.12703E-02-6.90827E-03-2.10036E-09-1.66437E-01 4.91513E+01 8.94694E-07
 -1      1114 1.12009E-02-6.86686E-03-1.99685E-09-2.89677E-01 4.88171E+01 1.51136E-06
 -1      1115 1.10888E-02-6.79726E-03-2.11723E-09-4.12064E-01 4.83122E+01 2.12303E-06
 -1      1116 1.09416E-02-6.70835E-03-3.58748E-09-5.31217E-01 4.76383E+01 2.72758E-06
 -1      1117 1.07537E-02-6.59199E-03-4.21380E-09-6.53944E-01 4.67977E+01 3.32294E-06
 -1      1118 1.05275E-02-6.45162E-03-4.40659E-09-7.63501E-01 4.57933E+01 3.90699E-06
 -1      1119 1.02732E-02-6.29930E-03-3.25157E-09-8.77089E-01 4.46284E+01 4.47781E-06
 -1      1120 9.97811E-03-6.11833E-03-2.03425E-09-9.93494E-01 4.33070E+01 5.03349E-06
 -1      1121 9.64364E-03-5.90995E-03-2.43188E-09-1.09953E+00 4.18335E+01 5.57196E-06
 -1      1122 9.28359E-03-5.69065E-03-1.74963E-09-1.19690E+00 4.02131E+01 6.09140E-06
 -1      1123 8.89139E-03-5.45164E-03-1.82140E-09-1.29933E+00 3.84512E+01 6.59015E-06
 -1      1124 8.46429E-03-5.18832E-03-1.62500E-09-1.39279E+00 3.65539E+01 7.06642E-06
 -1      1125 8.01232E-03-4.91194E-03-5.53665E-10-1.48164E+00 3.45275E+01 7.51857E-06
 -1      1126 7.53107E-03-4.61656E-03-7.23031E-10-1.56611E+00 3.23791E+01 7.94511E-06
 -1      1127 7.02486E-03-4.30691E-03-1.76141E-09-1.64403E+00 3.01159E+01 8.34455E-06
 -1      1128 6.49404E-03-3.98070E-03-1.97432E-09-1.71877E+00 2.77457E+01 8.71551E-06
 -1      1129 5.94055E-03-3.64069E-03-1.95391E-09-1.78161E+00 2.52766E+01 9.05676E-06
 -1      1130 5.37126E-03-3.29360E-03-8.26098E-10-1.84204E+00 2.27168E+01 9.36721E-06
 -1      1131 4.78070E-03-2.93127E-03-1.62471E-10-1.89875E+00 2.00753E+01 9.64578E-06
 -1      1132 4.17244E-03-2.55699E-03-2.14884E-09-1.94508E+00 1.73609E+01 9.89141E-06
 -1      1133 3.55378E-03-2.17838E-03-5.73991E-10-1.98317E+00 1.45829E+01 1.01034E-05
 -1      1134 2.92306E-03-1.79222E-03 1.57797E-09-2.01736E+00 1.17508E+01 1.02812E-05
 -1      1135 2.28189E-03-1.39871E-03-1.34071E-09-2.04312E+00 8.87413E+00 1.04240E-05
 -1      1136 1.63448E-03-1.00197E-03-2.79087E-09-2.06165E+00 5.96271E+00 1.05315E-05
 -1      1137 9.82030E-04-6.01973E-04 2.21131E-10-2.07306E+00 3.02636E+00 1.06033E-05
 -1      1138 3.27198E-04-2.00436E-04 7.46103E-10-2.07676E+00 7.50284E-02 1.06392E-05
 -1      1139-3.27173E-04 2.00407E-04-1.22232E-09-2.07331E+00-2.88128E+00 1.06392E-05
 -1      1140-9.80139E-04 6.00983E-04-1.56013E-09-2.06291E+00-5.83259E+00 1.06033E-05
 -1      1141-1.62794E-03 9.98050E-04-1.47764E-09-2.04353E+00-8.76896E+00 1.05318E-05
 -1      1142-2.26906E-03 1.39123E-03-1.67957E-09-2.01853E+00-1.16805E+01 1.04248E-05
 -1      1143-2.90027E-03 1.77778E-03-6.88811E-10-1.98460E+00-1.45576E+01 1.02829E-05
 -1      1144-3.52045E-03 2.15793E-03 5.14841E-10-1.94658E+00-1.73904E+01 1.01067E-05
 -1      1145-4.12753E-03 2.53066E-03-6.08188E-10-1.89803E+00-2.01696E+01 9.89682E-06
 -1      1146-4.71763E-03 2.89194E-03-7.93072E-10-1.84442E+00-2.28858E+01 9.65408E-06
 -1      1147-5.29042E-03 3.24340E-03-3.88265E-10-1.78338E+00-2.55302E+01 9.37943E-06
 -1      1148-5.84162E-03 3.58070E-03-4.53540E-10-1.71626E+00-2.80940E+01 9.07393E-06
 -1      1149-6.37387E-03 3.90850E-03-5.68154E-10-1.64296E+00-3.05688E+01 8.73870E-06
 -1      1150-6.87605E-03 4.21393E-03-1.00425E-09-1.56041E+00-3.29465E+01 8.37507E-06
 -1      1151-7.35767E-03 4.51027E-03-6.37042E-11-1.48255E+00-3.52194E+01 7.98445E-06
 -1      1152-7.81288E-03 4.79187E-03-5.01712E-10-1.38312E+00-3.73801E+01 7.56817E-06
 -1      1153-8.22927E-03 5.04284E-03 2.90774E-10-1.28844E+00-3.94219E+01 7.12791E-06
 -1      1154-8.62383E-03 5.28704E-03 1.07753E-09-1.19139E+00-4.13382E+01 6.66539E-06
 -1      1155-8.98020E-03 5.50446E-03 6.80052E-10-1.08191E+00-4.31232E+01 6.18231E-06
 -1      1156-9.30829E-03 5.70785E-03 1.39318E-09-9.76098E-01-4.47713E+01 5.68044E-06
 -1      1157-9.59524E-03 5.88238E-03 7.86849E-10-8.51819E-01-4.62776E+01 5.16170E-06
 -1      1158-9.84429E-03 6.03301E-03 1.07415E-09-7.44577E-01-4.76377E+01 4.62821E-06
 -1      1159-1.00639E-02 6.17105E-03 2.00629E-09-6.18702E-01-4.88477E+01 4.08188E-06
 -1      1160-1.02368E-02 6.27492E-03 2.39736E-09-4.95759E-01-4.99045E+01 3.52479E-06
 -1      1161-1.03749E-02 6.36051E-03 2.06935E-09-3.69392E-01-5.08053E+01 2.95915E-06
 -1      1162-1.04703E-02 6.41830E-03 2.46570E-09-2.40798E-01-5.15479E+01 2.38712E-06
 -1      1163-1.05275E-02 6.45487E-03 2.44570E-09-1.11100E-01-5.21311E+01 1.81091E-06
 -1      1164-1.05392E-02 6.46000E-03 8.35088E-10 2.36072E-02-5.25539E+01 1.23280E-06
 -1      1165-1.05129E-02 6.44451E-03 1.95092E-10 1.49096E-01-5.28160E+01 6.55059E-07
 -1      1166-1.04432E-02 6.40179E-03 1.87931E-10 2.86119E-01-5.29180E+01 7.99685E-08
 -1      1167-1.03359E-02 6.33784E-03 1.37781E-09 4.14185E-01-5.28609E+01-4.90231E-07
 -1      1168-1.01813E-02 6.24188E-03 2.17708E-09 5.57076E-01-5.26463E+01-1.05323E-06
 -1      1169-9.98252E-03 6.11733E-03 3.52428E-09 6.77562E-01-5.22766E+01-1.60659E-06
 -1      1170-9.75475E-03 5.98305E-03 5.18262E-09 8.12974E-01-5.17547E+01-2.14822E-06
 -1      1171-9.47053E-03 5.80353E-03 3.88000E-09 9.44329E-01-5.10843E+01-2.67578E-06
 -1      1172-9.15752E-03 5.61439E-03 2.94617E-09 1.06214E+00-5.02696E+01-3.18700E-06
 -1      1173-8.80237E-03 5.39778E-03 3.00411E-09 1.19729E+00-4.93153E+01-3.67983E-06
 -1      1174-8.40312E-03 5.15095E-03 1.69744E-09 1.31446E+00-4.82270E+01-4.15195E-06
 -1      1175-7.97081E-03 4.88682E-03 1.20276E-09 1.43755E+00-4.70106E+01-4.60128E-06
 -1      1176-7.49703E-03 4.59478E-03 1.61999E-09 1.54919E+00-4.56728E+01-5.02575E-06
 -1      1177-6.99369E-03 4.28878E-03 1.88518E-09 1.66197E+00-4.42208E+01-5.42342E-06
 -1      1178-6.45117E-03 3.95609E-03 1.78993E-09 1.77506E+00-4.26622E+01-5.79232E-06
 -1      1179-5.87182E-03 3.59878E-03 1.61740E-09 1.87925E+00-4.10054E+01-6.13045E-06
 -1      1180-5.26519E-03 3.22803E-03 1.58836E-09 1.97666E+00-3.92592E+01-6.43607E-06
 -1      1181-4.62649E-03 2.83705E-03 1.44089E-09 2.07522E+00-3.74327E+01-6.70751E-06
 -1      1182-3.95636E-03 2.42576E-03 2.32081E-09 2.16571E+00-3.55358E+01-6.94302E-06
 -1      1183-3.25965E-03 1.99873E-03 1.75224E-09 2.25316E+00-3.35786E+01-7.14101E-06
 -1      1184-2.53557E-03 1.55503E-03 6.77672E-10 2.33394E+00-3.15718E+01-7.30002E-06
 -1      1185-1.78699E-03 1.09595E-03 1.55605E-09 2.41163E+00-2.95264E+01-7.41861E-06
 -1      1186-1.01478E-03 6.22871E-04 1.73089E-09 2.48192E+00-2.74538E+01-7.49546E-06
 -1      1187-2.20874E-04 1.35803E-04 1.45048E-09 2.54961E+00-2.53658E+01-7.52934E-06
 -1      1188 5.92600E-04-3.62109E-04 1.66003E-09 2.60830E+00-2.32745E+01-7.51913E-06
 -1      1189 1.42615E-03-8.74361E-04 1.60305E-09 2.66677E+00-2.11923E+01-7.46371E-06
 -1      1190 2.27344E-03-1.39198E-03 1.29562E-09 2.71253E+00-1.91319E+01-7.36213E-06
 -1      1191 3.13889E-03-1.92385E-03 4.45760E-10 2.76566E+00-1.71062E+01-7.21355E-06
 -1      1192 4.01599E-03-2.46053E-03 7.81315E-12 2.79678E+00-1.51283E+01-7.01717E-06
 -1      1193 4.90662E-03-3.00763E-03 8.21033E-10 2.84284E+00-1.32118E+01-6.77227E-06
 -1      1194 5.80575E-03-3.55724E-03 5.13392E-10 2.86017E+00-1.13701E+01-6.47826E-06
 -1      1195 6.71597E-03-4.11667E-03 1.80439E-10 2.90349E+00-9.61689E+00-6.13460E-06
 -1      1196 7.63262E-03-4.67786E-03-1.63861E-10 2.90371E+00-7.96611E+00-5.74080E-06
 -1      1197 8.55440E-03-5.24250E-03-3.46238E-10 2.94695E+00-6.43172E+00-5.29652E-06
 -1      1198 9.48185E-03-5.80989E-03 6.78479E-10 2.93346E+00-5.02781E+00-4.80151E-06
 -1      1199 1.04209E-02-6.38986E-03 9.03924E-11 2.98199E+00-3.76848E+00-4.25532E-06
 -1      1200 1.13494E-02-6.95756E-03-3.61742E-10 2.92940E+00-2.66799E+00-3.65788E-06
 -1      1201 1.22772E-02-7.50681E-03 1.92717E-10 3.02080E+00-1.74055E+00-3.00921E-06
 -1      1202 1.32686E-02-8.19905E-03 2.67401E-10 2.91963E+00-1.00050E+00-2.30884E-06
 -1      1203 1.40204E-02-8.35371E-03 1.65841E-10 3.03970E+00-4.62068E-01-1.55734E-06
 -1      1204 1.56313E-02-1.04504E-02 1.61331E-10 2.92452E+00-1.39715E-01-7.52914E-07
 -1      1205 1.15777E-02-3.94000E-03 2.42832E-10 3.29954E+00-3.44644E-02-3.36840E-07
 -1      1206 6.77398E-06-8.27175E-07-2.40950E-09 1.71497E-02 6.79564E+01 2.82967E-05
 -1      1207 3.30338E-05-1.70479E-05 2.60721E-09 1.69880E-01 6.58931E+01 2.82948E-05
 -1      1208 1.11690E-04-6.53470E-05 1.89406E-09 3.31362E-01 6.17671E+01 2.82869E-05
 -1      1209 2.39874E-04-1.44320E-04-3.60814E-09 4.79549E-01 5.76429E+01 2.82683E-05
 -1      1210 4.12855E-04-2.50276E-04 6.65061E-11 6.20591E-01 5.35226E+01 2.82339E-05
 -1      1211 6.29109E-04-3.83309E-04-4.99089E-10 7.47950E-01 4.94086E+01 2.81792E-05
 -1      1212 8.83508E-04-5.39169E-04-3.00746E-09 8.66813E-01 4.53045E+01 2.80999E-05
 -1      1213 1.17454E-03-7.17971E-04-4.59713E-11 9.77324E-01 4.12139E+01 2.79921E-05
 -1      1214 1.49766E-03-9.16063E-04-1.16890E-09 1.07168E+00 3.71412E+01 2.78522E-05
 -1      1215 1.85023E-03-1.13236E-03 2.45347E-10 1.16434E+00 3.30915E+01 2.76770E-05
 -1      1216 2.22959E-03-1.36520E-03 3.61285E-09 1.23864E+00 2.90702E+01 2.74636E-05
 -1      1217 2.63080E-03-1.61102E-03 8.80679E-12 1.30531E+00 2.50829E+01 2.72094E-05
 -1      1218 3.05318E-03-1.87046E-03-1.67916E-09 1.37032E+00 2.11358E+01 2.69122E-05
 -1      1219 3.49091E-03-2.13860E-03 4.52746E-11 1.40826E+00 1.72352E+01 2.65700E-05
 -1      1220 3.94328E-03-2.41626E-03-8.93377E-11 1.45466E+00 1.33880E+01 2.61813E-05
 -1      1221 4.40659E-03-2.70038E-03-4.99196E-10 1.48371E+00 9.60094E+00 2.57447E-05
 -1      1222 4.87579E-03-2.98808E-03 1.09937E-09 1.49297E+00 5.88106E+00 2.52594E-05
 -1      1223 5.35134E-03-3.27970E-03-1.12281E-09 1.51505E+00 2.23554E+00 2.47248E-05
 -1      1224 5.82789E-03-3.57211E-03-1.94507E-09 1.50977E+00-1.32838E+00 2.41404E-05
 -1      1225 6.30316E-03-3.86332E-03 7.24258E-10 1.50361E+00-4.80347E+00 2.35063E-05
 -1      1226 6.77583E-03-4.15343E-03-1.57252E-09 1.49156E+00-8.18245E+00 2.28226E-05
 -1      1227 7.24044E-03-4.43826E-03-2.84404E-09 1.45325E+00-1.14581E+01 2.20899E-05
 -1      1228 7.69705E-03-4.71814E-03 8.46010E-10 1.43521E+00-1.46235E+01 2.13091E-05
 -1      1229 8.14175E-03-4.99115E-03 1.84860E-09 1.38825E+00-1.76715E+01 2.04812E-05
 -1      1230 8.57232E-03-5.25479E-03-3.42078E-11 1.34116E+00-2.05954E+01 1.96076E-05
 -1      1231 8.98745E-03-5.50982E-03-1.63425E-09 1.28617E+00-2.33887E+01 1.86897E-05
 -1      1232 9.38255E-03-5.75170E-03-9.38205E-10 1.22072E+00-2.60450E+01 1.77296E-05
 -1      1233 9.75829E-03-5.98233E-03 6.78389E-10 1.15818E+00-2.85583E+01 1.67291E-05
 -1      1234 1.01112E-02-6.19874E-03-4.19676E-10 1.08317E+00-3.09229E+01 1.56906E-05
 -1      1235 1.04393E-02-6.39987E-03-1.06312E-09 9.97269E-01-3.31334E+01 1.46164E-05
 -1      1236 1.07415E-02-6.58526E-03-2.00661E-09 9.11429E-01-3.51848E+01 1.35093E-05
 -1      1237 1.10158E-02-6.75339E-03-2.86117E-09 8.27532E-01-3.70726E+01 1.23721E-05
 -1      1238 1.12603E-02-6.90338E-03-1.21367E-09 7.27603E-01-3.87924E+01 1.12078E-05
 -1      1239 1.14752E-02-7.03517E-03-1.20148E-10 6.30069E-01-4.03408E+01 1.00195E-05
 -1      1240 1.16573E-02-7.14687E-03-1.19207E-09 5.25532E-01-4.17142E+01 8.81048E-06
 -1      1241 1.18064E-02-7.23822E-03-1.74626E-09 4.20815E-01-4.29100E+01 7.58410E-06
 -1      1242 1.19224E-02-7.30955E-03-1.88747E-09 3.11246E-01-4.39259E+01 6.34387E-06
 -1      1243 1.20021E-02-7.35816E-03-1.98426E-09 1.95786E-01-4.47602E+01 5.09342E-06
 -1      1244 1.20481E-02-7.38658E-03-1.32784E-09 9.44777E-02-4.54116E+01 3.83641E-06
 -1      1245 1.20575E-02-7.39247E-03-1.32418E-09-3.20484E-02-4.58794E+01 2.57652E-06
 -1      1246 1.20295E-02-7.37499E-03-2.85968E-09-1.42556E-01-4.61634E+01 1.31757E-06
 -1      1247 1.19670E-02-7.33703E-03-3.08284E-09-2.62639E-01-4.62642E+01 6.33557E-08
 -1      1248 1.18667E-02-7.27539E-03-2.18627E-09-3.71698E-01-4.61827E+01-1.18231E-06
 -1      1249 1.17294E-02-7.19116E-03-1.79244E-09-4.91033E-01-4.59203E+01-2.41558E-06
 -1      1250 1.15573E-02-7.08584E-03-1.87177E-09-6.05362E-01-4.54792E+01-3.63269E-06
 -1      1251 1.13483E-02-6.95760E-03-1.21990E-09-7.18692E-01-4.48620E+01-4.82987E-06
 -1      1252 1.11033E-02-6.80737E-03-9.68342E-10-8.30548E-01-4.40719E+01-6.00332E-06
 -1      1253 1.08244E-02-6.63644E-03-3.20075E-11-9.38867E-01-4.31127E+01-7.14938E-06
 -1      1254 1.05105E-02-6.44395E-03-5.92411E-11-1.05081E+00-4.19885E+01-8.26447E-06
 -1      1255 1.01647E-02-6.23199E-03-2.05839E-09-1.14283E+00-4.07041E+01-9.34508E-06
 -1      1256 9.78584E-03-5.99981E-03-1.98074E-09-1.25458E+00-3.92649E+01-1.03878E-05
 -1      1257 9.37506E-03-5.74768E-03-2.60278E-09-1.34901E+00-3.76766E+01-1.13892E-05
 -1      1258 8.93623E-03-5.47893E-03-2.12402E-09-1.43674E+00-3.59454E+01-1.23463E-05
 -1      1259 8.46758E-03-5.19142E-03-1.14656E-09-1.52796E+00-3.40781E+01-1.32559E-05
 -1      1260 7.97274E-03-4.88806E-03-2.58890E-09-1.60733E+00-3.20818E+01-1.41152E-05
 -1      1261 7.45258E-03-4.56928E-03-1.50367E-09-1.69284E+00-2.99640E+01-1.49214E-05
 -1      1262 6.90789E-03-4.23513E-03 7.67645E-11-1.75800E+00-2.77326E+01-1.56719E-05
 -1      1263 6.34209E-03-3.88838E-03-8.98292E-10-1.82736E+00-2.53960E+01-1.63644E-05
 -1      1264 5.75577E-03-3.52884E-03-1.71410E-09-1.88766E+00-2.29627E+01-1.69968E-05
 -1      1265 5.15142E-03-3.15833E-03-2.29904E-10-1.94384E+00-2.04418E+01-1.75668E-05
 -1      1266 4.53108E-03-2.77801E-03 5.09700E-10-1.98758E+00-1.78424E+01-1.80729E-05
 -1      1267 3.89632E-03-2.38880E-03-1.06356E-09-2.03282E+00-1.51739E+01-1.85133E-05
 -1      1268 3.24953E-03-1.99224E-03-2.77026E-09-2.06734E+00-1.24461E+01-1.88868E-05
 -1      1269 2.59329E-03-1.58992E-03-2.29515E-09-2.09305E+00-9.66871E+00-1.91922E-05
 -1      1270 1.92908E-03-1.18268E-03-6.45237E-10-2.11513E+00-6.85183E+00-1.94285E-05
 -1      1271 1.25940E-03-7.72036E-04 3.96833E-11-2.12783E+00-4.00557E+00-1.95952E-05
 -1      1272 5.86804E-04-3.59739E-04-2.19601E-09-2.13530E+00-1.14012E+00-1.96917E-05
 -1      1273-8.68913E-05 5.33556E-05-2.73880E-09-2.13408E+00 1.73427E+00-1.97178E-05
 -1      1274-7.59162E-04 4.65544E-04 1.36347E-09-2.12624E+00 4.60735E+00-1.96736E-05
 -1      1275-1.42763E-03 8.75325E-04-1.59782E-09-2.11045E+00 7.46887E+00-1.95593E-05
 -1      1276-2.09059E-03 1.28189E-03-4.44520E-09-2.09011E+00 1.03086E+01-1.93754E-05
 -1      1277-2.74492E-03 1.68295E-03-1.39576E-10-2.05825E+00 1.31165E+01-1.91227E-05
 -1      1278-3.38918E-03 2.07805E-03-3.58164E-10-2.02324E+00 1.58826E+01-1.88021E-05
 -1      1279-4.02075E-03 2.46522E-03-1.74008E-09-1.97841E+00 1.85971E+01-1.84148E-05
 -1      1280-4.63766E-03 2.84350E-03-1.11815E-09-1.93103E+00 2.12503E+01-1.79622E-05
 -1      1281-5.23780E-03 3.21144E-03-3.03907E-09-1.87452E+00 2.38329E+01-1.74461E-05
 -1      1282-5.81886E-03 3.56766E-03-1.93899E-09-1.80864E+00 2.63356E+01-1.68682E-05
 -1      1283-6.37948E-03 3.91144E-03-7.15363E-10-1.73928E+00 2.87497E+01-1.62307E-05
 -1      1284-6.91724E-03 4.24112E-03-2.02320E-09-1.66823E+00 3.10667E+01-1.55357E-05
 -1      1285-7.42990E-03 4.55549E-03-1.29192E-09-1.58534E+00 3.32782E+01-1.47858E-05
 -1      1286-7.91667E-03 4.85375E-03-1.54362E-09-1.49646E+00 3.53765E+01-1.39838E-05
 -1      1287-8.37595E-03 5.13562E-03-2.88106E-09-1.41350E+00 3.73542E+01-1.31322E-05
 -1      1288-8.80487E-03 5.39838E-03-2.69582E-09-1.30836E+00 3.92043E+01-1.22343E-05
 -1      1289-9.20275E-03 5.64239E-03-1.59978E-09-1.21245E+00 4.09203E+01-1.12931E-05
 -1      1290-9.56915E-03 5.86709E-03-3.40571E-10-1.10368E+00 4.24961E+01-1.03120E-05
 -1      1291-9.90080E-03 6.07035E-03-4.56117E-10-1.00108E+00 4.39260E+01-9.29437E-06
 -1      1292-1.01987E-02 6.25304E-03-1.90770E-10-8.89983E-01 4.52051E+01-8.24387E-06
 -1      1293-1.04603E-02 6.41348E-03-4.93502E-10-7.64670E-01 4.63289E+01-7.16414E-06
 -1      1294-1.06853E-02 6.55130E-03-1.71706E-09-6.58518E-01 4.72933E+01-6.05896E-06
 -1      1295-1.08729E-02 6.66657E-03-3.77424E-10-5.34098E-01 4.80948E+01-4.93219E-06
 -1      1296-1.10219E-02 6.75745E-03-4.20728E-10-4.12812E-01 4.87308E+01-3.78786E-06
 -1      1297-1.11341E-02 6.82678E-03-9.23145E-10-2.91121E-01 4.91988E+01-2.62990E-06
 -1      1298-1.12064E-02 6.87071E-03-2.05903E-10-1.65642E-01 4.94971E+01-1.46229E-06
 -1      1299-1.12378E-02 6.89021E-03-4.98412E-10-4.27124E-02 4.96248E+01-2.89245E-07
 -1      1300-1.12326E-02 6.88671E-03-5.21163E-10 8.21058E-02 4.95812E+01 8.85171E-07
 -1      1301-1.11866E-02 6.85907E-03 3.94571E-11 2.10369E-01 4.93665E+01 2.05691E-06
 -1      1302-1.11026E-02 6.80675E-03 3.48747E-10 3.22399E-01 4.89813E+01 3.22185E-06
 -1      1303-1.09788E-02 6.73192E-03-2.59507E-10 4.55940E-01 4.84270E+01 4.37593E-06
 -1      1304-1.08174E-02 6.63167E-03-8.21771E-10 5.75421E-01 4.77054E+01 5.51509E-06
 -1      1305-1.06176E-02 6.51063E-03-5.63407E-10 6.87424E-01 4.68191E+01 6.63539E-06
 -1      1306-1.03822E-02 6.36477E-03-2.46845E-10 8.08064E-01 4.57709E+01 7.73295E-06
 -1      1307-1.01077E-02 6.19801E-03 5.19659E-10 9.20471E-01 4.45646E+01 8.80387E-06
 -1      1308-9.80246E-03 6.00908E-03 1.35077E-09 1.03048E+00 4.32043E+01 9.84446E-06
 -1      1309-9.45795E-03 5.80014E-03 1.16677E-09 1.13745E+00 4.16946E+01 1.08511E-05
 -1      1310-9.08506E-03 5.56864E-03 9.49780E-10 1.23964E+00 4.00409E+01 1.18202E-05
 -1      1311-8.67543E-03 5.32084E-03 7.68265E-10 1.33749E+00 3.82487E+01 1.27485E-05
 -1      1312-8.24305E-03 5.05201E-03 1.58880E-09 1.43463E+00 3.63243E+01 1.36327E-05
 -1      1313-7.77115E-03 4.76683E-03 2.22559E-09 1.51471E+00 3.42744E+01 1.44697E-05
 -1      1314-7.28625E-03 4.46492E-03 1.68469E-09 1.60600E+00 3.21061E+01 1.52566E-05
 -1      1315-6.75772E-03 4.14595E-03 2.13611E-09 1.68266E+00 2.98268E+01 1.59907E-05
 -1      1316-6.22917E-03 3.81619E-03 1.96462E-09 1.75070E+00 2.74444E+01 1.66693E-05
 -1      1317-5.64920E-03 3.46733E-03 1.47818E-09 1.81917E+00 2.49673E+01 1.72902E-05
 -1      1318-5.08447E-03 3.11193E-03 2.44621E-09 1.87599E+00 2.24040E+01 1.78512E-05
 -1      1319-4.46835E-03 2.75012E-03 2.88696E-09 1.93393E+00 1.97633E+01 1.83503E-05
 -1      1320-3.84611E-03 2.33363E-03 1.99433E-09 1.97537E+00 1.70545E+01 1.87854E-05
 -1      1321-3.29038E-03 2.07862E-03 4.04422E-09 2.01657E+00 1.42869E+01 1.91567E-05
 -1      1322-2.48634E-03 1.39039E-03 3.81644E-09 2.04959E+00 1.14701E+01 1.71177E-05
 -1      1323-1.99361E-03 1.32411E-03 5.34291E-10 2.07238E+00 8.61397E+00 1.26520E-05
 -1      1324-1.23803E-03 7.10169E-04 1.57916E-09 2.09252E+00 5.72834E+00 1.04293E-05
 -1      1325-6.26898E-04 4.11041E-04 3.21919E-09 2.10225E+00 2.82323E+00 1.04806E-05
 -1      1326 4.76082E-05-4.56533E-05 3.92764E-09 2.10602E+00-9.12782E-02 1.04965E-05
 -1      1327 7.16018E-04-4.27700E-04 3.29524E-09 2.10224E+00-3.00504E+00 1.04755E-05
 -1      1328 1.36778E-03-8.46594E-04 1.99198E-09 2.09068E+00-5.90797E+00 1.04184E-05
 -1      1329 2.03572E-03-1.24174E-03 2.49746E-09 2.07325E+00-8.78997E+00 1.03249E-05
 -1      1330 2.67596E-03-1.64593E-03 3.19683E-09 2.04484E+00-1.16410E+01 1.01956E-05
 -1      1331 3.32332E-03-2.03200E-03 3.81749E-09 2.01535E+00-1.44512E+01 1.00309E-05
 -1      1332 3.94865E-03-2.42552E-03 3.12979E-09 1.97429E+00-1.72108E+01 9.83139E-06
 -1      1333 4.56661E-03-2.79519E-03 2.30551E-09 1.92598E+00-1.99103E+01 9.59765E-06
 -1      1334 5.16370E-03-3.16820E-03 4.55371E-09 1.87805E+00-2.25401E+01 9.33066E-06
 -1      1335 5.75071E-03-3.52392E-03 4.40054E-09 1.81221E+00-2.50912E+01 9.03115E-06
 -1      1336 6.30811E-03-3.86869E-03 2.76413E-09 1.74947E+00-2.75548E+01 8.70022E-06
 -1      1337 6.85167E-03-4.19880E-03 2.62301E-09 1.67409E+00-2.99222E+01 8.33904E-06
 -1      1338 7.36350E-03-4.51344E-03 1.19300E-09 1.60112E+00-3.21852E+01 7.94891E-06
 -1      1339 7.86290E-03-4.82146E-03 1.49766E-09 1.51720E+00-3.43360E+01 7.53106E-06
 -1      1340 8.32139E-03-5.10174E-03 3.88905E-09 1.42146E+00-3.63670E+01 7.08695E-06
 -1      1341 8.75665E-03-5.36600E-03 4.86304E-09 1.33587E+00-3.82711E+01 6.61823E-06
 -1      1342 9.16359E-03-5.61879E-03 3.49663E-09 1.23436E+00-4.00419E+01 6.12645E-06
 -1      1343 9.53863E-03-5.84802E-03 1.00710E-09 1.13218E+00-4.16730E+01 5.61323E-06
 -1      1344 9.87379E-03-6.05138E-03 8.50056E-10 1.02245E+00-4.31588E+01 5.08047E-06
 -1      1345 1.01841E-02-6.24292E-03 2.76052E-09 9.22310E-01-4.44941E+01 4.53001E-06
 -1      1346 1.04567E-02-6.41210E-03 2.47921E-09 7.98434E-01-4.56742E+01 3.96361E-06
 -1      1347 1.06888E-02-6.55166E-03 1.66751E-09 6.87731E-01-4.66950E+01 3.38332E-06
 -1      1348 1.08879E-02-6.67504E-03 2.02249E-09 5.65141E-01-4.75529E+01 2.79119E-06
 -1      1349 1.10444E-02-6.76761E-03 2.04629E-09 4.51329E-01-4.82449E+01 2.18926E-06
 -1      1350 1.11752E-02-6.85410E-03 2.47447E-09 3.30181E-01-4.87686E+01 1.57951E-06
 -1      1351 1.12537E-02-6.89822E-03 1.79945E-09 1.96333E-01-4.91221E+01 9.64047E-07
 -1      1352 1.12963E-02-6.92309E-03 5.63590E-10 8.51772E-02-4.93040E+01 3.45174E-07
 -1      1353 1.13077E-02-6.93343E-03 1.12406E-09-4.46148E-02-4.93138E+01-2.75153E-07
 -1      1354 1.12703E-02-6.90826E-03 2.10036E-09-1.66437E-01-4.91513E+01-8.94742E-07
 -1      1355 1.12009E-02-6.86686E-03 1.99685E-09-2.89677E-01-4.88171E+01-1.51141E-06
 -1      1356 1.10888E-02-6.79725E-03 2.11723E-09-4.12064E-01-4.83122E+01-2.12309E-06
 -1      1357 1.09416E-02-6.70835E-03 3.58748E-09-5.31217E-01-4.76383E+01-2.72765E-06
 -1      1358 1.07537E-02-6.59199E-03 4.21380E-09-6.53944E-01-4.67977E+01-3.32302E-06
 -1      1359 1.05275E-02-6.45163E-03 4.40659E-09-7.63501E-01-4.57933E+01-3.90709E-06
 -1      1360 1.02731E-02-6.29930E-03 3.25157E-09-8.77089E-01-4.46284E+01-4.47792E-06
 -1      1361 9.97810E-03-6.11830E-03 2.03425E-09-9.93494E-01-4.33070E+01-5.03361E-06
 -1      1362 9.64364E-03-5.90994E-03 2.43188E-09-1.09953E+00-4.18335E+01-5.57208E-06
 -1      1363 9.28358E-03-5.69065E-03 1.74963E-09-1.19690E+00-4.02131E+01-6.09153E-06
 -1      1364 8.89138E-03-5.45164E-03 1.82140E-09-1.29933E+00-3.84512E+01-6.59029E-06
 -1      1365 8.46428E-03-5.18832E-03 1.62500E-09-1.39279E+00-3.65539E+01-7.06656E-06
 -1      1366 8.01231E-03-4.91192E-03 5.53665E-10-1.48164E+00-3.45275E+01-7.51872E-06
 -1      1367 7.53106E-03-4.61656E-03 7.23031E-10-1.56611E+00-3.23791E+01-7.94527E-06
 -1      1368 7.02485E-03-4.30689E-03 1.76141E-09-1.64403E+00-3.01159E+01-8.34472E-06
 -1      1369 6.49403E-03-3.98072E-03 1.97432E-09-1.71877E+00-2.77457E+01-8.71569E-06
 -1      1370 5.94054E-03-3.64067E-03 1.95391E-09-1.78161E+00-2.52766E+01-9.05694E-06
 -1      1371 5.37125E-03-3.29360E-03 8.26098E-10-1.84204E+00-2.27168E+01-9.36740E-06
 -1      1372 4.78069E-03-2.93129E-03 1.62471E-10-1.89875E+00-2.00753E+01-9.64597E-06
 -1      1373 4.17244E-03-2.55698E-03 2.14884E-09-1.94508E+00-1.73609E+01-9.89161E-06
 -1      1374 3.55377E-03-2.17839E-03 5.73991E-10-1.98317E+00-1.45829E+01-1.01036E-05
 -1      1375 2.92305E-03-1.79223E-03-1.57797E-09-2.01736E+00-1.17508E+01-1.02814E-05
 -1      1376 2.28189E-03-1.39872E-03 1.34071E-09-2.04312E+00-8.87413E+00-1.04242E-05
 -1      1377 1.63448E-03-1.00197E-03 2.79087E-09-2.06165E+00-5.96271E+00-1.05317E-05
 -1      1378 9.82025E-04-6.01999E-04-2.21131E-10-2.07306E+00-3.02636E+00-1.06035E-05
 -1      1379 3.27192E-04-2.00428E-04-7.46103E-10-2.07676E+00-7.50285E-02-1.06394E-05
 -1      1380-3.27175E-04 2.00404E-04 1.22232E-09-2.07331E+00 2.88128E+00-1.06394E-05
 -1      1381-9.80142E-04 6.01014E-04 1.56013E-09-2.06291E+00 5.83259E+00-1.06035E-05
 -1      1382-1.62794E-03 9.98066E-04 1.47764E-09-2.04353E+00 8.76896E+00-1.05320E-05
 -1      1383-2.26907E-03 1.39122E-03 1.67957E-09-2.01853E+00 1.16805E+01-1.04250E-05
 -1      1384-2.90028E-03 1.77780E-03 6.88811E-10-1.98460E+00 1.45576E+01-1.02831E-05
 -1      1385-3.52045E-03 2.15792E-03-5.14841E-10-1.94658E+00 1.73904E+01-1.01069E-05
 -1      1386-4.12754E-03 2.53066E-03 6.08188E-10-1.89803E+00 2.01696E+01-9.89706E-06
 -1      1387-4.71764E-03 2.89194E-03 7.93072E-10-1.84442E+00 2.28858E+01-9.65433E-06
 -1      1388-5.29043E-03 3.24340E-03 3.88265E-10-1.78338E+00 2.55302E+01-9.37969E-06
 -1      1389-5.84162E-03 3.58071E-03 4.53540E-10-1.71626E+00 2.80940E+01-9.07419E-06
 -1      1390-6.37388E-03 3.90849E-03 5.68154E-10-1.64296E+00 3.05688E+01-8.73897E-06
 -1      1391-6.87606E-03 4.21391E-03 1.00425E-09-1.56041E+00 3.29465E+01-8.37534E-06
 -1      1392-7.35768E-03 4.51029E-03 6.37042E-11-1.48255E+00 3.52194E+01-7.98472E-06
 -1      1393-7.81288E-03 4.79188E-03 5.01712E-10-1.38312E+00 3.73801E+01-7.56845E-06
 -1      1394-8.22927E-03 5.04284E-03-2.90774E-10-1.28844E+00 3.94219E+01-7.12818E-06
 -1      1395-8.62383E-03 5.28704E-03-1.07753E-09-1.19139E+00 4.13382E+01-6.66567E-06
 -1      1396-8.98020E-03 5.50445E-03-6.80052E-10-1.08191E+00 4.31232E+01-6.18258E-06
 -1      1397-9.30828E-03 5.70786E-03-1.39318E-09-9.76098E-01 4.47713E+01-5.68071E-06
 -1      1398-9.59523E-03 5.88235E-03-7.86849E-10-8.51819E-01 4.62776E+01-5.16197E-06
 -1      1399-9.84428E-03 6.03300E-03-1.07415E-09-7.44577E-01 4.76377E+01-4.62846E-06
 -1      1400-1.00639E-02 6.17104E-03-2.00629E-09-6.18702E-01 4.88477E+01-4.08213E-06
 -1      1401-1.02367E-02 6.27493E-03-2.39736E-09-4.95759E-01 4.99045E+01-3.52503E-06
 -1      1402-1.03749E-02 6.36049E-03-2.06935E-09-3.69392E-01 5.08053E+01-2.95939E-06
 -1      1403-1.04703E-02 6.41830E-03-2.46570E-09-2.40798E-01 5.15479E+01-2.38734E-06
 -1      1404-1.05275E-02 6.45487E-03-2.44570E-09-1.11100E-01 5.21311E+01-1.81113E-06
 -1      1405-1.05392E-02 6.45999E-03-8.35088E-10 2.36073E-02 5.25539E+01-1.23300E-06
 -1      1406-1.05129E-02 6.44451E-03-1.95092E-10 1.49096E-01 5.28160E+01-6.55251E-07
 -1      1407-1.04432E-02 6.40177E-03-1.87931E-10 2.86119E-01 5.29180E+01-8.01518E-08
 -1      1408-1.03358E-02 6.33785E-03-1.37781E-09 4.14185E-01 5.28609E+01 4.90054E-07
 -1      1409-1.01813E-02 6.24188E-03-2.17708E-09 5.57077E-01 5.26463E+01 1.05306E-06
 -1      1410-9.98251E-03 6.11733E-03-3.52428E-09 6.77563E-01 5.22766E+01 1.60643E-06
 -1      1411-9.75475E-03 5.98307E-03-5.18262E-09 8.12975E-01 5.17547E+01 2.14806E-06
 -1      1412-9.47052E-03 5.80355E-03-3.88000E-09 9.44329E-01 5.10843E+01 2.67563E-06
 -1      1413-9.15751E-03 5.61439E-03-2.94617E-09 1.06214E+00 5.02696E+01 3.18686E-06
 -1      1414-8.80236E-03 5.39778E-03-3.00411E-09 1.19729E+00 4.93153E+01 3.67970E-06
 -1      1415-8.40311E-03 5.15094E-03-1.69744E-09 1.31446E+00 4.82270E+01 4.15183E-06
 -1      1416-7.97079E-03 4.88682E-03-1.20276E-09 1.43755E+00 4.70106E+01 4.60117E-06
 -1      1417-7.49702E-03 4.59476E-03-1.61999E-09 1.54919E+00 4.56728E+01 5.02565E-06
 -1      1418-6.99368E-03 4.28878E-03-1.88518E-09 1.66197E+00 4.42208E+01 5.42333E-06
 -1      1419-6.45116E-03 3.95609E-03-1.78993E-09 1.77506E+00 4.26622E+01 5.79225E-06
 -1      1420-5.87181E-03 3.59878E-03-1.61740E-09 1.87925E+00 4.10054E+01 6.13038E-06
 -1      1421-5.26518E-03 3.22803E-03-1.58836E-09 1.97666E+00 3.92592E+01 6.43601E-06
 -1      1422-4.62648E-03 2.83703E-03-1.44089E-09 2.07522E+00 3.74327E+01 6.70746E-06
 -1      1423-3.95636E-03 2.42575E-03-2.32081E-09 2.16571E+00 3.55358E+01 6.94297E-06
 -1      1424-3.25964E-03 1.99873E-03-1.75224E-09 2.25316E+00 3.35786E+01 7.14096E-06
 -1      1425-2.53556E-03 1.55503E-03-6.77672E-10 2.33394E+00 3.15718E+01 7.29998E-06
 -1      1426-1.78698E-03 1.09596E-03-1.55605E-09 2.41163E+00 2.95264E+01 7.41857E-06
 -1      1427-1.01477E-03 6.22867E-04-1.73089E-09 2.48192E+00 2.74538E+01 7.49543E-06
 -1      1428-2.20869E-04 1.35800E-04-1.45048E-09 2.54961E+00 2.53658E+01 7.52931E-06
 -1      1429 5.92605E-04-3.62110E-04-1.66003E-09 2.60830E+00 2.32745E+01 7.51911E-06
 -1      1430 1.42615E-03-8.74357E-04-1.60305E-09 2.66677E+00 2.11923E+01 7.46369E-06
 -1      1431 2.27344E-03-1.39198E-03-1.29562E-09 2.71253E+00 1.91319E+01 7.36211E-06
 -1      1432 3.13890E-03-1.92385E-03-4.45760E-10 2.76566E+00 1.71062E+01 7.21353E-06
 -1      1433 4.01599E-03-2.46053E-03-7.81315E-12 2.79678E+00 1.51283E+01 7.01716E-06
 -1      1434 4.90662E-03-3.00764E-03-8.21033E-10 2.84284E+00 1.32118E+01 6.77227E-06
 -1      1435 5.80575E-03-3.55724E-03-5.13392E-10 2.86017E+00 1.13701E+01 6.47825E-06
 -1      1436 6.71597E-03-4.11666E-03-1.80439E-10 2.90349E+00 9.61689E+00 6.13459E-06
 -1      1437 7.63262E-03-4.67786E-03 1.63861E-10 2.90371E+00 7.96611E+00 5.74080E-06
 -1      1438 8.55440E-03-5.24250E-03 3.46238E-10 2.94695E+00 6.43172E+00 5.29651E-06
 -1      1439 9.48185E-03-5.80990E-03-6.78479E-10 2.93346E+00 5.02781E+00 4.80151E-06
 -1      1440 1.04209E-02-6.38986E-03-9.03924E-11 2.98199E+00 3.76848E+00 4.25531E-06
 -1      1441 1.13494E-02-6.95756E-03 3.61742E-10 2.92940E+00 2.66799E+00 3.65787E-06
 -1      1442 1.22772E-02-7.50681E-03-1.92717E-10 3.02080E+00 1.74055E+00 3.00921E-06
 -1      1443 1.32686E-02-8.19905E-03-2.67401E-10 2.91963E+00 1.00050E+00 2.30884E-06
 -1      1444 1.40204E-02-8.35371E-03-1.65841E-10 3.03970E+00 4.62068E-01 1.55734E-06
 -1      1445 1.56313E-02-1.04504E-02-1.61331E-10 2.92452E+00 1.39715E-01 7.52913E-07
 -1      1446 1.15777E-02-3.94000E-03-2.42832E-10 3.29954E+00 3.44644E-02 3.36840E-07
 -1      1447-8.69032E-02 1.09735E-02 1.21949E-08 5.88747E-04-6.79564E+01 3.53701E-01
 -1      1448-4.11671E-01 2.11704E-01 1.79010E-08 1.24465E-01-6.58931E+01 3.53678E-01
 -1      1449-1.39598E+00 8.16822E-01 3.32641E-08 2.40839E-01-6.17671E+01 3.53580E-01
 -1      1450-2.99576E+00 1.80083E+00 3.57027E-08 3.49892E-01-5.76429E+01 3.53347E-01
 -1      1451-5.16096E+00 3.12908E+00 1.81408E-08 4.50611E-01-5.35225E+01 3.52917E-01
 -1      1452-7.86358E+00 4.79166E+00-1.84517E-09 5.45141E-01-4.94086E+01 3.52233E-01
 -1      1453-1.10389E+01 6.73349E+00-2.09465E-08 6.31409E-01-4.53044E+01 3.51242E-01
 -1      1454-1.46839E+01 8.97815E+00-3.68977E-08 7.09442E-01-4.12138E+01 3.49895E-01
 -1      1455-1.87163E+01 1.14459E+01-4.40839E-08 7.82090E-01-3.71412E+01 3.48146E-01
 -1      1456-2.31278E+01 1.41551E+01-4.72981E-08 8.44504E-01-3.30915E+01 3.45957E-01
 -1      1457-2.78704E+01 1.70676E+01-4.40796E-08 9.02083E-01-2.90702E+01 3.43289E-01
 -1      1458-3.28761E+01 2.01277E+01-2.98542E-08 9.53284E-01-2.50829E+01 3.40112E-01
 -1      1459-3.81627E+01 2.33799E+01-1.49278E-08 9.90588E-01-2.11358E+01 3.36397E-01
 -1      1460-4.36445E+01 2.67443E+01-1.92312E-09 1.03167E+00-1.72353E+01 3.32119E-01
 -1      1461-4.92766E+01 3.01873E+01 9.76120E-09 1.05361E+00-1.33880E+01 3.27261E-01
 -1      1462-5.50754E+01 3.37470E+01 1.78204E-08 1.07641E+00-9.60096E+00 3.21805E-01
 -1      1463-6.09596E+01 3.73713E+01 2.78001E-08 1.09572E+00-5.88109E+00 3.15739E-01
 -1      1464-6.68659E+01 4.09638E+01 3.81177E-08 1.09503E+00-2.23558E+00 3.09057E-01
 -1      1465-7.28601E+01 4.46706E+01 4.27394E-08 1.10201E+00 1.32834E+00 3.01752E-01
 -1      1466-7.87773E+01 4.82784E+01 4.63896E-08 1.09079E+00 4.80341E+00 2.93825E-01
 -1      1467-8.46948E+01 5.19175E+01 5.26603E-08 1.08194E+00 8.18236E+00 2.85280E-01
 -1      1468-9.05119E+01 5.54915E+01 5.36707E-08 1.06708E+00 1.14580E+01 2.76122E-01
 -1      1469-9.61818E+01 5.89388E+01 5.36383E-08 1.03839E+00 1.46233E+01 2.66363E-01
 -1      1470-1.01787E+02 6.24155E+01 5.71071E-08 1.01045E+00 1.76713E+01 2.56014E-01
 -1      1471-1.07139E+02 6.56686E+01 5.20961E-08 9.74558E-01 2.05953E+01 2.45094E-01
 -1      1472-1.12336E+02 6.88691E+01 3.93751E-08 9.36527E-01 2.33885E+01 2.33622E-01
 -1      1473-1.17279E+02 7.18968E+01 1.37436E-08 8.91204E-01 2.60448E+01 2.21620E-01
 -1      1474-1.21961E+02 7.47618E+01-1.94952E-08 8.39229E-01 2.85581E+01 2.09115E-01
 -1      1475-1.26389E+02 7.74890E+01-4.49229E-08 7.83703E-01 3.09227E+01 1.96134E-01
 -1      1476-1.30492E+02 8.00048E+01-6.68782E-08 7.29994E-01 3.31332E+01 1.82708E-01
 -1      1477-1.34251E+02 8.22991E+01-8.78445E-08 6.66353E-01 3.51846E+01 1.68870E-01
 -1      1478-1.37682E+02 8.44023E+01-1.08019E-07 5.97960E-01 3.70723E+01 1.54657E-01
 -1      1479-1.40764E+02 8.63123E+01-1.31404E-07 5.29854E-01 3.87922E+01 1.40103E-01
 -1      1480-1.43420E+02 8.79185E+01-1.44933E-07 4.56430E-01 4.03405E+01 1.25250E-01
 -1      1481-1.45709E+02 8.93339E+01-1.34285E-07 3.84140E-01 4.17139E+01 1.10138E-01
 -1      1482-1.47572E+02 9.04723E+01-1.15162E-07 3.04167E-01 4.29097E+01 9.48088E-02
 -1      1483-1.49020E+02 9.13637E+01-1.03129E-07 2.27633E-01 4.39256E+01 7.93067E-02
 -1      1484-1.50020E+02 9.19754E+01-9.47054E-08 1.46760E-01 4.47599E+01 6.36769E-02
 -1      1485-1.50582E+02 9.23136E+01-8.81547E-08 5.87694E-02 4.54112E+01 4.79651E-02
 -1      1486-1.50716E+02 9.24093E+01-8.26082E-08-1.75070E-02 4.58790E+01 3.22173E-02
 -1      1487-1.50372E+02 9.21964E+01-8.22761E-08-1.04275E-01 4.61631E+01 1.64810E-02
 -1      1488-1.49569E+02 9.16951E+01-9.38476E-08-1.87402E-01 4.62638E+01 8.04199E-04
 -1      1489-1.48315E+02 9.09235E+01-1.16470E-07-2.74372E-01 4.61822E+01-1.47657E-02
 -1      1490-1.46630E+02 8.99126E+01-1.50470E-07-3.57183E-01 4.59199E+01-3.01811E-02
 -1      1491-1.44447E+02 8.85529E+01-1.81731E-07-4.41846E-01 4.54788E+01-4.53942E-02
 -1      1492-1.41837E+02 8.69563E+01-2.00130E-07-5.21646E-01 4.48616E+01-6.03577E-02
 -1      1493-1.38791E+02 8.50969E+01-2.14139E-07-6.04198E-01 4.40715E+01-7.50250E-02
 -1      1494-1.35303E+02 8.29584E+01-2.26379E-07-6.83665E-01 4.31122E+01-8.93503E-02
 -1      1495-1.31374E+02 8.05461E+01-2.34098E-07-7.60226E-01 4.19880E+01-1.03288E-01
 -1      1496-1.27035E+02 7.78746E+01-2.37519E-07-8.41625E-01 4.07036E+01-1.16795E-01
 -1      1497-1.22325E+02 7.50070E+01-2.43299E-07-9.06428E-01 3.92644E+01-1.29828E-01
 -1      1498-1.17181E+02 7.18413E+01-2.42610E-07-9.79046E-01 3.76761E+01-1.42346E-01
 -1      1499-1.11688E+02 6.84728E+01-2.23066E-07-1.04820E+00 3.59449E+01-1.54308E-01
 -1      1500-1.05845E+02 6.48977E+01-1.96298E-07-1.11119E+00 3.40776E+01-1.65677E-01
 -1      1501-9.96572E+01 6.11028E+01-1.69272E-07-1.17328E+00 3.20813E+01-1.76418E-01
 -1      1502-9.31460E+01 5.71057E+01-1.45121E-07-1.22553E+00 2.99634E+01-1.86495E-01
 -1      1503-8.63388E+01 5.29303E+01-1.26243E-07-1.28159E+00 2.77321E+01-1.95876E-01
 -1      1504-7.92757E+01 4.86082E+01-1.03501E-07-1.32914E+00 2.53955E+01-2.04532E-01
 -1      1505-7.19458E+01 4.41118E+01-7.85017E-08-1.37337E+00 2.29622E+01-2.12435E-01
 -1      1506-6.43850E+01 3.94723E+01-5.87067E-08-1.41234E+00 2.04413E+01-2.19561E-01
 -1      1507-5.66304E+01 3.47173E+01-4.62598E-08-1.44946E+00 1.78419E+01-2.25886E-01
 -1      1508-4.87069E+01 2.98667E+01-3.25932E-08-1.47707E+00 1.51734E+01-2.31391E-01
 -1      1509-4.06155E+01 2.48999E+01-1.19002E-08-1.50284E+00 1.24456E+01-2.36059E-01
 -1      1510-3.24094E+01 1.98676E+01 9.51489E-09-1.52404E+00 9.66823E+00-2.39876E-01
 -1      1511-2.41126E+01 1.47838E+01 2.75047E-08-1.53825E+00 6.85136E+00-2.42830E-01
 -1      1512-1.57421E+01 9.65165E+00 4.21456E-08-1.54857E+00 4.00510E+00-2.44913E-01
 -1      1513-7.33371E+00 4.49533E+00 5.87382E-08-1.55281E+00 1.13968E+00-2.46119E-01
 -1      1514 1.08674E+00-6.67000E-01 7.07508E-08-1.55243E+00-1.73470E+00-2.46446E-01
 -1      1515 9.49055E+00-5.82067E+00 7.66915E-08-1.54655E+00-4.60776E+00-2.45893E-01
 -1      1516 1.78447E+01-1.09407E+01 8.19762E-08-1.53575E+00-7.46926E+00-2.44464E-01
 -1      1517 2.61295E+01-1.60207E+01 8.26894E-08-1.51865E+00-1.03090E+01-2.42166E-01
 -1      1518 3.43118E+01-2.10384E+01 8.01611E-08-1.49855E+00-1.31169E+01-2.39006E-01
 -1      1519 4.23654E+01-2.59780E+01 7.72548E-08-1.47138E+00-1.58830E+01-2.34999E-01
 -1      1520 5.02549E+01-3.08108E+01 6.97919E-08-1.44046E+00-1.85974E+01-2.30158E-01
 -1      1521 5.79651E+01-3.55385E+01 6.16657E-08-1.40304E+00-2.12506E+01-2.24502E-01
 -1      1522 6.54702E+01-4.01421E+01 5.91792E-08-1.36118E+00-2.38331E+01-2.18050E-01
 -1      1523 7.27434E+01-4.46085E+01 5.38122E-08-1.31789E+00-2.63358E+01-2.10827E-01
 -1      1524 7.97298E+01-4.88784E+01 4.94752E-08-1.26647E+00-2.87499E+01-2.02858E-01
 -1      1525 8.64500E+01-5.29970E+01 5.01705E-08-1.21197E+00-3.10668E+01-1.94172E-01
 -1      1526 9.28881E+01-5.69657E+01 4.64006E-08-1.15278E+00-3.32783E+01-1.84798E-01
 -1      1527 9.89448E+01-6.06581E+01 3.60606E-08-1.09128E+00-3.53766E+01-1.74772E-01
 -1      1528 1.04689E+02-6.41853E+01 2.30565E-08-1.02107E+00-3.73543E+01-1.64129E-01
 -1      1529 1.10060E+02-6.74832E+01 8.44594E-09-9.56086E-01-3.92044E+01-1.52905E-01
 -1      1530 1.15036E+02-7.05349E+01-2.74925E-09-8.80839E-01-4.09203E+01-1.41141E-01
 -1      1531 1.19601E+02-7.33278E+01-7.68176E-09-8.05895E-01-4.24960E+01-1.28877E-01
 -1      1532 1.23744E+02-7.58620E+01-1.57374E-08-7.24770E-01-4.39259E+01-1.16158E-01
 -1      1533 1.27494E+02-7.81834E+01-1.69173E-08-6.42128E-01-4.52050E+01-1.03027E-01
 -1      1534 1.30739E+02-8.01527E+01-3.07014E-09-5.64821E-01-4.63287E+01-8.95313E-02
 -1      1535 1.33548E+02-8.18760E+01 3.43388E-09-4.74256E-01-4.72931E+01-7.57176E-02
 -1      1536 1.35912E+02-8.33359E+01-2.60801E-09-3.88572E-01-4.80946E+01-6.16340E-02
 -1      1537 1.37782E+02-8.44869E+01-2.91522E-09-2.99846E-01-4.87305E+01-4.73301E-02
 -1      1538 1.39153E+02-8.53078E+01 1.17106E-08-2.08413E-01-4.91984E+01-3.28561E-02
 -1      1539 1.40054E+02-8.58612E+01 3.83161E-08-1.23574E-01-4.94968E+01-1.82623E-02
 -1      1540 1.40483E+02-8.61436E+01 6.96883E-08-2.99447E-02-4.96244E+01-3.60002E-03
 -1      1541 1.40404E+02-8.60893E+01 9.85569E-08 6.02566E-02-4.95808E+01 1.10799E-02
 -1      1542 1.39817E+02-8.57193E+01 1.21327E-07 1.49259E-01-4.93660E+01 2.57257E-02
 -1      1543 1.38763E+02-8.50719E+01 1.37770E-07 2.44188E-01-4.89808E+01 4.02863E-02
 -1      1544 1.37249E+02-8.41651E+01 1.51989E-07 3.26656E-01-4.84265E+01 5.47116E-02
 -1      1545 1.35195E+02-8.28821E+01 1.58646E-07 4.15640E-01-4.77049E+01 6.89506E-02
 -1      1546 1.32711E+02-8.13646E+01 1.45969E-07 5.04495E-01-4.68185E+01 8.29533E-02
 -1      1547 1.29769E+02-7.95696E+01 1.19083E-07 5.87584E-01-4.57703E+01 9.66717E-02
 -1      1548 1.26355E+02-7.74740E+01 8.85650E-08 6.70118E-01-4.45640E+01 1.10058E-01
 -1      1549 1.22503E+02-7.51062E+01 6.52949E-08 7.51304E-01-4.32036E+01 1.23064E-01
 -1      1550 1.18225E+02-7.24805E+01 5.53242E-08 8.26397E-01-4.16940E+01 1.35646E-01
 -1      1551 1.13550E+02-6.96283E+01 4.52589E-08 9.02374E-01-4.00402E+01 1.47759E-01
 -1      1552 1.08462E+02-6.65007E+01 2.84384E-08 9.74550E-01-3.82480E+01 1.59362E-01
 -1      1553 1.02986E+02-6.31354E+01 8.95186E-09 1.03978E+00-3.63236E+01 1.70414E-01
 -1      1554 9.71750E+01-5.95796E+01-9.18552E-09 1.10884E+00-3.42737E+01 1.80876E-01
 -1      1555 9.10289E+01-5.58207E+01-2.77009E-08 1.16489E+00-3.21053E+01 1.90711E-01
 -1      1556 8.45306E+01-5.18222E+01-4.59030E-08 1.22235E+00-2.98260E+01 1.99887E-01
 -1      1557 7.77638E+01-4.76766E+01-5.31093E-08 1.27603E+00-2.74436E+01 2.08369E-01
 -1      1558 7.07258E+01-4.33664E+01-5.24981E-08 1.32318E+00-2.49665E+01 2.16130E-01
 -1      1559 6.34347E+01-3.88947E+01-4.86174E-08 1.36741E+00-2.24031E+01 2.23141E-01
 -1      1560 5.59194E+01-3.42842E+01-3.97041E-08 1.40320E+00-1.97625E+01 2.29379E-01
 -1      1561 4.82078E+01-2.95541E+01-3.11219E-08 1.43888E+00-1.70537E+01 2.34821E-01
 -1      1562 4.03429E+01-2.47398E+01-2.64923E-08 1.46681E+00-1.42861E+01 2.39449E-01
 -1      1563 3.23168E+01-1.98115E+01-1.93262E-08 1.49014E+00-1.14693E+01 2.43251E-01
 -1      1564 2.41905E+01-1.48313E+01-1.29522E-08 1.50928E+00-8.61316E+00 2.46213E-01
 -1      1565 1.59778E+01-9.79822E+00-8.90414E-09 1.52129E+00-5.72754E+00 2.48317E-01
 -1      1566 7.69929E+00-4.71954E+00-2.89702E-09 1.52954E+00-2.82244E+00 2.49554E-01
 -1      1567-5.99707E-01 3.67122E-01 3.99123E-09 1.53199E+00 9.20598E-02 2.49925E-01
 -1      1568-8.90197E+00 5.45809E+00 1.18742E-08 1.52894E+00 3.00581E+00 2.49428E-01
 -1      1569-1.71712E+01 1.05272E+01 1.95265E-08 1.52073E+00 5.90872E+00 2.48065E-01
 -1      1570-2.53886E+01 1.55682E+01 2.71304E-08 1.50686E+00 8.79069E+00 2.45841E-01
 -1      1571-3.35098E+01 2.05444E+01 3.25713E-08 1.48973E+00 1.16417E+01 2.42762E-01
 -1      1572-4.15176E+01 2.54524E+01 3.78220E-08 1.46443E+00 1.44519E+01 2.38841E-01
 -1      1573-4.93971E+01 3.02920E+01 4.52667E-08 1.43581E+00 1.72115E+01 2.34089E-01
 -1      1574-5.70810E+01 3.49938E+01 4.76138E-08 1.40256E+00 1.99109E+01 2.28525E-01
 -1      1575-6.45866E+01 3.95977E+01 3.89070E-08 1.36149E+00 2.25407E+01 2.22166E-01
 -1      1576-7.18683E+01 4.40659E+01 1.99173E-08 1.32106E+00 2.50918E+01 2.15034E-01
 -1      1577-7.88974E+01 4.83758E+01-2.64097E-09 1.27158E+00 2.75553E+01 2.07155E-01
 -1      1578-8.56524E+01 5.25169E+01-1.67561E-08 1.21987E+00 2.99226E+01 1.98555E-01
 -1      1579-9.21017E+01 5.64603E+01-1.90944E-08 1.16094E+00 3.21856E+01 1.89265E-01
 -1      1580-9.82664E+01 6.02560E+01-1.70839E-08 1.10091E+00 3.43363E+01 1.79316E-01
 -1      1581-1.04058E+02 6.37993E+01-1.72409E-08 1.04010E+00 3.63673E+01 1.68742E-01
 -1      1582-1.09494E+02 6.71274E+01-1.87397E-08 9.67995E-01 3.82714E+01 1.57581E-01
 -1      1583-1.14574E+02 7.02513E+01-1.88720E-08 8.97536E-01 4.00421E+01 1.45871E-01
 -1      1584-1.19244E+02 7.31168E+01-1.61936E-08 8.22870E-01 4.16731E+01 1.33651E-01
 -1      1585-1.23484E+02 7.57041E+01-8.36223E-09 7.46647E-01 4.31589E+01 1.20966E-01
 -1      1586-1.27322E+02 7.80599E+01 8.94391E-09 6.62058E-01 4.44941E+01 1.07858E-01
 -1      1587-1.30721E+02 8.01522E+01 3.62166E-08 5.85706E-01 4.56742E+01 9.43722E-02
 -1      1588-1.33656E+02 8.19510E+01 6.20964E-08 4.98784E-01 4.66949E+01 8.05559E-02
 -1      1589-1.36125E+02 8.34585E+01 7.37926E-08 4.14242E-01 4.75528E+01 6.64567E-02
 -1      1590-1.38123E+02 8.46771E+01 6.93240E-08 3.24097E-01 4.82447E+01 5.21235E-02
 -1      1591-1.39683E+02 8.56556E+01 5.18503E-08 2.34485E-01 4.87684E+01 3.76051E-02
 -1      1592-1.40711E+02 8.62718E+01 3.25740E-08 1.51346E-01 4.91217E+01 2.29520E-02
 -1      1593-1.41258E+02 8.65977E+01 1.74893E-08 5.53142E-02 4.93037E+01 8.21542E-03
 -1      1594-1.41351E+02 8.66661E+01 6.92145E-10-3.06883E-02 4.93134E+01-6.55470E-03
 -1      1595-1.40940E+02 8.64227E+01-1.38266E-08-1.22513E-01 4.91509E+01-2.13071E-02
 -1      1596-1.40028E+02 8.58494E+01-1.94814E-08-2.12520E-01 4.88166E+01-3.59906E-02
 -1      1597-1.38641E+02 8.49963E+01-2.16408E-08-2.98612E-01 4.83116E+01-5.05547E-02
 -1      1598-1.36802E+02 8.38890E+01-2.97828E-08-3.87948E-01 4.76377E+01-6.49493E-02
 -1      1599-1.34450E+02 8.24280E+01-4.27625E-08-4.72410E-01 4.67971E+01-7.91249E-02
 -1      1600-1.31652E+02 8.07122E+01-5.05489E-08-5.59461E-01 4.57926E+01-9.30323E-02
 -1      1601-1.28423E+02 7.87445E+01-5.36375E-08-6.43179E-01 4.46276E+01-1.06624E-01
 -1      1602-1.24733E+02 7.64807E+01-5.98028E-08-7.18578E-01 4.33061E+01-1.19853E-01
 -1      1603-1.20598E+02 7.39354E+01-6.04486E-08-7.97525E-01 4.18327E+01-1.32675E-01
 -1      1604-1.16073E+02 7.11636E+01-5.41650E-08-8.74603E-01 4.02122E+01-1.45044E-01
 -1      1605-1.11154E+02 6.81540E+01-6.09897E-08-9.45170E-01 3.84503E+01-1.56919E-01
 -1      1606-1.05845E+02 6.49020E+01-8.29790E-08-1.01379E+00 3.65529E+01-1.68259E-01
 -1      1607-1.00163E+02 6.14058E+01-9.95095E-08-1.08031E+00 3.45265E+01-1.79025E-01
 -1      1608-9.41496E+01 5.77165E+01-1.04537E-07-1.13763E+00 3.23781E+01-1.89180E-01
 -1      1609-8.78385E+01 5.38678E+01-1.01941E-07-1.19674E+00 3.01149E+01-1.98691E-01
 -1      1610-8.11899E+01 4.97735E+01-8.85758E-08-1.24840E+00 2.77446E+01-2.07524E-01
 -1      1611-7.42867E+01 4.55437E+01-6.88318E-08-1.29833E+00 2.52754E+01-2.15649E-01
 -1      1612-6.71421E+01 4.11689E+01-4.72442E-08-1.34257E+00 2.27157E+01-2.23040E-01
 -1      1613-5.97611E+01 3.66417E+01-2.90890E-08-1.37916E+00 2.00741E+01-2.29672E-01
 -1      1614-5.21774E+01 3.19886E+01-1.74944E-08-1.41402E+00 1.73597E+01-2.35522E-01
 -1      1615-4.44294E+01 2.72378E+01-9.20100E-09-1.44394E+00 1.45818E+01-2.40570E-01
 -1      1616-3.65427E+01 2.24081E+01 1.01540E-09-1.46755E+00 1.17496E+01-2.44801E-01
 -1      1617-2.85271E+01 1.74882E+01 1.33848E-08-1.48658E+00 8.87295E+00-2.48202E-01
 -1      1618-2.04311E+01 1.25253E+01 2.28812E-08-1.49961E+00 5.96153E+00-2.50760E-01
 -1      1619-1.22768E+01 7.52767E+00 3.31448E-08-1.50793E+00 3.02519E+00-2.52469E-01
 -1      1620-4.08810E+00 2.50449E+00 4.46252E-08-1.51063E+00 7.38826E-02-2.53324E-01
 -1      1621 4.09635E+00-2.51159E+00 5.47182E-08-1.50824E+00-2.88242E+00-2.53324E-01
 -1      1622 1.22557E+01-7.51483E+00 6.56094E-08-1.50007E+00-5.83371E+00-2.52469E-01
 -1      1623 2.03568E+01-1.24824E+01 7.83639E-08-1.48707E+00-8.77006E+00-2.50764E-01
 -1      1624 2.83726E+01-1.73986E+01 9.15307E-08-1.46790E+00-1.16816E+01-2.48217E-01
 -1      1625 3.62669E+01-2.22358E+01 1.02756E-07-1.44440E+00-1.45586E+01-2.44839E-01
 -1      1626 4.40210E+01-2.69892E+01 1.09569E-07-1.41447E+00-1.73914E+01-2.40642E-01
 -1      1627 5.16108E+01-3.16497E+01 1.11294E-07-1.38031E+00-2.01705E+01-2.35644E-01
 -1      1628 5.89863E+01-3.61641E+01 1.08199E-07-1.34074E+00-2.28868E+01-2.29864E-01
 -1      1629 6.61439E+01-4.05540E+01 9.52241E-08-1.29767E+00-2.55311E+01-2.23324E-01
 -1      1630 7.30502E+01-4.47913E+01 7.32755E-08-1.24778E+00-2.80948E+01-2.16050E-01
 -1      1631 7.96822E+01-4.88605E+01 5.18474E-08-1.19433E+00-3.05696E+01-2.08068E-01
 -1      1632 8.59935E+01-5.27227E+01 3.31752E-08-1.13713E+00-3.29472E+01-1.99409E-01
 -1      1633 9.19930E+01-5.63989E+01 1.82424E-08-1.07176E+00-3.52200E+01-1.90107E-01
 -1      1634 9.76663E+01-5.98981E+01 5.38843E-11-1.00943E+00-3.73807E+01-1.80195E-01
 -1      1635 1.02915E+02-6.30909E+01-2.55412E-08-9.37947E-01-3.94224E+01-1.69713E-01
 -1      1636 1.07813E+02-6.60987E+01-5.81670E-08-8.64233E-01-4.13387E+01-1.58699E-01
 -1      1637 1.12306E+02-6.88662E+01-9.97939E-08-7.86579E-01-4.31236E+01-1.47195E-01
 -1      1638 1.16362E+02-7.13503E+01-1.48741E-07-7.04474E-01-4.47716E+01-1.35246E-01
 -1      1639 1.19964E+02-7.35511E+01-1.99951E-07-6.27132E-01-4.62779E+01-1.22895E-01
 -1      1640 1.23113E+02-7.54807E+01-2.39589E-07-5.36583E-01-4.76379E+01-1.10191E-01
 -1      1641 1.25812E+02-7.71462E+01-2.51639E-07-4.49804E-01-4.88479E+01-9.71821E-02
 -1      1642 1.28009E+02-7.84923E+01-2.36377E-07-3.59382E-01-4.99046E+01-8.39177E-02
 -1      1643 1.29708E+02-7.95258E+01-2.11161E-07-2.66731E-01-5.08053E+01-7.04493E-02
 -1      1644 1.30911E+02-8.02612E+01-1.84045E-07-1.75812E-01-5.15479E+01-5.68288E-02
 -1      1645 1.31625E+02-8.07184E+01-1.59247E-07-7.93807E-02-5.21310E+01-4.31090E-02
 -1      1646 1.31783E+02-8.07959E+01-1.38901E-07 1.44435E-02-5.25537E+01-2.93436E-02
 -1      1647 1.31444E+02-8.05897E+01-1.19137E-07 1.13028E-01-5.28158E+01-1.55869E-02
 -1      1648 1.30595E+02-8.00844E+01-9.36407E-08 2.08904E-01-5.29177E+01-1.89305E-03
 -1      1649 1.29205E+02-7.92233E+01-5.23037E-08 3.08159E-01-5.28605E+01 1.16834E-02
 -1      1650 1.27283E+02-7.80363E+01-2.22073E-09 3.96211E-01-5.26458E+01 2.50876E-02
 -1      1651 1.24856E+02-7.65545E+01 5.07784E-08 4.98412E-01-5.22761E+01 3.82646E-02
 -1      1652 1.21931E+02-7.47768E+01 1.04530E-07 5.91683E-01-5.17541E+01 5.11607E-02
 -1      1653 1.18445E+02-7.26191E+01 1.41087E-07 6.84720E-01-5.10837E+01 6.37222E-02
 -1      1654 1.14489E+02-7.01985E+01 1.55125E-07 7.81075E-01-5.02689E+01 7.58953E-02
 -1      1655 1.10040E+02-6.74796E+01 1.61525E-07 8.66731E-01-4.93146E+01 8.76284E-02
 -1      1656 1.05082E+02-6.44366E+01 1.66988E-07 9.58029E-01-4.82262E+01 9.88696E-02
 -1      1657 9.96554E+01-6.11065E+01 1.73947E-07 1.04370E+00-4.70098E+01 1.09569E-01
 -1      1658 9.37591E+01-5.74889E+01 1.82407E-07 1.13012E+00-4.56719E+01 1.19676E-01
 -1      1659 8.74302E+01-5.36177E+01 1.82893E-07 1.21277E+00-4.42198E+01 1.29144E-01
 -1      1660 8.06489E+01-4.94584E+01 1.72603E-07 1.28883E+00-4.26612E+01 1.37926E-01
 -1      1661 7.34398E+01-4.50366E+01 1.60607E-07 1.36616E+00-4.10044E+01 1.45978E-01
 -1      1662 6.58315E+01-4.03677E+01 1.54451E-07 1.44106E+00-3.92581E+01 1.53255E-01
 -1      1663 5.78439E+01-3.54788E+01 1.52238E-07 1.50929E+00-3.74316E+01 1.59717E-01
 -1      1664 4.94763E+01-3.03469E+01 1.49734E-07 1.57685E+00-3.55347E+01 1.65324E-01
 -1      1665 4.07550E+01-2.49970E+01 1.42064E-07 1.63882E+00-3.35775E+01 1.70038E-01
 -1      1666 3.17131E+01-1.94594E+01 1.28418E-07 1.69867E+00-3.15707E+01 1.73824E-01
 -1      1667 2.23458E+01-1.37131E+01 1.15536E-07 1.75415E+00-2.95253E+01 1.76647E-01
 -1      1668 1.26974E+01-7.80022E+00 1.05149E-07 1.80612E+00-2.74528E+01 1.78477E-01
 -1      1669 2.76583E+00-1.70894E+00 9.22389E-08 1.85426E+00-2.53648E+01 1.79283E-01
 -1      1670-7.39976E+00 4.51800E+00 7.45524E-08 1.89844E+00-2.32735E+01 1.79038E-01
 -1      1671-1.78204E+01 1.09136E+01 5.78135E-08 1.93927E+00-2.11913E+01 1.77718E-01
 -1      1672-2.84165E+01 1.74001E+01 4.45730E-08 1.97607E+00-1.91310E+01 1.75300E-01
 -1      1673-3.92402E+01 2.40423E+01 3.14573E-08 2.00825E+00-1.71053E+01 1.71761E-01
 -1      1674-5.01958E+01 3.07543E+01 1.95254E-08 2.03791E+00-1.51275E+01 1.67085E-01
 -1      1675-6.13469E+01 3.75988E+01 1.15949E-08 2.06300E+00-1.32110E+01 1.61253E-01
 -1      1676-7.25561E+01 4.44496E+01 3.19494E-09 2.08673E+00-1.13693E+01 1.54252E-01
 -1      1677-8.39764E+01 5.14732E+01-1.04742E-08 2.10560E+00-9.61624E+00 1.46068E-01
 -1      1678-9.53847E+01 5.84510E+01-2.71880E-08 2.12111E+00-7.96554E+00 1.36691E-01
 -1      1679-1.06991E+02 6.55835E+01-4.71273E-08 2.13450E+00-6.43125E+00 1.26112E-01
 -1      1680-1.18494E+02 7.25990E+01-6.95664E-08 2.14157E+00-5.02743E+00 1.14324E-01
 -1      1681-1.30279E+02 7.98606E+01-9.37632E-08 2.15510E+00-3.76823E+00 1.01319E-01
 -1      1682-1.41904E+02 8.70404E+01-1.18123E-07 2.15545E+00-2.66783E+00 8.70946E-02
 -1      1683-1.53301E+02 9.35737E+01-1.41367E-07 2.17639E+00-1.74054E+00 7.16471E-02
 -1      1684-1.66821E+02 1.03759E+02-1.65116E-07 2.10346E+00-1.00059E+00 5.49707E-02
 -1      1685-1.71395E+02 9.94105E+01-1.84642E-07 2.38914E+00-4.62338E-01 3.70781E-02
 -1      1686-2.10083E+02 1.49464E+02-2.35387E-07 1.33736E+00-1.40105E-01 1.79166E-02
 -1      1687-1.22543E+02 5.82306E-02-2.78815E-07 5.17833E+00-3.47426E-02 8.00234E-03
 -1      1688-8.69032E-02 1.09735E-02-1.21949E-08 5.88841E-04 6.79564E+01-3.53701E-01
 -1      1689-4.11671E-01 2.11704E-01-1.79010E-08 1.24465E-01 6.58931E+01-3.53678E-01
 -1      1690-1.39598E+00 8.16822E-01-3.32641E-08 2.40839E-01 6.17671E+01-3.53580E-01
 -1      1691-2.99576E+00 1.80083E+00-3.57027E-08 3.49892E-01 5.76429E+01-3.53347E-01
 -1      1692-5.16096E+00 3.12908E+00-1.81408E-08 4.50611E-01 5.35225E+01-3.52917E-01
 -1      1693-7.86358E+00 4.79166E+00 1.84517E-09 5.45141E-01 4.94086E+01-3.52233E-01
 -1      1694-1.10389E+01 6.73349E+00 2.09465E-08 6.31409E-01 4.53044E+01-3.51242E-01
 -1      1695-1.46839E+01 8.97815E+00 3.68977E-08 7.09442E-01 4.12138E+01-3.49895E-01
 -1      1696-1.87163E+01 1.14459E+01 4.40839E-08 7.82090E-01 3.71412E+01-3.48146E-01
 -1      1697-2.31278E+01 1.41551E+01 4.72981E-08 8.44504E-01 3.30915E+01-3.45957E-01
 -1      1698-2.78704E+01 1.70676E+01 4.40796E-08 9.02083E-01 2.90702E+01-3.43289E-01
 -1      1699-3.28761E+01 2.01277E+01 2.98542E-08 9.53284E-01 2.50829E+01-3.40112E-01
 -1      1700-3.81627E+01 2.33799E+01 1.49278E-08 9.90588E-01 2.11358E+01-3.36397E-01
 -1      1701-4.36445E+01 2.67443E+01 1.92312E-09 1.03167E+00 1.72353E+01-3.32119E-01
 -1      1702-4.92766E+01 3.01873E+01-9.76120E-09 1.05361E+00 1.33880E+01-3.27261E-01
 -1      1703-5.50754E+01 3.37470E+01-1.78204E-08 1.07641E+00 9.60096E+00-3.21805E-01
 -1      1704-6.09596E+01 3.73713E+01-2.78001E-08 1.09572E+00 5.88109E+00-3.15739E-01
 -1      1705-6.68659E+01 4.09638E+01-3.81177E-08 1.09503E+00 2.23558E+00-3.09057E-01
 -1      1706-7.28601E+01 4.46706E+01-4.27394E-08 1.10201E+00-1.32834E+00-3.01752E-01
 -1      1707-7.87773E+01 4.82784E+01-4.63896E-08 1.09079E+00-4.80341E+00-2.93825E-01
 -1      1708-8.46948E+01 5.19175E+01-5.26603E-08 1.08194E+00-8.18236E+00-2.85280E-01
 -1      1709-9.05119E+01 5.54915E+01-5.36707E-08 1.06708E+00-1.14580E+01-2.76122E-01
 -1      1710-9.61818E+01 5.89388E+01-5.36383E-08 1.03839E+00-1.46233E+01-2.66363E-01
 -1      1711-1.01787E+02 6.24155E+01-5.71071E-08 1.01045E+00-1.76713E+01-2.56014E-01
 -1      1712-1.07139E+02 6.56686E+01-5.20961E-08 9.74558E-01-2.05953E+01-2.45094E-01
 -1      1713-1.12336E+02 6.88691E+01-3.93751E-08 9.36527E-01-2.33885E+01-2.33622E-01
 -1      1714-1.17279E+02 7.18968E+01-1.37436E-08 8.91203E-01-2.60448E+01-2.21620E-01
 -1      1715-1.21961E+02 7.47618E+01 1.94952E-08 8.39229E-01-2.85581E+01-2.09115E-01
 -1      1716-1.26389E+02 7.74890E+01 4.49229E-08 7.83703E-01-3.09227E+01-1.96134E-01
 -1      1717-1.30492E+02 8.00048E+01 6.68782E-08 7.29994E-01-3.31332E+01-1.82708E-01
 -1      1718-1.34251E+02 8.22991E+01 8.78445E-08 6.66353E-01-3.51846E+01-1.68870E-01
 -1      1719-1.37682E+02 8.44023E+01 1.08019E-07 5.97960E-01-3.70723E+01-1.54657E-01
 -1      1720-1.40764E+02 8.63123E+01 1.31404E-07 5.29854E-01-3.87922E+01-1.40103E-01
 -1      1721-1.43420E+02 8.79185E+01 1.44933E-07 4.56430E-01-4.03405E+01-1.25250E-01
 -1      1722-1.45709E+02 8.93339E+01 1.34285E-07 3.84140E-01-4.17139E+01-1.10138E-01
 -1      1723-1.47572E+02 9.04723E+01 1.15162E-07 3.04167E-01-4.29097E+01-9.48088E-02
 -1      1724-1.49020E+02 9.13637E+01 1.03129E-07 2.27633E-01-4.39256E+01-7.93067E-02
 -1      1725-1.50020E+02 9.19754E+01 9.47054E-08 1.46760E-01-4.47598E+01-6.36768E-02
 -1      1726-1.50582E+02 9.23136E+01 8.81547E-08 5.87694E-02-4.54112E+01-4.79651E-02
 -1      1727-1.50716E+02 9.24093E+01 8.26082E-08-1.75069E-02-4.58790E+01-3.22173E-02
 -1      1728-1.50372E+02 9.21964E+01 8.22761E-08-1.04275E-01-4.61630E+01-1.64810E-02
 -1      1729-1.49569E+02 9.16952E+01 9.38476E-08-1.87402E-01-4.62638E+01-8.04193E-04
 -1      1730-1.48315E+02 9.09235E+01 1.16470E-07-2.74372E-01-4.61822E+01 1.47657E-02
 -1      1731-1.46630E+02 8.99126E+01 1.50470E-07-3.57183E-01-4.59199E+01 3.01811E-02
 -1      1732-1.44447E+02 8.85529E+01 1.81731E-07-4.41846E-01-4.54788E+01 4.53942E-02
 -1      1733-1.41837E+02 8.69563E+01 2.00130E-07-5.21646E-01-4.48616E+01 6.03577E-02
 -1      1734-1.38791E+02 8.50969E+01 2.14139E-07-6.04198E-01-4.40715E+01 7.50250E-02
 -1      1735-1.35303E+02 8.29584E+01 2.26379E-07-6.83665E-01-4.31122E+01 8.93503E-02
 -1      1736-1.31374E+02 8.05461E+01 2.34098E-07-7.60226E-01-4.19880E+01 1.03288E-01
 -1      1737-1.27035E+02 7.78746E+01 2.37519E-07-8.41625E-01-4.07036E+01 1.16795E-01
 -1      1738-1.22325E+02 7.50070E+01 2.43299E-07-9.06428E-01-3.92644E+01 1.29828E-01
 -1      1739-1.17181E+02 7.18413E+01 2.42610E-07-9.79046E-01-3.76761E+01 1.42346E-01
 -1      1740-1.11688E+02 6.84728E+01 2.23066E-07-1.04819E+00-3.59449E+01 1.54308E-01
 -1      1741-1.05845E+02 6.48977E+01 1.96298E-07-1.11119E+00-3.40776E+01 1.65677E-01
 -1      1742-9.96572E+01 6.11028E+01 1.69272E-07-1.17328E+00-3.20812E+01 1.76418E-01
 -1      1743-9.31460E+01 5.71057E+01 1.45121E-07-1.22553E+00-2.99634E+01 1.86495E-01
 -1      1744-8.63388E+01 5.29303E+01 1.26243E-07-1.28159E+00-2.77321E+01 1.95876E-01
 -1      1745-7.92757E+01 4.86082E+01 1.03501E-07-1.32914E+00-2.53955E+01 2.04532E-01
 -1      1746-7.19458E+01 4.41118E+01 7.85017E-08-1.37337E+00-2.29622E+01 2.12435E-01
 -1      1747-6.43850E+01 3.94723E+01 5.87067E-08-1.41234E+00-2.04413E+01 2.19561E-01
 -1      1748-5.66304E+01 3.47173E+01 4.62598E-08-1.44946E+00-1.78419E+01 2.25886E-01
 -1      1749-4.87069E+01 2.98667E+01 3.25932E-08-1.47707E+00-1.51734E+01 2.31391E-01
 -1      1750-4.06155E+01 2.48999E+01 1.19002E-08-1.50284E+00-1.24456E+01 2.36059E-01
 -1      1751-3.24094E+01 1.98676E+01-9.51489E-09-1.52404E+00-9.66823E+00 2.39876E-01
 -1      1752-2.41126E+01 1.47838E+01-2.75047E-08-1.53825E+00-6.85136E+00 2.42830E-01
 -1      1753-1.57421E+01 9.65165E+00-4.21456E-08-1.54857E+00-4.00510E+00 2.44913E-01
 -1      1754-7.33371E+00 4.49533E+00-5.87382E-08-1.55281E+00-1.13967E+00 2.46119E-01
 -1      1755 1.08674E+00-6.67000E-01-7.07508E-08-1.55243E+00 1.73470E+00 2.46446E-01
 -1      1756 9.49055E+00-5.82067E+00-7.66915E-08-1.54655E+00 4.60776E+00 2.45893E-01
 -1      1757 1.78447E+01-1.09407E+01-8.19762E-08-1.53575E+00 7.46927E+00 2.44464E-01
 -1      1758 2.61295E+01-1.60207E+01-8.26894E-08-1.51865E+00 1.03090E+01 2.42166E-01
 -1      1759 3.43118E+01-2.10384E+01-8.01611E-08-1.49855E+00 1.31169E+01 2.39006E-01
 -1      1760 4.23654E+01-2.59780E+01-7.72548E-08-1.47138E+00 1.58830E+01 2.34999E-01
 -1      1761 5.02549E+01-3.08108E+01-6.97919E-08-1.44046E+00 1.85974E+01 2.30158E-01
 -1      1762 5.79651E+01-3.55385E+01-6.16657E-08-1.40304E+00 2.12506E+01 2.24502E-01
 -1      1763 6.54702E+01-4.01421E+01-5.91792E-08-1.36118E+00 2.38331E+01 2.18050E-01
 -1      1764 7.27434E+01-4.46085E+01-5.38122E-08-1.31789E+00 2.63359E+01 2.10827E-01
 -1      1765 7.97298E+01-4.88784E+01-4.94752E-08-1.26647E+00 2.87499E+01 2.02858E-01
 -1      1766 8.64500E+01-5.29970E+01-5.01705E-08-1.21197E+00 3.10668E+01 1.94171E-01
 -1      1767 9.28881E+01-5.69657E+01-4.64006E-08-1.15278E+00 3.32783E+01 1.84798E-01
 -1      1768 9.89448E+01-6.06581E+01-3.60606E-08-1.09128E+00 3.53766E+01 1.74772E-01
 -1      1769 1.04689E+02-6.41853E+01-2.30565E-08-1.02107E+00 3.73543E+01 1.64129E-01
 -1      1770 1.10060E+02-6.74832E+01-8.44594E-09-9.56086E-01 3.92044E+01 1.52905E-01
 -1      1771 1.15036E+02-7.05349E+01 2.74925E-09-8.80839E-01 4.09203E+01 1.41141E-01
 -1      1772 1.19601E+02-7.33278E+01 7.68176E-09-8.05895E-01 4.24960E+01 1.28877E-01
 -1      1773 1.23744E+02-7.58620E+01 1.57374E-08-7.24770E-01 4.39259E+01 1.16158E-01
 -1      1774 1.27494E+02-7.81834E+01 1.69173E-08-6.42128E-01 4.52050E+01 1.03027E-01
 -1      1775 1.30739E+02-8.01527E+01 3.07014E-09-5.64821E-01 4.63287E+01 8.95313E-02
 -1      1776 1.33548E+02-8.18760E+01-3.43388E-09-4.74256E-01 4.72931E+01 7.57176E-02
 -1      1777 1.35912E+02-8.33359E+01 2.60801E-09-3.88572E-01 4.80946E+01 6.16340E-02
 -1      1778 1.37782E+02-8.44869E+01 2.91522E-09-2.99846E-01 4.87305E+01 4.73301E-02
 -1      1779 1.39153E+02-8.53078E+01-1.17106E-08-2.08413E-01 4.91984E+01 3.28561E-02
 -1      1780 1.40054E+02-8.58612E+01-3.83161E-08-1.23574E-01 4.94968E+01 1.82623E-02
 -1      1781 1.40483E+02-8.61436E+01-6.96883E-08-2.99445E-02 4.96244E+01 3.60002E-03
 -1      1782 1.40404E+02-8.60893E+01-9.85569E-08 6.02567E-02 4.95808E+01-1.10799E-02
 -1      1783 1.39817E+02-8.57193E+01-1.21327E-07 1.49259E-01 4.93660E+01-2.57257E-02
 -1      1784 1.38763E+02-8.50719E+01-1.37770E-07 2.44188E-01 4.89808E+01-4.02863E-02
 -1      1785 1.37249E+02-8.41651E+01-1.51989E-07 3.26656E-01 4.84265E+01-5.47116E-02
 -1      1786 1.35195E+02-8.28821E+01-1.58646E-07 4.15640E-01 4.77049E+01-6.89506E-02
 -1      1787 1.32711E+02-8.13646E+01-1.45969E-07 5.04495E-01 4.68185E+01-8.29533E-02
 -1      1788 1.29769E+02-7.95696E+01-1.19083E-07 5.87583E-01 4.57703E+01-9.66717E-02
 -1      1789 1.26355E+02-7.74740E+01-8.85650E-08 6.70118E-01 4.45640E+01-1.10058E-01
 -1      1790 1.22503E+02-7.51062E+01-6.52949E-08 7.51304E-01 4.32036E+01-1.23064E-01
 -1      1791 1.18225E+02-7.24805E+01-5.53242E-08 8.26397E-01 4.16940E+01-1.35646E-01
 -1      1792 1.13550E+02-6.96283E+01-4.52589E-08 9.02374E-01 4.00402E+01-1.47759E-01
 -1      1793 1.08462E+02-6.65007E+01-2.84384E-08 9.74550E-01 3.82480E+01-1.59362E-01
 -1      1794 1.02986E+02-6.31354E+01-8.95186E-09 1.03978E+00 3.63236E+01-1.70414E-01
 -1      1795 9.71750E+01-5.95796E+01 9.18552E-09 1.10884E+00 3.42737E+01-1.80876E-01
 -1      1796 9.10289E+01-5.58207E+01 2.77009E-08 1.16489E+00 3.21053E+01-1.90711E-01
 -1      1797 8.45306E+01-5.18222E+01 4.59030E-08 1.22234E+00 2.98260E+01-1.99887E-01
 -1      1798 7.77638E+01-4.76766E+01 5.31093E-08 1.27603E+00 2.74436E+01-2.08369E-01
 -1      1799 7.07258E+01-4.33664E+01 5.24981E-08 1.32318E+00 2.49665E+01-2.16130E-01
 -1      1800 6.34347E+01-3.88947E+01 4.86174E-08 1.36741E+00 2.24031E+01-2.23141E-01
 -1      1801 5.59194E+01-3.42842E+01 3.97041E-08 1.40320E+00 1.97625E+01-2.29379E-01
 -1      1802 4.82078E+01-2.95541E+01 3.11219E-08 1.43888E+00 1.70537E+01-2.34821E-01
 -1      1803 4.03429E+01-2.47398E+01 2.64923E-08 1.46681E+00 1.42861E+01-2.39449E-01
 -1      1804 3.23168E+01-1.98115E+01 1.93262E-08 1.49014E+00 1.14693E+01-2.43251E-01
 -1      1805 2.41905E+01-1.48313E+01 1.29522E-08 1.50928E+00 8.61316E+00-2.46213E-01
 -1      1806 1.59778E+01-9.79822E+00 8.90414E-09 1.52129E+00 5.72754E+00-2.48317E-01
 -1      1807 7.69929E+00-4.71954E+00 2.89702E-09 1.52954E+00 2.82244E+00-2.49554E-01
 -1      1808-5.99707E-01 3.67122E-01-3.99123E-09 1.53199E+00-9.20600E-02-2.49925E-01
 -1      1809-8.90197E+00 5.45809E+00-1.18742E-08 1.52894E+00-3.00581E+00-2.49428E-01
 -1      1810-1.71712E+01 1.05272E+01-1.95265E-08 1.52073E+00-5.90872E+00-2.48065E-01
 -1      1811-2.53886E+01 1.55682E+01-2.71304E-08 1.50686E+00-8.79069E+00-2.45841E-01
 -1      1812-3.35098E+01 2.05444E+01-3.25713E-08 1.48973E+00-1.16417E+01-2.42762E-01
 -1      1813-4.15176E+01 2.54524E+01-3.78220E-08 1.46443E+00-1.44519E+01-2.38841E-01
 -1      1814-4.93971E+01 3.02920E+01-4.52667E-08 1.43581E+00-1.72115E+01-2.34089E-01
 -1      1815-5.70810E+01 3.49938E+01-4.76138E-08 1.40256E+00-1.99109E+01-2.28525E-01
 -1      1816-6.45866E+01 3.95977E+01-3.89070E-08 1.36149E+00-2.25407E+01-2.22166E-01
 -1      1817-7.18683E+01 4.40659E+01-1.99173E-08 1.32106E+00-2.50918E+01-2.15034E-01
 -1      1818-7.88974E+01 4.83758E+01 2.64097E-09 1.27158E+00-2.75553E+01-2.07155E-01
 -1      1819-8.56524E+01 5.25169E+01 1.67561E-08 1.21987E+00-2.99226E+01-1.98555E-01
 -1      1820-9.21017E+01 5.64603E+01 1.90944E-08 1.16094E+00-3.21856E+01-1.89265E-01
 -1      1821-9.82664E+01 6.02560E+01 1.70839E-08 1.10091E+00-3.43363E+01-1.79316E-01
 -1      1822-1.04058E+02 6.37993E+01 1.72409E-08 1.04010E+00-3.63673E+01-1.68742E-01
 -1      1823-1.09494E+02 6.71274E+01 1.87397E-08 9.67995E-01-3.82714E+01-1.57581E-01
 -1      1824-1.14574E+02 7.02513E+01 1.88720E-08 8.97536E-01-4.00421E+01-1.45871E-01
 -1      1825-1.19244E+02 7.31168E+01 1.61936E-08 8.22870E-01-4.16731E+01-1.33651E-01
 -1      1826-1.23484E+02 7.57041E+01 8.36223E-09 7.46647E-01-4.31589E+01-1.20966E-01
 -1      1827-1.27322E+02 7.80599E+01-8.94391E-09 6.62058E-01-4.44941E+01-1.07858E-01
 -1      1828-1.30721E+02 8.01522E+01-3.62166E-08 5.85706E-01-4.56742E+01-9.43722E-02
 -1      1829-1.33656E+02 8.19510E+01-6.20964E-08 4.98784E-01-4.66949E+01-8.05559E-02
 -1      1830-1.36125E+02 8.34585E+01-7.37926E-08 4.14242E-01-4.75528E+01-6.64567E-02
 -1      1831-1.38123E+02 8.46771E+01-6.93240E-08 3.24097E-01-4.82447E+01-5.21235E-02
 -1      1832-1.39683E+02 8.56556E+01-5.18503E-08 2.34485E-01-4.87684E+01-3.76051E-02
 -1      1833-1.40711E+02 8.62718E+01-3.25740E-08 1.51346E-01-4.91217E+01-2.29520E-02
 -1      1834-1.41258E+02 8.65977E+01-1.74893E-08 5.53141E-02-4.93037E+01-8.21542E-03
 -1      1835-1.41351E+02 8.66661E+01-6.92145E-10-3.06884E-02-4.93134E+01 6.55470E-03
 -1      1836-1.40940E+02 8.64227E+01 1.38266E-08-1.22513E-01-4.91509E+01 2.13071E-02
 -1      1837-1.40028E+02 8.58494E+01 1.94814E-08-2.12520E-01-4.88166E+01 3.59906E-02
 -1      1838-1.38641E+02 8.49963E+01 2.16408E-08-2.98612E-01-4.83116E+01 5.05547E-02
 -1      1839-1.36802E+02 8.38890E+01 2.97828E-08-3.87948E-01-4.76377E+01 6.49493E-02
 -1      1840-1.34450E+02 8.24280E+01 4.27625E-08-4.72410E-01-4.67971E+01 7.91249E-02
 -1      1841-1.31652E+02 8.07122E+01 5.05489E-08-5.59461E-01-4.57926E+01 9.30323E-02
 -1      1842-1.28423E+02 7.87445E+01 5.36375E-08-6.43179E-01-4.46276E+01 1.06624E-01
 -1      1843-1.24733E+02 7.64807E+01 5.98028E-08-7.18578E-01-4.33061E+01 1.19853E-01
 -1      1844-1.20598E+02 7.39354E+01 6.04486E-08-7.97525E-01-4.18327E+01 1.32675E-01
 -1      1845-1.16073E+02 7.11636E+01 5.41650E-08-8.74603E-01-4.02122E+01 1.45044E-01
 -1      1846-1.11154E+02 6.81540E+01 6.09897E-08-9.45170E-01-3.84503E+01 1.56919E-01
 -1      1847-1.05845E+02 6.49020E+01 8.29790E-08-1.01379E+00-3.65529E+01 1.68259E-01
 -1      1848-1.00163E+02 6.14058E+01 9.95095E-08-1.08031E+00-3.45265E+01 1.79025E-01
 -1      1849-9.41496E+01 5.77165E+01 1.04537E-07-1.13763E+00-3.23781E+01 1.89180E-01
 -1      1850-8.78385E+01 5.38678E+01 1.01941E-07-1.19674E+00-3.01149E+01 1.98691E-01
 -1      1851-8.11899E+01 4.97735E+01 8.85758E-08-1.24840E+00-2.77446E+01 2.07524E-01
 -1      1852-7.42867E+01 4.55437E+01 6.88318E-08-1.29833E+00-2.52754E+01 2.15649E-01
 -1      1853-6.71421E+01 4.11689E+01 4.72442E-08-1.34257E+00-2.27157E+01 2.23040E-01
 -1      1854-5.97611E+01 3.66417E+01 2.90890E-08-1.37916E+00-2.00741E+01 2.29672E-01
 -1      1855-5.21774E+01 3.19886E+01 1.74944E-08-1.41402E+00-1.73597E+01 2.35522E-01
 -1      1856-4.44294E+01 2.72378E+01 9.20100E-09-1.44394E+00-1.45818E+01 2.40570E-01
 -1      1857-3.65427E+01 2.24081E+01-1.01540E-09-1.46755E+00-1.17496E+01 2.44801E-01
 -1      1858-2.85271E+01 1.74882E+01-1.33848E-08-1.48658E+00-8.87295E+00 2.48202E-01
 -1      1859-2.04311E+01 1.25253E+01-2.28812E-08-1.49961E+00-5.96153E+00 2.50760E-01
 -1      1860-1.22768E+01 7.52767E+00-3.31448E-08-1.50793E+00-3.02519E+00 2.52469E-01
 -1      1861-4.08810E+00 2.50449E+00-4.46252E-08-1.51063E+00-7.38827E-02 2.53324E-01
 -1      1862 4.09635E+00-2.51159E+00-5.47182E-08-1.50824E+00 2.88242E+00 2.53324E-01
 -1      1863 1.22557E+01-7.51483E+00-6.56094E-08-1.50007E+00 5.83371E+00 2.52469E-01
 -1      1864 2.03568E+01-1.24824E+01-7.83639E-08-1.48707E+00 8.77006E+00 2.50764E-01
 -1      1865 2.83726E+01-1.73986E+01-9.15307E-08-1.46790E+00 1.16816E+01 2.48217E-01
 -1      1866 3.62669E+01-2.22358E+01-1.02756E-07-1.44440E+00 1.45586E+01 2.44839E-01
 -1      1867 4.40210E+01-2.69892E+01-1.09569E-07-1.41447E+00 1.73914E+01 2.40642E-01
 -1      1868 5.16108E+01-3.16497E+01-1.11294E-07-1.38031E+00 2.01705E+01 2.35644E-01
 -1      1869 5.89863E+01-3.61641E+01-1.08199E-07-1.34074E+00 2.28868E+01 2.29864E-01
 -1      1870 6.61439E+01-4.05540E+01-9.52241E-08-1.29767E+00 2.55311E+01 2.23324E-01
 -1      1871 7.30502E+01-4.47913E+01-7.32755E-08-1.24778E+00 2.80948E+01 2.16050E-01
 -1      1872 7.96822E+01-4.88605E+01-5.18474E-08-1.19433E+00 3.05696E+01 2.08068E-01
 -1      1873 8.59935E+01-5.27227E+01-3.31752E-08-1.13713E+00 3.29472E+01 1.99409E-01
 -1      1874 9.19930E+01-5.63989E+01-1.82424E-08-1.07176E+00 3.52200E+01 1.90107E-01
 -1      1875 9.76663E+01-5.98981E+01-5.38843E-11-1.00943E+00 3.73807E+01 1.80195E-01
 -1      1876 1.02915E+02-6.30909E+01 2.55412E-08-9.37947E-01 3.94224E+01 1.69713E-01
 -1      1877 1.07813E+02-6.60987E+01 5.81670E-08-8.64233E-01 4.13387E+01 1.58699E-01
 -1      1878 1.12306E+02-6.88662E+01 9.97939E-08-7.86579E-01 4.31236E+01 1.47195E-01
 -1      1879 1.16362E+02-7.13503E+01 1.48741E-07-7.04474E-01 4.47716E+01 1.35246E-01
 -1      1880 1.19964E+02-7.35511E+01 1.99951E-07-6.27132E-01 4.62779E+01 1.22895E-01
 -1      1881 1.23113E+02-7.54807E+01 2.39589E-07-5.36583E-01 4.76379E+01 1.10191E-01
 -1      1882 1.25812E+02-7.71462E+01 2.51639E-07-4.49804E-01 4.88479E+01 9.71821E-02
 -1      1883 1.28009E+02-7.84923E+01 2.36377E-07-3.59382E-01 4.99046E+01 8.39177E-02
 -1      1884 1.29708E+02-7.95258E+01 2.11161E-07-2.66731E-01 5.08053E+01 7.04493E-02
 -1      1885 1.30911E+02-8.02612E+01 1.84045E-07-1.75812E-01 5.15479E+01 5.68288E-02
 -1      1886 1.31625E+02-8.07184E+01 1.59247E-07-7.93806E-02 5.21310E+01 4.31090E-02
 -1      1887 1.31783E+02-8.07959E+01 1.38901E-07 1.44435E-02 5.25537E+01 2.93436E-02
 -1      1888 1.31444E+02-8.05897E+01 1.19137E-07 1.13028E-01 5.28158E+01 1.55869E-02
 -1      1889 1.30595E+02-8.00844E+01 9.36407E-08 2.08904E-01 5.29177E+01 1.89304E-03
 -1      1890 1.29205E+02-7.92233E+01 5.23037E-08 3.08159E-01 5.28605E+01-1.16834E-02
 -1      1891 1.27283E+02-7.80363E+01 2.22073E-09 3.96211E-01 5.26458E+01-2.50876E-02
 -1      1892 1.24856E+02-7.65545E+01-5.07784E-08 4.98412E-01 5.22761E+01-3.82646E-02
 -1      1893 1.21931E+02-7.47768E+01-1.04530E-07 5.91683E-01 5.17541E+01-5.11607E-02
 -1      1894 1.18445E+02-7.26191E+01-1.41087E-07 6.84720E-01 5.10837E+01-6.37222E-02
 -1      1895 1.14489E+02-7.01985E+01-1.55125E-07 7.81075E-01 5.02689E+01-7.58953E-02
 -1      1896 1.10040E+02-6.74796E+01-1.61525E-07 8.66731E-01 4.93146E+01-8.76284E-02
 -1      1897 1.05082E+02-6.44366E+01-1.66988E-07 9.58029E-01 4.82262E+01-9.88696E-02
 -1      1898 9.96554E+01-6.11065E+01-1.73947E-07 1.04370E+00 4.70098E+01-1.09569E-01
 -1      1899 9.37591E+01-5.74889E+01-1.82407E-07 1.13012E+00 4.56719E+01-1.19676E-01
 -1      1900 8.74302E+01-5.36177E+01-1.82893E-07 1.21277E+00 4.42198E+01-1.29144E-01
 -1      1901 8.06489E+01-4.94584E+01-1.72603E-07 1.28883E+00 4.26612E+01-1.37926E-01
 -1      1902 7.34398E+01-4.50366E+01-1.60607E-07 1.36616E+00 4.10044E+01-1.45978E-01
 -1      1903 6.58315E+01-4.03677E+01-1.54451E-07 1.44106E+00 3.92581E+01-1.53255E-01
 -1      1904 5.78439E+01-3.54788E+01-1.52238E-07 1.50929E+00 3.74316E+01-1.59717E-01
 -1      1905 4.94763E+01-3.03469E+01-1.49734E-07 1.57685E+00 3.55347E+01-1.65324E-01
 -1      1906 4.07550E+01-2.49970E+01-1.42064E-07 1.63882E+00 3.35775E+01-1.70038E-01
 -1      1907 3.17131E+01-1.94594E+01-1.28418E-07 1.69867E+00 3.15707E+01-1.73824E-01
 -1      1908 2.23458E+01-1.37131E+01-1.15536E-07 1.75415E+00 2.95253E+01-1.76647E-01
 -1      1909 1.26974E+01-7.80022E+00-1.05149E-07 1.80612E+00 2.74528E+01-1.78477E-01
 -1      1910 2.76583E+00-1.70894E+00-9.22389E-08 1.85426E+00 2.53648E+01-1.79283E-01
 -1      1911-7.39976E+00 4.51800E+00-7.45524E-08 1.89844E+00 2.32735E+01-1.79038E-01
 -1      1912-1.78204E+01 1.09136E+01-5.78135E-08 1.93927E+00 2.11913E+01-1.77718E-01
 -1      1913-2.84165E+01 1.74001E+01-4.45730E-08 1.97607E+00 1.91309E+01-1.75300E-01
 -1      1914-3.92402E+01 2.40423E+01-3.14573E-08 2.00825E+00 1.71053E+01-1.71761E-01
 -1      1915-5.01958E+01 3.07543E+01-1.95254E-08 2.03791E+00 1.51275E+01-1.67085E-01
 -1      1916-6.13469E+01 3.75988E+01-1.15949E-08 2.06300E+00 1.32110E+01-1.61253E-01
 -1      1917-7.25561E+01 4.44496E+01-3.19494E-09 2.08673E+00 1.13693E+01-1.54252E-01
 -1      1918-8.39764E+01 5.14732E+01 1.04742E-08 2.10560E+00 9.61624E+00-1.46068E-01
 -1      1919-9.53847E+01 5.84510E+01 2.71880E-08 2.12111E+00 7.96554E+00-1.36691E-01
 -1      1920-1.06991E+02 6.55835E+01 4.71273E-08 2.13450E+00 6.43125E+00-1.26112E-01
 -1      1921-1.18494E+02 7.25990E+01 6.95664E-08 2.14157E+00 5.02743E+00-1.14324E-01
 -1      1922-1.30279E+02 7.98606E+01 9.37632E-08 2.15510E+00 3.76823E+00-1.01319E-01
 -1      1923-1.41904E+02 8.70404E+01 1.18123E-07 2.15545E+00 2.66783E+00-8.70946E-02
 -1      1924-1.53301E+02 9.35737E+01 1.41367E-07 2.17639E+00 1.74054E+00-7.16471E-02
 -1      1925-1.66821E+02 1.03759E+02 1.65116E-07 2.10346E+00 1.00059E+00-5.49707E-02
 -1      1926-1.71395E+02 9.94105E+01 1.84642E-07 2.38914E+00 4.62338E-01-3.70781E-02
 -1      1927-2.10083E+02 1.49464E+02 2.35387E-07 1.33736E+00 1.40105E-01-1.79166E-02
 -1      1928-1.22543E+02 5.82307E-02 2.78815E-07 5.17833E+00 3.47426E-02-8.00234E-03
 -1      1929-1.51174E-01 2.51582E-02 1.72934E-08-1.59182E-02-6.79564E+01 5.30567E-01
 -1      1930-8.39116E-01 4.52251E-01 2.80707E-08 7.91005E-02-6.58931E+01 5.30532E-01
 -1      1931-2.81074E+00 1.66114E+00 5.06341E-08 1.50512E-01-6.17671E+01 5.30385E-01
 -1      1932-6.00711E+00 3.62794E+00 5.24870E-08 2.19552E-01-5.76429E+01 5.30035E-01
 -1      1933-1.03414E+01 6.28679E+00 2.74830E-08 2.82215E-01-5.35225E+01 5.29390E-01
 -1      1934-1.57297E+01 9.59081E+00-2.66423E-09 3.41388E-01-4.94086E+01 5.28365E-01
 -1      1935-2.21080E+01 1.35084E+01-3.34480E-08 3.95117E-01-4.53044E+01 5.26878E-01
 -1      1936-2.93681E+01 1.79598E+01-5.49833E-08 4.43769E-01-4.12138E+01 5.24857E-01
 -1      1937-3.74507E+01 2.29153E+01-6.78001E-08 4.89718E-01-3.71412E+01 5.22235E-01
 -1      1938-4.62776E+01 2.83417E+01-7.44197E-08 5.28210E-01-3.30915E+01 5.18950E-01
 -1      1939-5.57200E+01 3.41062E+01-6.11466E-08 5.65821E-01-2.90702E+01 5.14950E-01
 -1      1940-6.58014E+01 4.03195E+01-4.16305E-08 5.93751E-01-2.50829E+01 5.10183E-01
 -1      1941-7.63180E+01 4.67489E+01-2.54414E-08 6.22335E-01-2.11358E+01 5.04610E-01
 -1      1942-8.72808E+01 5.34744E+01-3.87803E-09 6.42004E-01-1.72353E+01 4.98194E-01
 -1      1943-9.86191E+01 6.04597E+01 1.58483E-08 6.63498E-01-1.33881E+01 4.90906E-01
 -1      1944-1.10101E+02 6.74236E+01 2.46006E-08 6.73787E-01-9.60098E+00 4.82723E-01
 -1      1945-1.21940E+02 7.47654E+01 4.12887E-08 6.80323E-01-5.88111E+00 4.73623E-01
 -1      1946-1.33774E+02 8.19775E+01 5.95020E-08 6.89752E-01-2.23561E+00 4.63598E-01
 -1      1947-1.45692E+02 8.92955E+01 6.27464E-08 6.83561E-01 1.32830E+00 4.52641E-01
 -1      1948-1.57609E+02 9.66236E+01 6.92458E-08 6.89641E-01 4.80335E+00 4.40751E-01
 -1      1949-1.69344E+02 1.03765E+02 7.81968E-08 6.72542E-01 8.18228E+00 4.27933E-01
 -1      1950-1.81035E+02 1.10991E+02 7.80729E-08 6.67715E-01 1.14579E+01 4.14196E-01
 -1      1951-1.92420E+02 1.17942E+02 8.16948E-08 6.48438E-01 1.46232E+01 3.99556E-01
 -1      1952-2.03543E+02 1.24780E+02 8.79192E-08 6.32559E-01 1.76712E+01 3.84033E-01
 -1      1953-2.14302E+02 1.31359E+02 7.76120E-08 6.12234E-01 2.05951E+01 3.67652E-01
 -1      1954-2.24659E+02 1.37708E+02 5.79980E-08 5.82487E-01 2.33884E+01 3.50444E-01
 -1      1955-2.34573E+02 1.43803E+02 2.06458E-08 5.57629E-01 2.60446E+01 3.32441E-01
 -1      1956-2.43962E+02 1.49562E+02-2.94148E-08 5.24736E-01 2.85579E+01 3.13682E-01
 -1      1957-2.52756E+02 1.54936E+02-6.77987E-08 4.93608E-01 3.09225E+01 2.94210E-01
 -1      1958-2.60961E+02 1.59965E+02-1.00671E-07 4.53065E-01 3.31329E+01 2.74071E-01
 -1      1959-2.68544E+02 1.64640E+02-1.32484E-07 4.16393E-01 3.51843E+01 2.53313E-01
 -1      1960-2.75376E+02 1.68807E+02-1.63496E-07 3.73439E-01 3.70720E+01 2.31991E-01
 -1      1961-2.81517E+02 1.72595E+02-1.98206E-07 3.32111E-01 3.87919E+01 2.10160E-01
 -1      1962-2.86848E+02 1.75835E+02-2.17971E-07 2.88146E-01 4.03402E+01 1.87880E-01
 -1      1963-2.91421E+02 1.78655E+02-2.02373E-07 2.37398E-01 4.17136E+01 1.65211E-01
 -1      1964-2.95157E+02 1.80951E+02-1.74014E-07 1.93013E-01 4.29094E+01 1.42217E-01
 -1      1965-2.98012E+02 1.82673E+02-1.55448E-07 1.38833E-01 4.39253E+01 1.18963E-01
 -1      1966-3.00085E+02 1.83998E+02-1.42880E-07 9.15768E-02 4.47595E+01 9.55172E-02
 -1      1967-3.01168E+02 1.84615E+02-1.32814E-07 4.02402E-02 4.54108E+01 7.19481E-02
 -1      1968-3.01399E+02 1.84760E+02-1.23950E-07-1.41161E-02 4.58786E+01 4.83263E-02
 -1      1969-3.00754E+02 1.84394E+02-1.24716E-07-6.64387E-02 4.61627E+01 2.47215E-02
 -1      1970-2.99150E+02 1.83390E+02-1.42663E-07-1.17230E-01 4.62634E+01 1.20513E-03
 -1      1971-2.96648E+02 1.81859E+02-1.76197E-07-1.71678E-01 4.61818E+01-2.21508E-02
 -1      1972-2.93242E+02 1.79785E+02-2.26628E-07-2.23327E-01 4.59194E+01-4.52746E-02
 -1      1973-2.88900E+02 1.77103E+02-2.73028E-07-2.73019E-01 4.54783E+01-6.80949E-02
 -1      1974-2.83674E+02 1.73895E+02-3.00572E-07-3.29891E-01 4.48611E+01-9.05408E-02
 -1      1975-2.77590E+02 1.70195E+02-3.21321E-07-3.77841E-01 4.40710E+01-1.12543E-01
 -1      1976-2.70577E+02 1.65867E+02-3.39405E-07-4.28456E-01 4.31117E+01-1.34031E-01
 -1      1977-2.62784E+02 1.61128E+02-3.51282E-07-4.74558E-01 4.19875E+01-1.54939E-01
 -1      1978-2.54075E+02 1.55745E+02-3.57901E-07-5.21507E-01 4.07031E+01-1.75200E-01
 -1      1979-2.44595E+02 1.49929E+02-3.67267E-07-5.72093E-01 3.92639E+01-1.94750E-01
 -1      1980-2.34403E+02 1.43729E+02-3.65490E-07-6.13447E-01 3.76756E+01-2.13526E-01
 -1      1981-2.23373E+02 1.36930E+02-3.34747E-07-6.55529E-01 3.59444E+01-2.31471E-01
 -1      1982-2.11690E+02 1.29791E+02-2.94075E-07-6.94198E-01 3.40771E+01-2.48526E-01
 -1      1983-1.99293E+02 1.22169E+02-2.55957E-07-7.32151E-01 3.20807E+01-2.64637E-01
 -1      1984-1.86285E+02 1.14197E+02-2.18577E-07-7.68670E-01 2.99629E+01-2.79752E-01
 -1      1985-1.72700E+02 1.05885E+02-1.88750E-07-8.01862E-01 2.77316E+01-2.93824E-01
 -1      1986-1.58532E+02 9.71865E+01-1.56278E-07-8.31057E-01 2.53950E+01-3.06809E-01
 -1      1987-1.43880E+02 8.82064E+01-1.19545E-07-8.58771E-01 2.29617E+01-3.18664E-01
 -1      1988-1.28779E+02 7.89534E+01-8.83246E-08-8.83241E-01 2.04408E+01-3.29352E-01
 -1      1989-1.13258E+02 6.94308E+01-6.83423E-08-9.05227E-01 1.78414E+01-3.38841E-01
 -1      1990-9.73878E+01 5.96979E+01-4.86867E-08-9.25080E-01 1.51729E+01-3.47099E-01
 -1      1991-8.12393E+01 4.98128E+01-1.92769E-08-9.39755E-01 1.24451E+01-3.54101E-01
 -1      1992-6.48150E+01 3.97301E+01 1.16704E-08-9.52668E-01 9.66775E+00-3.59827E-01
 -1      1993-4.82140E+01 2.95568E+01 4.08174E-08-9.62344E-01 6.85088E+00-3.64258E-01
 -1      1994-3.14789E+01 1.92989E+01 6.47180E-08-9.68407E-01 4.00464E+00-3.67382E-01
 -1      1995-1.46576E+01 8.98339E+00 8.70051E-08-9.71288E-01 1.13923E+00-3.69191E-01
 -1      1996 2.17912E+00-1.33635E+00 1.04906E-07-9.70677E-01-1.73513E+00-3.69681E-01
 -1      1997 1.89849E+01-1.16395E+01 1.15416E-07-9.66837E-01-4.60818E+00-3.68851E-01
 -1      1998 3.57042E+01-2.18936E+01 1.20892E-07-9.60210E-01-7.46966E+00-3.66708E-01
 -1      1999 5.22647E+01-3.20409E+01 1.22323E-07-9.50299E-01-1.03094E+01-3.63260E-01
 -1      2000 6.86271E+01-4.20717E+01 1.21336E-07-9.36573E-01-1.31172E+01-3.58521E-01
 -1      2001 8.47363E+01-5.19543E+01 1.15301E-07-9.19418E-01-1.58833E+01-3.52510E-01
 -1      2002 1.00520E+02-6.16233E+01 1.02818E-07-9.00572E-01-1.85977E+01-3.45248E-01
 -1      2003 1.15953E+02-7.10973E+01 9.21894E-08-8.77014E-01-2.12509E+01-3.36763E-01
 -1      2004 1.30937E+02-8.02665E+01 8.69473E-08-8.53053E-01-2.38334E+01-3.27085E-01
 -1      2005 1.45475E+02-8.91899E+01 7.95374E-08-8.22000E-01-2.63361E+01-3.16250E-01
 -1      2006 1.59487E+02-9.77775E+01 7.51999E-08-7.93673E-01-2.87501E+01-3.04296E-01
 -1      2007 1.72920E+02-1.06008E+02 7.39322E-08-7.55456E-01-3.10670E+01-2.91265E-01
 -1      2008 1.85750E+02-1.13882E+02 6.83229E-08-7.20477E-01-3.32785E+01-2.77205E-01
 -1      2009 1.97930E+02-1.21356E+02 5.33893E-08-6.82148E-01-3.53767E+01-2.62166E-01
 -1      2010 2.09379E+02-1.28359E+02 3.24250E-08-6.40456E-01-3.73544E+01-2.46200E-01
 -1      2011 2.20104E+02-1.34930E+02 1.11870E-08-5.95943E-01-3.92044E+01-2.29364E-01
 -1      2012 2.30081E+02-1.41070E+02-4.75843E-09-5.48990E-01-4.09203E+01-2.11717E-01
 -1      2013 2.39208E+02-1.46644E+02-1.13323E-08-5.03857E-01-4.24960E+01-1.93321E-01
 -1      2014 2.47537E+02-1.51774E+02-2.39049E-08-4.52855E-01-4.39259E+01-1.74241E-01
 -1      2015 2.54937E+02-1.56283E+02-2.60720E-08-4.03944E-01-4.52049E+01-1.54544E-01
 -1      2016 2.61488E+02-1.60302E+02-4.77804E-09-3.50246E-01-4.63286E+01-1.34300E-01
 -1      2017 2.67140E+02-1.63792E+02 4.17375E-09-2.95026E-01-4.72929E+01-1.13578E-01
 -1      2018 2.71796E+02-1.66619E+02-4.67580E-09-2.42907E-01-4.80944E+01-9.24519E-02
 -1      2019 2.75578E+02-1.68979E+02-4.80180E-09-1.87153E-01-4.87302E+01-7.09954E-02
 -1      2020 2.78304E+02-1.70599E+02 1.73919E-08-1.36041E-01-4.91981E+01-4.92834E-02
 -1      2021 2.80108E+02-1.71706E+02 5.76581E-08-7.08821E-02-4.94964E+01-2.73923E-02
 -1      2022 2.80979E+02-1.72291E+02 1.03793E-07-1.73170E-02-4.96240E+01-5.39790E-03
 -1      2023 2.80776E+02-1.72122E+02 1.47026E-07 3.82674E-02-4.95803E+01 1.66225E-02
 -1      2024 2.79674E+02-1.71477E+02 1.82462E-07 9.37284E-02-4.93656E+01 3.85921E-02
 -1      2025 2.77531E+02-1.70138E+02 2.07543E-07 1.50179E-01-4.89803E+01 6.04344E-02
 -1      2026 2.74436E+02-1.68235E+02 2.27674E-07 2.07585E-01-4.84260E+01 8.20722E-02
 -1      2027 2.70434E+02-1.65812E+02 2.37347E-07 2.61230E-01-4.77044E+01 1.03431E-01
 -1      2028 2.65428E+02-1.62724E+02 2.18328E-07 3.16080E-01-4.68179E+01 1.24437E-01
 -1      2029 2.59513E+02-1.59097E+02 1.77880E-07 3.67363E-01-4.57697E+01 1.45015E-01
 -1      2030 2.52716E+02-1.54946E+02 1.33563E-07 4.19886E-01-4.45633E+01 1.65094E-01
 -1      2031 2.44998E+02-1.50194E+02 9.89425E-08 4.67416E-01-4.32030E+01 1.84605E-01
 -1      2032 2.36443E+02-1.44944E+02 8.33168E-08 5.19906E-01-4.16933E+01 2.03478E-01
 -1      2033 2.27101E+02-1.39253E+02 6.81613E-08 5.65106E-01-4.00395E+01 2.21648E-01
 -1      2034 2.16895E+02-1.32957E+02 4.20948E-08 6.07684E-01-3.82472E+01 2.39053E-01
 -1      2035 2.05992E+02-1.26291E+02 1.37462E-08 6.52661E-01-3.63228E+01 2.55631E-01
 -1      2036 1.94347E+02-1.19153E+02-1.22421E-08 6.92171E-01-3.42729E+01 2.71325E-01
 -1      2037 1.82008E+02-1.11572E+02-4.08578E-08 7.30621E-01-3.21045E+01 2.86078E-01
 -1      2038 1.69083E+02-1.03672E+02-6.72235E-08 7.65215E-01-2.98252E+01 2.99841E-01
 -1      2039 1.55519E+02-9.53390E+01-7.79054E-08 7.98288E-01-2.74428E+01 3.12566E-01
 -1      2040 1.41441E+02-8.67210E+01-7.91817E-08 8.27053E-01-2.49657E+01 3.24207E-01
 -1      2041 1.26848E+02-7.77617E+01-7.20390E-08 8.54523E-01-2.24023E+01 3.34725E-01
 -1      2042 1.11825E+02-6.85527E+01-5.73863E-08 8.78892E-01-1.97617E+01 3.44081E-01
 -1      2043 9.64220E+01-5.91205E+01-4.62950E-08 9.00284E-01-1.70528E+01 3.52244E-01
 -1      2044 8.06564E+01-4.94450E+01-3.73231E-08 9.17201E-01-1.42852E+01 3.59186E-01
 -1      2045 6.46290E+01-3.96263E+01-2.62919E-08 9.31599E-01-1.14685E+01 3.64887E-01
 -1      2046 4.83643E+01-2.96482E+01-2.02319E-08 9.43653E-01-8.61236E+00 3.69326E-01
 -1      2047 3.19301E+01-1.95744E+01-1.38934E-08 9.51561E-01-5.72674E+00 3.72479E-01
 -1      2048 1.53896E+01-9.43705E+00-3.02483E-09 9.56696E-01-2.82165E+00 3.74334E-01
 -1      2049-1.21629E+00 7.46958E-01 9.14825E-09 9.57952E-01 9.28416E-02 3.74890E-01
 -1      2050-1.78121E+01 1.09183E+01 2.09817E-08 9.55858E-01 3.00659E+00 3.74145E-01
 -1      2051-3.43578E+01 2.10671E+01 3.01826E-08 9.50808E-01 5.90947E+00 3.72100E-01
 -1      2052-5.07729E+01 3.11249E+01 4.14395E-08 9.42690E-01 8.79141E+00 3.68763E-01
 -1      2053-6.70236E+01 4.10875E+01 5.09647E-08 9.30924E-01 1.16424E+01 3.64146E-01
 -1      2054-8.30502E+01 5.09205E+01 5.91848E-08 9.15026E-01 1.44525E+01 3.58263E-01
 -1      2055-9.87708E+01 6.05490E+01 6.89216E-08 8.97461E-01 1.72121E+01 3.51136E-01
 -1      2056-1.14180E+02 7.00086E+01 7.25898E-08 8.76709E-01 1.99115E+01 3.42788E-01
 -1      2057-1.29163E+02 7.91810E+01 6.02206E-08 8.52425E-01 2.25412E+01 3.33249E-01
 -1      2058-1.43715E+02 8.81020E+01 3.11917E-08 8.24854E-01 2.50923E+01 3.22552E-01
 -1      2059-1.57783E+02 9.67387E+01-1.56516E-09 7.93463E-01 2.75557E+01 3.10733E-01
 -1      2060-1.71293E+02 1.05018E+02-2.40954E-08 7.62659E-01 2.99231E+01 2.97833E-01
 -1      2061-1.84218E+02 1.12944E+02-2.94086E-08 7.27414E-01 3.21860E+01 2.83897E-01
 -1      2062-1.96473E+02 1.20435E+02-2.46953E-08 6.88758E-01 3.43367E+01 2.68973E-01
 -1      2063-2.08100E+02 1.27583E+02-2.38454E-08 6.47205E-01 3.63676E+01 2.53113E-01
 -1      2064-2.18992E+02 1.34265E+02-2.51285E-08 6.04214E-01 3.82717E+01 2.36371E-01
 -1      2065-2.29107E+02 1.40458E+02-2.60478E-08 5.60501E-01 4.00423E+01 2.18805E-01
 -1      2066-2.38441E+02 1.46178E+02-2.45461E-08 5.13687E-01 4.16733E+01 2.00476E-01
 -1      2067-2.46975E+02 1.51426E+02-1.24252E-08 4.66098E-01 4.31590E+01 1.81447E-01
 -1      2068-2.54608E+02 1.56084E+02 1.50185E-08 4.16263E-01 4.44942E+01 1.61785E-01
 -1      2069-2.61382E+02 1.60234E+02 5.57090E-08 3.63419E-01 4.56742E+01 1.41556E-01
 -1      2070-2.67284E+02 1.63879E+02 9.38017E-08 3.09577E-01 4.66948E+01 1.20832E-01
 -1      2071-2.72216E+02 1.66879E+02 1.11333E-07 2.58413E-01 4.75527E+01 9.96826E-02
 -1      2072-2.76254E+02 1.69381E+02 1.05176E-07 2.02091E-01 4.82446E+01 7.81819E-02
 -1      2073-2.79269E+02 1.71195E+02 7.93893E-08 1.48748E-01 4.87681E+01 5.64044E-02
 -1      2074-2.81387E+02 1.72515E+02 5.02631E-08 9.13221E-02 4.91214E+01 3.44253E-02
 -1      2075-2.82513E+02 1.73205E+02 2.72405E-08 3.56224E-02 4.93033E+01 1.23195E-02
 -1      2076-2.82630E+02 1.73253E+02 1.38576E-09-2.21361E-02 4.93130E+01-9.83589E-03
 -1      2077-2.81849E+02 1.72823E+02-1.98721E-08-7.83089E-02 4.91504E+01-3.19645E-02
 -1      2078-2.80006E+02 1.71648E+02-2.82239E-08-1.30347E-01 4.88160E+01-5.39900E-02
 -1      2079-2.77247E+02 1.69964E+02-3.16715E-08-1.90458E-01 4.83110E+01-7.58362E-02
 -1      2080-2.73542E+02 1.67714E+02-4.30794E-08-2.44411E-01 4.76371E+01-9.74282E-02
 -1      2081-2.68862E+02 1.64823E+02-6.22906E-08-2.95820E-01 4.67964E+01-1.18692E-01
 -1      2082-2.63296E+02 1.61433E+02-7.30689E-08-3.50907E-01 4.57918E+01-1.39553E-01
 -1      2083-2.56771E+02 1.57409E+02-7.79018E-08-3.99504E-01 4.46268E+01-1.59941E-01
 -1      2084-2.49392E+02 1.52884E+02-8.86913E-08-4.53031E-01 4.33053E+01-1.79785E-01
 -1      2085-2.41187E+02 1.47877E+02-8.96354E-08-5.00290E-01 4.18318E+01-1.99016E-01
 -1      2086-2.32110E+02 1.42299E+02-7.98626E-08-5.47604E-01 4.02113E+01-2.17571E-01
 -1      2087-2.22246E+02 1.36246E+02-9.05764E-08-5.91029E-01 3.84493E+01-2.35383E-01
 -1      2088-2.11655E+02 1.29778E+02-1.24617E-07-6.35129E-01 3.65519E+01-2.52393E-01
 -1      2089-2.00283E+02 1.22773E+02-1.49186E-07-6.71476E-01 3.45255E+01-2.68542E-01
 -1      2090-1.88261E+02 1.15402E+02-1.56685E-07-7.16340E-01 3.23770E+01-2.83775E-01
 -1      2091-1.75627E+02 1.07690E+02-1.52003E-07-7.49656E-01 3.01138E+01-2.98041E-01
 -1      2092-1.62346E+02 9.95221E+01-1.32423E-07-7.80862E-01 2.77435E+01-3.11290E-01
 -1      2093-1.48555E+02 9.10829E+01-1.02793E-07-8.12290E-01 2.52743E+01-3.23479E-01
 -1      2094-1.34231E+02 8.22870E+01-7.04479E-08-8.38245E-01 2.27145E+01-3.34565E-01
 -1      2095-1.19476E+02 7.32416E+01-4.23669E-08-8.64267E-01 2.00730E+01-3.44512E-01
 -1      2096-1.04337E+02 6.39723E+01-2.35438E-08-8.84903E-01 1.73586E+01-3.53286E-01
 -1      2097-8.88311E+01 5.44564E+01-1.44035E-08-9.02927E-01 1.45806E+01-3.60859E-01
 -1      2098-7.30500E+01 4.47866E+01-5.17844E-10-9.17733E-01 1.17484E+01-3.67206E-01
 -1      2099-5.70301E+01 3.49606E+01 2.13084E-08-9.29150E-01 8.87178E+00-3.72306E-01
 -1      2100-4.08374E+01 2.50333E+01 3.70275E-08-9.38548E-01 5.96036E+00-3.76144E-01
 -1      2101-2.45312E+01 1.50406E+01 4.95029E-08-9.42795E-01 3.02403E+00-3.78707E-01
 -1      2102-8.15847E+00 4.99951E+00 6.52436E-08-9.44535E-01 7.27368E-02-3.79989E-01
 -1      2103 8.21360E+00-5.03792E+00 8.15465E-08-9.43206E-01-2.88355E+00-3.79988E-01
 -1      2104 2.45248E+01-1.50350E+01 1.00242E-07-9.38433E-01-5.83484E+00-3.78706E-01
 -1      2105 4.07256E+01-2.49692E+01 1.18654E-07-9.29369E-01-8.77117E+00-3.76148E-01
 -1      2106 5.67515E+01-3.47955E+01 1.37773E-07-9.17355E-01-1.16827E+01-3.72327E-01
 -1      2107 7.25460E+01-4.44777E+01 1.53497E-07-9.02724E-01-1.45596E+01-3.67259E-01
 -1      2108 8.80509E+01-5.39823E+01 1.63900E-07-8.83886E-01-1.73924E+01-3.60964E-01
 -1      2109 1.03218E+02-6.32877E+01 1.68263E-07-8.62615E-01-2.01715E+01-3.53467E-01
 -1      2110 1.17973E+02-7.23244E+01 1.63529E-07-8.39377E-01-2.28877E+01-3.44797E-01
 -1      2111 1.32283E+02-8.10957E+01 1.43385E-07-8.09647E-01-2.55320E+01-3.34987E-01
 -1      2112 1.46101E+02-8.95810E+01 1.08389E-07-7.79319E-01-2.80957E+01-3.24074E-01
 -1      2113 1.59336E+02-9.76809E+01 7.66827E-08-7.45795E-01-3.05704E+01-3.12101E-01
 -1      2114 1.72002E+02-1.05463E+02 4.93258E-08-7.10430E-01-3.29479E+01-2.99113E-01
 -1      2115 1.83975E+02-1.12785E+02 2.78886E-08-6.71393E-01-3.52207E+01-2.85159E-01
 -1      2116 1.95275E+02-1.19720E+02 1.65485E-09-6.28816E-01-3.73813E+01-2.70292E-01
 -1      2117 2.05846E+02-1.26207E+02-3.89905E-08-5.87169E-01-3.94230E+01-2.54568E-01
 -1      2118 2.15603E+02-1.32168E+02-8.83481E-08-5.37534E-01-4.13392E+01-2.38047E-01
 -1      2119 2.24599E+02-1.37722E+02-1.50717E-07-4.90811E-01-4.31240E+01-2.20791E-01
 -1      2120 2.32670E+02-1.42635E+02-2.24724E-07-4.42062E-01-4.47720E+01-2.02866E-01
 -1      2121 2.39898E+02-1.47070E+02-3.00709E-07-3.88964E-01-4.62781E+01-1.84340E-01
 -1      2122 2.46230E+02-1.50975E+02-3.59454E-07-3.33111E-01-4.76381E+01-1.65284E-01
 -1      2123 2.51568E+02-1.54225E+02-3.77392E-07-2.80916E-01-4.88480E+01-1.45770E-01
 -1      2124 2.55991E+02-1.56961E+02-3.55591E-07-2.23014E-01-4.99046E+01-1.25873E-01
 -1      2125 2.59379E+02-1.59011E+02-3.17312E-07-1.69032E-01-5.08053E+01-1.05670E-01
 -1      2126 2.61788E+02-1.60493E+02-2.77203E-07-1.05744E-01-5.15478E+01-8.52392E-02
 -1      2127 2.63192E+02-1.61372E+02-2.40849E-07-4.77988E-02-5.21308E+01-6.46594E-02
 -1      2128 2.63541E+02-1.61575E+02-2.08717E-07 1.02809E-02-5.25535E+01-4.40111E-02
 -1      2129 2.62853E+02-1.61148E+02-1.78565E-07 7.19528E-02-5.28155E+01-2.33755E-02
 -1      2130 2.61153E+02-1.60136E+02-1.41042E-07 1.31427E-01-5.29173E+01-2.83432E-03
 -1      2131 2.58335E+02-1.58366E+02-7.97725E-08 1.88388E-01-5.28601E+01 1.75302E-02
 -1      2132 2.54519E+02-1.56026E+02-4.80502E-09 2.53874E-01-5.26453E+01 3.76360E-02
 -1      2133 2.49705E+02-1.53123E+02 7.46601E-08 3.14604E-01-5.22755E+01 5.74021E-02
 -1      2134 2.43765E+02-1.49442E+02 1.54718E-07 3.70757E-01-5.17535E+01 7.67465E-02
 -1      2135 2.36882E+02-1.45251E+02 2.10248E-07 4.29082E-01-5.10830E+01 9.55885E-02
 -1      2136 2.28927E+02-1.40348E+02 2.31377E-07 4.87388E-01-5.02681E+01 1.13849E-01
 -1      2137 2.20002E+02-1.34879E+02 2.40418E-07 5.44688E-01-4.93138E+01 1.31448E-01
 -1      2138 2.10129E+02-1.28847E+02 2.50044E-07 6.01493E-01-4.82253E+01 1.48310E-01
 -1      2139 1.99259E+02-1.22166E+02 2.61351E-07 6.53365E-01-4.70089E+01 1.64358E-01
 -1      2140 1.87496E+02-1.14971E+02 2.72767E-07 7.07682E-01-4.56710E+01 1.79519E-01
 -1      2141 1.74792E+02-1.07166E+02 2.72667E-07 7.57235E-01-4.42189E+01 1.93722E-01
 -1      2142 1.61231E+02-9.88516E+01 2.58141E-07 8.08640E-01-4.26603E+01 2.06894E-01
 -1      2143 1.46856E+02-9.00628E+01 2.40197E-07 8.55976E-01-4.10034E+01 2.18972E-01
 -1      2144 1.31618E+02-8.06993E+01 2.30616E-07 9.00414E-01-3.92571E+01 2.29888E-01
 -1      2145 1.15635E+02-7.09086E+01 2.26547E-07 9.45761E-01-3.74306E+01 2.39581E-01
 -1      2146 9.89084E+01-6.06589E+01 2.21949E-07 9.86262E-01-3.55336E+01 2.47991E-01
 -1      2147 8.14689E+01-4.99592E+01 2.12283E-07 1.02612E+00-3.35764E+01 2.55062E-01
 -1      2148 6.33800E+01-3.88815E+01 1.92672E-07 1.06341E+00-3.15696E+01 2.60740E-01
 -1      2149 4.46552E+01-2.73958E+01 1.72574E-07 1.09672E+00-2.95243E+01 2.64975E-01
 -1      2150 2.53498E+01-1.55648E+01 1.57622E-07 1.13062E+00-2.74517E+01 2.67718E-01
 -1      2151 5.50347E+00-3.39554E+00 1.37851E-07 1.15865E+00-2.53638E+01 2.68927E-01
 -1      2152-1.48490E+01 9.07704E+00 1.11022E-07 1.18950E+00-2.32725E+01 2.68561E-01
 -1      2153-3.56509E+01 2.18298E+01 8.57798E-08 1.21077E+00-2.11904E+01 2.66580E-01
 -1      2154-5.68928E+01 3.48518E+01 6.53053E-08 1.23834E+00-1.91300E+01 2.62951E-01
 -1      2155-7.84857E+01 4.80881E+01 4.70648E-08 1.25229E+00-1.71044E+01 2.57644E-01
 -1      2156-1.00449E+02 6.15525E+01 3.00999E-08 1.27896E+00-1.51266E+01 2.50628E-01
 -1      2157-1.22676E+02 7.51816E+01 1.66358E-08 1.28569E+00-1.32102E+01 2.41880E-01
 -1      2158-1.45192E+02 8.89619E+01 4.28690E-09 1.31355E+00-1.13686E+01 2.31378E-01
 -1      2159-1.67907E+02 1.02909E+02-1.52676E-08 1.30495E+00-9.61559E+00 2.19102E-01
 -1      2160-1.90861E+02 1.16966E+02-4.06492E-08 1.33833E+00-7.96497E+00 2.05037E-01
 -1      2161-2.13905E+02 1.31115E+02-7.08264E-08 1.31801E+00-6.43078E+00 1.89168E-01
 -1      2162-2.37165E+02 1.45346E+02-1.05010E-07 1.36317E+00-5.02705E+00 1.71484E-01
 -1      2163-2.60329E+02 1.59510E+02-1.40568E-07 1.31867E+00-3.76797E+00 1.51977E-01
 -1      2164-2.84034E+02 1.74250E+02-1.76902E-07 1.37636E+00-2.66768E+00 1.30639E-01
 -1      2165-3.06633E+02 1.87321E+02-2.12285E-07 1.33731E+00-1.74053E+00 1.07467E-01
 -1      2166-3.32760E+02 2.06244E+02-2.47710E-07 1.28694E+00-1.00069E+00 8.24525E-02
 -1      2167-3.46937E+02 2.04181E+02-2.76853E-07 1.74247E+00-4.62609E-01 5.56113E-02
 -1      2168-4.03979E+02 2.78631E+02-3.53121E-07-2.53202E-01-1.40496E-01 2.68750E-02
 -1      2169-2.68803E+02 5.21289E+01-4.18451E-07 7.05697E+00-3.50208E-02 1.20101E-02
 -1      2170-1.51174E-01 2.51582E-02-1.72934E-08-1.59181E-02 6.79564E+01-5.30567E-01
 -1      2171-8.39115E-01 4.52251E-01-2.80707E-08 7.91006E-02 6.58931E+01-5.30532E-01
 -1      2172-2.81074E+00 1.66114E+00-5.06341E-08 1.50512E-01 6.17671E+01-5.30385E-01
 -1      2173-6.00711E+00 3.62794E+00-5.24870E-08 2.19552E-01 5.76429E+01-5.30035E-01
 -1      2174-1.03414E+01 6.28679E+00-2.74830E-08 2.82215E-01 5.35225E+01-5.29390E-01
 -1      2175-1.57297E+01 9.59081E+00 2.66423E-09 3.41388E-01 4.94086E+01-5.28365E-01
 -1      2176-2.21080E+01 1.35084E+01 3.34480E-08 3.95117E-01 4.53044E+01-5.26878E-01
 -1      2177-2.93681E+01 1.79598E+01 5.49833E-08 4.43769E-01 4.12138E+01-5.24857E-01
 -1      2178-3.74507E+01 2.29153E+01 6.78001E-08 4.89718E-01 3.71412E+01-5.22235E-01
 -1      2179-4.62776E+01 2.83417E+01 7.44197E-08 5.28210E-01 3.30915E+01-5.18950E-01
 -1      2180-5.57200E+01 3.41062E+01 6.11466E-08 5.65821E-01 2.90702E+01-5.14950E-01
 -1      2181-6.58014E+01 4.03195E+01 4.16305E-08 5.93751E-01 2.50829E+01-5.10183E-01
 -1      2182-7.63180E+01 4.67489E+01 2.54414E-08 6.22335E-01 2.11358E+01-5.04610E-01
 -1      2183-8.72808E+01 5.34744E+01 3.87803E-09 6.42004E-01 1.72353E+01-4.98194E-01
 -1      2184-9.86191E+01 6.04597E+01-1.58483E-08 6.63498E-01 1.33881E+01-4.90906E-01
 -1      2185-1.10101E+02 6.74236E+01-2.46006E-08 6.73787E-01 9.60098E+00-4.82723E-01
 -1      2186-1.21940E+02 7.47654E+01-4.12887E-08 6.80323E-01 5.88111E+00-4.73623E-01
 -1      2187-1.33774E+02 8.19775E+01-5.95020E-08 6.89752E-01 2.23561E+00-4.63598E-01
 -1      2188-1.45692E+02 8.92955E+01-6.27464E-08 6.83561E-01-1.32830E+00-4.52641E-01
 -1      2189-1.57609E+02 9.66236E+01-6.92458E-08 6.89641E-01-4.80335E+00-4.40751E-01
 -1      2190-1.69344E+02 1.03765E+02-7.81968E-08 6.72542E-01-8.18228E+00-4.27933E-01
 -1      2191-1.81035E+02 1.10991E+02-7.80729E-08 6.67715E-01-1.14579E+01-4.14196E-01
 -1      2192-1.92420E+02 1.17942E+02-8.16948E-08 6.48438E-01-1.46232E+01-3.99556E-01
 -1      2193-2.03543E+02 1.24780E+02-8.79192E-08 6.32559E-01-1.76712E+01-3.84033E-01
 -1      2194-2.14302E+02 1.31359E+02-7.76120E-08 6.12234E-01-2.05951E+01-3.67652E-01
 -1      2195-2.24659E+02 1.37708E+02-5.79980E-08 5.82486E-01-2.33883E+01-3.50444E-01
 -1      2196-2.34573E+02 1.43803E+02-2.06458E-08 5.57629E-01-2.60446E+01-3.32441E-01
 -1      2197-2.43962E+02 1.49562E+02 2.94148E-08 5.24736E-01-2.85579E+01-3.13682E-01
 -1      2198-2.52756E+02 1.54936E+02 6.77987E-08 4.93608E-01-3.09225E+01-2.94210E-01
 -1      2199-2.60961E+02 1.59965E+02 1.00671E-07 4.53065E-01-3.31329E+01-2.74071E-01
 -1      2200-2.68544E+02 1.64640E+02 1.32484E-07 4.16393E-01-3.51843E+01-2.53313E-01
 -1      2201-2.75376E+02 1.68807E+02 1.63496E-07 3.73439E-01-3.70720E+01-2.31991E-01
 -1      2202-2.81517E+02 1.72595E+02 1.98206E-07 3.32111E-01-3.87919E+01-2.10160E-01
 -1      2203-2.86848E+02 1.75835E+02 2.17971E-07 2.88146E-01-4.03402E+01-1.87880E-01
 -1      2204-2.91421E+02 1.78655E+02 2.02373E-07 2.37399E-01-4.17136E+01-1.65211E-01
 -1      2205-2.95157E+02 1.80951E+02 1.74014E-07 1.93013E-01-4.29094E+01-1.42216E-01
 -1      2206-2.98012E+02 1.82673E+02 1.55448E-07 1.38833E-01-4.39253E+01-1.18963E-01
 -1      2207-3.00085E+02 1.83998E+02 1.42880E-07 9.15768E-02-4.47595E+01-9.55171E-02
 -1      2208-3.01168E+02 1.84615E+02 1.32814E-07 4.02402E-02-4.54108E+01-7.19481E-02
 -1      2209-3.01399E+02 1.84760E+02 1.23950E-07-1.41161E-02-4.58786E+01-4.83263E-02
 -1      2210-3.00754E+02 1.84394E+02 1.24716E-07-6.64387E-02-4.61627E+01-2.47215E-02
 -1      2211-2.99150E+02 1.83390E+02 1.42663E-07-1.17230E-01-4.62634E+01-1.20512E-03
 -1      2212-2.96648E+02 1.81859E+02 1.76197E-07-1.71678E-01-4.61818E+01 2.21508E-02
 -1      2213-2.93242E+02 1.79785E+02 2.26628E-07-2.23327E-01-4.59194E+01 4.52747E-02
 -1      2214-2.88900E+02 1.77103E+02 2.73028E-07-2.73019E-01-4.54783E+01 6.80950E-02
 -1      2215-2.83674E+02 1.73895E+02 3.00572E-07-3.29891E-01-4.48611E+01 9.05408E-02
 -1      2216-2.77590E+02 1.70195E+02 3.21321E-07-3.77842E-01-4.40710E+01 1.12543E-01
 -1      2217-2.70577E+02 1.65867E+02 3.39405E-07-4.28456E-01-4.31117E+01 1.34031E-01
 -1      2218-2.62784E+02 1.61128E+02 3.51282E-07-4.74558E-01-4.19875E+01 1.54939E-01
 -1      2219-2.54075E+02 1.55745E+02 3.57901E-07-5.21507E-01-4.07031E+01 1.75200E-01
 -1      2220-2.44595E+02 1.49929E+02 3.67267E-07-5.72093E-01-3.92639E+01 1.94750E-01
 -1      2221-2.34403E+02 1.43729E+02 3.65490E-07-6.13447E-01-3.76756E+01 2.13526E-01
 -1      2222-2.23373E+02 1.36930E+02 3.34747E-07-6.55529E-01-3.59444E+01 2.31471E-01
 -1      2223-2.11690E+02 1.29791E+02 2.94075E-07-6.94198E-01-3.40771E+01 2.48526E-01
 -1      2224-1.99293E+02 1.22169E+02 2.55957E-07-7.32151E-01-3.20807E+01 2.64637E-01
 -1      2225-1.86285E+02 1.14197E+02 2.18577E-07-7.68670E-01-2.99629E+01 2.79752E-01
 -1      2226-1.72700E+02 1.05885E+02 1.88750E-07-8.01862E-01-2.77316E+01 2.93824E-01
 -1      2227-1.58532E+02 9.71865E+01 1.56278E-07-8.31056E-01-2.53950E+01 3.06809E-01
 -1      2228-1.43880E+02 8.82064E+01 1.19545E-07-8.58771E-01-2.29617E+01 3.18664E-01
 -1      2229-1.28779E+02 7.89534E+01 8.83246E-08-8.83241E-01-2.04408E+01 3.29352E-01
 -1      2230-1.13258E+02 6.94308E+01 6.83423E-08-9.05227E-01-1.78414E+01 3.38841E-01
 -1      2231-9.73878E+01 5.96979E+01 4.86867E-08-9.25079E-01-1.51729E+01 3.47099E-01
 -1      2232-8.12393E+01 4.98128E+01 1.92769E-08-9.39755E-01-1.24451E+01 3.54101E-01
 -1      2233-6.48150E+01 3.97301E+01-1.16704E-08-9.52668E-01-9.66774E+00 3.59827E-01
 -1      2234-4.82140E+01 2.95568E+01-4.08174E-08-9.62344E-01-6.85088E+00 3.64258E-01
 -1      2235-3.14789E+01 1.92989E+01-6.47180E-08-9.68407E-01-4.00464E+00 3.67382E-01
 -1      2236-1.46576E+01 8.98339E+00-8.70051E-08-9.71288E-01-1.13923E+00 3.69191E-01
 -1      2237 2.17912E+00-1.33635E+00-1.04906E-07-9.70677E-01 1.73513E+00 3.69680E-01
 -1      2238 1.89849E+01-1.16395E+01-1.15416E-07-9.66837E-01 4.60818E+00 3.68851E-01
 -1      2239 3.57042E+01-2.18936E+01-1.20892E-07-9.60210E-01 7.46966E+00 3.66708E-01
 -1      2240 5.22647E+01-3.20409E+01-1.22323E-07-9.50299E-01 1.03094E+01 3.63260E-01
 -1      2241 6.86271E+01-4.20717E+01-1.21336E-07-9.36573E-01 1.31172E+01 3.58521E-01
 -1      2242 8.47363E+01-5.19543E+01-1.15301E-07-9.19418E-01 1.58833E+01 3.52510E-01
 -1      2243 1.00520E+02-6.16233E+01-1.02818E-07-9.00572E-01 1.85977E+01 3.45248E-01
 -1      2244 1.15953E+02-7.10973E+01-9.21894E-08-8.77014E-01 2.12509E+01 3.36763E-01
 -1      2245 1.30937E+02-8.02665E+01-8.69473E-08-8.53053E-01 2.38334E+01 3.27085E-01
 -1      2246 1.45475E+02-8.91899E+01-7.95374E-08-8.22000E-01 2.63361E+01 3.16250E-01
 -1      2247 1.59487E+02-9.77775E+01-7.51999E-08-7.93673E-01 2.87501E+01 3.04296E-01
 -1      2248 1.72920E+02-1.06008E+02-7.39322E-08-7.55456E-01 3.10670E+01 2.91265E-01
 -1      2249 1.85750E+02-1.13882E+02-6.83229E-08-7.20477E-01 3.32785E+01 2.77205E-01
 -1      2250 1.97930E+02-1.21356E+02-5.33893E-08-6.82148E-01 3.53767E+01 2.62166E-01
 -1      2251 2.09379E+02-1.28359E+02-3.24250E-08-6.40456E-01 3.73544E+01 2.46200E-01
 -1      2252 2.20104E+02-1.34930E+02-1.11870E-08-5.95943E-01 3.92044E+01 2.29364E-01
 -1      2253 2.30081E+02-1.41070E+02 4.75843E-09-5.48990E-01 4.09203E+01 2.11717E-01
 -1      2254 2.39208E+02-1.46644E+02 1.13323E-08-5.03857E-01 4.24960E+01 1.93321E-01
 -1      2255 2.47537E+02-1.51774E+02 2.39049E-08-4.52855E-01 4.39259E+01 1.74241E-01
 -1      2256 2.54937E+02-1.56283E+02 2.60720E-08-4.03944E-01 4.52049E+01 1.54544E-01
 -1      2257 2.61488E+02-1.60302E+02 4.77804E-09-3.50246E-01 4.63286E+01 1.34300E-01
 -1      2258 2.67140E+02-1.63792E+02-4.17375E-09-2.95026E-01 4.72929E+01 1.13578E-01
 -1      2259 2.71796E+02-1.66619E+02 4.67580E-09-2.42907E-01 4.80944E+01 9.24518E-02
 -1      2260 2.75578E+02-1.68979E+02 4.80180E-09-1.87153E-01 4.87302E+01 7.09953E-02
 -1      2261 2.78304E+02-1.70599E+02-1.73919E-08-1.36041E-01 4.91981E+01 4.92834E-02
 -1      2262 2.80108E+02-1.71706E+02-5.76581E-08-7.08819E-02 4.94964E+01 2.73923E-02
 -1      2263 2.80979E+02-1.72291E+02-1.03793E-07-1.73169E-02 4.96240E+01 5.39789E-03
 -1      2264 2.80776E+02-1.72122E+02-1.47026E-07 3.82675E-02 4.95803E+01-1.66225E-02
 -1      2265 2.79674E+02-1.71477E+02-1.82462E-07 9.37285E-02 4.93656E+01-3.85921E-02
 -1      2266 2.77531E+02-1.70138E+02-2.07543E-07 1.50179E-01 4.89803E+01-6.04344E-02
 -1      2267 2.74436E+02-1.68235E+02-2.27674E-07 2.07585E-01 4.84260E+01-8.20722E-02
 -1      2268 2.70434E+02-1.65812E+02-2.37347E-07 2.61230E-01 4.77044E+01-1.03431E-01
 -1      2269 2.65428E+02-1.62724E+02-2.18328E-07 3.16080E-01 4.68179E+01-1.24437E-01
 -1      2270 2.59513E+02-1.59097E+02-1.77880E-07 3.67363E-01 4.57697E+01-1.45015E-01
 -1      2271 2.52716E+02-1.54946E+02-1.33563E-07 4.19886E-01 4.45633E+01-1.65094E-01
 -1      2272 2.44998E+02-1.50194E+02-9.89425E-08 4.67416E-01 4.32030E+01-1.84605E-01
 -1      2273 2.36443E+02-1.44944E+02-8.33168E-08 5.19906E-01 4.16933E+01-2.03478E-01
 -1      2274 2.27101E+02-1.39253E+02-6.81613E-08 5.65106E-01 4.00395E+01-2.21648E-01
 -1      2275 2.16895E+02-1.32957E+02-4.20948E-08 6.07684E-01 3.82472E+01-2.39053E-01
 -1      2276 2.05992E+02-1.26291E+02-1.37462E-08 6.52661E-01 3.63228E+01-2.55631E-01
 -1      2277 1.94347E+02-1.19153E+02 1.22421E-08 6.92171E-01 3.42729E+01-2.71325E-01
 -1      2278 1.82008E+02-1.11572E+02 4.08578E-08 7.30621E-01 3.21045E+01-2.86078E-01
 -1      2279 1.69083E+02-1.03672E+02 6.72235E-08 7.65215E-01 2.98252E+01-2.99841E-01
 -1      2280 1.55519E+02-9.53390E+01 7.79054E-08 7.98288E-01 2.74428E+01-3.12566E-01
 -1      2281 1.41441E+02-8.67210E+01 7.91817E-08 8.27053E-01 2.49657E+01-3.24207E-01
 -1      2282 1.26848E+02-7.77617E+01 7.20390E-08 8.54523E-01 2.24023E+01-3.34724E-01
 -1      2283 1.11825E+02-6.85527E+01 5.73863E-08 8.78892E-01 1.97617E+01-3.44081E-01
 -1      2284 9.64220E+01-5.91205E+01 4.62950E-08 9.00284E-01 1.70528E+01-3.52244E-01
 -1      2285 8.06564E+01-4.94450E+01 3.73231E-08 9.17201E-01 1.42852E+01-3.59186E-01
 -1      2286 6.46290E+01-3.96263E+01 2.62919E-08 9.31599E-01 1.14685E+01-3.64887E-01
 -1      2287 4.83643E+01-2.96482E+01 2.02319E-08 9.43653E-01 8.61236E+00-3.69326E-01
 -1      2288 3.19301E+01-1.95744E+01 1.38934E-08 9.51561E-01 5.72674E+00-3.72479E-01
 -1      2289 1.53896E+01-9.43705E+00 3.02483E-09 9.56696E-01 2.82165E+00-3.74334E-01
 -1      2290-1.21629E+00 7.46958E-01-9.14825E-09 9.57952E-01-9.28418E-02-3.74890E-01
 -1      2291-1.78121E+01 1.09183E+01-2.09817E-08 9.55858E-01-3.00659E+00-3.74145E-01
 -1      2292-3.43578E+01 2.10671E+01-3.01826E-08 9.50808E-01-5.90947E+00-3.72100E-01
 -1      2293-5.07729E+01 3.11249E+01-4.14395E-08 9.42690E-01-8.79141E+00-3.68763E-01
 -1      2294-6.70236E+01 4.10875E+01-5.09647E-08 9.30924E-01-1.16424E+01-3.64146E-01
 -1      2295-8.30502E+01 5.09205E+01-5.91848E-08 9.15026E-01-1.44525E+01-3.58263E-01
 -1      2296-9.87708E+01 6.05490E+01-6.89216E-08 8.97461E-01-1.72121E+01-3.51136E-01
 -1      2297-1.14180E+02 7.00086E+01-7.25898E-08 8.76709E-01-1.99115E+01-3.42788E-01
 -1      2298-1.29163E+02 7.91810E+01-6.02206E-08 8.52425E-01-2.25412E+01-3.33249E-01
 -1      2299-1.43715E+02 8.81020E+01-3.11917E-08 8.24854E-01-2.50923E+01-3.22552E-01
 -1      2300-1.57783E+02 9.67387E+01 1.56516E-09 7.93463E-01-2.75557E+01-3.10733E-01
 -1      2301-1.71293E+02 1.05018E+02 2.40954E-08 7.62658E-01-2.99231E+01-2.97833E-01
 -1      2302-1.84218E+02 1.12944E+02 2.94086E-08 7.27414E-01-3.21860E+01-2.83897E-01
 -1      2303-1.96473E+02 1.20435E+02 2.46953E-08 6.88758E-01-3.43367E+01-2.68973E-01
 -1      2304-2.08100E+02 1.27583E+02 2.38454E-08 6.47205E-01-3.63676E+01-2.53113E-01
 -1      2305-2.18992E+02 1.34265E+02 2.51285E-08 6.04214E-01-3.82717E+01-2.36371E-01
 -1      2306-2.29107E+02 1.40458E+02 2.60478E-08 5.60501E-01-4.00423E+01-2.18805E-01
 -1      2307-2.38441E+02 1.46178E+02 2.45461E-08 5.13687E-01-4.16733E+01-2.00476E-01
 -1      2308-2.46975E+02 1.51426E+02 1.24252E-08 4.66098E-01-4.31590E+01-1.81447E-01
 -1      2309-2.54608E+02 1.56084E+02-1.50185E-08 4.16263E-01-4.44942E+01-1.61785E-01
 -1      2310-2.61382E+02 1.60234E+02-5.57090E-08 3.63419E-01-4.56742E+01-1.41556E-01
 -1      2311-2.67284E+02 1.63879E+02-9.38017E-08 3.09577E-01-4.66948E+01-1.20832E-01
 -1      2312-2.72216E+02 1.66879E+02-1.11333E-07 2.58413E-01-4.75527E+01-9.96826E-02
 -1      2313-2.76254E+02 1.69381E+02-1.05176E-07 2.02091E-01-4.82446E+01-7.81819E-02
 -1      2314-2.79269E+02 1.71195E+02-7.93893E-08 1.48748E-01-4.87681E+01-5.64044E-02
 -1      2315-2.81387E+02 1.72515E+02-5.02631E-08 9.13220E-02-4.91214E+01-3.44253E-02
 -1      2316-2.82513E+02 1.73205E+02-2.72405E-08 3.56223E-02-4.93033E+01-1.23195E-02
 -1      2317-2.82630E+02 1.73253E+02-1.38576E-09-2.21362E-02-4.93130E+01 9.83590E-03
 -1      2318-2.81849E+02 1.72823E+02 1.98721E-08-7.83090E-02-4.91504E+01 3.19645E-02
 -1      2319-2.80006E+02 1.71648E+02 2.82239E-08-1.30347E-01-4.88160E+01 5.39900E-02
 -1      2320-2.77247E+02 1.69964E+02 3.16715E-08-1.90458E-01-4.83110E+01 7.58362E-02
 -1      2321-2.73542E+02 1.67714E+02 4.30794E-08-2.44411E-01-4.76371E+01 9.74282E-02
 -1      2322-2.68862E+02 1.64823E+02 6.22906E-08-2.95820E-01-4.67964E+01 1.18692E-01
 -1      2323-2.63296E+02 1.61433E+02 7.30689E-08-3.50907E-01-4.57918E+01 1.39553E-01
 -1      2324-2.56771E+02 1.57409E+02 7.79018E-08-3.99504E-01-4.46268E+01 1.59941E-01
 -1      2325-2.49392E+02 1.52884E+02 8.86913E-08-4.53031E-01-4.33053E+01 1.79785E-01
 -1      2326-2.41187E+02 1.47877E+02 8.96354E-08-5.00290E-01-4.18318E+01 1.99016E-01
 -1      2327-2.32110E+02 1.42299E+02 7.98626E-08-5.47604E-01-4.02113E+01 2.17571E-01
 -1      2328-2.22246E+02 1.36246E+02 9.05764E-08-5.91029E-01-3.84493E+01 2.35383E-01
 -1      2329-2.11655E+02 1.29778E+02 1.24617E-07-6.35129E-01-3.65519E+01 2.52393E-01
 -1      2330-2.00283E+02 1.22773E+02 1.49186E-07-6.71476E-01-3.45255E+01 2.68542E-01
 -1      2331-1.88261E+02 1.15402E+02 1.56685E-07-7.16340E-01-3.23770E+01 2.83775E-01
 -1      2332-1.75627E+02 1.07690E+02 1.52003E-07-7.49656E-01-3.01138E+01 2.98041E-01
 -1      2333-1.62346E+02 9.95221E+01 1.32423E-07-7.80862E-01-2.77435E+01 3.11290E-01
 -1      2334-1.48555E+02 9.10829E+01 1.02793E-07-8.12290E-01-2.52743E+01 3.23479E-01
 -1      2335-1.34231E+02 8.22870E+01 7.04479E-08-8.38245E-01-2.27145E+01 3.34565E-01
 -1      2336-1.19476E+02 7.32416E+01 4.23669E-08-8.64267E-01-2.00730E+01 3.44512E-01
 -1      2337-1.04337E+02 6.39723E+01 2.35438E-08-8.84903E-01-1.73586E+01 3.53286E-01
 -1      2338-8.88311E+01 5.44564E+01 1.44035E-08-9.02927E-01-1.45806E+01 3.60859E-01
 -1      2339-7.30500E+01 4.47866E+01 5.17844E-10-9.17733E-01-1.17484E+01 3.67206E-01
 -1      2340-5.70301E+01 3.49606E+01-2.13084E-08-9.29150E-01-8.87178E+00 3.72306E-01
 -1      2341-4.08374E+01 2.50333E+01-3.70275E-08-9.38548E-01-5.96036E+00 3.76144E-01
 -1      2342-2.45312E+01 1.50406E+01-4.95029E-08-9.42795E-01-3.02403E+00 3.78707E-01
 -1      2343-8.15847E+00 4.99951E+00-6.52436E-08-9.44534E-01-7.27368E-02 3.79989E-01
 -1      2344 8.21360E+00-5.03792E+00-8.15465E-08-9.43206E-01 2.88355E+00 3.79988E-01
 -1      2345 2.45248E+01-1.50350E+01-1.00242E-07-9.38433E-01 5.83484E+00 3.78706E-01
 -1      2346 4.07256E+01-2.49692E+01-1.18654E-07-9.29369E-01 8.77117E+00 3.76148E-01
 -1      2347 5.67515E+01-3.47955E+01-1.37773E-07-9.17355E-01 1.16827E+01 3.72327E-01
 -1      2348 7.25460E+01-4.44777E+01-1.53497E-07-9.02724E-01 1.45596E+01 3.67259E-01
 -1      2349 8.80509E+01-5.39823E+01-1.63900E-07-8.83886E-01 1.73924E+01 3.60964E-01
 -1      2350 1.03218E+02-6.32877E+01-1.68263E-07-8.62615E-01 2.01715E+01 3.53467E-01
 -1      2351 1.17973E+02-7.23244E+01-1.63529E-07-8.39377E-01 2.28877E+01 3.44797E-01
 -1      2352 1.32283E+02-8.10957E+01-1.43385E-07-8.09647E-01 2.55320E+01 3.34987E-01
 -1      2353 1.46101E+02-8.95810E+01-1.08389E-07-7.79319E-01 2.80957E+01 3.24074E-01
 -1      2354 1.59336E+02-9.76809E+01-7.66827E-08-7.45795E-01 3.05704E+01 3.12101E-01
 -1      2355 1.72002E+02-1.05463E+02-4.93258E-08-7.10430E-01 3.29479E+01 2.99113E-01
 -1      2356 1.83975E+02-1.12785E+02-2.78886E-08-6.71393E-01 3.52207E+01 2.85159E-01
 -1      2357 1.95275E+02-1.19720E+02-1.65485E-09-6.28816E-01 3.73813E+01 2.70292E-01
 -1      2358 2.05846E+02-1.26207E+02 3.89905E-08-5.87169E-01 3.94230E+01 2.54568E-01
 -1      2359 2.15603E+02-1.32168E+02 8.83481E-08-5.37534E-01 4.13392E+01 2.38047E-01
 -1      2360 2.24599E+02-1.37722E+02 1.50717E-07-4.90811E-01 4.31240E+01 2.20791E-01
 -1      2361 2.32670E+02-1.42635E+02 2.24724E-07-4.42062E-01 4.47720E+01 2.02866E-01
 -1      2362 2.39898E+02-1.47070E+02 3.00709E-07-3.88964E-01 4.62781E+01 1.84340E-01
 -1      2363 2.46230E+02-1.50975E+02 3.59454E-07-3.33111E-01 4.76381E+01 1.65284E-01
 -1      2364 2.51568E+02-1.54225E+02 3.77392E-07-2.80916E-01 4.88480E+01 1.45770E-01
 -1      2365 2.55991E+02-1.56961E+02 3.55591E-07-2.23014E-01 4.99046E+01 1.25873E-01
 -1      2366 2.59379E+02-1.59011E+02 3.17312E-07-1.69032E-01 5.08053E+01 1.05670E-01
 -1      2367 2.61788E+02-1.60493E+02 2.77203E-07-1.05744E-01 5.15478E+01 8.52392E-02
 -1      2368 2.63192E+02-1.61372E+02 2.40849E-07-4.77987E-02 5.21308E+01 6.46593E-02
 -1      2369 2.63541E+02-1.61575E+02 2.08717E-07 1.02810E-02 5.25535E+01 4.40111E-02
 -1      2370 2.62853E+02-1.61148E+02 1.78565E-07 7.19529E-02 5.28155E+01 2.33755E-02
 -1      2371 2.61153E+02-1.60136E+02 1.41042E-07 1.31427E-01 5.29173E+01 2.83430E-03
 -1      2372 2.58335E+02-1.58366E+02 7.97725E-08 1.88389E-01 5.28601E+01-1.75302E-02
 -1      2373 2.54519E+02-1.56026E+02 4.80502E-09 2.53874E-01 5.26453E+01-3.76360E-02
 -1      2374 2.49705E+02-1.53123E+02-7.46601E-08 3.14604E-01 5.22755E+01-5.74021E-02
 -1      2375 2.43765E+02-1.49442E+02-1.54718E-07 3.70757E-01 5.17535E+01-7.67465E-02
 -1      2376 2.36882E+02-1.45251E+02-2.10248E-07 4.29082E-01 5.10830E+01-9.55885E-02
 -1      2377 2.28927E+02-1.40348E+02-2.31377E-07 4.87388E-01 5.02681E+01-1.13849E-01
 -1      2378 2.20002E+02-1.34879E+02-2.40418E-07 5.44688E-01 4.93138E+01-1.31448E-01
 -1      2379 2.10129E+02-1.28847E+02-2.50044E-07 6.01493E-01 4.82253E+01-1.48310E-01
 -1      2380 1.99259E+02-1.22166E+02-2.61351E-07 6.53365E-01 4.70089E+01-1.64358E-01
 -1      2381 1.87496E+02-1.14971E+02-2.72767E-07 7.07682E-01 4.56710E+01-1.79519E-01
 -1      2382 1.74792E+02-1.07166E+02-2.72667E-07 7.57235E-01 4.42189E+01-1.93722E-01
 -1      2383 1.61231E+02-9.88516E+01-2.58141E-07 8.08640E-01 4.26603E+01-2.06895E-01
 -1      2384 1.46856E+02-9.00628E+01-2.40197E-07 8.55976E-01 4.10034E+01-2.18972E-01
 -1      2385 1.31618E+02-8.06993E+01-2.30616E-07 9.00414E-01 3.92571E+01-2.29888E-01
 -1      2386 1.15635E+02-7.09086E+01-2.26547E-07 9.45761E-01 3.74306E+01-2.39581E-01
 -1      2387 9.89084E+01-6.06589E+01-2.21949E-07 9.86262E-01 3.55336E+01-2.47991E-01
 -1      2388 8.14689E+01-4.99592E+01-2.12283E-07 1.02612E+00 3.35764E+01-2.55062E-01
 -1      2389 6.33800E+01-3.88815E+01-1.92672E-07 1.06341E+00 3.15696E+01-2.60740E-01
 -1      2390 4.46552E+01-2.73958E+01-1.72574E-07 1.09672E+00 2.95243E+01-2.64974E-01
 -1      2391 2.53498E+01-1.55648E+01-1.57622E-07 1.13062E+00 2.74517E+01-2.67718E-01
 -1      2392 5.50347E+00-3.39554E+00-1.37851E-07 1.15865E+00 2.53637E+01-2.68927E-01
 -1      2393-1.48490E+01 9.07704E+00-1.11022E-07 1.18950E+00 2.32725E+01-2.68561E-01
 -1      2394-3.56509E+01 2.18298E+01-8.57798E-08 1.21077E+00 2.11904E+01-2.66580E-01
 -1      2395-5.68928E+01 3.48518E+01-6.53053E-08 1.23834E+00 1.91300E+01-2.62951E-01
 -1      2396-7.84857E+01 4.80881E+01-4.70648E-08 1.25229E+00 1.71044E+01-2.57644E-01
 -1      2397-1.00449E+02 6.15525E+01-3.00999E-08 1.27896E+00 1.51266E+01-2.50628E-01
 -1      2398-1.22676E+02 7.51816E+01-1.66358E-08 1.28569E+00 1.32102E+01-2.41880E-01
 -1      2399-1.45192E+02 8.89619E+01-4.28690E-09 1.31355E+00 1.13686E+01-2.31378E-01
 -1      2400-1.67907E+02 1.02909E+02 1.52676E-08 1.30495E+00 9.61559E+00-2.19102E-01
 -1      2401-1.90861E+02 1.16966E+02 4.06492E-08 1.33833E+00 7.96497E+00-2.05037E-01
 -1      2402-2.13905E+02 1.31115E+02 7.08264E-08 1.31801E+00 6.43078E+00-1.89168E-01
 -1      2403-2.37165E+02 1.45346E+02 1.05010E-07 1.36317E+00 5.02705E+00-1.71484E-01
 -1      2404-2.60329E+02 1.59510E+02 1.40568E-07 1.31867E+00 3.76797E+00-1.51977E-01
 -1      2405-2.84034E+02 1.74250E+02 1.76902E-07 1.37636E+00 2.66768E+00-1.30639E-01
 -1      2406-3.06633E+02 1.87321E+02 2.12285E-07 1.33731E+00 1.74052E+00-1.07467E-01
 -1      2407-3.32760E+02 2.06244E+02 2.47710E-07 1.28694E+00 1.00069E+00-8.24525E-02
 -1      2408-3.46937E+02 2.04181E+02 2.76853E-07 1.74247E+00 4.62609E-01-5.56112E-02
 -1      2409-4.03979E+02 2.78631E+02 3.53121E-07-2.53202E-01 1.40496E-01-2.68750E-02
 -1      2410-2.68803E+02 5.21289E+01 4.18451E-07 7.05697E+00 3.50208E-02-1.20101E-02
 -3
    1PSTEP                        20           1           1          
    1PGM                1.000000E+00                                  
    1PGK                2.162072E+07                                  
    1PHID                         -1                                  
    1PSUBC                         0                                  
    1PMODE                         5                                  
  100CL  105 740.0400698        2410                     2    5MODAL      1
 -4  ERROR       1    1
 -5  STR(%)      1    1    0    0
 -1         1 1.73760E-01
 -1         2 5.87012E-01
 -1         3 1.11100E+00
 -1         4 1.73154E+00
 -1         5 2.45814E+00
 -1         6 3.30862E+00
 -1         7 1.11972E+01
 -1         8 2.68775E+01
 -1         9 2.69830E+01
 -1        10 2.69913E+01
 -1        11 2.70371E+01
 -1        12 2.70371E+01
 -1        13 2.70462E+01
 -1        14 2.70462E+01
 -1        15 2.70176E+01
 -1        16 2.70267E+01
 -1        17 2.70267E+01
 -1        18 2.70392E+01
 -1        19 2.70392E+01
 -1        20 2.70225E+01
 -1        21 2.70225E+01
 -1        22 2.70086E+01
 -1        23 2.70176E+01
 -1        24 2.70176E+01
 -1        25 2.70186E+01
 -1        26 2.70186E+01
 -1        27 2.70128E+01
 -1        28 2.70128E+01
 -1        29 2.70148E+01
 -1        30 2.70148E+01
 -1        31 2.70092E+01
 -1        32 2.70092E+01
 -1        33 2.70083E+01
 -1        34 2.70120E+01
 -1        35 2.70120E+01
 -1        36 2.70082E+01
 -1        37 2.70125E+01
 -1        38 2.70125E+01
 -1        39 2.70222E+01
 -1        40 2.70222E+01
 -1        41 2.70169E+01
 -1        42 2.70169E+01
 -1        43 2.70144E+01
 -1        44 2.70144E+01
 -1        45 2.70154E+01
 -1        46 2.70154E+01
 -1        47 2.70069E+01
 -1        48 2.70104E+01
 -1        49 2.70104E+01
 -1        50 2.70192E+01
 -1        51 2.70192E+01
 -1        52 2.70063E+01
 -1        53 2.70104E+01
 -1        54 2.70104E+01
 -1        55 2.70190E+01
 -1        56 2.70190E+01
 -1        57 2.70162E+01
 -1        58 2.70162E+01
 -1        59 2.70150E+01
 -1        60 2.70150E+01
 -1        61 2.70158E+01
 -1        62 2.70158E+01
 -1        63 2.69999E+01
 -1        64 2.69999E+01
 -1        65 2.69873E+01
 -1        66 2.69650E+01
 -1        67 2.70375E+01
 -1        68 2.70375E+01
 -1        69 2.69970E+01
 -1        70 2.69970E+01
 -1        71 2.70154E+01
 -1        72 2.70154E+01
 -1        73 2.70094E+01
 -1        74 2.70094E+01
 -1        75 2.70089E+01
 -1        76 2.70173E+01
 -1        77 2.70173E+01
 -1        78 2.70190E+01
 -1        79 2.70190E+01
 -1        80 2.70168E+01
 -1        81 2.70168E+01
 -1        82 2.70198E+01
 -1        83 2.70198E+01
 -1        84 2.70114E+01
 -1        85 2.70114E+01
 -1        86 2.70085E+01
 -1        87 2.70167E+01
 -1        88 2.70167E+01
 -1        89 2.70126E+01
 -1        90 2.70126E+01
 -1        91 2.70051E+01
 -1        92 2.70146E+01
 -1        93 2.70146E+01
 -1        94 2.70042E+01
 -1        95 2.70132E+01
 -1        96 2.70132E+01
 -1        97 2.70170E+01
 -1        98 2.70170E+01
 -1        99 2.70093E+01
 -1       100 2.70093E+01
 -1       101 2.70070E+01
 -1       102 2.70070E+01
 -1       103 2.70096E+01
 -1       104 2.70096E+01
 -1       105 2.70050E+01
 -1       106 2.70153E+01
 -1       107 2.70153E+01
 -1       108 2.70146E+01
 -1       109 2.70146E+01
 -1       110 2.70044E+01
 -1       111 2.70044E+01
 -1       112 2.70042E+01
 -1       113 2.70101E+01
 -1       114 2.70101E+01
 -1       115 2.70018E+01
 -1       116 2.70018E+01
 -1       117 2.69853E+01
 -1       118 2.69826E+01
 -1       119 2.69655E+01
 -1       120 2.69030E+01
 -1       121 2.70447E+01
 -1       122 2.70447E+01
 -1       123 2.70049E+01
 -1       124 2.70177E+01
 -1       125 2.70177E+01
 -1       126 2.70089E+01
 -1       127 2.70164E+01
 -1       128 2.70164E+01
 -1       129 2.70201E+01
 -1       130 2.70201E+01
 -1       131 2.70117E+01
 -1       132 2.70117E+01
 -1       133 2.70100E+01
 -1       134 2.70193E+01
 -1       135 2.70193E+01
 -1       136 2.70198E+01
 -1       137 2.70198E+01
 -1       138 2.70203E+01
 -1       139 2.70203E+01
 -1       140 2.70228E+01
 -1       141 2.70228E+01
 -1       142 2.70138E+01
 -1       143 2.70138E+01
 -1       144 2.70064E+01
 -1       145 2.70157E+01
 -1       146 2.70157E+01
 -1       147 2.70164E+01
 -1       148 2.70164E+01
 -1       149 2.70058E+01
 -1       150 2.70114E+01
 -1       151 2.70114E+01
 -1       152 2.70078E+01
 -1       153 2.70078E+01
 -1       154 2.70061E+01
 -1       155 2.70103E+01
 -1       156 2.70103E+01
 -1       157 2.70052E+01
 -1       158 2.70052E+01
 -1       159 2.70062E+01
 -1       160 2.70062E+01
 -1       161 2.70156E+01
 -1       162 2.70156E+01
 -1       163 2.70062E+01
 -1       164 2.70062E+01
 -1       165 2.69990E+01
 -1       166 2.70016E+01
 -1       167 2.70016E+01
 -1       168 2.69947E+01
 -1       169 2.69938E+01
 -1       170 2.69938E+01
 -1       171 2.69812E+01
 -1       172 2.69812E+01
 -1       173 2.69200E+01
 -1       174 1.09841E+02
 -1       175 1.09841E+02
 -1       176 2.70343E+01
 -1       177 2.70343E+01
 -1       178 2.70237E+01
 -1       179 2.70237E+01
 -1       180 2.70187E+01
 -1       181 2.70187E+01
 -1       182 2.70182E+01
 -1       183 2.70182E+01
 -1       184 2.70112E+01
 -1       185 2.70159E+01
 -1       186 2.70159E+01
 -1       187 2.70181E+01
 -1       188 2.70181E+01
 -1       189 2.70122E+01
 -1       190 2.70130E+01
 -1       191 2.70130E+01
 -1       192 2.70211E+01
 -1       193 2.70211E+01
 -1       194 2.70134E+01
 -1       195 2.70134E+01
 -1       196 2.70068E+01
 -1       197 2.70151E+01
 -1       198 2.70151E+01
 -1       199 2.70135E+01
 -1       200 2.70135E+01
 -1       201 2.70158E+01
 -1       202 2.70158E+01
 -1       203 2.70231E+01
 -1       204 2.70231E+01
 -1       205 2.70093E+01
 -1       206 2.70093E+01
 -1       207 2.70046E+01
 -1       208 2.70129E+01
 -1       209 2.70129E+01
 -1       210 2.70079E+01
 -1       211 2.70079E+01
 -1       212 2.70007E+01
 -1       213 2.70007E+01
 -1       214 2.70007E+01
 -1       215 2.69970E+01
 -1       216 2.69998E+01
 -1       217 2.69998E+01
 -1       218 2.69857E+01
 -1       219 2.69857E+01
 -1       220 2.69760E+01
 -1       221 2.69339E+01
 -1       222 2.69298E+01
 -1       223 2.92821E+01
 -1       224 2.92821E+01
 -1       225 2.71250E+01
 -1       226 2.71182E+01
 -1       227 2.71182E+01
 -1       228 2.71149E+01
 -1       229 2.71149E+01
 -1       230 2.71380E+01
 -1       231 2.71380E+01
 -1       232 2.71698E+01
 -1       233 2.71698E+01
 -1       234 2.72212E+01
 -1       235 2.72212E+01
 -1       236 2.72567E+01
 -1       237 2.72567E+01
 -1       238 2.69204E+01
 -1       239 2.82489E+01
 -1       240 2.82489E+01
 -1       241 2.16420E+01
 -1       242 1.73760E-01
 -1       243 5.87012E-01
 -1       244 1.11100E+00
 -1       245 1.73154E+00
 -1       246 2.45814E+00
 -1       247 3.30862E+00
 -1       248 1.11972E+01
 -1       249 2.68775E+01
 -1       250 2.69830E+01
 -1       251 2.69913E+01
 -1       252 2.70371E+01
 -1       253 2.70371E+01
 -1       254 2.70462E+01
 -1       255 2.70462E+01
 -1       256 2.70176E+01
 -1       257 2.70267E+01
 -1       258 2.70267E+01
 -1       259 2.70392E+01
 -1       260 2.70392E+01
 -1       261 2.70225E+01
 -1       262 2.70225E+01
 -1       263 2.70086E+01
 -1       264 2.70176E+01
 -1       265 2.70176E+01
 -1       266 2.70186E+01
 -1       267 2.70186E+01
 -1       268 2.70128E+01
 -1       269 2.70128E+01
 -1       270 2.70148E+01
 -1       271 2.70148E+01
 -1       272 2.70092E+01
 -1       273 2.70092E+01
 -1       274 2.70083E+01
 -1       275 2.70120E+01
 -1       276 2.70120E+01
 -1       277 2.70082E+01
 -1       278 2.70125E+01
 -1       279 2.70125E+01
 -1       280 2.70222E+01
 -1       281 2.70222E+01
 -1       282 2.70169E+01
 -1       283 2.70169E+01
 -1       284 2.70144E+01
 -1       285 2.70144E+01
 -1       286 2.70154E+01
 -1       287 2.70154E+01
 -1       288 2.70069E+01
 -1       289 2.70104E+01
 -1       290 2.70104E+01
 -1       291 2.70192E+01
 -1       292 2.70192E+01
 -1       293 2.70063E+01
 -1       294 2.70104E+01
 -1       295 2.70104E+01
 -1       296 2.70190E+01
 -1       297 2.70190E+01
 -1       298 2.70162E+01
 -1       299 2.70162E+01
 -1       300 2.70150E+01
 -1       301 2.70150E+01
 -1       302 2.70158E+01
 -1       303 2.70158E+01
 -1       304 2.69999E+01
 -1       305 2.69999E+01
 -1       306 2.69873E+01
 -1       307 2.69650E+01
 -1       308 2.70375E+01
 -1       309 2.70375E+01
 -1       310 2.69970E+01
 -1       311 2.69970E+01
 -1       312 2.70154E+01
 -1       313 2.70154E+01
 -1       314 2.70094E+01
 -1       315 2.70094E+01
 -1       316 2.70089E+01
 -1       317 2.70173E+01
 -1       318 2.70173E+01
 -1       319 2.70190E+01
 -1       320 2.70190E+01
 -1       321 2.70168E+01
 -1       322 2.70168E+01
 -1       323 2.70198E+01
 -1       324 2.70198E+01
 -1       325 2.70114E+01
 -1       326 2.70114E+01
 -1       327 2.70085E+01
 -1       328 2.70167E+01
 -1       329 2.70167E+01
 -1       330 2.70126E+01
 -1       331 2.70126E+01
 -1       332 2.70051E+01
 -1       333 2.70146E+01
 -1       334 2.70146E+01
 -1       335 2.70042E+01
 -1       336 2.70132E+01
 -1       337 2.70132E+01
 -1       338 2.70170E+01
 -1       339 2.70170E+01
 -1       340 2.70093E+01
 -1       341 2.70093E+01
 -1       342 2.70070E+01
 -1       343 2.70070E+01
 -1       344 2.70096E+01
 -1       345 2.70096E+01
 -1       346 2.70050E+01
 -1       347 2.70153E+01
 -1       348 2.70153E+01
 -1       349 2.70146E+01
 -1       350 2.70146E+01
 -1       351 2.70044E+01
 -1       352 2.70044E+01
 -1       353 2.70042E+01
 -1       354 2.70101E+01
 -1       355 2.70101E+01
 -1       356 2.70018E+01
 -1       357 2.70018E+01
 -1       358 2.69853E+01
 -1       359 2.69826E+01
 -1       360 2.69655E+01
 -1       361 2.69030E+01
 -1       362 2.70447E+01
 -1       363 2.70447E+01
 -1       364 2.70049E+01
 -1       365 2.70177E+01
 -1       366 2.70177E+01
 -1       367 2.70089E+01
 -1       368 2.70164E+01
 -1       369 2.70164E+01
 -1       370 2.70201E+01
 -1       371 2.70201E+01
 -1       372 2.70117E+01
 -1       373 2.70117E+01
 -1       374 2.70100E+01
 -1       375 2.70193E+01
 -1       376 2.70193E+01
 -1       377 2.70198E+01
 -1       378 2.70198E+01
 -1       379 2.70203E+01
 -1       380 2.70203E+01
 -1       381 2.70228E+01
 -1       382 2.70228E+01
 -1       383 2.70138E+01
 -1       384 2.70138E+01
 -1       385 2.70064E+01
 -1       386 2.70157E+01
 -1       387 2.70157E+01
 -1       388 2.70164E+01
 -1       389 2.70164E+01
 -1       390 2.70058E+01
 -1       391 2.70114E+01
 -1       392 2.70114E+01
 -1       393 2.70078E+01
 -1       394 2.70078E+01
 -1       395 2.70061E+01
 -1       396 2.70103E+01
 -1       397 2.70103E+01
 -1       398 2.70052E+01
 -1       399 2.70052E+01
 -1       400 2.70062E+01
 -1       401 2.70062E+01
 -1       402 2.70156E+01
 -1       403 2.70156E+01
 -1       404 2.70062E+01
 -1       405 2.70062E+01
 -1       406 2.69990E+01
 -1       407 2.70016E+01
 -1       408 2.70016E+01
 -1       409 2.69947E+01
 -1       410 2.69938E+01
 -1       411 2.69938E+01
 -1       412 2.69812E+01
 -1       413 2.69812E+01
 -1       414 2.69200E+01
 -1       415 1.09841E+02
 -1       416 1.09841E+02
 -1       417 2.70343E+01
 -1       418 2.70343E+01
 -1       419 2.70237E+01
 -1       420 2.70237E+01
 -1       421 2.70187E+01
 -1       422 2.70187E+01
 -1       423 2.70182E+01
 -1       424 2.70182E+01
 -1       425 2.70112E+01
 -1       426 2.70159E+01
 -1       427 2.70159E+01
 -1       428 2.70181E+01
 -1       429 2.70181E+01
 -1       430 2.70122E+01
 -1       431 2.70130E+01
 -1       432 2.70130E+01
 -1       433 2.70211E+01
 -1       434 2.70211E+01
 -1       435 2.70134E+01
 -1       436 2.70134E+01
 -1       437 2.70068E+01
 -1       438 2.70151E+01
 -1       439 2.70151E+01
 -1       440 2.70135E+01
 -1       441 2.70135E+01
 -1       442 2.70158E+01
 -1       443 2.70158E+01
 -1       444 2.70231E+01
 -1       445 2.70231E+01
 -1       446 2.70093E+01
 -1       447 2.70093E+01
 -1       448 2.70046E+01
 -1       449 2.70129E+01
 -1       450 2.70129E+01
 -1       451 2.70079E+01
 -1       452 2.70079E+01
 -1       453 2.70007E+01
 -1       454 2.70007E+01
 -1       455 2.70007E+01
 -1       456 2.69970E+01
 -1       457 2.69998E+01
 -1       458 2.69998E+01
 -1       459 2.69857E+01
 -1       460 2.69857E+01
 -1       461 2.69760E+01
 -1       462 2.69339E+01
 -1       463 2.69298E+01
 -1       464 2.92821E+01
 -1       465 2.92821E+01
 -1       466 2.71250E+01
 -1       467 2.71182E+01
 -1       468 2.71182E+01
 -1       469 2.71149E+01
 -1       470 2.71149E+01
 -1       471 2.71380E+01
 -1       472 2.71380E+01
 -1       473 2.71698E+01
 -1       474 2.71698E+01
 -1       475 2.72212E+01
 -1       476 2.72212E+01
 -1       477 2.72567E+01
 -1       478 2.72567E+01
 -1       479 2.69204E+01
 -1       480 2.82489E+01
 -1       481 2.82489E+01
 -1       482 2.16420E+01
 -1       483 1.73760E-01
 -1       484 5.87012E-01
 -1       485 1.11100E+00
 -1       486 1.73154E+00
 -1       487 2.45814E+00
 -1       488 3.30862E+00
 -1       489 1.11972E+01
 -1       490 2.68775E+01
 -1       491 2.69830E+01
 -1       492 3.86840E+01
 -1       493 5.86467E+01
 -1       494 7.36017E+01
 -1       495 8.18761E+01
 -1       496 8.36570E+01
 -1       497 8.38214E+01
 -1       498 8.38214E+01
 -1       499 8.40611E+01
 -1       500 8.40611E+01
 -1       501 8.40079E+01
 -1       502 8.40617E+01
 -1       503 8.40617E+01
 -1       504 8.41383E+01
 -1       505 8.41383E+01
 -1       506 8.40716E+01
 -1       507 8.40716E+01
 -1       508 8.40586E+01
 -1       509 8.40950E+01
 -1       510 8.40950E+01
 -1       511 8.40778E+01
 -1       512 8.40847E+01
 -1       513 8.41160E+01
 -1       514 8.41160E+01
 -1       515 8.41070E+01
 -1       516 8.41070E+01
 -1       517 8.41040E+01
 -1       518 8.41102E+01
 -1       519 8.41102E+01
 -1       520 8.41610E+01
 -1       521 8.41610E+01
 -1       522 8.41420E+01
 -1       523 8.41420E+01
 -1       524 8.41374E+01
 -1       525 8.41374E+01
 -1       526 8.41068E+01
 -1       527 8.41068E+01
 -1       528 8.40920E+01
 -1       529 8.40945E+01
 -1       530 8.40945E+01
 -1       531 8.41249E+01
 -1       532 8.41249E+01
 -1       533 8.40592E+01
 -1       534 8.40592E+01
 -1       535 8.40500E+01
 -1       536 8.40221E+01
 -1       537 8.40221E+01
 -1       538 8.39797E+01
 -1       539 8.39797E+01
 -1       540 8.38374E+01
 -1       541 8.38342E+01
 -1       542 8.37042E+01
 -1       543 8.36725E+01
 -1       544 8.34155E+01
 -1       545 8.32512E+01
 -1       546 8.28872E+01
 -1       547 8.21786E+01
 -1       548 8.09262E+01
 -1       549 7.71921E+01
 -1       550 6.30628E+01
 -1       551 7.64910E+01
 -1       552 8.03538E+01
 -1       553 8.17598E+01
 -1       554 8.26375E+01
 -1       555 8.30308E+01
 -1       556 8.33764E+01
 -1       557 8.35479E+01
 -1       558 8.36586E+01
 -1       559 8.37683E+01
 -1       560 8.38655E+01
 -1       561 8.38961E+01
 -1       562 8.39140E+01
 -1       563 8.40334E+01
 -1       564 8.40334E+01
 -1       565 8.40620E+01
 -1       566 8.40620E+01
 -1       567 8.40807E+01
 -1       568 8.40807E+01
 -1       569 8.40799E+01
 -1       570 8.41400E+01
 -1       571 8.41400E+01
 -1       572 8.41048E+01
 -1       573 8.41048E+01
 -1       574 8.41019E+01
 -1       575 8.41055E+01
 -1       576 8.41119E+01
 -1       577 8.41119E+01
 -1       578 8.41559E+01
 -1       579 8.41559E+01
 -1       580 8.41055E+01
 -1       581 8.41129E+01
 -1       582 8.41129E+01
 -1       583 8.40831E+01
 -1       584 8.40831E+01
 -1       585 8.40647E+01
 -1       586 8.40538E+01
 -1       587 8.40367E+01
 -1       588 8.40313E+01
 -1       589 8.40260E+01
 -1       590 8.40260E+01
 -1       591 8.39079E+01
 -1       592 8.39079E+01
 -1       593 8.38649E+01
 -1       594 8.37388E+01
 -1       595 8.37111E+01
 -1       596 8.34886E+01
 -1       597 8.34242E+01
 -1       598 8.30470E+01
 -1       599 8.26462E+01
 -1       600 8.19317E+01
 -1       601 8.03006E+01
 -1       602 7.65826E+01
 -1       603 6.46138E+01
 -1       604 7.75834E+01
 -1       605 8.08655E+01
 -1       606 8.20339E+01
 -1       607 8.28189E+01
 -1       608 8.31569E+01
 -1       609 8.33798E+01
 -1       610 8.36448E+01
 -1       611 8.36450E+01
 -1       612 8.38267E+01
 -1       613 8.38267E+01
 -1       614 8.39330E+01
 -1       615 8.39563E+01
 -1       616 8.39563E+01
 -1       617 8.40553E+01
 -1       618 8.40553E+01
 -1       619 8.40623E+01
 -1       620 8.40623E+01
 -1       621 8.41270E+01
 -1       622 8.41270E+01
 -1       623 8.41229E+01
 -1       624 8.41229E+01
 -1       625 8.41202E+01
 -1       626 8.41202E+01
 -1       627 8.41095E+01
 -1       628 8.41585E+01
 -1       629 8.41585E+01
 -1       630 8.41166E+01
 -1       631 8.41166E+01
 -1       632 8.41000E+01
 -1       633 8.41070E+01
 -1       634 8.41070E+01
 -1       635 8.41124E+01
 -1       636 8.41124E+01
 -1       637 8.40797E+01
 -1       638 8.40620E+01
 -1       639 8.40725E+01
 -1       640 8.40725E+01
 -1       641 8.40192E+01
 -1       642 8.40192E+01
 -1       643 8.39931E+01
 -1       644 8.39573E+01
 -1       645 8.39367E+01
 -1       646 8.38658E+01
 -1       647 8.38540E+01
 -1       648 8.37506E+01
 -1       649 8.36408E+01
 -1       650 8.35334E+01
 -1       651 8.33600E+01
 -1       652 8.30273E+01
 -1       653 8.25997E+01
 -1       654 8.17441E+01
 -1       655 7.99087E+01
 -1       656 1.09841E+02
 -1       657 1.09841E+02
 -1       658 7.79749E+01
 -1       659 8.07323E+01
 -1       660 8.19106E+01
 -1       661 8.26772E+01
 -1       662 8.30403E+01
 -1       663 8.33412E+01
 -1       664 8.35174E+01
 -1       665 8.36521E+01
 -1       666 8.37650E+01
 -1       667 8.37924E+01
 -1       668 8.39424E+01
 -1       669 8.39424E+01
 -1       670 8.39730E+01
 -1       671 8.40204E+01
 -1       672 8.40204E+01
 -1       673 8.40795E+01
 -1       674 8.40795E+01
 -1       675 8.41252E+01
 -1       676 8.41252E+01
 -1       677 8.40973E+01
 -1       678 8.40973E+01
 -1       679 8.40957E+01
 -1       680 8.41118E+01
 -1       681 8.41118E+01
 -1       682 8.41395E+01
 -1       683 8.41395E+01
 -1       684 8.41335E+01
 -1       685 8.41335E+01
 -1       686 8.41262E+01
 -1       687 8.41262E+01
 -1       688 8.40267E+01
 -1       689 8.40168E+01
 -1       690 8.40168E+01
 -1       691 8.38126E+01
 -1       692 8.37715E+01
 -1       693 8.34071E+01
 -1       694 8.29811E+01
 -1       695 8.21255E+01
 -1       696 8.10666E+01
 -1       697 7.97019E+01
 -1       698 7.77963E+01
 -1       699 7.52083E+01
 -1       700 7.18097E+01
 -1       701 6.67770E+01
 -1       702 5.90348E+01
 -1       703 4.57613E+01
 -1       704 2.69298E+01
 -1       705 2.92821E+01
 -1       706 2.92821E+01
 -1       707 6.08556E+01
 -1       708 7.79230E+01
 -1       709 8.21046E+01
 -1       710 8.32605E+01
 -1       711 8.34604E+01
 -1       712 8.37792E+01
 -1       713 8.37792E+01
 -1       714 8.39324E+01
 -1       715 8.39324E+01
 -1       716 8.40237E+01
 -1       717 8.40237E+01
 -1       718 8.41094E+01
 -1       719 8.41094E+01
 -1       720 8.40580E+01
 -1       721 8.65848E+01
 -1       722 8.65848E+01
 -1       723 7.43940E+01
 -1       724 1.73760E-01
 -1       725 5.87012E-01
 -1       726 1.11100E+00
 -1       727 1.73154E+00
 -1       728 2.45814E+00
 -1       729 3.30862E+00
 -1       730 1.11972E+01
 -1       731 2.68775E+01
 -1       732 2.69830E+01
 -1       733 3.86840E+01
 -1       734 5.86467E+01
 -1       735 7.36017E+01
 -1       736 8.18761E+01
 -1       737 8.36570E+01
 -1       738 8.38214E+01
 -1       739 8.38214E+01
 -1       740 8.40611E+01
 -1       741 8.40611E+01
 -1       742 8.40079E+01
 -1       743 8.40617E+01
 -1       744 8.40617E+01
 -1       745 8.41383E+01
 -1       746 8.41383E+01
 -1       747 8.40716E+01
 -1       748 8.40716E+01
 -1       749 8.40586E+01
 -1       750 8.40950E+01
 -1       751 8.40950E+01
 -1       752 8.40778E+01
 -1       753 8.40847E+01
 -1       754 8.41160E+01
 -1       755 8.41160E+01
 -1       756 8.41070E+01
 -1       757 8.41070E+01
 -1       758 8.41040E+01
 -1       759 8.41102E+01
 -1       760 8.41102E+01
 -1       761 8.41610E+01
 -1       762 8.41610E+01
 -1       763 8.41420E+01
 -1       764 8.41420E+01
 -1       765 8.41374E+01
 -1       766 8.41374E+01
 -1       767 8.41068E+01
 -1       768 8.41068E+01
 -1       769 8.40920E+01
 -1       770 8.40945E+01
 -1       771 8.40945E+01
 -1       772 8.41249E+01
 -1       773 8.41249E+01
 -1       774 8.40592E+01
 -1       775 8.40592E+01
 -1       776 8.40500E+01
 -1       777 8.40221E+01
 -1       778 8.40221E+01
 -1       779 8.39797E+01
 -1       780 8.39797E+01
 -1       781 8.38374E+01
 -1       782 8.38342E+01
 -1       783 8.37042E+01
 -1       784 8.36725E+01
 -1       785 8.34155E+01
 -1       786 8.32512E+01
 -1       787 8.28872E+01
 -1       788 8.21786E+01
 -1       789 8.09262E+01
 -1       790 7.71921E+01
 -1       791 6.30628E+01
 -1       792 7.64910E+01
 -1       793 8.03538E+01
 -1       794 8.17598E+01
 -1       795 8.26375E+01
 -1       796 8.30308E+01
 -1       797 8.33764E+01
 -1       798 8.35479E+01
 -1       799 8.36586E+01
 -1       800 8.37683E+01
 -1       801 8.38655E+01
 -1       802 8.38961E+01
 -1       803 8.39140E+01
 -1       804 8.40334E+01
 -1       805 8.40334E+01
 -1       806 8.40620E+01
 -1       807 8.40620E+01
 -1       808 8.40807E+01
 -1       809 8.40807E+01
 -1       810 8.40799E+01
 -1       811 8.41400E+01
 -1       812 8.41400E+01
 -1       813 8.41048E+01
 -1       814 8.41048E+01
 -1       815 8.41019E+01
 -1       816 8.41055E+01
 -1       817 8.41119E+01
 -1       818 8.41119E+01
 -1       819 8.41559E+01
 -1       820 8.41559E+01
 -1       821 8.41055E+01
 -1       822 8.41129E+01
 -1       823 8.41129E+01
 -1       824 8.40831E+01
 -1       825 8.40831E+01
 -1       826 8.40647E+01
 -1       827 8.40538E+01
 -1       828 8.40367E+01
 -1       829 8.40313E+01
 -1       830 8.40260E+01
 -1       831 8.40260E+01
 -1       832 8.39079E+01
 -1       833 8.39079E+01
 -1       834 8.38649E+01
 -1       835 8.37388E+01
 -1       836 8.37111E+01
 -1       837 8.34886E+01
 -1       838 8.34242E+01
 -1       839 8.30470E+01
 -1       840 8.26462E+01
 -1       841 8.19317E+01
 -1       842 8.03006E+01
 -1       843 7.65826E+01
 -1       844 6.46138E+01
 -1       845 7.75834E+01
 -1       846 8.08655E+01
 -1       847 8.20339E+01
 -1       848 8.28189E+01
 -1       849 8.31569E+01
 -1       850 8.33798E+01
 -1       851 8.36448E+01
 -1       852 8.36450E+01
 -1       853 8.38267E+01
 -1       854 8.38267E+01
 -1       855 8.39330E+01
 -1       856 8.39563E+01
 -1       857 8.39563E+01
 -1       858 8.40553E+01
 -1       859 8.40553E+01
 -1       860 8.40623E+01
 -1       861 8.40623E+01
 -1       862 8.41270E+01
 -1       863 8.41270E+01
 -1       864 8.41229E+01
 -1       865 8.41229E+01
 -1       866 8.41202E+01
 -1       867 8.41202E+01
 -1       868 8.41095E+01
 -1       869 8.41585E+01
 -1       870 8.41585E+01
 -1       871 8.41166E+01
 -1       872 8.41166E+01
 -1       873 8.41000E+01
 -1       874 8.41070E+01
 -1       875 8.41070E+01
 -1       876 8.41124E+01
 -1       877 8.41124E+01
 -1       878 8.40797E+01
 -1       879 8.40620E+01
 -1       880 8.40725E+01
 -1       881 8.40725E+01
 -1       882 8.40192E+01
 -1       883 8.40192E+01
 -1       884 8.39931E+01
 -1       885 8.39573E+01
 -1       886 8.39367E+01
 -1       887 8.38658E+01
 -1       888 8.38540E+01
 -1       889 8.37506E+01
 -1       890 8.36408E+01
 -1       891 8.35334E+01
 -1       892 8.33600E+01
 -1       893 8.30273E+01
 -1       894 8.25997E+01
 -1       895 8.17441E+01
 -1       896 7.99087E+01
 -1       897 1.09841E+02
 -1       898 1.09841E+02
 -1       899 7.79749E+01
 -1       900 8.07323E+01
 -1       901 8.19106E+01
 -1       902 8.26772E+01
 -1       903 8.30403E+01
 -1       904 8.33412E+01
 -1       905 8.35174E+01
 -1       906 8.36521E+01
 -1       907 8.37650E+01
 -1       908 8.37924E+01
 -1       909 8.39424E+01
 -1       910 8.39424E+01
 -1       911 8.39730E+01
 -1       912 8.40204E+01
 -1       913 8.40204E+01
 -1       914 8.40795E+01
 -1       915 8.40795E+01
 -1       916 8.41252E+01
 -1       917 8.41252E+01
 -1       918 8.40973E+01
 -1       919 8.40973E+01
 -1       920 8.40957E+01
 -1       921 8.41118E+01
 -1       922 8.41118E+01
 -1       923 8.41395E+01
 -1       924 8.41395E+01
 -1       925 8.41335E+01
 -1       926 8.41335E+01
 -1       927 8.41262E+01
 -1       928 8.41262E+01
 -1       929 8.40267E+01
 -1       930 8.40168E+01
 -1       931 8.40168E+01
 -1       932 8.38126E+01
 -1       933 8.37715E+01
 -1       934 8.34071E+01
 -1       935 8.29811E+01
 -1       936 8.21255E+01
 -1       937 8.10666E+01
 -1       938 7.97019E+01
 -1       939 7.77963E+01
 -1       940 7.52083E+01
 -1       941 7.18097E+01
 -1       942 6.67770E+01
 -1       943 5.90348E+01
 -1       944 4.57613E+01
 -1       945 2.69298E+01
 -1       946 2.92821E+01
 -1       947 2.92821E+01
 -1       948 6.08556E+01
 -1       949 7.79230E+01
 -1       950 8.21046E+01
 -1       951 8.32605E+01
 -1       952 8.34604E+01
 -1       953 8.37792E+01
 -1       954 8.37792E+01
 -1       955 8.39324E+01
 -1       956 8.39324E+01
 -1       957 8.40237E+01
 -1       958 8.40237E+01
 -1       959 8.41094E+01
 -1       960 8.41094E+01
 -1       961 8.40580E+01
 -1       962 8.65848E+01
 -1       963 8.65848E+01
 -1       964 7.43940E+01
 -1       965 7.09346E-02
 -1       966 2.79513E-01
 -1       967 5.95450E-01
 -1       968 1.04633E+00
 -1       969 1.64904E+00
 -1       970 2.35703E+00
 -1       971 3.36787E+00
 -1       972 4.48275E+00
 -1       973 1.24312E+01
 -1       974 3.86840E+01
 -1       975 5.86467E+01
 -1       976 7.36017E+01
 -1       977 8.18874E+01
 -1       978 8.36765E+01
 -1       979 8.38416E+01
 -1       980 8.38416E+01
 -1       981 8.40817E+01
 -1       982 8.40817E+01
 -1       983 8.40285E+01
 -1       984 8.40824E+01
 -1       985 8.40824E+01
 -1       986 8.41590E+01
 -1       987 8.41590E+01
 -1       988 8.40922E+01
 -1       989 8.40922E+01
 -1       990 8.40793E+01
 -1       991 8.41157E+01
 -1       992 8.41157E+01
 -1       993 8.40985E+01
 -1       994 8.41054E+01
 -1       995 8.41367E+01
 -1       996 8.41367E+01
 -1       997 8.41277E+01
 -1       998 8.41277E+01
 -1       999 8.41247E+01
 -1      1000 8.41309E+01
 -1      1001 8.41309E+01
 -1      1002 8.41817E+01
 -1      1003 8.41817E+01
 -1      1004 8.41627E+01
 -1      1005 8.41627E+01
 -1      1006 8.41581E+01
 -1      1007 8.41581E+01
 -1      1008 8.41275E+01
 -1      1009 8.41275E+01
 -1      1010 8.41127E+01
 -1      1011 8.41151E+01
 -1      1012 8.41151E+01
 -1      1013 8.41455E+01
 -1      1014 8.41455E+01
 -1      1015 8.40798E+01
 -1      1016 8.40798E+01
 -1      1017 8.40705E+01
 -1      1018 8.40425E+01
 -1      1019 8.40425E+01
 -1      1020 8.40000E+01
 -1      1021 8.40000E+01
 -1      1022 8.38576E+01
 -1      1023 8.38543E+01
 -1      1024 8.37242E+01
 -1      1025 8.36922E+01
 -1      1026 8.34350E+01
 -1      1027 8.32703E+01
 -1      1028 8.29059E+01
 -1      1029 8.21965E+01
 -1      1030 8.09429E+01
 -1      1031 7.72063E+01
 -1      1032 6.30670E+01
 -1      1033 7.65019E+01
 -1      1034 8.03680E+01
 -1      1035 8.17758E+01
 -1      1036 8.26548E+01
 -1      1037 8.30489E+01
 -1      1038 8.33952E+01
 -1      1039 8.35671E+01
 -1      1040 8.36781E+01
 -1      1041 8.37881E+01
 -1      1042 8.38854E+01
 -1      1043 8.39162E+01
 -1      1044 8.39342E+01
 -1      1045 8.40537E+01
 -1      1046 8.40537E+01
 -1      1047 8.40825E+01
 -1      1048 8.40825E+01
 -1      1049 8.41013E+01
 -1      1050 8.41013E+01
 -1      1051 8.41005E+01
 -1      1052 8.41607E+01
 -1      1053 8.41607E+01
 -1      1054 8.41255E+01
 -1      1055 8.41255E+01
 -1      1056 8.41226E+01
 -1      1057 8.41262E+01
 -1      1058 8.41326E+01
 -1      1059 8.41326E+01
 -1      1060 8.41766E+01
 -1      1061 8.41766E+01
 -1      1062 8.41261E+01
 -1      1063 8.41336E+01
 -1      1064 8.41336E+01
 -1      1065 8.41038E+01
 -1      1066 8.41038E+01
 -1      1067 8.40852E+01
 -1      1068 8.40745E+01
 -1      1069 8.40572E+01
 -1      1070 8.40518E+01
 -1      1071 8.40465E+01
 -1      1072 8.40465E+01
 -1      1073 8.39283E+01
 -1      1074 8.39283E+01
 -1      1075 8.38846E+01
 -1      1076 8.37590E+01
 -1      1077 8.37301E+01
 -1      1078 8.35088E+01
 -1      1079 8.34420E+01
 -1      1080 8.30669E+01
 -1      1081 8.26621E+01
 -1      1082 8.19465E+01
 -1      1083 8.03194E+01
 -1      1084 7.65947E+01
 -1      1085 6.46358E+01
 -1      1086 7.75953E+01
 -1      1087 8.08847E+01
 -1      1088 8.20509E+01
 -1      1089 8.28384E+01
 -1      1090 8.31756E+01
 -1      1091 8.33997E+01
 -1      1092 8.36644E+01
 -1      1093 8.36651E+01
 -1      1094 8.38467E+01
 -1      1095 8.38467E+01
 -1      1096 8.39532E+01
 -1      1097 8.39767E+01
 -1      1098 8.39767E+01
 -1      1099 8.40759E+01
 -1      1100 8.40759E+01
 -1      1101 8.40829E+01
 -1      1102 8.40829E+01
 -1      1103 8.41476E+01
 -1      1104 8.41476E+01
 -1      1105 8.41436E+01
 -1      1106 8.41436E+01
 -1      1107 8.41410E+01
 -1      1108 8.41410E+01
 -1      1109 8.41302E+01
 -1      1110 8.41792E+01
 -1      1111 8.41792E+01
 -1      1112 8.41373E+01
 -1      1113 8.41373E+01
 -1      1114 8.41208E+01
 -1      1115 8.41277E+01
 -1      1116 8.41277E+01
 -1      1117 8.41331E+01
 -1      1118 8.41331E+01
 -1      1119 8.41003E+01
 -1      1120 8.40826E+01
 -1      1121 8.40931E+01
 -1      1122 8.40931E+01
 -1      1123 8.40398E+01
 -1      1124 8.40398E+01
 -1      1125 8.40136E+01
 -1      1126 8.39777E+01
 -1      1127 8.39570E+01
 -1      1128 8.38861E+01
 -1      1129 8.38742E+01
 -1      1130 8.37707E+01
 -1      1131 8.36608E+01
 -1      1132 8.35532E+01
 -1      1133 8.33796E+01
 -1      1134 8.30465E+01
 -1      1135 8.26186E+01
 -1      1136 8.17624E+01
 -1      1137 7.99261E+01
 -1      1138 7.38260E+01
 -1      1139 7.02451E+01
 -1      1140 7.79892E+01
 -1      1141 8.07482E+01
 -1      1142 8.19276E+01
 -1      1143 8.26951E+01
 -1      1144 8.30587E+01
 -1      1145 8.33602E+01
 -1      1146 8.35367E+01
 -1      1147 8.36717E+01
 -1      1148 8.37848E+01
 -1      1149 8.38124E+01
 -1      1150 8.39625E+01
 -1      1151 8.39625E+01
 -1      1152 8.39933E+01
 -1      1153 8.40408E+01
 -1      1154 8.40408E+01
 -1      1155 8.41000E+01
 -1      1156 8.41000E+01
 -1      1157 8.41458E+01
 -1      1158 8.41458E+01
 -1      1159 8.41180E+01
 -1      1160 8.41180E+01
 -1      1161 8.41164E+01
 -1      1162 8.41325E+01
 -1      1163 8.41325E+01
 -1      1164 8.41602E+01
 -1      1165 8.41602E+01
 -1      1166 8.41542E+01
 -1      1167 8.41542E+01
 -1      1168 8.41467E+01
 -1      1169 8.41467E+01
 -1      1170 8.40472E+01
 -1      1171 8.40365E+01
 -1      1172 8.40365E+01
 -1      1173 8.38315E+01
 -1      1174 8.37889E+01
 -1      1175 8.34214E+01
 -1      1176 8.29919E+01
 -1      1177 8.21330E+01
 -1      1178 8.10725E+01
 -1      1179 7.97067E+01
 -1      1180 7.78003E+01
 -1      1181 7.52118E+01
 -1      1182 7.18127E+01
 -1      1183 6.67794E+01
 -1      1184 5.90366E+01
 -1      1185 4.57621E+01
 -1      1186 2.19639E+01
 -1      1187 8.09591E+00
 -1      1188 2.26608E+01
 -1      1189 6.08586E+01
 -1      1190 7.79335E+01
 -1      1191 8.21226E+01
 -1      1192 8.32803E+01
 -1      1193 8.34805E+01
 -1      1194 8.37996E+01
 -1      1195 8.37996E+01
 -1      1196 8.39530E+01
 -1      1197 8.39530E+01
 -1      1198 8.40444E+01
 -1      1199 8.40444E+01
 -1      1200 8.41302E+01
 -1      1201 8.41302E+01
 -1      1202 8.40785E+01
 -1      1203 8.66056E+01
 -1      1204 8.66056E+01
 -1      1205 7.44138E+01
 -1      1206 7.09346E-02
 -1      1207 2.79513E-01
 -1      1208 5.95450E-01
 -1      1209 1.04633E+00
 -1      1210 1.64904E+00
 -1      1211 2.35703E+00
 -1      1212 3.36787E+00
 -1      1213 4.48275E+00
 -1      1214 1.24312E+01
 -1      1215 3.86840E+01
 -1      1216 5.86467E+01
 -1      1217 7.36017E+01
 -1      1218 8.18874E+01
 -1      1219 8.36765E+01
 -1      1220 8.38416E+01
 -1      1221 8.38416E+01
 -1      1222 8.40817E+01
 -1      1223 8.40817E+01
 -1      1224 8.40285E+01
 -1      1225 8.40824E+01
 -1      1226 8.40824E+01
 -1      1227 8.41590E+01
 -1      1228 8.41590E+01
 -1      1229 8.40922E+01
 -1      1230 8.40922E+01
 -1      1231 8.40793E+01
 -1      1232 8.41157E+01
 -1      1233 8.41157E+01
 -1      1234 8.40985E+01
 -1      1235 8.41054E+01
 -1      1236 8.41367E+01
 -1      1237 8.41367E+01
 -1      1238 8.41277E+01
 -1      1239 8.41277E+01
 -1      1240 8.41247E+01
 -1      1241 8.41309E+01
 -1      1242 8.41309E+01
 -1      1243 8.41817E+01
 -1      1244 8.41817E+01
 -1      1245 8.41627E+01
 -1      1246 8.41627E+01
 -1      1247 8.41581E+01
 -1      1248 8.41581E+01
 -1      1249 8.41275E+01
 -1      1250 8.41275E+01
 -1      1251 8.41127E+01
 -1      1252 8.41151E+01
 -1      1253 8.41151E+01
 -1      1254 8.41455E+01
 -1      1255 8.41455E+01
 -1      1256 8.40798E+01
 -1      1257 8.40798E+01
 -1      1258 8.40705E+01
 -1      1259 8.40425E+01
 -1      1260 8.40425E+01
 -1      1261 8.40000E+01
 -1      1262 8.40000E+01
 -1      1263 8.38576E+01
 -1      1264 8.38543E+01
 -1      1265 8.37242E+01
 -1      1266 8.36922E+01
 -1      1267 8.34350E+01
 -1      1268 8.32703E+01
 -1      1269 8.29059E+01
 -1      1270 8.21965E+01
 -1      1271 8.09429E+01
 -1      1272 7.72063E+01
 -1      1273 6.30670E+01
 -1      1274 7.65019E+01
 -1      1275 8.03680E+01
 -1      1276 8.17758E+01
 -1      1277 8.26548E+01
 -1      1278 8.30489E+01
 -1      1279 8.33952E+01
 -1      1280 8.35671E+01
 -1      1281 8.36781E+01
 -1      1282 8.37881E+01
 -1      1283 8.38854E+01
 -1      1284 8.39162E+01
 -1      1285 8.39342E+01
 -1      1286 8.40537E+01
 -1      1287 8.40537E+01
 -1      1288 8.40825E+01
 -1      1289 8.40825E+01
 -1      1290 8.41013E+01
 -1      1291 8.41013E+01
 -1      1292 8.41005E+01
 -1      1293 8.41607E+01
 -1      1294 8.41607E+01
 -1      1295 8.41255E+01
 -1      1296 8.41255E+01
 -1      1297 8.41226E+01
 -1      1298 8.41262E+01
 -1      1299 8.41326E+01
 -1      1300 8.41326E+01
 -1      1301 8.41766E+01
 -1      1302 8.41766E+01
 -1      1303 8.41261E+01
 -1      1304 8.41336E+01
 -1      1305 8.41336E+01
 -1      1306 8.41038E+01
 -1      1307 8.41038E+01
 -1      1308 8.40852E+01
 -1      1309 8.40745E+01
 -1      1310 8.40572E+01
 -1      1311 8.40518E+01
 -1      1312 8.40465E+01
 -1      1313 8.40465E+01
 -1      1314 8.39283E+01
 -1      1315 8.39283E+01
 -1      1316 8.38846E+01
 -1      1317 8.37590E+01
 -1      1318 8.37301E+01
 -1      1319 8.35088E+01
 -1      1320 8.34420E+01
 -1      1321 8.30669E+01
 -1      1322 8.26621E+01
 -1      1323 8.19465E+01
 -1      1324 8.03194E+01
 -1      1325 7.65947E+01
 -1      1326 6.46358E+01
 -1      1327 7.75953E+01
 -1      1328 8.08847E+01
 -1      1329 8.20509E+01
 -1      1330 8.28384E+01
 -1      1331 8.31756E+01
 -1      1332 8.33997E+01
 -1      1333 8.36644E+01
 -1      1334 8.36651E+01
 -1      1335 8.38467E+01
 -1      1336 8.38467E+01
 -1      1337 8.39532E+01
 -1      1338 8.39767E+01
 -1      1339 8.39767E+01
 -1      1340 8.40759E+01
 -1      1341 8.40759E+01
 -1      1342 8.40829E+01
 -1      1343 8.40829E+01
 -1      1344 8.41476E+01
 -1      1345 8.41476E+01
 -1      1346 8.41436E+01
 -1      1347 8.41436E+01
 -1      1348 8.41410E+01
 -1      1349 8.41410E+01
 -1      1350 8.41302E+01
 -1      1351 8.41792E+01
 -1      1352 8.41792E+01
 -1      1353 8.41373E+01
 -1      1354 8.41373E+01
 -1      1355 8.41208E+01
 -1      1356 8.41277E+01
 -1      1357 8.41277E+01
 -1      1358 8.41331E+01
 -1      1359 8.41331E+01
 -1      1360 8.41003E+01
 -1      1361 8.40826E+01
 -1      1362 8.40931E+01
 -1      1363 8.40931E+01
 -1      1364 8.40398E+01
 -1      1365 8.40398E+01
 -1      1366 8.40136E+01
 -1      1367 8.39777E+01
 -1      1368 8.39570E+01
 -1      1369 8.38861E+01
 -1      1370 8.38742E+01
 -1      1371 8.37707E+01
 -1      1372 8.36608E+01
 -1      1373 8.35532E+01
 -1      1374 8.33796E+01
 -1      1375 8.30465E+01
 -1      1376 8.26186E+01
 -1      1377 8.17624E+01
 -1      1378 7.99261E+01
 -1      1379 7.38260E+01
 -1      1380 7.02451E+01
 -1      1381 7.79892E+01
 -1      1382 8.07482E+01
 -1      1383 8.19276E+01
 -1      1384 8.26951E+01
 -1      1385 8.30587E+01
 -1      1386 8.33602E+01
 -1      1387 8.35367E+01
 -1      1388 8.36717E+01
 -1      1389 8.37848E+01
 -1      1390 8.38124E+01
 -1      1391 8.39625E+01
 -1      1392 8.39625E+01
 -1      1393 8.39933E+01
 -1      1394 8.40408E+01
 -1      1395 8.40408E+01
 -1      1396 8.41000E+01
 -1      1397 8.41000E+01
 -1      1398 8.41458E+01
 -1      1399 8.41458E+01
 -1      1400 8.41180E+01
 -1      1401 8.41180E+01
 -1      1402 8.41164E+01
 -1      1403 8.41325E+01
 -1      1404 8.41325E+01
 -1      1405 8.41602E+01
 -1      1406 8.41602E+01
 -1      1407 8.41542E+01
 -1      1408 8.41542E+01
 -1      1409 8.41467E+01
 -1      1410 8.41467E+01
 -1      1411 8.40472E+01
 -1      1412 8.40365E+01
 -1      1413 8.40365E+01
 -1      1414 8.38315E+01
 -1      1415 8.37889E+01
 -1      1416 8.34214E+01
 -1      1417 8.29919E+01
 -1      1418 8.21330E+01
 -1      1419 8.10725E+01
 -1      1420 7.97067E+01
 -1      1421 7.78003E+01
 -1      1422 7.52118E+01
 -1      1423 7.18127E+01
 -1      1424 6.67794E+01
 -1      1425 5.90366E+01
 -1      1426 4.57621E+01
 -1      1427 2.19639E+01
 -1      1428 8.09591E+00
 -1      1429 2.26608E+01
 -1      1430 6.08586E+01
 -1      1431 7.79335E+01
 -1      1432 8.21226E+01
 -1      1433 8.32803E+01
 -1      1434 8.34805E+01
 -1      1435 8.37996E+01
 -1      1436 8.37996E+01
 -1      1437 8.39530E+01
 -1      1438 8.39530E+01
 -1      1439 8.40444E+01
 -1      1440 8.40444E+01
 -1      1441 8.41302E+01
 -1      1442 8.41302E+01
 -1      1443 8.40785E+01
 -1      1444 8.66056E+01
 -1      1445 8.66056E+01
 -1      1446 7.44138E+01
 -1      1447 1.73754E-01
 -1      1448 5.87006E-01
 -1      1449 1.11101E+00
 -1      1450 1.73159E+00
 -1      1451 2.45826E+00
 -1      1452 3.30883E+00
 -1      1453 1.11974E+01
 -1      1454 2.68854E+01
 -1      1455 2.69910E+01
 -1      1456 3.86729E+01
 -1      1457 5.86399E+01
 -1      1458 7.35993E+01
 -1      1459 8.18874E+01
 -1      1460 8.36765E+01
 -1      1461 8.38416E+01
 -1      1462 8.38416E+01
 -1      1463 8.40817E+01
 -1      1464 8.40817E+01
 -1      1465 8.40285E+01
 -1      1466 8.40824E+01
 -1      1467 8.40824E+01
 -1      1468 8.41590E+01
 -1      1469 8.41590E+01
 -1      1470 8.40922E+01
 -1      1471 8.40922E+01
 -1      1472 8.40793E+01
 -1      1473 8.41157E+01
 -1      1474 8.41157E+01
 -1      1475 8.40985E+01
 -1      1476 8.41054E+01
 -1      1477 8.41367E+01
 -1      1478 8.41367E+01
 -1      1479 8.41277E+01
 -1      1480 8.41277E+01
 -1      1481 8.41247E+01
 -1      1482 8.41309E+01
 -1      1483 8.41309E+01
 -1      1484 8.41817E+01
 -1      1485 8.41817E+01
 -1      1486 8.41627E+01
 -1      1487 8.41627E+01
 -1      1488 8.41581E+01
 -1      1489 8.41581E+01
 -1      1490 8.41275E+01
 -1      1491 8.41275E+01
 -1      1492 8.41127E+01
 -1      1493 8.41151E+01
 -1      1494 8.41151E+01
 -1      1495 8.41455E+01
 -1      1496 8.41455E+01
 -1      1497 8.40798E+01
 -1      1498 8.40798E+01
 -1      1499 8.40705E+01
 -1      1500 8.40425E+01
 -1      1501 8.40425E+01
 -1      1502 8.40000E+01
 -1      1503 8.40000E+01
 -1      1504 8.38576E+01
 -1      1505 8.38543E+01
 -1      1506 8.37242E+01
 -1      1507 8.36922E+01
 -1      1508 8.34350E+01
 -1      1509 8.32703E+01
 -1      1510 8.29059E+01
 -1      1511 8.21965E+01
 -1      1512 8.09429E+01
 -1      1513 7.72063E+01
 -1      1514 6.30670E+01
 -1      1515 7.65019E+01
 -1      1516 8.03680E+01
 -1      1517 8.17758E+01
 -1      1518 8.26548E+01
 -1      1519 8.30489E+01
 -1      1520 8.33952E+01
 -1      1521 8.35671E+01
 -1      1522 8.36781E+01
 -1      1523 8.37881E+01
 -1      1524 8.38854E+01
 -1      1525 8.39162E+01
 -1      1526 8.39342E+01
 -1      1527 8.40537E+01
 -1      1528 8.40537E+01
 -1      1529 8.40825E+01
 -1      1530 8.40825E+01
 -1      1531 8.41013E+01
 -1      1532 8.41013E+01
 -1      1533 8.41005E+01
 -1      1534 8.41607E+01
 -1      1535 8.41607E+01
 -1      1536 8.41255E+01
 -1      1537 8.41255E+01
 -1      1538 8.41226E+01
 -1      1539 8.41262E+01
 -1      1540 8.41326E+01
 -1      1541 8.41326E+01
 -1      1542 8.41766E+01
 -1      1543 8.41766E+01
 -1      1544 8.41261E+01
 -1      1545 8.41336E+01
 -1      1546 8.41336E+01
 -1      1547 8.41038E+01
 -1      1548 8.41038E+01
 -1      1549 8.40852E+01
 -1      1550 8.40745E+01
 -1      1551 8.40572E+01
 -1      1552 8.40518E+01
 -1      1553 8.40465E+01
 -1      1554 8.40465E+01
 -1      1555 8.39283E+01
 -1      1556 8.39283E+01
 -1      1557 8.38846E+01
 -1      1558 8.37590E+01
 -1      1559 8.37301E+01
 -1      1560 8.35088E+01
 -1      1561 8.34420E+01
 -1      1562 8.30669E+01
 -1      1563 8.26621E+01
 -1      1564 8.19465E+01
 -1      1565 8.03194E+01
 -1      1566 7.65947E+01
 -1      1567 6.46358E+01
 -1      1568 7.75953E+01
 -1      1569 8.08847E+01
 -1      1570 8.20509E+01
 -1      1571 8.28384E+01
 -1      1572 8.31756E+01
 -1      1573 8.33997E+01
 -1      1574 8.36644E+01
 -1      1575 8.36651E+01
 -1      1576 8.38467E+01
 -1      1577 8.38467E+01
 -1      1578 8.39532E+01
 -1      1579 8.39767E+01
 -1      1580 8.39767E+01
 -1      1581 8.40759E+01
 -1      1582 8.40759E+01
 -1      1583 8.40829E+01
 -1      1584 8.40829E+01
 -1      1585 8.41476E+01
 -1      1586 8.41476E+01
 -1      1587 8.41436E+01
 -1      1588 8.41436E+01
 -1      1589 8.41410E+01
 -1      1590 8.41410E+01
 -1      1591 8.41302E+01
 -1      1592 8.41792E+01
 -1      1593 8.41792E+01
 -1      1594 8.41373E+01
 -1      1595 8.41373E+01
 -1      1596 8.41208E+01
 -1      1597 8.41277E+01
 -1      1598 8.41277E+01
 -1      1599 8.41331E+01
 -1      1600 8.41331E+01
 -1      1601 8.41003E+01
 -1      1602 8.40826E+01
 -1      1603 8.40931E+01
 -1      1604 8.40931E+01
 -1      1605 8.40398E+01
 -1      1606 8.40398E+01
 -1      1607 8.40136E+01
 -1      1608 8.39777E+01
 -1      1609 8.39570E+01
 -1      1610 8.38861E+01
 -1      1611 8.38742E+01
 -1      1612 8.37707E+01
 -1      1613 8.36608E+01
 -1      1614 8.35532E+01
 -1      1615 8.33796E+01
 -1      1616 8.30465E+01
 -1      1617 8.26186E+01
 -1      1618 8.17624E+01
 -1      1619 7.99261E+01
 -1      1620 1.09841E+02
 -1      1621 1.09841E+02
 -1      1622 7.79892E+01
 -1      1623 8.07482E+01
 -1      1624 8.19276E+01
 -1      1625 8.26951E+01
 -1      1626 8.30587E+01
 -1      1627 8.33602E+01
 -1      1628 8.35367E+01
 -1      1629 8.36717E+01
 -1      1630 8.37848E+01
 -1      1631 8.38124E+01
 -1      1632 8.39625E+01
 -1      1633 8.39625E+01
 -1      1634 8.39933E+01
 -1      1635 8.40408E+01
 -1      1636 8.40408E+01
 -1      1637 8.41000E+01
 -1      1638 8.41000E+01
 -1      1639 8.41458E+01
 -1      1640 8.41458E+01
 -1      1641 8.41180E+01
 -1      1642 8.41180E+01
 -1      1643 8.41164E+01
 -1      1644 8.41325E+01
 -1      1645 8.41325E+01
 -1      1646 8.41602E+01
 -1      1647 8.41602E+01
 -1      1648 8.41542E+01
 -1      1649 8.41542E+01
 -1      1650 8.41467E+01
 -1      1651 8.41467E+01
 -1      1652 8.40472E+01
 -1      1653 8.40365E+01
 -1      1654 8.40365E+01
 -1      1655 8.38315E+01
 -1      1656 8.37889E+01
 -1      1657 8.34214E+01
 -1      1658 8.29919E+01
 -1      1659 8.21330E+01
 -1      1660 8.10725E+01
 -1      1661 7.97067E+01
 -1      1662 7.78003E+01
 -1      1663 7.52118E+01
 -1      1664 7.18127E+01
 -1      1665 6.67794E+01
 -1      1666 5.90366E+01
 -1      1667 4.57621E+01
 -1      1668 2.69301E+01
 -1      1669 2.92820E+01
 -1      1670 2.92820E+01
 -1      1671 6.08586E+01
 -1      1672 7.79335E+01
 -1      1673 8.21226E+01
 -1      1674 8.32803E+01
 -1      1675 8.34805E+01
 -1      1676 8.37996E+01
 -1      1677 8.37996E+01
 -1      1678 8.39530E+01
 -1      1679 8.39530E+01
 -1      1680 8.40444E+01
 -1      1681 8.40444E+01
 -1      1682 8.41302E+01
 -1      1683 8.41302E+01
 -1      1684 8.40785E+01
 -1      1685 8.66056E+01
 -1      1686 8.66056E+01
 -1      1687 7.44138E+01
 -1      1688 1.73754E-01
 -1      1689 5.87006E-01
 -1      1690 1.11101E+00
 -1      1691 1.73159E+00
 -1      1692 2.45826E+00
 -1      1693 3.30883E+00
 -1      1694 1.11974E+01
 -1      1695 2.68854E+01
 -1      1696 2.69910E+01
 -1      1697 3.86729E+01
 -1      1698 5.86399E+01
 -1      1699 7.35993E+01
 -1      1700 8.18874E+01
 -1      1701 8.36765E+01
 -1      1702 8.38416E+01
 -1      1703 8.38416E+01
 -1      1704 8.40817E+01
 -1      1705 8.40817E+01
 -1      1706 8.40285E+01
 -1      1707 8.40824E+01
 -1      1708 8.40824E+01
 -1      1709 8.41590E+01
 -1      1710 8.41590E+01
 -1      1711 8.40922E+01
 -1      1712 8.40922E+01
 -1      1713 8.40793E+01
 -1      1714 8.41157E+01
 -1      1715 8.41157E+01
 -1      1716 8.40985E+01
 -1      1717 8.41054E+01
 -1      1718 8.41367E+01
 -1      1719 8.41367E+01
 -1      1720 8.41277E+01
 -1      1721 8.41277E+01
 -1      1722 8.41247E+01
 -1      1723 8.41309E+01
 -1      1724 8.41309E+01
 -1      1725 8.41817E+01
 -1      1726 8.41817E+01
 -1      1727 8.41627E+01
 -1      1728 8.41627E+01
 -1      1729 8.41581E+01
 -1      1730 8.41581E+01
 -1      1731 8.41275E+01
 -1      1732 8.41275E+01
 -1      1733 8.41127E+01
 -1      1734 8.41151E+01
 -1      1735 8.41151E+01
 -1      1736 8.41455E+01
 -1      1737 8.41455E+01
 -1      1738 8.40798E+01
 -1      1739 8.40798E+01
 -1      1740 8.40705E+01
 -1      1741 8.40425E+01
 -1      1742 8.40425E+01
 -1      1743 8.40000E+01
 -1      1744 8.40000E+01
 -1      1745 8.38576E+01
 -1      1746 8.38543E+01
 -1      1747 8.37242E+01
 -1      1748 8.36922E+01
 -1      1749 8.34350E+01
 -1      1750 8.32703E+01
 -1      1751 8.29059E+01
 -1      1752 8.21965E+01
 -1      1753 8.09429E+01
 -1      1754 7.72063E+01
 -1      1755 6.30670E+01
 -1      1756 7.65019E+01
 -1      1757 8.03680E+01
 -1      1758 8.17758E+01
 -1      1759 8.26548E+01
 -1      1760 8.30489E+01
 -1      1761 8.33952E+01
 -1      1762 8.35671E+01
 -1      1763 8.36781E+01
 -1      1764 8.37881E+01
 -1      1765 8.38854E+01
 -1      1766 8.39162E+01
 -1      1767 8.39342E+01
 -1      1768 8.40537E+01
 -1      1769 8.40537E+01
 -1      1770 8.40825E+01
 -1      1771 8.40825E+01
 -1      1772 8.41013E+01
 -1      1773 8.41013E+01
 -1      1774 8.41005E+01
 -1      1775 8.41607E+01
 -1      1776 8.41607E+01
 -1      1777 8.41255E+01
 -1      1778 8.41255E+01
 -1      1779 8.41226E+01
 -1      1780 8.41262E+01
 -1      1781 8.41326E+01
 -1      1782 8.41326E+01
 -1      1783 8.41766E+01
 -1      1784 8.41766E+01
 -1      1785 8.41261E+01
 -1      1786 8.41336E+01
 -1      1787 8.41336E+01
 -1      1788 8.41038E+01
 -1      1789 8.41038E+01
 -1      1790 8.40852E+01
 -1      1791 8.40745E+01
 -1      1792 8.40572E+01
 -1      1793 8.40518E+01
 -1      1794 8.40465E+01
 -1      1795 8.40465E+01
 -1      1796 8.39283E+01
 -1      1797 8.39283E+01
 -1      1798 8.38846E+01
 -1      1799 8.37590E+01
 -1      1800 8.37301E+01
 -1      1801 8.35088E+01
 -1      1802 8.34420E+01
 -1      1803 8.30669E+01
 -1      1804 8.26621E+01
 -1      1805 8.19465E+01
 -1      1806 8.03194E+01
 -1      1807 7.65947E+01
 -1      1808 6.46358E+01
 -1      1809 7.75953E+01
 -1      1810 8.08847E+01
 -1      1811 8.20509E+01
 -1      1812 8.28384E+01
 -1      1813 8.31756E+01
 -1      1814 8.33997E+01
 -1      1815 8.36644E+01
 -1      1816 8.36651E+01
 -1      1817 8.38467E+01
 -1      1818 8.38467E+01
 -1      1819 8.39532E+01
 -1      1820 8.39767E+01
 -1      1821 8.39767E+01
 -1      1822 8.40759E+01
 -1      1823 8.40759E+01
 -1      1824 8.40829E+01
 -1      1825 8.40829E+01
 -1      1826 8.41476E+01
 -1      1827 8.41476E+01
 -1      1828 8.41436E+01
 -1      1829 8.41436E+01
 -1      1830 8.41410E+01
 -1      1831 8.41410E+01
 -1      1832 8.41302E+01
 -1      1833 8.41792E+01
 -1      1834 8.41792E+01
 -1      1835 8.41373E+01
 -1      1836 8.41373E+01
 -1      1837 8.41208E+01
 -1      1838 8.41277E+01
 -1      1839 8.41277E+01
 -1      1840 8.41331E+01
 -1      1841 8.41331E+01
 -1      1842 8.41003E+01
 -1      1843 8.40826E+01
 -1      1844 8.40931E+01
 -1      1845 8.40931E+01
 -1      1846 8.40398E+01
 -1      1847 8.40398E+01
 -1      1848 8.40136E+01
 -1      1849 8.39777E+01
 -1      1850 8.39570E+01
 -1      1851 8.38861E+01
 -1      1852 8.38742E+01
 -1      1853 8.37707E+01
 -1      1854 8.36608E+01
 -1      1855 8.35532E+01
 -1      1856 8.33796E+01
 -1      1857 8.30465E+01
 -1      1858 8.26186E+01
 -1      1859 8.17624E+01
 -1      1860 7.99261E+01
 -1      1861 1.09841E+02
 -1      1862 1.09841E+02
 -1      1863 7.79892E+01
 -1      1864 8.07482E+01
 -1      1865 8.19276E+01
 -1      1866 8.26951E+01
 -1      1867 8.30587E+01
 -1      1868 8.33602E+01
 -1      1869 8.35367E+01
 -1      1870 8.36717E+01
 -1      1871 8.37848E+01
 -1      1872 8.38124E+01
 -1      1873 8.39625E+01
 -1      1874 8.39625E+01
 -1      1875 8.39933E+01
 -1      1876 8.40408E+01
 -1      1877 8.40408E+01
 -1      1878 8.41000E+01
 -1      1879 8.41000E+01
 -1      1880 8.41458E+01
 -1      1881 8.41458E+01
 -1      1882 8.41180E+01
 -1      1883 8.41180E+01
 -1      1884 8.41164E+01
 -1      1885 8.41325E+01
 -1      1886 8.41325E+01
 -1      1887 8.41602E+01
 -1      1888 8.41602E+01
 -1      1889 8.41542E+01
 -1      1890 8.41542E+01
 -1      1891 8.41467E+01
 -1      1892 8.41467E+01
 -1      1893 8.40472E+01
 -1      1894 8.40365E+01
 -1      1895 8.40365E+01
 -1      1896 8.38315E+01
 -1      1897 8.37889E+01
 -1      1898 8.34214E+01
 -1      1899 8.29919E+01
 -1      1900 8.21330E+01
 -1      1901 8.10725E+01
 -1      1902 7.97067E+01
 -1      1903 7.78003E+01
 -1      1904 7.52118E+01
 -1      1905 7.18127E+01
 -1      1906 6.67794E+01
 -1      1907 5.90366E+01
 -1      1908 4.57621E+01
 -1      1909 2.69301E+01
 -1      1910 2.92820E+01
 -1      1911 2.92820E+01
 -1      1912 6.08586E+01
 -1      1913 7.79335E+01
 -1      1914 8.21226E+01
 -1      1915 8.32803E+01
 -1      1916 8.34805E+01
 -1      1917 8.37996E+01
 -1      1918 8.37996E+01
 -1      1919 8.39530E+01
 -1      1920 8.39530E+01
 -1      1921 8.40444E+01
 -1      1922 8.40444E+01
 -1      1923 8.41302E+01
 -1      1924 8.41302E+01
 -1      1925 8.40785E+01
 -1      1926 8.66056E+01
 -1      1927 8.66056E+01
 -1      1928 7.44138E+01
 -1      1929 1.73754E-01
 -1      1930 5.87006E-01
 -1      1931 1.11101E+00
 -1      1932 1.73159E+00
 -1      1933 2.45826E+00
 -1      1934 3.30883E+00
 -1      1935 1.11974E+01
 -1      1936 2.68854E+01
 -1      1937 2.69910E+01
 -1      1938 2.69993E+01
 -1      1939 2.70452E+01
 -1      1940 2.70452E+01
 -1      1941 2.70542E+01
 -1      1942 2.70542E+01
 -1      1943 2.70256E+01
 -1      1944 2.70348E+01
 -1      1945 2.70348E+01
 -1      1946 2.70472E+01
 -1      1947 2.70472E+01
 -1      1948 2.70306E+01
 -1      1949 2.70306E+01
 -1      1950 2.70167E+01
 -1      1951 2.70256E+01
 -1      1952 2.70256E+01
 -1      1953 2.70267E+01
 -1      1954 2.70267E+01
 -1      1955 2.70209E+01
 -1      1956 2.70209E+01
 -1      1957 2.70229E+01
 -1      1958 2.70229E+01
 -1      1959 2.70172E+01
 -1      1960 2.70172E+01
 -1      1961 2.70163E+01
 -1      1962 2.70200E+01
 -1      1963 2.70200E+01
 -1      1964 2.70163E+01
 -1      1965 2.70205E+01
 -1      1966 2.70205E+01
 -1      1967 2.70302E+01
 -1      1968 2.70302E+01
 -1      1969 2.70250E+01
 -1      1970 2.70250E+01
 -1      1971 2.70225E+01
 -1      1972 2.70225E+01
 -1      1973 2.70235E+01
 -1      1974 2.70235E+01
 -1      1975 2.70150E+01
 -1      1976 2.70184E+01
 -1      1977 2.70184E+01
 -1      1978 2.70273E+01
 -1      1979 2.70273E+01
 -1      1980 2.70144E+01
 -1      1981 2.70184E+01
 -1      1982 2.70184E+01
 -1      1983 2.70271E+01
 -1      1984 2.70271E+01
 -1      1985 2.70242E+01
 -1      1986 2.70242E+01
 -1      1987 2.70231E+01
 -1      1988 2.70231E+01
 -1      1989 2.70239E+01
 -1      1990 2.70239E+01
 -1      1991 2.70079E+01
 -1      1992 2.70079E+01
 -1      1993 2.69953E+01
 -1      1994 2.69731E+01
 -1      1995 2.70453E+01
 -1      1996 2.70453E+01
 -1      1997 2.70050E+01
 -1      1998 2.70050E+01
 -1      1999 2.70235E+01
 -1      2000 2.70235E+01
 -1      2001 2.70174E+01
 -1      2002 2.70174E+01
 -1      2003 2.70169E+01
 -1      2004 2.70254E+01
 -1      2005 2.70254E+01
 -1      2006 2.70271E+01
 -1      2007 2.70271E+01
 -1      2008 2.70249E+01
 -1      2009 2.70249E+01
 -1      2010 2.70279E+01
 -1      2011 2.70279E+01
 -1      2012 2.70194E+01
 -1      2013 2.70194E+01
 -1      2014 2.70165E+01
 -1      2015 2.70247E+01
 -1      2016 2.70247E+01
 -1      2017 2.70207E+01
 -1      2018 2.70207E+01
 -1      2019 2.70131E+01
 -1      2020 2.70227E+01
 -1      2021 2.70227E+01
 -1      2022 2.70123E+01
 -1      2023 2.70212E+01
 -1      2024 2.70212E+01
 -1      2025 2.70250E+01
 -1      2026 2.70250E+01
 -1      2027 2.70174E+01
 -1      2028 2.70174E+01
 -1      2029 2.70150E+01
 -1      2030 2.70150E+01
 -1      2031 2.70176E+01
 -1      2032 2.70176E+01
 -1      2033 2.70131E+01
 -1      2034 2.70234E+01
 -1      2035 2.70234E+01
 -1      2036 2.70227E+01
 -1      2037 2.70227E+01
 -1      2038 2.70126E+01
 -1      2039 2.70126E+01
 -1      2040 2.70121E+01
 -1      2041 2.70178E+01
 -1      2042 2.70178E+01
 -1      2043 2.70091E+01
 -1      2044 2.70091E+01
 -1      2045 2.69951E+01
 -1      2046 2.69951E+01
 -1      2047 2.69635E+01
 -1      2048 2.69069E+01
 -1      2049 2.70389E+01
 -1      2050 2.70389E+01
 -1      2051 2.70072E+01
 -1      2052 2.70187E+01
 -1      2053 2.70187E+01
 -1      2054 2.70096E+01
 -1      2055 2.70166E+01
 -1      2056 2.70166E+01
 -1      2057 2.70204E+01
 -1      2058 2.70204E+01
 -1      2059 2.70120E+01
 -1      2060 2.70120E+01
 -1      2061 2.70104E+01
 -1      2062 2.70198E+01
 -1      2063 2.70198E+01
 -1      2064 2.70203E+01
 -1      2065 2.70203E+01
 -1      2066 2.70207E+01
 -1      2067 2.70207E+01
 -1      2068 2.70232E+01
 -1      2069 2.70232E+01
 -1      2070 2.70142E+01
 -1      2071 2.70142E+01
 -1      2072 2.70068E+01
 -1      2073 2.70161E+01
 -1      2074 2.70161E+01
 -1      2075 2.70168E+01
 -1      2076 2.70168E+01
 -1      2077 2.70062E+01
 -1      2078 2.70118E+01
 -1      2079 2.70118E+01
 -1      2080 2.70082E+01
 -1      2081 2.70082E+01
 -1      2082 2.70065E+01
 -1      2083 2.70107E+01
 -1      2084 2.70107E+01
 -1      2085 2.70056E+01
 -1      2086 2.70056E+01
 -1      2087 2.70066E+01
 -1      2088 2.70066E+01
 -1      2089 2.70160E+01
 -1      2090 2.70160E+01
 -1      2091 2.70066E+01
 -1      2092 2.70066E+01
 -1      2093 2.69994E+01
 -1      2094 2.70020E+01
 -1      2095 2.70020E+01
 -1      2096 2.69951E+01
 -1      2097 2.69942E+01
 -1      2098 2.69942E+01
 -1      2099 2.69816E+01
 -1      2100 2.69816E+01
 -1      2101 2.69204E+01
 -1      2102 1.09841E+02
 -1      2103 1.09841E+02
 -1      2104 2.70347E+01
 -1      2105 2.70347E+01
 -1      2106 2.70241E+01
 -1      2107 2.70241E+01
 -1      2108 2.70191E+01
 -1      2109 2.70191E+01
 -1      2110 2.70186E+01
 -1      2111 2.70186E+01
 -1      2112 2.70116E+01
 -1      2113 2.70163E+01
 -1      2114 2.70163E+01
 -1      2115 2.70185E+01
 -1      2116 2.70185E+01
 -1      2117 2.70126E+01
 -1      2118 2.70134E+01
 -1      2119 2.70134E+01
 -1      2120 2.70215E+01
 -1      2121 2.70215E+01
 -1      2122 2.70138E+01
 -1      2123 2.70138E+01
 -1      2124 2.70072E+01
 -1      2125 2.70155E+01
 -1      2126 2.70155E+01
 -1      2127 2.70139E+01
 -1      2128 2.70139E+01
 -1      2129 2.70162E+01
 -1      2130 2.70162E+01
 -1      2131 2.70235E+01
 -1      2132 2.70235E+01
 -1      2133 2.70097E+01
 -1      2134 2.70097E+01
 -1      2135 2.70050E+01
 -1      2136 2.70133E+01
 -1      2137 2.70133E+01
 -1      2138 2.70083E+01
 -1      2139 2.70083E+01
 -1      2140 2.70011E+01
 -1      2141 2.70011E+01
 -1      2142 2.70011E+01
 -1      2143 2.69974E+01
 -1      2144 2.70002E+01
 -1      2145 2.70002E+01
 -1      2146 2.69861E+01
 -1      2147 2.69861E+01
 -1      2148 2.69763E+01
 -1      2149 2.69343E+01
 -1      2150 2.69301E+01
 -1      2151 2.92820E+01
 -1      2152 2.92820E+01
 -1      2153 2.71253E+01
 -1      2154 2.71186E+01
 -1      2155 2.71186E+01
 -1      2156 2.71153E+01
 -1      2157 2.71153E+01
 -1      2158 2.71384E+01
 -1      2159 2.71384E+01
 -1      2160 2.71702E+01
 -1      2161 2.71702E+01
 -1      2162 2.72215E+01
 -1      2163 2.72215E+01
 -1      2164 2.72571E+01
 -1      2165 2.72571E+01
 -1      2166 2.69207E+01
 -1      2167 2.82493E+01
 -1      2168 2.82493E+01
 -1      2169 2.16424E+01
 -1      2170 1.73754E-01
 -1      2171 5.87006E-01
 -1      2172 1.11101E+00
 -1      2173 1.73159E+00
 -1      2174 2.45826E+00
 -1      2175 3.30883E+00
 -1      2176 1.11974E+01
 -1      2177 2.68854E+01
 -1      2178 2.69910E+01
 -1      2179 2.69993E+01
 -1      2180 2.70452E+01
 -1      2181 2.70452E+01
 -1      2182 2.70542E+01
 -1      2183 2.70542E+01
 -1      2184 2.70256E+01
 -1      2185 2.70348E+01
 -1      2186 2.70348E+01
 -1      2187 2.70472E+01
 -1      2188 2.70472E+01
 -1      2189 2.70306E+01
 -1      2190 2.70306E+01
 -1      2191 2.70167E+01
 -1      2192 2.70256E+01
 -1      2193 2.70256E+01
 -1      2194 2.70267E+01
 -1      2195 2.70267E+01
 -1      2196 2.70209E+01
 -1      2197 2.70209E+01
 -1      2198 2.70229E+01
 -1      2199 2.70229E+01
 -1      2200 2.70172E+01
 -1      2201 2.70172E+01
 -1      2202 2.70163E+01
 -1      2203 2.70200E+01
 -1      2204 2.70200E+01
 -1      2205 2.70163E+01
 -1      2206 2.70205E+01
 -1      2207 2.70205E+01
 -1      2208 2.70302E+01
 -1      2209 2.70302E+01
 -1      2210 2.70250E+01
 -1      2211 2.70250E+01
 -1      2212 2.70225E+01
 -1      2213 2.70225E+01
 -1      2214 2.70235E+01
 -1      2215 2.70235E+01
 -1      2216 2.70150E+01
 -1      2217 2.70184E+01
 -1      2218 2.70184E+01
 -1      2219 2.70273E+01
 -1      2220 2.70273E+01
 -1      2221 2.70144E+01
 -1      2222 2.70184E+01
 -1      2223 2.70184E+01
 -1      2224 2.70271E+01
 -1      2225 2.70271E+01
 -1      2226 2.70242E+01
 -1      2227 2.70242E+01
 -1      2228 2.70231E+01
 -1      2229 2.70231E+01
 -1      2230 2.70239E+01
 -1      2231 2.70239E+01
 -1      2232 2.70079E+01
 -1      2233 2.70079E+01
 -1      2234 2.69953E+01
 -1      2235 2.69731E+01
 -1      2236 2.70453E+01
 -1      2237 2.70453E+01
 -1      2238 2.70050E+01
 -1      2239 2.70050E+01
 -1      2240 2.70235E+01
 -1      2241 2.70235E+01
 -1      2242 2.70174E+01
 -1      2243 2.70174E+01
 -1      2244 2.70169E+01
 -1      2245 2.70254E+01
 -1      2246 2.70254E+01
 -1      2247 2.70271E+01
 -1      2248 2.70271E+01
 -1      2249 2.70249E+01
 -1      2250 2.70249E+01
 -1      2251 2.70279E+01
 -1      2252 2.70279E+01
 -1      2253 2.70194E+01
 -1      2254 2.70194E+01
 -1      2255 2.70165E+01
 -1      2256 2.70247E+01
 -1      2257 2.70247E+01
 -1      2258 2.70207E+01
 -1      2259 2.70207E+01
 -1      2260 2.70131E+01
 -1      2261 2.70227E+01
 -1      2262 2.70227E+01
 -1      2263 2.70123E+01
 -1      2264 2.70212E+01
 -1      2265 2.70212E+01
 -1      2266 2.70250E+01
 -1      2267 2.70250E+01
 -1      2268 2.70174E+01
 -1      2269 2.70174E+01
 -1      2270 2.70150E+01
 -1      2271 2.70150E+01
 -1      2272 2.70176E+01
 -1      2273 2.70176E+01
 -1      2274 2.70131E+01
 -1      2275 2.70234E+01
 -1      2276 2.70234E+01
 -1      2277 2.70227E+01
 -1      2278 2.70227E+01
 -1      2279 2.70126E+01
 -1      2280 2.70126E+01
 -1      2281 2.70121E+01
 -1      2282 2.70178E+01
 -1      2283 2.70178E+01
 -1      2284 2.70091E+01
 -1      2285 2.70091E+01
 -1      2286 2.69951E+01
 -1      2287 2.69951E+01
 -1      2288 2.69635E+01
 -1      2289 2.69069E+01
 -1      2290 2.70389E+01
 -1      2291 2.70389E+01
 -1      2292 2.70072E+01
 -1      2293 2.70187E+01
 -1      2294 2.70187E+01
 -1      2295 2.70096E+01
 -1      2296 2.70166E+01
 -1      2297 2.70166E+01
 -1      2298 2.70204E+01
 -1      2299 2.70204E+01
 -1      2300 2.70120E+01
 -1      2301 2.70120E+01
 -1      2302 2.70104E+01
 -1      2303 2.70198E+01
 -1      2304 2.70198E+01
 -1      2305 2.70203E+01
 -1      2306 2.70203E+01
 -1      2307 2.70207E+01
 -1      2308 2.70207E+01
 -1      2309 2.70232E+01
 -1      2310 2.70232E+01
 -1      2311 2.70142E+01
 -1      2312 2.70142E+01
 -1      2313 2.70068E+01
 -1      2314 2.70161E+01
 -1      2315 2.70161E+01
 -1      2316 2.70168E+01
 -1      2317 2.70168E+01
 -1      2318 2.70062E+01
 -1      2319 2.70118E+01
 -1      2320 2.70118E+01
 -1      2321 2.70082E+01
 -1      2322 2.70082E+01
 -1      2323 2.70065E+01
 -1      2324 2.70107E+01
 -1      2325 2.70107E+01
 -1      2326 2.70056E+01
 -1      2327 2.70056E+01
 -1      2328 2.70066E+01
 -1      2329 2.70066E+01
 -1      2330 2.70160E+01
 -1      2331 2.70160E+01
 -1      2332 2.70066E+01
 -1      2333 2.70066E+01
 -1      2334 2.69994E+01
 -1      2335 2.70020E+01
 -1      2336 2.70020E+01
 -1      2337 2.69951E+01
 -1      2338 2.69942E+01
 -1      2339 2.69942E+01
 -1      2340 2.69816E+01
 -1      2341 2.69816E+01
 -1      2342 2.69204E+01
 -1      2343 1.09841E+02
 -1      2344 1.09841E+02
 -1      2345 2.70347E+01
 -1      2346 2.70347E+01
 -1      2347 2.70241E+01
 -1      2348 2.70241E+01
 -1      2349 2.70191E+01
 -1      2350 2.70191E+01
 -1      2351 2.70186E+01
 -1      2352 2.70186E+01
 -1      2353 2.70116E+01
 -1      2354 2.70163E+01
 -1      2355 2.70163E+01
 -1      2356 2.70185E+01
 -1      2357 2.70185E+01
 -1      2358 2.70126E+01
 -1      2359 2.70134E+01
 -1      2360 2.70134E+01
 -1      2361 2.70215E+01
 -1      2362 2.70215E+01
 -1      2363 2.70138E+01
 -1      2364 2.70138E+01
 -1      2365 2.70072E+01
 -1      2366 2.70155E+01
 -1      2367 2.70155E+01
 -1      2368 2.70139E+01
 -1      2369 2.70139E+01
 -1      2370 2.70162E+01
 -1      2371 2.70162E+01
 -1      2372 2.70235E+01
 -1      2373 2.70235E+01
 -1      2374 2.70097E+01
 -1      2375 2.70097E+01
 -1      2376 2.70050E+01
 -1      2377 2.70133E+01
 -1      2378 2.70133E+01
 -1      2379 2.70083E+01
 -1      2380 2.70083E+01
 -1      2381 2.70011E+01
 -1      2382 2.70011E+01
 -1      2383 2.70011E+01
 -1      2384 2.69974E+01
 -1      2385 2.70002E+01
 -1      2386 2.70002E+01
 -1      2387 2.69861E+01
 -1      2388 2.69861E+01
 -1      2389 2.69763E+01
 -1      2390 2.69343E+01
 -1      2391 2.69301E+01
 -1      2392 2.92820E+01
 -1      2393 2.92820E+01
 -1      2394 2.71253E+01
 -1      2395 2.71186E+01
 -1      2396 2.71186E+01
 -1      2397 2.71153E+01
 -1      2398 2.71153E+01
 -1      2399 2.71384E+01
 -1      2400 2.71384E+01
 -1      2401 2.71702E+01
 -1      2402 2.71702E+01
 -1      2403 2.72215E+01
 -1      2404 2.72215E+01
 -1      2405 2.72571E+01
 -1      2406 2.72571E+01
 -1      2407 2.69207E+01
 -1      2408 2.82493E+01
 -1      2409 2.82493E+01
 -1      2410 2.16424E+01
 -3
 9999
