    1C
    1UUSER                                                              
    1UDATE              06.may.2022                                     
    1UTIME              17:43:36                                        
    1UHOST                                                              
    1UPGM               CalculiX                                        
    1UVERSION           Version 2.16                             
    1UCOMPILETIME       Tue 20 Jul 2021 11:34:44 AM CDT                    
    1UDIR                                                               
    1UDBN                                                               
    1UMAT    1ACETATO                                                   
    2C                           726                                     1
 -1         2 6.57083E-02 2.99750E-02 1.60000E-01
 -1         3 6.54167E-02 2.99750E-02 1.60000E-01
 -1         4 6.51250E-02 2.99750E-02 1.60000E-01
 -1         5 6.48333E-02 2.99750E-02 1.60000E-01
 -1         6 6.45417E-02 2.99750E-02 1.60000E-01
 -1         7 6.42500E-02 2.99750E-02 1.60000E-01
 -1         8 6.39583E-02 2.99750E-02 1.60000E-01
 -1         9 6.36666E-02 2.99750E-02 1.60000E-01
 -1        10 6.33750E-02 2.99750E-02 1.60000E-01
 -1        11 6.30833E-02 2.99750E-02 1.60000E-01
 -1        12 6.27916E-02 2.99750E-02 1.60000E-01
 -1        13 6.25000E-02 2.99750E-02 1.60000E-01
 -1        14 6.22083E-02 2.99750E-02 1.60000E-01
 -1        15 6.19166E-02 2.99750E-02 1.60000E-01
 -1        16 6.16250E-02 2.99750E-02 1.60000E-01
 -1        17 6.13333E-02 2.99750E-02 1.60000E-01
 -1        18 6.10416E-02 2.99750E-02 1.60000E-01
 -1        19 6.07500E-02 2.99750E-02 1.60000E-01
 -1        20 6.04583E-02 2.99750E-02 1.60000E-01
 -1        21 6.01666E-02 2.99750E-02 1.60000E-01
 -1        22 5.98750E-02 2.99750E-02 1.60000E-01
 -1        23 5.95833E-02 2.99750E-02 1.60000E-01
 -1        24 5.92916E-02 2.99750E-02 1.60000E-01
 -1        25 5.90000E-02 2.99750E-02 1.60000E-01
 -1        26 5.87083E-02 2.99750E-02 1.60000E-01
 -1        27 5.84166E-02 2.99750E-02 1.60000E-01
 -1        28 5.81250E-02 2.99750E-02 1.60000E-01
 -1        29 5.78333E-02 2.99750E-02 1.60000E-01
 -1        30 5.75416E-02 2.99750E-02 1.60000E-01
 -1        31 5.72499E-02 2.99750E-02 1.60000E-01
 -1        32 5.69583E-02 2.99750E-02 1.60000E-01
 -1        33 5.66666E-02 2.99750E-02 1.60000E-01
 -1        34 5.63749E-02 2.99750E-02 1.60000E-01
 -1        35 5.60833E-02 2.99750E-02 1.60000E-01
 -1        36 5.57916E-02 2.99750E-02 1.60000E-01
 -1        37 5.54999E-02 2.99750E-02 1.60000E-01
 -1        38 5.52083E-02 2.99750E-02 1.60000E-01
 -1        39 5.49166E-02 2.99750E-02 1.60000E-01
 -1        40 5.46249E-02 2.99750E-02 1.60000E-01
 -1        41 5.43333E-02 2.99750E-02 1.60000E-01
 -1        42 5.40416E-02 2.99750E-02 1.60000E-01
 -1        43 5.37499E-02 2.99750E-02 1.60000E-01
 -1        44 5.34583E-02 2.99750E-02 1.60000E-01
 -1        45 5.31666E-02 2.99750E-02 1.60000E-01
 -1        46 5.28749E-02 2.99750E-02 1.60000E-01
 -1        47 5.25833E-02 2.99750E-02 1.60000E-01
 -1        48 5.22916E-02 2.99750E-02 1.60000E-01
 -1        49 5.19999E-02 2.99750E-02 1.60000E-01
 -1        50 5.17082E-02 2.99750E-02 1.60000E-01
 -1        51 5.14166E-02 2.99750E-02 1.60000E-01
 -1        52 5.11249E-02 2.99750E-02 1.60000E-01
 -1        53 5.08332E-02 2.99750E-02 1.60000E-01
 -1        54 5.05416E-02 2.99750E-02 1.60000E-01
 -1        55 5.02499E-02 2.99750E-02 1.60000E-01
 -1        56 4.99582E-02 2.99750E-02 1.60000E-01
 -1        57 4.96666E-02 2.99750E-02 1.60000E-01
 -1        58 4.93749E-02 2.99750E-02 1.60000E-01
 -1        59 4.90832E-02 2.99750E-02 1.60000E-01
 -1        60 4.87916E-02 2.99750E-02 1.60000E-01
 -1        61 4.84999E-02 2.99750E-02 1.60000E-01
 -1        62 4.82082E-02 2.99750E-02 1.60000E-01
 -1        63 4.79166E-02 2.99750E-02 1.60000E-01
 -1        64 4.76249E-02 2.99750E-02 1.60000E-01
 -1        65 4.73332E-02 2.99750E-02 1.60000E-01
 -1        66 4.70416E-02 2.99750E-02 1.60000E-01
 -1        67 4.67499E-02 2.99750E-02 1.60000E-01
 -1        68 4.64582E-02 2.99750E-02 1.60000E-01
 -1        69 4.61665E-02 2.99750E-02 1.60000E-01
 -1        70 4.58749E-02 2.99750E-02 1.60000E-01
 -1        71 4.55832E-02 2.99750E-02 1.60000E-01
 -1        72 4.52915E-02 2.99750E-02 1.60000E-01
 -1        73 4.49999E-02 2.99750E-02 1.60000E-01
 -1        74 4.47082E-02 2.99750E-02 1.60000E-01
 -1        75 4.44165E-02 2.99750E-02 1.60000E-01
 -1        76 4.41249E-02 2.99750E-02 1.60000E-01
 -1        77 4.38332E-02 2.99750E-02 1.60000E-01
 -1        78 4.35415E-02 2.99750E-02 1.60000E-01
 -1        79 4.32499E-02 2.99750E-02 1.60000E-01
 -1        80 4.29582E-02 2.99750E-02 1.60000E-01
 -1        81 4.26665E-02 2.99750E-02 1.60000E-01
 -1        82 4.23749E-02 2.99750E-02 1.60000E-01
 -1        83 4.20832E-02 2.99750E-02 1.60000E-01
 -1        84 4.17915E-02 2.99750E-02 1.60000E-01
 -1        85 4.14999E-02 2.99750E-02 1.60000E-01
 -1        86 4.12082E-02 2.99750E-02 1.60000E-01
 -1        87 4.09165E-02 2.99750E-02 1.60000E-01
 -1        88 4.06248E-02 2.99750E-02 1.60000E-01
 -1        89 4.03332E-02 2.99750E-02 1.60000E-01
 -1        90 4.00415E-02 2.99750E-02 1.60000E-01
 -1        91 3.97498E-02 2.99750E-02 1.60000E-01
 -1        92 3.94582E-02 2.99750E-02 1.60000E-01
 -1        93 3.91665E-02 2.99750E-02 1.60000E-01
 -1        94 3.88748E-02 2.99750E-02 1.60000E-01
 -1        95 3.85832E-02 2.99750E-02 1.60000E-01
 -1        96 3.82915E-02 2.99750E-02 1.60000E-01
 -1        97 3.79998E-02 2.99750E-02 1.60000E-01
 -1        98 3.77082E-02 2.99750E-02 1.60000E-01
 -1        99 3.74165E-02 2.99750E-02 1.60000E-01
 -1       100 3.71248E-02 2.99750E-02 1.60000E-01
 -1       101 3.68332E-02 2.99750E-02 1.60000E-01
 -1       102 3.65415E-02 2.99750E-02 1.60000E-01
 -1       103 3.62498E-02 2.99750E-02 1.60000E-01
 -1       104 3.59582E-02 2.99750E-02 1.60000E-01
 -1       105 3.56665E-02 2.99750E-02 1.60000E-01
 -1       106 3.53748E-02 2.99750E-02 1.60000E-01
 -1       107 3.50831E-02 2.99750E-02 1.60000E-01
 -1       108 3.47915E-02 2.99750E-02 1.60000E-01
 -1       109 3.44998E-02 2.99750E-02 1.60000E-01
 -1       110 3.42081E-02 2.99750E-02 1.60000E-01
 -1       111 3.39165E-02 2.99750E-02 1.60000E-01
 -1       112 3.36248E-02 2.99750E-02 1.60000E-01
 -1       113 3.33331E-02 2.99750E-02 1.60000E-01
 -1       114 3.30415E-02 2.99750E-02 1.60000E-01
 -1       115 3.27498E-02 2.99750E-02 1.60000E-01
 -1       116 3.24581E-02 2.99750E-02 1.60000E-01
 -1       117 3.21665E-02 2.99750E-02 1.60000E-01
 -1       118 3.18748E-02 2.99750E-02 1.60000E-01
 -1       119 3.15831E-02 2.99750E-02 1.60000E-01
 -1       120 3.12915E-02 2.99750E-02 1.60000E-01
 -1       121 3.09998E-02 2.99750E-02 1.60000E-01
 -1       122 6.60000E-02 2.99750E-02 0.00000E+00
 -1       123 6.57083E-02 2.99750E-02 0.00000E+00
 -1       124 6.54167E-02 2.99750E-02 0.00000E+00
 -1       125 6.51250E-02 2.99750E-02 0.00000E+00
 -1       126 6.48333E-02 2.99750E-02 0.00000E+00
 -1       127 6.45417E-02 2.99750E-02 0.00000E+00
 -1       128 6.42500E-02 2.99750E-02 0.00000E+00
 -1       129 6.39583E-02 2.99750E-02 0.00000E+00
 -1       130 6.36666E-02 2.99750E-02 0.00000E+00
 -1       131 6.33750E-02 2.99750E-02 0.00000E+00
 -1       132 6.30833E-02 2.99750E-02 0.00000E+00
 -1       133 6.27916E-02 2.99750E-02 0.00000E+00
 -1       134 6.25000E-02 2.99750E-02 0.00000E+00
 -1       135 6.22083E-02 2.99750E-02 0.00000E+00
 -1       136 6.19166E-02 2.99750E-02 0.00000E+00
 -1       137 6.16250E-02 2.99750E-02 0.00000E+00
 -1       138 6.13333E-02 2.99750E-02 0.00000E+00
 -1       139 6.10416E-02 2.99750E-02 0.00000E+00
 -1       140 6.07500E-02 2.99750E-02 0.00000E+00
 -1       141 6.04583E-02 2.99750E-02 0.00000E+00
 -1       142 6.01666E-02 2.99750E-02 0.00000E+00
 -1       143 5.98750E-02 2.99750E-02 0.00000E+00
 -1       144 5.95833E-02 2.99750E-02 0.00000E+00
 -1       145 5.92916E-02 2.99750E-02 0.00000E+00
 -1       146 5.90000E-02 2.99750E-02 0.00000E+00
 -1       147 5.87083E-02 2.99750E-02 0.00000E+00
 -1       148 5.84166E-02 2.99750E-02 0.00000E+00
 -1       149 5.81250E-02 2.99750E-02 0.00000E+00
 -1       150 5.78333E-02 2.99750E-02 0.00000E+00
 -1       151 5.75416E-02 2.99750E-02 0.00000E+00
 -1       152 5.72499E-02 2.99750E-02 0.00000E+00
 -1       153 5.69583E-02 2.99750E-02 0.00000E+00
 -1       154 5.66666E-02 2.99750E-02 0.00000E+00
 -1       155 5.63749E-02 2.99750E-02 0.00000E+00
 -1       156 5.60833E-02 2.99750E-02 0.00000E+00
 -1       157 5.57916E-02 2.99750E-02 0.00000E+00
 -1       158 5.54999E-02 2.99750E-02 0.00000E+00
 -1       159 5.52083E-02 2.99750E-02 0.00000E+00
 -1       160 5.49166E-02 2.99750E-02 0.00000E+00
 -1       161 5.46249E-02 2.99750E-02 0.00000E+00
 -1       162 5.43333E-02 2.99750E-02 0.00000E+00
 -1       163 5.40416E-02 2.99750E-02 0.00000E+00
 -1       164 5.37499E-02 2.99750E-02 0.00000E+00
 -1       165 5.34583E-02 2.99750E-02 0.00000E+00
 -1       166 5.31666E-02 2.99750E-02 0.00000E+00
 -1       167 5.28749E-02 2.99750E-02 0.00000E+00
 -1       168 5.25833E-02 2.99750E-02 0.00000E+00
 -1       169 5.22916E-02 2.99750E-02 0.00000E+00
 -1       170 5.19999E-02 2.99750E-02 0.00000E+00
 -1       171 5.17082E-02 2.99750E-02 0.00000E+00
 -1       172 5.14166E-02 2.99750E-02 0.00000E+00
 -1       173 5.11249E-02 2.99750E-02 0.00000E+00
 -1       174 5.08332E-02 2.99750E-02 0.00000E+00
 -1       175 5.05416E-02 2.99750E-02 0.00000E+00
 -1       176 5.02499E-02 2.99750E-02 0.00000E+00
 -1       177 4.99582E-02 2.99750E-02 0.00000E+00
 -1       178 4.96666E-02 2.99750E-02 0.00000E+00
 -1       179 4.93749E-02 2.99750E-02 0.00000E+00
 -1       180 4.90832E-02 2.99750E-02 0.00000E+00
 -1       181 4.87916E-02 2.99750E-02 0.00000E+00
 -1       182 4.84999E-02 2.99750E-02 0.00000E+00
 -1       183 4.82082E-02 2.99750E-02 0.00000E+00
 -1       184 4.79166E-02 2.99750E-02 0.00000E+00
 -1       185 4.76249E-02 2.99750E-02 0.00000E+00
 -1       186 4.73332E-02 2.99750E-02 0.00000E+00
 -1       187 4.70416E-02 2.99750E-02 0.00000E+00
 -1       188 4.67499E-02 2.99750E-02 0.00000E+00
 -1       189 4.64582E-02 2.99750E-02 0.00000E+00
 -1       190 4.61665E-02 2.99750E-02 0.00000E+00
 -1       191 4.58749E-02 2.99750E-02 0.00000E+00
 -1       192 4.55832E-02 2.99750E-02 0.00000E+00
 -1       193 4.52915E-02 2.99750E-02 0.00000E+00
 -1       194 4.49999E-02 2.99750E-02 0.00000E+00
 -1       195 4.47082E-02 2.99750E-02 0.00000E+00
 -1       196 4.44165E-02 2.99750E-02 0.00000E+00
 -1       197 4.41249E-02 2.99750E-02 0.00000E+00
 -1       198 4.38332E-02 2.99750E-02 0.00000E+00
 -1       199 4.35415E-02 2.99750E-02 0.00000E+00
 -1       200 4.32499E-02 2.99750E-02 0.00000E+00
 -1       201 4.29582E-02 2.99750E-02 0.00000E+00
 -1       202 4.26665E-02 2.99750E-02 0.00000E+00
 -1       203 4.23749E-02 2.99750E-02 0.00000E+00
 -1       204 4.20832E-02 2.99750E-02 0.00000E+00
 -1       205 4.17915E-02 2.99750E-02 0.00000E+00
 -1       206 4.14999E-02 2.99750E-02 0.00000E+00
 -1       207 4.12082E-02 2.99750E-02 0.00000E+00
 -1       208 4.09165E-02 2.99750E-02 0.00000E+00
 -1       209 4.06248E-02 2.99750E-02 0.00000E+00
 -1       210 4.03332E-02 2.99750E-02 0.00000E+00
 -1       211 4.00415E-02 2.99750E-02 0.00000E+00
 -1       212 3.97498E-02 2.99750E-02 0.00000E+00
 -1       213 3.94582E-02 2.99750E-02 0.00000E+00
 -1       214 3.91665E-02 2.99750E-02 0.00000E+00
 -1       215 3.88748E-02 2.99750E-02 0.00000E+00
 -1       216 3.85832E-02 2.99750E-02 0.00000E+00
 -1       217 3.82915E-02 2.99750E-02 0.00000E+00
 -1       218 3.79998E-02 2.99750E-02 0.00000E+00
 -1       219 3.77082E-02 2.99750E-02 0.00000E+00
 -1       220 3.74165E-02 2.99750E-02 0.00000E+00
 -1       221 3.71248E-02 2.99750E-02 0.00000E+00
 -1       222 3.68332E-02 2.99750E-02 0.00000E+00
 -1       223 3.65415E-02 2.99750E-02 0.00000E+00
 -1       224 3.62498E-02 2.99750E-02 0.00000E+00
 -1       225 3.59582E-02 2.99750E-02 0.00000E+00
 -1       226 3.56665E-02 2.99750E-02 0.00000E+00
 -1       227 3.53748E-02 2.99750E-02 0.00000E+00
 -1       228 3.50831E-02 2.99750E-02 0.00000E+00
 -1       229 3.47915E-02 2.99750E-02 0.00000E+00
 -1       230 3.44998E-02 2.99750E-02 0.00000E+00
 -1       231 3.42081E-02 2.99750E-02 0.00000E+00
 -1       232 3.39165E-02 2.99750E-02 0.00000E+00
 -1       233 3.36248E-02 2.99750E-02 0.00000E+00
 -1       234 3.33331E-02 2.99750E-02 0.00000E+00
 -1       235 3.30415E-02 2.99750E-02 0.00000E+00
 -1       236 3.27498E-02 2.99750E-02 0.00000E+00
 -1       237 3.24581E-02 2.99750E-02 0.00000E+00
 -1       238 3.21665E-02 2.99750E-02 0.00000E+00
 -1       239 3.18748E-02 2.99750E-02 0.00000E+00
 -1       240 3.15831E-02 2.99750E-02 0.00000E+00
 -1       241 3.12915E-02 2.99750E-02 0.00000E+00
 -1       242 3.09998E-02 2.99750E-02 0.00000E+00
 -1       243 6.60000E-02 3.00000E-02 1.60000E-01
 -1       244 6.57083E-02 3.00000E-02 1.60000E-01
 -1       245 6.54167E-02 3.00000E-02 1.60000E-01
 -1       246 6.51250E-02 3.00000E-02 1.60000E-01
 -1       247 6.48333E-02 3.00000E-02 1.60000E-01
 -1       248 6.45417E-02 3.00000E-02 1.60000E-01
 -1       249 6.42500E-02 3.00000E-02 1.60000E-01
 -1       250 6.39583E-02 3.00000E-02 1.60000E-01
 -1       251 6.36667E-02 3.00000E-02 1.60000E-01
 -1       252 6.33750E-02 3.00000E-02 1.60000E-01
 -1       253 6.30833E-02 3.00000E-02 1.60000E-01
 -1       254 6.27917E-02 3.00000E-02 1.60000E-01
 -1       255 6.25000E-02 3.00000E-02 1.60000E-01
 -1       256 6.22083E-02 3.00000E-02 1.60000E-01
 -1       257 6.19167E-02 3.00000E-02 1.60000E-01
 -1       258 6.16250E-02 3.00000E-02 1.60000E-01
 -1       259 6.13333E-02 3.00000E-02 1.60000E-01
 -1       260 6.10417E-02 3.00000E-02 1.60000E-01
 -1       261 6.07500E-02 3.00000E-02 1.60000E-01
 -1       262 6.04584E-02 3.00000E-02 1.60000E-01
 -1       263 6.01667E-02 3.00000E-02 1.60000E-01
 -1       264 5.98750E-02 3.00000E-02 1.60000E-01
 -1       265 5.95834E-02 3.00000E-02 1.60000E-01
 -1       266 5.92917E-02 3.00000E-02 1.60000E-01
 -1       267 5.90000E-02 3.00000E-02 1.60000E-01
 -1       268 5.87084E-02 3.00000E-02 1.60000E-01
 -1       269 5.84167E-02 3.00000E-02 1.60000E-01
 -1       270 5.81250E-02 3.00000E-02 1.60000E-01
 -1       271 5.78334E-02 3.00000E-02 1.60000E-01
 -1       272 5.75417E-02 3.00000E-02 1.60000E-01
 -1       273 5.72500E-02 3.00000E-02 1.60000E-01
 -1       274 5.69584E-02 3.00000E-02 1.60000E-01
 -1       275 5.66667E-02 3.00000E-02 1.60000E-01
 -1       276 5.63750E-02 3.00000E-02 1.60000E-01
 -1       277 5.60834E-02 3.00000E-02 1.60000E-01
 -1       278 5.57917E-02 3.00000E-02 1.60000E-01
 -1       279 5.55000E-02 3.00000E-02 1.60000E-01
 -1       280 5.52084E-02 3.00000E-02 1.60000E-01
 -1       281 5.49167E-02 3.00000E-02 1.60000E-01
 -1       282 5.46250E-02 3.00000E-02 1.60000E-01
 -1       283 5.43334E-02 3.00000E-02 1.60000E-01
 -1       284 5.40417E-02 3.00000E-02 1.60000E-01
 -1       285 5.37500E-02 3.00000E-02 1.60000E-01
 -1       286 5.34584E-02 3.00000E-02 1.60000E-01
 -1       287 5.31667E-02 3.00000E-02 1.60000E-01
 -1       288 5.28750E-02 3.00000E-02 1.60000E-01
 -1       289 5.25834E-02 3.00000E-02 1.60000E-01
 -1       290 5.22917E-02 3.00000E-02 1.60000E-01
 -1       291 5.20000E-02 3.00000E-02 1.60000E-01
 -1       292 5.17084E-02 3.00000E-02 1.60000E-01
 -1       293 5.14167E-02 3.00000E-02 1.60000E-01
 -1       294 5.11250E-02 3.00000E-02 1.60000E-01
 -1       295 5.08334E-02 3.00000E-02 1.60000E-01
 -1       296 5.05417E-02 3.00000E-02 1.60000E-01
 -1       297 5.02500E-02 3.00000E-02 1.60000E-01
 -1       298 4.99584E-02 3.00000E-02 1.60000E-01
 -1       299 4.96667E-02 3.00000E-02 1.60000E-01
 -1       300 4.93750E-02 3.00000E-02 1.60000E-01
 -1       301 4.90834E-02 3.00000E-02 1.60000E-01
 -1       302 4.87917E-02 3.00000E-02 1.60000E-01
 -1       303 4.85000E-02 3.00000E-02 1.60000E-01
 -1       304 4.82084E-02 3.00000E-02 1.60000E-01
 -1       305 4.79167E-02 3.00000E-02 1.60000E-01
 -1       306 4.76251E-02 3.00000E-02 1.60000E-01
 -1       307 4.73334E-02 3.00000E-02 1.60000E-01
 -1       308 4.70417E-02 3.00000E-02 1.60000E-01
 -1       309 4.67501E-02 3.00000E-02 1.60000E-01
 -1       310 4.64584E-02 3.00000E-02 1.60000E-01
 -1       311 4.61667E-02 3.00000E-02 1.60000E-01
 -1       312 4.58751E-02 3.00000E-02 1.60000E-01
 -1       313 4.55834E-02 3.00000E-02 1.60000E-01
 -1       314 4.52917E-02 3.00000E-02 1.60000E-01
 -1       315 4.50001E-02 3.00000E-02 1.60000E-01
 -1       316 4.47084E-02 3.00000E-02 1.60000E-01
 -1       317 4.44167E-02 3.00000E-02 1.60000E-01
 -1       318 4.41251E-02 3.00000E-02 1.60000E-01
 -1       319 4.38334E-02 3.00000E-02 1.60000E-01
 -1       320 4.35417E-02 3.00000E-02 1.60000E-01
 -1       321 4.32501E-02 3.00000E-02 1.60000E-01
 -1       322 4.29584E-02 3.00000E-02 1.60000E-01
 -1       323 4.26667E-02 3.00000E-02 1.60000E-01
 -1       324 4.23751E-02 3.00000E-02 1.60000E-01
 -1       325 4.20834E-02 3.00000E-02 1.60000E-01
 -1       326 4.17917E-02 3.00000E-02 1.60000E-01
 -1       327 4.15001E-02 3.00000E-02 1.60000E-01
 -1       328 4.12084E-02 3.00000E-02 1.60000E-01
 -1       329 4.09167E-02 3.00000E-02 1.60000E-01
 -1       330 4.06251E-02 3.00000E-02 1.60000E-01
 -1       331 4.03334E-02 3.00000E-02 1.60000E-01
 -1       332 4.00417E-02 3.00000E-02 1.60000E-01
 -1       333 3.97501E-02 3.00000E-02 1.60000E-01
 -1       334 3.94584E-02 3.00000E-02 1.60000E-01
 -1       335 3.91667E-02 3.00000E-02 1.60000E-01
 -1       336 3.88751E-02 3.00000E-02 1.60000E-01
 -1       337 3.85834E-02 3.00000E-02 1.60000E-01
 -1       338 3.82917E-02 3.00000E-02 1.60000E-01
 -1       339 3.80001E-02 3.00000E-02 1.60000E-01
 -1       340 3.77084E-02 3.00000E-02 1.60000E-01
 -1       341 3.74167E-02 3.00000E-02 1.60000E-01
 -1       342 3.71251E-02 3.00000E-02 1.60000E-01
 -1       343 3.68334E-02 3.00000E-02 1.60000E-01
 -1       344 3.65418E-02 3.00000E-02 1.60000E-01
 -1       345 3.62501E-02 3.00000E-02 1.60000E-01
 -1       346 3.59584E-02 3.00000E-02 1.60000E-01
 -1       347 3.56668E-02 3.00000E-02 1.60000E-01
 -1       348 3.53751E-02 3.00000E-02 1.60000E-01
 -1       349 3.50834E-02 3.00000E-02 1.60000E-01
 -1       350 3.47918E-02 3.00000E-02 1.60000E-01
 -1       351 3.45001E-02 3.00000E-02 1.60000E-01
 -1       352 3.42084E-02 3.00000E-02 1.60000E-01
 -1       353 3.39168E-02 3.00000E-02 1.60000E-01
 -1       354 3.36251E-02 3.00000E-02 1.60000E-01
 -1       355 3.33334E-02 3.00000E-02 1.60000E-01
 -1       356 3.30418E-02 3.00000E-02 1.60000E-01
 -1       357 3.27501E-02 3.00000E-02 1.60000E-01
 -1       358 3.24584E-02 3.00000E-02 1.60000E-01
 -1       359 3.21668E-02 3.00000E-02 1.60000E-01
 -1       360 3.18751E-02 3.00000E-02 1.60000E-01
 -1       361 3.15834E-02 3.00000E-02 1.60000E-01
 -1       362 3.12918E-02 3.00000E-02 1.60000E-01
 -1       363 3.10001E-02 3.00000E-02 1.60000E-01
 -1       364 6.60000E-02 3.00000E-02 0.00000E+00
 -1       365 6.57083E-02 3.00000E-02 0.00000E+00
 -1       366 6.54167E-02 3.00000E-02 0.00000E+00
 -1       367 6.51250E-02 3.00000E-02 0.00000E+00
 -1       368 6.48333E-02 3.00000E-02 0.00000E+00
 -1       369 6.45417E-02 3.00000E-02 0.00000E+00
 -1       370 6.42500E-02 3.00000E-02 0.00000E+00
 -1       371 6.39583E-02 3.00000E-02 0.00000E+00
 -1       372 6.36667E-02 3.00000E-02 0.00000E+00
 -1       373 6.33750E-02 3.00000E-02 0.00000E+00
 -1       374 6.30833E-02 3.00000E-02 0.00000E+00
 -1       375 6.27917E-02 3.00000E-02 0.00000E+00
 -1       376 6.25000E-02 3.00000E-02 0.00000E+00
 -1       377 6.22083E-02 3.00000E-02 0.00000E+00
 -1       378 6.19167E-02 3.00000E-02 0.00000E+00
 -1       379 6.16250E-02 3.00000E-02 0.00000E+00
 -1       380 6.13333E-02 3.00000E-02 0.00000E+00
 -1       381 6.10417E-02 3.00000E-02 0.00000E+00
 -1       382 6.07500E-02 3.00000E-02 0.00000E+00
 -1       383 6.04584E-02 3.00000E-02 0.00000E+00
 -1       384 6.01667E-02 3.00000E-02 0.00000E+00
 -1       385 5.98750E-02 3.00000E-02 0.00000E+00
 -1       386 5.95834E-02 3.00000E-02 0.00000E+00
 -1       387 5.92917E-02 3.00000E-02 0.00000E+00
 -1       388 5.90000E-02 3.00000E-02 0.00000E+00
 -1       389 5.87084E-02 3.00000E-02 0.00000E+00
 -1       390 5.84167E-02 3.00000E-02 0.00000E+00
 -1       391 5.81250E-02 3.00000E-02 0.00000E+00
 -1       392 5.78334E-02 3.00000E-02 0.00000E+00
 -1       393 5.75417E-02 3.00000E-02 0.00000E+00
 -1       394 5.72500E-02 3.00000E-02 0.00000E+00
 -1       395 5.69584E-02 3.00000E-02 0.00000E+00
 -1       396 5.66667E-02 3.00000E-02 0.00000E+00
 -1       397 5.63750E-02 3.00000E-02 0.00000E+00
 -1       398 5.60834E-02 3.00000E-02 0.00000E+00
 -1       399 5.57917E-02 3.00000E-02 0.00000E+00
 -1       400 5.55000E-02 3.00000E-02 0.00000E+00
 -1       401 5.52084E-02 3.00000E-02 0.00000E+00
 -1       402 5.49167E-02 3.00000E-02 0.00000E+00
 -1       403 5.46250E-02 3.00000E-02 0.00000E+00
 -1       404 5.43334E-02 3.00000E-02 0.00000E+00
 -1       405 5.40417E-02 3.00000E-02 0.00000E+00
 -1       406 5.37500E-02 3.00000E-02 0.00000E+00
 -1       407 5.34584E-02 3.00000E-02 0.00000E+00
 -1       408 5.31667E-02 3.00000E-02 0.00000E+00
 -1       409 5.28750E-02 3.00000E-02 0.00000E+00
 -1       410 5.25834E-02 3.00000E-02 0.00000E+00
 -1       411 5.22917E-02 3.00000E-02 0.00000E+00
 -1       412 5.20000E-02 3.00000E-02 0.00000E+00
 -1       413 5.17084E-02 3.00000E-02 0.00000E+00
 -1       414 5.14167E-02 3.00000E-02 0.00000E+00
 -1       415 5.11250E-02 3.00000E-02 0.00000E+00
 -1       416 5.08334E-02 3.00000E-02 0.00000E+00
 -1       417 5.05417E-02 3.00000E-02 0.00000E+00
 -1       418 5.02500E-02 3.00000E-02 0.00000E+00
 -1       419 4.99584E-02 3.00000E-02 0.00000E+00
 -1       420 4.96667E-02 3.00000E-02 0.00000E+00
 -1       421 4.93750E-02 3.00000E-02 0.00000E+00
 -1       422 4.90834E-02 3.00000E-02 0.00000E+00
 -1       423 4.87917E-02 3.00000E-02 0.00000E+00
 -1       424 4.85000E-02 3.00000E-02 0.00000E+00
 -1       425 4.82084E-02 3.00000E-02 0.00000E+00
 -1       426 4.79167E-02 3.00000E-02 0.00000E+00
 -1       427 4.76251E-02 3.00000E-02 0.00000E+00
 -1       428 4.73334E-02 3.00000E-02 0.00000E+00
 -1       429 4.70417E-02 3.00000E-02 0.00000E+00
 -1       430 4.67501E-02 3.00000E-02 0.00000E+00
 -1       431 4.64584E-02 3.00000E-02 0.00000E+00
 -1       432 4.61667E-02 3.00000E-02 0.00000E+00
 -1       433 4.58751E-02 3.00000E-02 0.00000E+00
 -1       434 4.55834E-02 3.00000E-02 0.00000E+00
 -1       435 4.52917E-02 3.00000E-02 0.00000E+00
 -1       436 4.50001E-02 3.00000E-02 0.00000E+00
 -1       437 4.47084E-02 3.00000E-02 0.00000E+00
 -1       438 4.44167E-02 3.00000E-02 0.00000E+00
 -1       439 4.41251E-02 3.00000E-02 0.00000E+00
 -1       440 4.38334E-02 3.00000E-02 0.00000E+00
 -1       441 4.35417E-02 3.00000E-02 0.00000E+00
 -1       442 4.32501E-02 3.00000E-02 0.00000E+00
 -1       443 4.29584E-02 3.00000E-02 0.00000E+00
 -1       444 4.26667E-02 3.00000E-02 0.00000E+00
 -1       445 4.23751E-02 3.00000E-02 0.00000E+00
 -1       446 4.20834E-02 3.00000E-02 0.00000E+00
 -1       447 4.17917E-02 3.00000E-02 0.00000E+00
 -1       448 4.15001E-02 3.00000E-02 0.00000E+00
 -1       449 4.12084E-02 3.00000E-02 0.00000E+00
 -1       450 4.09167E-02 3.00000E-02 0.00000E+00
 -1       451 4.06251E-02 3.00000E-02 0.00000E+00
 -1       452 4.03334E-02 3.00000E-02 0.00000E+00
 -1       453 4.00417E-02 3.00000E-02 0.00000E+00
 -1       454 3.97501E-02 3.00000E-02 0.00000E+00
 -1       455 3.94584E-02 3.00000E-02 0.00000E+00
 -1       456 3.91667E-02 3.00000E-02 0.00000E+00
 -1       457 3.88751E-02 3.00000E-02 0.00000E+00
 -1       458 3.85834E-02 3.00000E-02 0.00000E+00
 -1       459 3.82917E-02 3.00000E-02 0.00000E+00
 -1       460 3.80001E-02 3.00000E-02 0.00000E+00
 -1       461 3.77084E-02 3.00000E-02 0.00000E+00
 -1       462 3.74167E-02 3.00000E-02 0.00000E+00
 -1       463 3.71251E-02 3.00000E-02 0.00000E+00
 -1       464 3.68334E-02 3.00000E-02 0.00000E+00
 -1       465 3.65418E-02 3.00000E-02 0.00000E+00
 -1       466 3.62501E-02 3.00000E-02 0.00000E+00
 -1       467 3.59584E-02 3.00000E-02 0.00000E+00
 -1       468 3.56668E-02 3.00000E-02 0.00000E+00
 -1       469 3.53751E-02 3.00000E-02 0.00000E+00
 -1       470 3.50834E-02 3.00000E-02 0.00000E+00
 -1       471 3.47918E-02 3.00000E-02 0.00000E+00
 -1       472 3.45001E-02 3.00000E-02 0.00000E+00
 -1       473 3.42084E-02 3.00000E-02 0.00000E+00
 -1       474 3.39168E-02 3.00000E-02 0.00000E+00
 -1       475 3.36251E-02 3.00000E-02 0.00000E+00
 -1       476 3.33334E-02 3.00000E-02 0.00000E+00
 -1       477 3.30418E-02 3.00000E-02 0.00000E+00
 -1       478 3.27501E-02 3.00000E-02 0.00000E+00
 -1       479 3.24584E-02 3.00000E-02 0.00000E+00
 -1       480 3.21668E-02 3.00000E-02 0.00000E+00
 -1       481 3.18751E-02 3.00000E-02 0.00000E+00
 -1       482 3.15834E-02 3.00000E-02 0.00000E+00
 -1       483 3.12918E-02 3.00000E-02 0.00000E+00
 -1       484 3.10001E-02 3.00000E-02 0.00000E+00
 -1       485 6.60000E-02 3.00250E-02 1.60000E-01
 -1       486 6.57083E-02 3.00250E-02 1.60000E-01
 -1       487 6.54167E-02 3.00250E-02 1.60000E-01
 -1       488 6.51250E-02 3.00250E-02 1.60000E-01
 -1       489 6.48333E-02 3.00250E-02 1.60000E-01
 -1       490 6.45417E-02 3.00250E-02 1.60000E-01
 -1       491 6.42500E-02 3.00250E-02 1.60000E-01
 -1       492 6.39583E-02 3.00250E-02 1.60000E-01
 -1       493 6.36666E-02 3.00250E-02 1.60000E-01
 -1       494 6.33750E-02 3.00250E-02 1.60000E-01
 -1       495 6.30833E-02 3.00250E-02 1.60000E-01
 -1       496 6.27916E-02 3.00250E-02 1.60000E-01
 -1       497 6.25000E-02 3.00250E-02 1.60000E-01
 -1       498 6.22083E-02 3.00250E-02 1.60000E-01
 -1       499 6.19166E-02 3.00250E-02 1.60000E-01
 -1       500 6.16250E-02 3.00250E-02 1.60000E-01
 -1       501 6.13333E-02 3.00250E-02 1.60000E-01
 -1       502 6.10416E-02 3.00250E-02 1.60000E-01
 -1       503 6.07500E-02 3.00250E-02 1.60000E-01
 -1       504 6.04583E-02 3.00250E-02 1.60000E-01
 -1       505 6.01666E-02 3.00250E-02 1.60000E-01
 -1       506 5.98750E-02 3.00250E-02 1.60000E-01
 -1       507 5.95833E-02 3.00250E-02 1.60000E-01
 -1       508 5.92916E-02 3.00250E-02 1.60000E-01
 -1       509 5.90000E-02 3.00250E-02 1.60000E-01
 -1       510 5.87083E-02 3.00250E-02 1.60000E-01
 -1       511 5.84166E-02 3.00250E-02 1.60000E-01
 -1       512 5.81250E-02 3.00250E-02 1.60000E-01
 -1       513 5.78333E-02 3.00250E-02 1.60000E-01
 -1       514 5.75416E-02 3.00250E-02 1.60000E-01
 -1       515 5.72499E-02 3.00250E-02 1.60000E-01
 -1       516 5.69583E-02 3.00250E-02 1.60000E-01
 -1       517 5.66666E-02 3.00250E-02 1.60000E-01
 -1       518 5.63749E-02 3.00250E-02 1.60000E-01
 -1       519 5.60833E-02 3.00250E-02 1.60000E-01
 -1       520 5.57916E-02 3.00250E-02 1.60000E-01
 -1       521 5.54999E-02 3.00250E-02 1.60000E-01
 -1       522 5.52083E-02 3.00250E-02 1.60000E-01
 -1       523 5.49166E-02 3.00250E-02 1.60000E-01
 -1       524 5.46249E-02 3.00250E-02 1.60000E-01
 -1       525 5.43333E-02 3.00250E-02 1.60000E-01
 -1       526 5.40416E-02 3.00250E-02 1.60000E-01
 -1       527 5.37499E-02 3.00250E-02 1.60000E-01
 -1       528 5.34583E-02 3.00250E-02 1.60000E-01
 -1       529 5.31666E-02 3.00250E-02 1.60000E-01
 -1       530 5.28749E-02 3.00250E-02 1.60000E-01
 -1       531 5.25833E-02 3.00250E-02 1.60000E-01
 -1       532 5.22916E-02 3.00250E-02 1.60000E-01
 -1       533 5.19999E-02 3.00250E-02 1.60000E-01
 -1       534 5.17082E-02 3.00250E-02 1.60000E-01
 -1       535 5.14166E-02 3.00250E-02 1.60000E-01
 -1       536 5.11249E-02 3.00250E-02 1.60000E-01
 -1       537 5.08332E-02 3.00250E-02 1.60000E-01
 -1       538 5.05416E-02 3.00250E-02 1.60000E-01
 -1       539 5.02499E-02 3.00250E-02 1.60000E-01
 -1       540 4.99582E-02 3.00250E-02 1.60000E-01
 -1       541 4.96666E-02 3.00250E-02 1.60000E-01
 -1       542 4.93749E-02 3.00250E-02 1.60000E-01
 -1       543 4.90832E-02 3.00250E-02 1.60000E-01
 -1       544 4.87916E-02 3.00250E-02 1.60000E-01
 -1       545 4.84999E-02 3.00250E-02 1.60000E-01
 -1       546 4.82082E-02 3.00250E-02 1.60000E-01
 -1       547 4.79166E-02 3.00250E-02 1.60000E-01
 -1       548 4.76249E-02 3.00250E-02 1.60000E-01
 -1       549 4.73332E-02 3.00250E-02 1.60000E-01
 -1       550 4.70416E-02 3.00250E-02 1.60000E-01
 -1       551 4.67499E-02 3.00250E-02 1.60000E-01
 -1       552 4.64582E-02 3.00250E-02 1.60000E-01
 -1       553 4.61665E-02 3.00250E-02 1.60000E-01
 -1       554 4.58749E-02 3.00250E-02 1.60000E-01
 -1       555 4.55832E-02 3.00250E-02 1.60000E-01
 -1       556 4.52915E-02 3.00250E-02 1.60000E-01
 -1       557 4.49999E-02 3.00250E-02 1.60000E-01
 -1       558 4.47082E-02 3.00250E-02 1.60000E-01
 -1       559 4.44165E-02 3.00250E-02 1.60000E-01
 -1       560 4.41249E-02 3.00250E-02 1.60000E-01
 -1       561 4.38332E-02 3.00250E-02 1.60000E-01
 -1       562 4.35415E-02 3.00250E-02 1.60000E-01
 -1       563 4.32499E-02 3.00250E-02 1.60000E-01
 -1       564 4.29582E-02 3.00250E-02 1.60000E-01
 -1       565 4.26665E-02 3.00250E-02 1.60000E-01
 -1       566 4.23749E-02 3.00250E-02 1.60000E-01
 -1       567 4.20832E-02 3.00250E-02 1.60000E-01
 -1       568 4.17915E-02 3.00250E-02 1.60000E-01
 -1       569 4.14999E-02 3.00250E-02 1.60000E-01
 -1       570 4.12082E-02 3.00250E-02 1.60000E-01
 -1       571 4.09165E-02 3.00250E-02 1.60000E-01
 -1       572 4.06248E-02 3.00250E-02 1.60000E-01
 -1       573 4.03332E-02 3.00250E-02 1.60000E-01
 -1       574 4.00415E-02 3.00250E-02 1.60000E-01
 -1       575 3.97498E-02 3.00250E-02 1.60000E-01
 -1       576 3.94582E-02 3.00250E-02 1.60000E-01
 -1       577 3.91665E-02 3.00250E-02 1.60000E-01
 -1       578 3.88748E-02 3.00250E-02 1.60000E-01
 -1       579 3.85832E-02 3.00250E-02 1.60000E-01
 -1       580 3.82915E-02 3.00250E-02 1.60000E-01
 -1       581 3.79998E-02 3.00250E-02 1.60000E-01
 -1       582 3.77082E-02 3.00250E-02 1.60000E-01
 -1       583 3.74165E-02 3.00250E-02 1.60000E-01
 -1       584 3.71248E-02 3.00250E-02 1.60000E-01
 -1       585 3.68332E-02 3.00250E-02 1.60000E-01
 -1       586 3.65415E-02 3.00250E-02 1.60000E-01
 -1       587 3.62498E-02 3.00250E-02 1.60000E-01
 -1       588 3.59582E-02 3.00250E-02 1.60000E-01
 -1       589 3.56665E-02 3.00250E-02 1.60000E-01
 -1       590 3.53748E-02 3.00250E-02 1.60000E-01
 -1       591 3.50831E-02 3.00250E-02 1.60000E-01
 -1       592 3.47915E-02 3.00250E-02 1.60000E-01
 -1       593 3.44998E-02 3.00250E-02 1.60000E-01
 -1       594 3.42081E-02 3.00250E-02 1.60000E-01
 -1       595 3.39165E-02 3.00250E-02 1.60000E-01
 -1       596 3.36248E-02 3.00250E-02 1.60000E-01
 -1       597 3.33331E-02 3.00250E-02 1.60000E-01
 -1       598 3.30415E-02 3.00250E-02 1.60000E-01
 -1       599 3.27498E-02 3.00250E-02 1.60000E-01
 -1       600 3.24581E-02 3.00250E-02 1.60000E-01
 -1       601 3.21665E-02 3.00250E-02 1.60000E-01
 -1       602 3.18748E-02 3.00250E-02 1.60000E-01
 -1       603 3.15831E-02 3.00250E-02 1.60000E-01
 -1       604 3.12915E-02 3.00250E-02 1.60000E-01
 -1       605 3.09998E-02 3.00250E-02 1.60000E-01
 -1       606 6.60000E-02 3.00250E-02 0.00000E+00
 -1       607 6.57083E-02 3.00250E-02 0.00000E+00
 -1       608 6.54167E-02 3.00250E-02 0.00000E+00
 -1       609 6.51250E-02 3.00250E-02 0.00000E+00
 -1       610 6.48333E-02 3.00250E-02 0.00000E+00
 -1       611 6.45417E-02 3.00250E-02 0.00000E+00
 -1       612 6.42500E-02 3.00250E-02 0.00000E+00
 -1       613 6.39583E-02 3.00250E-02 0.00000E+00
 -1       614 6.36666E-02 3.00250E-02 0.00000E+00
 -1       615 6.33750E-02 3.00250E-02 0.00000E+00
 -1       616 6.30833E-02 3.00250E-02 0.00000E+00
 -1       617 6.27916E-02 3.00250E-02 0.00000E+00
 -1       618 6.25000E-02 3.00250E-02 0.00000E+00
 -1       619 6.22083E-02 3.00250E-02 0.00000E+00
 -1       620 6.19166E-02 3.00250E-02 0.00000E+00
 -1       621 6.16250E-02 3.00250E-02 0.00000E+00
 -1       622 6.13333E-02 3.00250E-02 0.00000E+00
 -1       623 6.10416E-02 3.00250E-02 0.00000E+00
 -1       624 6.07500E-02 3.00250E-02 0.00000E+00
 -1       625 6.04583E-02 3.00250E-02 0.00000E+00
 -1       626 6.01666E-02 3.00250E-02 0.00000E+00
 -1       627 5.98750E-02 3.00250E-02 0.00000E+00
 -1       628 5.95833E-02 3.00250E-02 0.00000E+00
 -1       629 5.92916E-02 3.00250E-02 0.00000E+00
 -1       630 5.90000E-02 3.00250E-02 0.00000E+00
 -1       631 5.87083E-02 3.00250E-02 0.00000E+00
 -1       632 5.84166E-02 3.00250E-02 0.00000E+00
 -1       633 5.81250E-02 3.00250E-02 0.00000E+00
 -1       634 5.78333E-02 3.00250E-02 0.00000E+00
 -1       635 5.75416E-02 3.00250E-02 0.00000E+00
 -1       636 5.72499E-02 3.00250E-02 0.00000E+00
 -1       637 5.69583E-02 3.00250E-02 0.00000E+00
 -1       638 5.66666E-02 3.00250E-02 0.00000E+00
 -1       639 5.63749E-02 3.00250E-02 0.00000E+00
 -1       640 5.60833E-02 3.00250E-02 0.00000E+00
 -1       641 5.57916E-02 3.00250E-02 0.00000E+00
 -1       642 5.54999E-02 3.00250E-02 0.00000E+00
 -1       643 5.52083E-02 3.00250E-02 0.00000E+00
 -1       644 5.49166E-02 3.00250E-02 0.00000E+00
 -1       645 5.46249E-02 3.00250E-02 0.00000E+00
 -1       646 5.43333E-02 3.00250E-02 0.00000E+00
 -1       647 5.40416E-02 3.00250E-02 0.00000E+00
 -1       648 5.37499E-02 3.00250E-02 0.00000E+00
 -1       649 5.34583E-02 3.00250E-02 0.00000E+00
 -1       650 5.31666E-02 3.00250E-02 0.00000E+00
 -1       651 5.28749E-02 3.00250E-02 0.00000E+00
 -1       652 5.25833E-02 3.00250E-02 0.00000E+00
 -1       653 5.22916E-02 3.00250E-02 0.00000E+00
 -1       654 5.19999E-02 3.00250E-02 0.00000E+00
 -1       655 5.17082E-02 3.00250E-02 0.00000E+00
 -1       656 5.14166E-02 3.00250E-02 0.00000E+00
 -1       657 5.11249E-02 3.00250E-02 0.00000E+00
 -1       658 5.08332E-02 3.00250E-02 0.00000E+00
 -1       659 5.05416E-02 3.00250E-02 0.00000E+00
 -1       660 5.02499E-02 3.00250E-02 0.00000E+00
 -1       661 4.99582E-02 3.00250E-02 0.00000E+00
 -1       662 4.96666E-02 3.00250E-02 0.00000E+00
 -1       663 4.93749E-02 3.00250E-02 0.00000E+00
 -1       664 4.90832E-02 3.00250E-02 0.00000E+00
 -1       665 4.87916E-02 3.00250E-02 0.00000E+00
 -1       666 4.84999E-02 3.00250E-02 0.00000E+00
 -1       667 4.82082E-02 3.00250E-02 0.00000E+00
 -1       668 4.79166E-02 3.00250E-02 0.00000E+00
 -1       669 4.76249E-02 3.00250E-02 0.00000E+00
 -1       670 4.73332E-02 3.00250E-02 0.00000E+00
 -1       671 4.70416E-02 3.00250E-02 0.00000E+00
 -1       672 4.67499E-02 3.00250E-02 0.00000E+00
 -1       673 4.64582E-02 3.00250E-02 0.00000E+00
 -1       674 4.61665E-02 3.00250E-02 0.00000E+00
 -1       675 4.58749E-02 3.00250E-02 0.00000E+00
 -1       676 4.55832E-02 3.00250E-02 0.00000E+00
 -1       677 4.52915E-02 3.00250E-02 0.00000E+00
 -1       678 4.49999E-02 3.00250E-02 0.00000E+00
 -1       679 4.47082E-02 3.00250E-02 0.00000E+00
 -1       680 4.44165E-02 3.00250E-02 0.00000E+00
 -1       681 4.41249E-02 3.00250E-02 0.00000E+00
 -1       682 4.38332E-02 3.00250E-02 0.00000E+00
 -1       683 4.35415E-02 3.00250E-02 0.00000E+00
 -1       684 4.32499E-02 3.00250E-02 0.00000E+00
 -1       685 4.29582E-02 3.00250E-02 0.00000E+00
 -1       686 4.26665E-02 3.00250E-02 0.00000E+00
 -1       687 4.23749E-02 3.00250E-02 0.00000E+00
 -1       688 4.20832E-02 3.00250E-02 0.00000E+00
 -1       689 4.17915E-02 3.00250E-02 0.00000E+00
 -1       690 4.14999E-02 3.00250E-02 0.00000E+00
 -1       691 4.12082E-02 3.00250E-02 0.00000E+00
 -1       692 4.09165E-02 3.00250E-02 0.00000E+00
 -1       693 4.06248E-02 3.00250E-02 0.00000E+00
 -1       694 4.03332E-02 3.00250E-02 0.00000E+00
 -1       695 4.00415E-02 3.00250E-02 0.00000E+00
 -1       696 3.97498E-02 3.00250E-02 0.00000E+00
 -1       697 3.94582E-02 3.00250E-02 0.00000E+00
 -1       698 3.91665E-02 3.00250E-02 0.00000E+00
 -1       699 3.88748E-02 3.00250E-02 0.00000E+00
 -1       700 3.85832E-02 3.00250E-02 0.00000E+00
 -1       701 3.82915E-02 3.00250E-02 0.00000E+00
 -1       702 3.79998E-02 3.00250E-02 0.00000E+00
 -1       703 3.77082E-02 3.00250E-02 0.00000E+00
 -1       704 3.74165E-02 3.00250E-02 0.00000E+00
 -1       705 3.71248E-02 3.00250E-02 0.00000E+00
 -1       706 3.68332E-02 3.00250E-02 0.00000E+00
 -1       707 3.65415E-02 3.00250E-02 0.00000E+00
 -1       708 3.62498E-02 3.00250E-02 0.00000E+00
 -1       709 3.59582E-02 3.00250E-02 0.00000E+00
 -1       710 3.56665E-02 3.00250E-02 0.00000E+00
 -1       711 3.53748E-02 3.00250E-02 0.00000E+00
 -1       712 3.50831E-02 3.00250E-02 0.00000E+00
 -1       713 3.47915E-02 3.00250E-02 0.00000E+00
 -1       714 3.44998E-02 3.00250E-02 0.00000E+00
 -1       715 3.42081E-02 3.00250E-02 0.00000E+00
 -1       716 3.39165E-02 3.00250E-02 0.00000E+00
 -1       717 3.36248E-02 3.00250E-02 0.00000E+00
 -1       718 3.33331E-02 3.00250E-02 0.00000E+00
 -1       719 3.30415E-02 3.00250E-02 0.00000E+00
 -1       720 3.27498E-02 3.00250E-02 0.00000E+00
 -1       721 3.24581E-02 3.00250E-02 0.00000E+00
 -1       722 3.21665E-02 3.00250E-02 0.00000E+00
 -1       723 3.18748E-02 3.00250E-02 0.00000E+00
 -1       724 3.15831E-02 3.00250E-02 0.00000E+00
 -1       725 3.12915E-02 3.00250E-02 0.00000E+00
 -1       726 3.09998E-02 3.00250E-02 0.00000E+00
 -1       727 6.60000E-02 2.99750E-02 1.60000E-01
 -3
    3C                           240                                     1
 -1         1    1    0    1
 -2       243       244       365       364       727         2       123       122
 -1         2    1    0    1
 -2       244       245       366       365         2         3       124       123
 -1         3    1    0    1
 -2       245       246       367       366         3         4       125       124
 -1         4    1    0    1
 -2       246       247       368       367         4         5       126       125
 -1         5    1    0    1
 -2       247       248       369       368         5         6       127       126
 -1         6    1    0    1
 -2       248       249       370       369         6         7       128       127
 -1         7    1    0    1
 -2       249       250       371       370         7         8       129       128
 -1         8    1    0    1
 -2       250       251       372       371         8         9       130       129
 -1         9    1    0    1
 -2       251       252       373       372         9        10       131       130
 -1        10    1    0    1
 -2       252       253       374       373        10        11       132       131
 -1        11    1    0    1
 -2       253       254       375       374        11        12       133       132
 -1        12    1    0    1
 -2       254       255       376       375        12        13       134       133
 -1        13    1    0    1
 -2       255       256       377       376        13        14       135       134
 -1        14    1    0    1
 -2       256       257       378       377        14        15       136       135
 -1        15    1    0    1
 -2       257       258       379       378        15        16       137       136
 -1        16    1    0    1
 -2       258       259       380       379        16        17       138       137
 -1        17    1    0    1
 -2       259       260       381       380        17        18       139       138
 -1        18    1    0    1
 -2       260       261       382       381        18        19       140       139
 -1        19    1    0    1
 -2       261       262       383       382        19        20       141       140
 -1        20    1    0    1
 -2       262       263       384       383        20        21       142       141
 -1        21    1    0    1
 -2       263       264       385       384        21        22       143       142
 -1        22    1    0    1
 -2       264       265       386       385        22        23       144       143
 -1        23    1    0    1
 -2       265       266       387       386        23        24       145       144
 -1        24    1    0    1
 -2       266       267       388       387        24        25       146       145
 -1        25    1    0    1
 -2       267       268       389       388        25        26       147       146
 -1        26    1    0    1
 -2       268       269       390       389        26        27       148       147
 -1        27    1    0    1
 -2       269       270       391       390        27        28       149       148
 -1        28    1    0    1
 -2       270       271       392       391        28        29       150       149
 -1        29    1    0    1
 -2       271       272       393       392        29        30       151       150
 -1        30    1    0    1
 -2       272       273       394       393        30        31       152       151
 -1        31    1    0    1
 -2       273       274       395       394        31        32       153       152
 -1        32    1    0    1
 -2       274       275       396       395        32        33       154       153
 -1        33    1    0    1
 -2       275       276       397       396        33        34       155       154
 -1        34    1    0    1
 -2       276       277       398       397        34        35       156       155
 -1        35    1    0    1
 -2       277       278       399       398        35        36       157       156
 -1        36    1    0    1
 -2       278       279       400       399        36        37       158       157
 -1        37    1    0    1
 -2       279       280       401       400        37        38       159       158
 -1        38    1    0    1
 -2       280       281       402       401        38        39       160       159
 -1        39    1    0    1
 -2       281       282       403       402        39        40       161       160
 -1        40    1    0    1
 -2       282       283       404       403        40        41       162       161
 -1        41    1    0    1
 -2       283       284       405       404        41        42       163       162
 -1        42    1    0    1
 -2       284       285       406       405        42        43       164       163
 -1        43    1    0    1
 -2       285       286       407       406        43        44       165       164
 -1        44    1    0    1
 -2       286       287       408       407        44        45       166       165
 -1        45    1    0    1
 -2       287       288       409       408        45        46       167       166
 -1        46    1    0    1
 -2       288       289       410       409        46        47       168       167
 -1        47    1    0    1
 -2       289       290       411       410        47        48       169       168
 -1        48    1    0    1
 -2       290       291       412       411        48        49       170       169
 -1        49    1    0    1
 -2       291       292       413       412        49        50       171       170
 -1        50    1    0    1
 -2       292       293       414       413        50        51       172       171
 -1        51    1    0    1
 -2       293       294       415       414        51        52       173       172
 -1        52    1    0    1
 -2       294       295       416       415        52        53       174       173
 -1        53    1    0    1
 -2       295       296       417       416        53        54       175       174
 -1        54    1    0    1
 -2       296       297       418       417        54        55       176       175
 -1        55    1    0    1
 -2       297       298       419       418        55        56       177       176
 -1        56    1    0    1
 -2       298       299       420       419        56        57       178       177
 -1        57    1    0    1
 -2       299       300       421       420        57        58       179       178
 -1        58    1    0    1
 -2       300       301       422       421        58        59       180       179
 -1        59    1    0    1
 -2       301       302       423       422        59        60       181       180
 -1        60    1    0    1
 -2       302       303       424       423        60        61       182       181
 -1        61    1    0    1
 -2       303       304       425       424        61        62       183       182
 -1        62    1    0    1
 -2       304       305       426       425        62        63       184       183
 -1        63    1    0    1
 -2       305       306       427       426        63        64       185       184
 -1        64    1    0    1
 -2       306       307       428       427        64        65       186       185
 -1        65    1    0    1
 -2       307       308       429       428        65        66       187       186
 -1        66    1    0    1
 -2       308       309       430       429        66        67       188       187
 -1        67    1    0    1
 -2       309       310       431       430        67        68       189       188
 -1        68    1    0    1
 -2       310       311       432       431        68        69       190       189
 -1        69    1    0    1
 -2       311       312       433       432        69        70       191       190
 -1        70    1    0    1
 -2       312       313       434       433        70        71       192       191
 -1        71    1    0    1
 -2       313       314       435       434        71        72       193       192
 -1        72    1    0    1
 -2       314       315       436       435        72        73       194       193
 -1        73    1    0    1
 -2       315       316       437       436        73        74       195       194
 -1        74    1    0    1
 -2       316       317       438       437        74        75       196       195
 -1        75    1    0    1
 -2       317       318       439       438        75        76       197       196
 -1        76    1    0    1
 -2       318       319       440       439        76        77       198       197
 -1        77    1    0    1
 -2       319       320       441       440        77        78       199       198
 -1        78    1    0    1
 -2       320       321       442       441        78        79       200       199
 -1        79    1    0    1
 -2       321       322       443       442        79        80       201       200
 -1        80    1    0    1
 -2       322       323       444       443        80        81       202       201
 -1        81    1    0    1
 -2       323       324       445       444        81        82       203       202
 -1        82    1    0    1
 -2       324       325       446       445        82        83       204       203
 -1        83    1    0    1
 -2       325       326       447       446        83        84       205       204
 -1        84    1    0    1
 -2       326       327       448       447        84        85       206       205
 -1        85    1    0    1
 -2       327       328       449       448        85        86       207       206
 -1        86    1    0    1
 -2       328       329       450       449        86        87       208       207
 -1        87    1    0    1
 -2       329       330       451       450        87        88       209       208
 -1        88    1    0    1
 -2       330       331       452       451        88        89       210       209
 -1        89    1    0    1
 -2       331       332       453       452        89        90       211       210
 -1        90    1    0    1
 -2       332       333       454       453        90        91       212       211
 -1        91    1    0    1
 -2       333       334       455       454        91        92       213       212
 -1        92    1    0    1
 -2       334       335       456       455        92        93       214       213
 -1        93    1    0    1
 -2       335       336       457       456        93        94       215       214
 -1        94    1    0    1
 -2       336       337       458       457        94        95       216       215
 -1        95    1    0    1
 -2       337       338       459       458        95        96       217       216
 -1        96    1    0    1
 -2       338       339       460       459        96        97       218       217
 -1        97    1    0    1
 -2       339       340       461       460        97        98       219       218
 -1        98    1    0    1
 -2       340       341       462       461        98        99       220       219
 -1        99    1    0    1
 -2       341       342       463       462        99       100       221       220
 -1       100    1    0    1
 -2       342       343       464       463       100       101       222       221
 -1       101    1    0    1
 -2       343       344       465       464       101       102       223       222
 -1       102    1    0    1
 -2       344       345       466       465       102       103       224       223
 -1       103    1    0    1
 -2       345       346       467       466       103       104       225       224
 -1       104    1    0    1
 -2       346       347       468       467       104       105       226       225
 -1       105    1    0    1
 -2       347       348       469       468       105       106       227       226
 -1       106    1    0    1
 -2       348       349       470       469       106       107       228       227
 -1       107    1    0    1
 -2       349       350       471       470       107       108       229       228
 -1       108    1    0    1
 -2       350       351       472       471       108       109       230       229
 -1       109    1    0    1
 -2       351       352       473       472       109       110       231       230
 -1       110    1    0    1
 -2       352       353       474       473       110       111       232       231
 -1       111    1    0    1
 -2       353       354       475       474       111       112       233       232
 -1       112    1    0    1
 -2       354       355       476       475       112       113       234       233
 -1       113    1    0    1
 -2       355       356       477       476       113       114       235       234
 -1       114    1    0    1
 -2       356       357       478       477       114       115       236       235
 -1       115    1    0    1
 -2       357       358       479       478       115       116       237       236
 -1       116    1    0    1
 -2       358       359       480       479       116       117       238       237
 -1       117    1    0    1
 -2       359       360       481       480       117       118       239       238
 -1       118    1    0    1
 -2       360       361       482       481       118       119       240       239
 -1       119    1    0    1
 -2       361       362       483       482       119       120       241       240
 -1       120    1    0    1
 -2       362       363       484       483       120       121       242       241
 -1       121    1    0    1
 -2       485       486       607       606       243       244       365       364
 -1       122    1    0    1
 -2       486       487       608       607       244       245       366       365
 -1       123    1    0    1
 -2       487       488       609       608       245       246       367       366
 -1       124    1    0    1
 -2       488       489       610       609       246       247       368       367
 -1       125    1    0    1
 -2       489       490       611       610       247       248       369       368
 -1       126    1    0    1
 -2       490       491       612       611       248       249       370       369
 -1       127    1    0    1
 -2       491       492       613       612       249       250       371       370
 -1       128    1    0    1
 -2       492       493       614       613       250       251       372       371
 -1       129    1    0    1
 -2       493       494       615       614       251       252       373       372
 -1       130    1    0    1
 -2       494       495       616       615       252       253       374       373
 -1       131    1    0    1
 -2       495       496       617       616       253       254       375       374
 -1       132    1    0    1
 -2       496       497       618       617       254       255       376       375
 -1       133    1    0    1
 -2       497       498       619       618       255       256       377       376
 -1       134    1    0    1
 -2       498       499       620       619       256       257       378       377
 -1       135    1    0    1
 -2       499       500       621       620       257       258       379       378
 -1       136    1    0    1
 -2       500       501       622       621       258       259       380       379
 -1       137    1    0    1
 -2       501       502       623       622       259       260       381       380
 -1       138    1    0    1
 -2       502       503       624       623       260       261       382       381
 -1       139    1    0    1
 -2       503       504       625       624       261       262       383       382
 -1       140    1    0    1
 -2       504       505       626       625       262       263       384       383
 -1       141    1    0    1
 -2       505       506       627       626       263       264       385       384
 -1       142    1    0    1
 -2       506       507       628       627       264       265       386       385
 -1       143    1    0    1
 -2       507       508       629       628       265       266       387       386
 -1       144    1    0    1
 -2       508       509       630       629       266       267       388       387
 -1       145    1    0    1
 -2       509       510       631       630       267       268       389       388
 -1       146    1    0    1
 -2       510       511       632       631       268       269       390       389
 -1       147    1    0    1
 -2       511       512       633       632       269       270       391       390
 -1       148    1    0    1
 -2       512       513       634       633       270       271       392       391
 -1       149    1    0    1
 -2       513       514       635       634       271       272       393       392
 -1       150    1    0    1
 -2       514       515       636       635       272       273       394       393
 -1       151    1    0    1
 -2       515       516       637       636       273       274       395       394
 -1       152    1    0    1
 -2       516       517       638       637       274       275       396       395
 -1       153    1    0    1
 -2       517       518       639       638       275       276       397       396
 -1       154    1    0    1
 -2       518       519       640       639       276       277       398       397
 -1       155    1    0    1
 -2       519       520       641       640       277       278       399       398
 -1       156    1    0    1
 -2       520       521       642       641       278       279       400       399
 -1       157    1    0    1
 -2       521       522       643       642       279       280       401       400
 -1       158    1    0    1
 -2       522       523       644       643       280       281       402       401
 -1       159    1    0    1
 -2       523       524       645       644       281       282       403       402
 -1       160    1    0    1
 -2       524       525       646       645       282       283       404       403
 -1       161    1    0    1
 -2       525       526       647       646       283       284       405       404
 -1       162    1    0    1
 -2       526       527       648       647       284       285       406       405
 -1       163    1    0    1
 -2       527       528       649       648       285       286       407       406
 -1       164    1    0    1
 -2       528       529       650       649       286       287       408       407
 -1       165    1    0    1
 -2       529       530       651       650       287       288       409       408
 -1       166    1    0    1
 -2       530       531       652       651       288       289       410       409
 -1       167    1    0    1
 -2       531       532       653       652       289       290       411       410
 -1       168    1    0    1
 -2       532       533       654       653       290       291       412       411
 -1       169    1    0    1
 -2       533       534       655       654       291       292       413       412
 -1       170    1    0    1
 -2       534       535       656       655       292       293       414       413
 -1       171    1    0    1
 -2       535       536       657       656       293       294       415       414
 -1       172    1    0    1
 -2       536       537       658       657       294       295       416       415
 -1       173    1    0    1
 -2       537       538       659       658       295       296       417       416
 -1       174    1    0    1
 -2       538       539       660       659       296       297       418       417
 -1       175    1    0    1
 -2       539       540       661       660       297       298       419       418
 -1       176    1    0    1
 -2       540       541       662       661       298       299       420       419
 -1       177    1    0    1
 -2       541       542       663       662       299       300       421       420
 -1       178    1    0    1
 -2       542       543       664       663       300       301       422       421
 -1       179    1    0    1
 -2       543       544       665       664       301       302       423       422
 -1       180    1    0    1
 -2       544       545       666       665       302       303       424       423
 -1       181    1    0    1
 -2       545       546       667       666       303       304       425       424
 -1       182    1    0    1
 -2       546       547       668       667       304       305       426       425
 -1       183    1    0    1
 -2       547       548       669       668       305       306       427       426
 -1       184    1    0    1
 -2       548       549       670       669       306       307       428       427
 -1       185    1    0    1
 -2       549       550       671       670       307       308       429       428
 -1       186    1    0    1
 -2       550       551       672       671       308       309       430       429
 -1       187    1    0    1
 -2       551       552       673       672       309       310       431       430
 -1       188    1    0    1
 -2       552       553       674       673       310       311       432       431
 -1       189    1    0    1
 -2       553       554       675       674       311       312       433       432
 -1       190    1    0    1
 -2       554       555       676       675       312       313       434       433
 -1       191    1    0    1
 -2       555       556       677       676       313       314       435       434
 -1       192    1    0    1
 -2       556       557       678       677       314       315       436       435
 -1       193    1    0    1
 -2       557       558       679       678       315       316       437       436
 -1       194    1    0    1
 -2       558       559       680       679       316       317       438       437
 -1       195    1    0    1
 -2       559       560       681       680       317       318       439       438
 -1       196    1    0    1
 -2       560       561       682       681       318       319       440       439
 -1       197    1    0    1
 -2       561       562       683       682       319       320       441       440
 -1       198    1    0    1
 -2       562       563       684       683       320       321       442       441
 -1       199    1    0    1
 -2       563       564       685       684       321       322       443       442
 -1       200    1    0    1
 -2       564       565       686       685       322       323       444       443
 -1       201    1    0    1
 -2       565       566       687       686       323       324       445       444
 -1       202    1    0    1
 -2       566       567       688       687       324       325       446       445
 -1       203    1    0    1
 -2       567       568       689       688       325       326       447       446
 -1       204    1    0    1
 -2       568       569       690       689       326       327       448       447
 -1       205    1    0    1
 -2       569       570       691       690       327       328       449       448
 -1       206    1    0    1
 -2       570       571       692       691       328       329       450       449
 -1       207    1    0    1
 -2       571       572       693       692       329       330       451       450
 -1       208    1    0    1
 -2       572       573       694       693       330       331       452       451
 -1       209    1    0    1
 -2       573       574       695       694       331       332       453       452
 -1       210    1    0    1
 -2       574       575       696       695       332       333       454       453
 -1       211    1    0    1
 -2       575       576       697       696       333       334       455       454
 -1       212    1    0    1
 -2       576       577       698       697       334       335       456       455
 -1       213    1    0    1
 -2       577       578       699       698       335       336       457       456
 -1       214    1    0    1
 -2       578       579       700       699       336       337       458       457
 -1       215    1    0    1
 -2       579       580       701       700       337       338       459       458
 -1       216    1    0    1
 -2       580       581       702       701       338       339       460       459
 -1       217    1    0    1
 -2       581       582       703       702       339       340       461       460
 -1       218    1    0    1
 -2       582       583       704       703       340       341       462       461
 -1       219    1    0    1
 -2       583       584       705       704       341       342       463       462
 -1       220    1    0    1
 -2       584       585       706       705       342       343       464       463
 -1       221    1    0    1
 -2       585       586       707       706       343       344       465       464
 -1       222    1    0    1
 -2       586       587       708       707       344       345       466       465
 -1       223    1    0    1
 -2       587       588       709       708       345       346       467       466
 -1       224    1    0    1
 -2       588       589       710       709       346       347       468       467
 -1       225    1    0    1
 -2       589       590       711       710       347       348       469       468
 -1       226    1    0    1
 -2       590       591       712       711       348       349       470       469
 -1       227    1    0    1
 -2       591       592       713       712       349       350       471       470
 -1       228    1    0    1
 -2       592       593       714       713       350       351       472       471
 -1       229    1    0    1
 -2       593       594       715       714       351       352       473       472
 -1       230    1    0    1
 -2       594       595       716       715       352       353       474       473
 -1       231    1    0    1
 -2       595       596       717       716       353       354       475       474
 -1       232    1    0    1
 -2       596       597       718       717       354       355       476       475
 -1       233    1    0    1
 -2       597       598       719       718       355       356       477       476
 -1       234    1    0    1
 -2       598       599       720       719       356       357       478       477
 -1       235    1    0    1
 -2       599       600       721       720       357       358       479       478
 -1       236    1    0    1
 -2       600       601       722       721       358       359       480       479
 -1       237    1    0    1
 -2       601       602       723       722       359       360       481       480
 -1       238    1    0    1
 -2       602       603       724       723       360       361       482       481
 -1       239    1    0    1
 -2       603       604       725       724       361       362       483       482
 -1       240    1    0    1
 -2       604       605       726       725       362       363       484       483
 -3
    1PSTEP                         1           1           1          
    1PGM                1.000000E+00                                  
    1PGK                6.954368E+03                                  
    1PHID                         -1                                  
    1PSUBC                         0                                  
    1PMODE                         1                                  
  100CL  101 13.27238496         726                     2    1MODAL      1
 -4  DISP        4    1
 -5  D1          1    2    1    0
 -5  D2          1    2    2    0
 -5  D3          1    2    3    0
 -5  ALL         1    2    0    0    1ALL
 -1         2-9.97822E-02-1.00250E+02 0.00000E+00
 -1         3-9.97815E-02-9.90856E+01 0.00000E+00
 -1         4-9.97799E-02-9.79215E+01 0.00000E+00
 -1         5-9.97767E-02-9.67574E+01 0.00000E+00
 -1         6-9.97715E-02-9.55933E+01 0.00000E+00
 -1         7-9.97638E-02-9.44294E+01 0.00000E+00
 -1         8-9.97531E-02-9.32655E+01 0.00000E+00
 -1         9-9.97388E-02-9.21017E+01 0.00000E+00
 -1        10-9.97206E-02-9.09382E+01 0.00000E+00
 -1        11-9.96980E-02-8.97749E+01 0.00000E+00
 -1        12-9.96705E-02-8.86119E+01 0.00000E+00
 -1        13-9.96376E-02-8.74492E+01 0.00000E+00
 -1        14-9.95989E-02-8.62870E+01 0.00000E+00
 -1        15-9.95540E-02-8.51252E+01 0.00000E+00
 -1        16-9.95023E-02-8.39640E+01 0.00000E+00
 -1        17-9.94436E-02-8.28035E+01 0.00000E+00
 -1        18-9.93773E-02-8.16437E+01 0.00000E+00
 -1        19-9.93030E-02-8.04846E+01 0.00000E+00
 -1        20-9.92203E-02-7.93266E+01 0.00000E+00
 -1        21-9.91289E-02-7.81695E+01 0.00000E+00
 -1        22-9.90282E-02-7.70135E+01 0.00000E+00
 -1        23-9.89179E-02-7.58588E+01 0.00000E+00
 -1        24-9.87976E-02-7.47055E+01 0.00000E+00
 -1        25-9.86670E-02-7.35536E+01 0.00000E+00
 -1        26-9.85256E-02-7.24032E+01 0.00000E+00
 -1        27-9.83731E-02-7.12546E+01 0.00000E+00
 -1        28-9.82091E-02-7.01079E+01 0.00000E+00
 -1        29-9.80332E-02-6.89631E+01 0.00000E+00
 -1        30-9.78451E-02-6.78204E+01 0.00000E+00
 -1        31-9.76444E-02-6.66801E+01 0.00000E+00
 -1        32-9.74309E-02-6.55421E+01 0.00000E+00
 -1        33-9.72040E-02-6.44067E+01 0.00000E+00
 -1        34-9.69636E-02-6.32740E+01 0.00000E+00
 -1        35-9.67093E-02-6.21442E+01 0.00000E+00
 -1        36-9.64407E-02-6.10175E+01 0.00000E+00
 -1        37-9.61577E-02-5.98940E+01 0.00000E+00
 -1        38-9.58596E-02-5.87738E+01 0.00000E+00
 -1        39-9.55466E-02-5.76573E+01 0.00000E+00
 -1        40-9.52179E-02-5.65444E+01 0.00000E+00
 -1        41-9.48737E-02-5.54355E+01 0.00000E+00
 -1        42-9.45132E-02-5.43307E+01 0.00000E+00
 -1        43-9.41366E-02-5.32303E+01 0.00000E+00
 -1        44-9.37433E-02-5.21343E+01 0.00000E+00
 -1        45-9.33331E-02-5.10430E+01 0.00000E+00
 -1        46-9.29059E-02-4.99565E+01 0.00000E+00
 -1        47-9.24610E-02-4.88752E+01 0.00000E+00
 -1        48-9.19989E-02-4.77991E+01 0.00000E+00
 -1        49-9.15185E-02-4.67286E+01 0.00000E+00
 -1        50-9.10203E-02-4.56638E+01 0.00000E+00
 -1        51-9.05035E-02-4.46049E+01 0.00000E+00
 -1        52-8.99683E-02-4.35521E+01 0.00000E+00
 -1        53-8.94141E-02-4.25056E+01 0.00000E+00
 -1        54-8.88409E-02-4.14658E+01 0.00000E+00
 -1        55-8.82485E-02-4.04327E+01 0.00000E+00
 -1        56-8.76365E-02-3.94067E+01 0.00000E+00
 -1        57-8.70050E-02-3.83880E+01 0.00000E+00
 -1        58-8.63534E-02-3.73767E+01 0.00000E+00
 -1        59-8.56820E-02-3.63731E+01 0.00000E+00
 -1        60-8.49901E-02-3.53775E+01 0.00000E+00
 -1        61-8.42779E-02-3.43901E+01 0.00000E+00
 -1        62-8.35449E-02-3.34111E+01 0.00000E+00
 -1        63-8.27914E-02-3.24407E+01 0.00000E+00
 -1        64-8.20167E-02-3.14793E+01 0.00000E+00
 -1        65-8.12209E-02-3.05271E+01 0.00000E+00
 -1        66-8.04040E-02-2.95843E+01 0.00000E+00
 -1        67-7.95654E-02-2.86511E+01 0.00000E+00
 -1        68-7.87054E-02-2.77278E+01 0.00000E+00
 -1        69-7.78235E-02-2.68147E+01 0.00000E+00
 -1        70-7.69200E-02-2.59120E+01 0.00000E+00
 -1        71-7.59941E-02-2.50200E+01 0.00000E+00
 -1        72-7.50464E-02-2.41389E+01 0.00000E+00
 -1        73-7.40762E-02-2.32690E+01 0.00000E+00
 -1        74-7.30838E-02-2.24105E+01 0.00000E+00
 -1        75-7.20688E-02-2.15638E+01 0.00000E+00
 -1        76-7.10311E-02-2.07290E+01 0.00000E+00
 -1        77-6.99710E-02-1.99065E+01 0.00000E+00
 -1        78-6.88876E-02-1.90964E+01 0.00000E+00
 -1        79-6.77817E-02-1.82992E+01 0.00000E+00
 -1        80-6.66524E-02-1.75149E+01 0.00000E+00
 -1        81-6.55005E-02-1.67440E+01 0.00000E+00
 -1        82-6.43248E-02-1.59867E+01 0.00000E+00
 -1        83-6.31261E-02-1.52432E+01 0.00000E+00
 -1        84-6.19042E-02-1.45138E+01 0.00000E+00
 -1        85-6.06584E-02-1.37989E+01 0.00000E+00
 -1        86-5.93896E-02-1.30986E+01 0.00000E+00
 -1        87-5.80966E-02-1.24132E+01 0.00000E+00
 -1        88-5.67808E-02-1.17431E+01 0.00000E+00
 -1        89-5.54403E-02-1.10884E+01 0.00000E+00
 -1        90-5.40769E-02-1.04496E+01 0.00000E+00
 -1        91-5.26891E-02-9.82675E+00 0.00000E+00
 -1        92-5.12776E-02-9.22027E+00 0.00000E+00
 -1        93-4.98424E-02-8.63038E+00 0.00000E+00
 -1        94-4.83827E-02-8.05739E+00 0.00000E+00
 -1        95-4.68998E-02-7.50156E+00 0.00000E+00
 -1        96-4.53917E-02-6.96317E+00 0.00000E+00
 -1        97-4.38607E-02-6.44252E+00 0.00000E+00
 -1        98-4.23046E-02-5.93987E+00 0.00000E+00
 -1        99-4.07251E-02-5.45552E+00 0.00000E+00
 -1       100-3.91209E-02-4.98974E+00 0.00000E+00
 -1       101-3.74925E-02-4.54281E+00 0.00000E+00
 -1       102-3.58405E-02-4.11502E+00 0.00000E+00
 -1       103-3.41631E-02-3.70665E+00 0.00000E+00
 -1       104-3.24627E-02-3.31799E+00 0.00000E+00
 -1       105-3.07369E-02-2.94931E+00 0.00000E+00
 -1       106-2.89877E-02-2.60091E+00 0.00000E+00
 -1       107-2.72133E-02-2.27306E+00 0.00000E+00
 -1       108-2.54155E-02-1.96605E+00 0.00000E+00
 -1       109-2.35924E-02-1.68016E+00 0.00000E+00
 -1       110-2.17454E-02-1.41568E+00 0.00000E+00
 -1       111-1.98743E-02-1.17289E+00 0.00000E+00
 -1       112-1.79781E-02-9.52078E-01 0.00000E+00
 -1       113-1.60584E-02-7.53525E-01 0.00000E+00
 -1       114-1.41133E-02-5.77518E-01 0.00000E+00
 -1       115-1.21451E-02-4.24337E-01 0.00000E+00
 -1       116-1.01506E-02-2.94272E-01 0.00000E+00
 -1       117-8.13509E-03-1.87601E-01 0.00000E+00
 -1       118-6.08699E-03-1.04636E-01 0.00000E+00
 -1       119-4.04014E-03-4.55541E-02 0.00000E+00
 -1       120-1.88133E-03-1.10229E-02 0.00000E+00
 -1       121 0.00000E+00 0.00000E+00 0.00000E+00
 -1       122-9.97823E-02-1.01414E+02 0.00000E+00
 -1       123-9.97822E-02-1.00250E+02 0.00000E+00
 -1       124-9.97815E-02-9.90856E+01 0.00000E+00
 -1       125-9.97799E-02-9.79215E+01 0.00000E+00
 -1       126-9.97767E-02-9.67574E+01 0.00000E+00
 -1       127-9.97715E-02-9.55933E+01 0.00000E+00
 -1       128-9.97638E-02-9.44294E+01 0.00000E+00
 -1       129-9.97531E-02-9.32655E+01 0.00000E+00
 -1       130-9.97388E-02-9.21017E+01 0.00000E+00
 -1       131-9.97206E-02-9.09382E+01 0.00000E+00
 -1       132-9.96980E-02-8.97749E+01 0.00000E+00
 -1       133-9.96705E-02-8.86119E+01 0.00000E+00
 -1       134-9.96376E-02-8.74492E+01 0.00000E+00
 -1       135-9.95989E-02-8.62870E+01 0.00000E+00
 -1       136-9.95540E-02-8.51252E+01 0.00000E+00
 -1       137-9.95023E-02-8.39640E+01 0.00000E+00
 -1       138-9.94436E-02-8.28035E+01 0.00000E+00
 -1       139-9.93773E-02-8.16437E+01 0.00000E+00
 -1       140-9.93030E-02-8.04846E+01 0.00000E+00
 -1       141-9.92203E-02-7.93266E+01 0.00000E+00
 -1       142-9.91289E-02-7.81695E+01 0.00000E+00
 -1       143-9.90282E-02-7.70135E+01 0.00000E+00
 -1       144-9.89179E-02-7.58588E+01 0.00000E+00
 -1       145-9.87976E-02-7.47055E+01 0.00000E+00
 -1       146-9.86670E-02-7.35536E+01 0.00000E+00
 -1       147-9.85256E-02-7.24032E+01 0.00000E+00
 -1       148-9.83731E-02-7.12546E+01 0.00000E+00
 -1       149-9.82091E-02-7.01079E+01 0.00000E+00
 -1       150-9.80332E-02-6.89631E+01 0.00000E+00
 -1       151-9.78451E-02-6.78204E+01 0.00000E+00
 -1       152-9.76444E-02-6.66801E+01 0.00000E+00
 -1       153-9.74309E-02-6.55421E+01 0.00000E+00
 -1       154-9.72040E-02-6.44067E+01 0.00000E+00
 -1       155-9.69636E-02-6.32740E+01 0.00000E+00
 -1       156-9.67093E-02-6.21442E+01 0.00000E+00
 -1       157-9.64407E-02-6.10175E+01 0.00000E+00
 -1       158-9.61577E-02-5.98940E+01 0.00000E+00
 -1       159-9.58596E-02-5.87738E+01 0.00000E+00
 -1       160-9.55466E-02-5.76573E+01 0.00000E+00
 -1       161-9.52179E-02-5.65444E+01 0.00000E+00
 -1       162-9.48737E-02-5.54355E+01 0.00000E+00
 -1       163-9.45132E-02-5.43307E+01 0.00000E+00
 -1       164-9.41366E-02-5.32303E+01 0.00000E+00
 -1       165-9.37433E-02-5.21343E+01 0.00000E+00
 -1       166-9.33331E-02-5.10430E+01 0.00000E+00
 -1       167-9.29059E-02-4.99565E+01 0.00000E+00
 -1       168-9.24610E-02-4.88752E+01 0.00000E+00
 -1       169-9.19989E-02-4.77991E+01 0.00000E+00
 -1       170-9.15185E-02-4.67286E+01 0.00000E+00
 -1       171-9.10203E-02-4.56638E+01 0.00000E+00
 -1       172-9.05035E-02-4.46049E+01 0.00000E+00
 -1       173-8.99683E-02-4.35521E+01 0.00000E+00
 -1       174-8.94141E-02-4.25056E+01 0.00000E+00
 -1       175-8.88409E-02-4.14658E+01 0.00000E+00
 -1       176-8.82485E-02-4.04327E+01 0.00000E+00
 -1       177-8.76365E-02-3.94067E+01 0.00000E+00
 -1       178-8.70050E-02-3.83880E+01 0.00000E+00
 -1       179-8.63534E-02-3.73767E+01 0.00000E+00
 -1       180-8.56820E-02-3.63731E+01 0.00000E+00
 -1       181-8.49901E-02-3.53775E+01 0.00000E+00
 -1       182-8.42779E-02-3.43901E+01 0.00000E+00
 -1       183-8.35449E-02-3.34111E+01 0.00000E+00
 -1       184-8.27914E-02-3.24407E+01 0.00000E+00
 -1       185-8.20167E-02-3.14793E+01 0.00000E+00
 -1       186-8.12209E-02-3.05271E+01 0.00000E+00
 -1       187-8.04040E-02-2.95843E+01 0.00000E+00
 -1       188-7.95654E-02-2.86511E+01 0.00000E+00
 -1       189-7.87054E-02-2.77278E+01 0.00000E+00
 -1       190-7.78235E-02-2.68147E+01 0.00000E+00
 -1       191-7.69200E-02-2.59120E+01 0.00000E+00
 -1       192-7.59941E-02-2.50200E+01 0.00000E+00
 -1       193-7.50464E-02-2.41389E+01 0.00000E+00
 -1       194-7.40762E-02-2.32690E+01 0.00000E+00
 -1       195-7.30838E-02-2.24105E+01 0.00000E+00
 -1       196-7.20688E-02-2.15638E+01 0.00000E+00
 -1       197-7.10311E-02-2.07290E+01 0.00000E+00
 -1       198-6.99710E-02-1.99065E+01 0.00000E+00
 -1       199-6.88876E-02-1.90964E+01 0.00000E+00
 -1       200-6.77817E-02-1.82992E+01 0.00000E+00
 -1       201-6.66524E-02-1.75149E+01 0.00000E+00
 -1       202-6.55005E-02-1.67440E+01 0.00000E+00
 -1       203-6.43248E-02-1.59867E+01 0.00000E+00
 -1       204-6.31261E-02-1.52432E+01 0.00000E+00
 -1       205-6.19042E-02-1.45138E+01 0.00000E+00
 -1       206-6.06584E-02-1.37989E+01 0.00000E+00
 -1       207-5.93896E-02-1.30986E+01 0.00000E+00
 -1       208-5.80966E-02-1.24132E+01 0.00000E+00
 -1       209-5.67808E-02-1.17431E+01 0.00000E+00
 -1       210-5.54403E-02-1.10884E+01 0.00000E+00
 -1       211-5.40769E-02-1.04496E+01 0.00000E+00
 -1       212-5.26891E-02-9.82675E+00 0.00000E+00
 -1       213-5.12776E-02-9.22027E+00 0.00000E+00
 -1       214-4.98424E-02-8.63038E+00 0.00000E+00
 -1       215-4.83827E-02-8.05739E+00 0.00000E+00
 -1       216-4.68998E-02-7.50156E+00 0.00000E+00
 -1       217-4.53917E-02-6.96317E+00 0.00000E+00
 -1       218-4.38607E-02-6.44252E+00 0.00000E+00
 -1       219-4.23046E-02-5.93987E+00 0.00000E+00
 -1       220-4.07251E-02-5.45552E+00 0.00000E+00
 -1       221-3.91209E-02-4.98974E+00 0.00000E+00
 -1       222-3.74925E-02-4.54281E+00 0.00000E+00
 -1       223-3.58405E-02-4.11502E+00 0.00000E+00
 -1       224-3.41631E-02-3.70665E+00 0.00000E+00
 -1       225-3.24627E-02-3.31799E+00 0.00000E+00
 -1       226-3.07369E-02-2.94931E+00 0.00000E+00
 -1       227-2.89877E-02-2.60091E+00 0.00000E+00
 -1       228-2.72133E-02-2.27306E+00 0.00000E+00
 -1       229-2.54155E-02-1.96605E+00 0.00000E+00
 -1       230-2.35924E-02-1.68016E+00 0.00000E+00
 -1       231-2.17454E-02-1.41568E+00 0.00000E+00
 -1       232-1.98743E-02-1.17289E+00 0.00000E+00
 -1       233-1.79781E-02-9.52078E-01 0.00000E+00
 -1       234-1.60584E-02-7.53525E-01 0.00000E+00
 -1       235-1.41133E-02-5.77518E-01 0.00000E+00
 -1       236-1.21451E-02-4.24337E-01 0.00000E+00
 -1       237-1.01506E-02-2.94272E-01 0.00000E+00
 -1       238-8.13509E-03-1.87601E-01 0.00000E+00
 -1       239-6.08699E-03-1.04636E-01 0.00000E+00
 -1       240-4.04014E-03-4.55541E-02 0.00000E+00
 -1       241-1.88133E-03-1.10229E-02 0.00000E+00
 -1       242 0.00000E+00 0.00000E+00 0.00000E+00
 -1       243-3.99133E-06-1.01414E+02 0.00000E+00
 -1       244-3.99132E-06-1.00250E+02 0.00000E+00
 -1       245-3.99130E-06-9.90857E+01 0.00000E+00
 -1       246-3.99123E-06-9.79215E+01 0.00000E+00
 -1       247-3.99111E-06-9.67574E+01 0.00000E+00
 -1       248-3.99090E-06-9.55934E+01 0.00000E+00
 -1       249-3.99059E-06-9.44294E+01 0.00000E+00
 -1       250-3.99016E-06-9.32655E+01 0.00000E+00
 -1       251-3.98959E-06-9.21018E+01 0.00000E+00
 -1       252-3.98886E-06-9.09383E+01 0.00000E+00
 -1       253-3.98796E-06-8.97750E+01 0.00000E+00
 -1       254-3.98685E-06-8.86120E+01 0.00000E+00
 -1       255-3.98554E-06-8.74493E+01 0.00000E+00
 -1       256-3.98399E-06-8.62871E+01 0.00000E+00
 -1       257-3.98219E-06-8.51254E+01 0.00000E+00
 -1       258-3.98013E-06-8.39642E+01 0.00000E+00
 -1       259-3.97778E-06-8.28036E+01 0.00000E+00
 -1       260-3.97513E-06-8.16438E+01 0.00000E+00
 -1       261-3.97216E-06-8.04848E+01 0.00000E+00
 -1       262-3.96885E-06-7.93268E+01 0.00000E+00
 -1       263-3.96519E-06-7.81697E+01 0.00000E+00
 -1       264-3.96116E-06-7.70138E+01 0.00000E+00
 -1       265-3.95676E-06-7.58591E+01 0.00000E+00
 -1       266-3.95194E-06-7.47057E+01 0.00000E+00
 -1       267-3.94672E-06-7.35538E+01 0.00000E+00
 -1       268-3.94106E-06-7.24035E+01 0.00000E+00
 -1       269-3.93496E-06-7.12549E+01 0.00000E+00
 -1       270-3.92841E-06-7.01081E+01 0.00000E+00
 -1       271-3.92137E-06-6.89634E+01 0.00000E+00
 -1       272-3.91385E-06-6.78207E+01 0.00000E+00
 -1       273-3.90582E-06-6.66804E+01 0.00000E+00
 -1       274-3.89728E-06-6.55424E+01 0.00000E+00
 -1       275-3.88821E-06-6.44070E+01 0.00000E+00
 -1       276-3.87859E-06-6.32743E+01 0.00000E+00
 -1       277-3.86842E-06-6.21446E+01 0.00000E+00
 -1       278-3.85768E-06-6.10178E+01 0.00000E+00
 -1       279-3.84635E-06-5.98943E+01 0.00000E+00
 -1       280-3.83443E-06-5.87742E+01 0.00000E+00
 -1       281-3.82191E-06-5.76576E+01 0.00000E+00
 -1       282-3.80877E-06-5.65448E+01 0.00000E+00
 -1       283-3.79500E-06-5.54359E+01 0.00000E+00
 -1       284-3.78058E-06-5.43311E+01 0.00000E+00
 -1       285-3.76551E-06-5.32307E+01 0.00000E+00
 -1       286-3.74978E-06-5.21347E+01 0.00000E+00
 -1       287-3.73338E-06-5.10434E+01 0.00000E+00
 -1       288-3.71629E-06-4.99570E+01 0.00000E+00
 -1       289-3.69850E-06-4.88756E+01 0.00000E+00
 -1       290-3.68001E-06-4.77996E+01 0.00000E+00
 -1       291-3.66080E-06-4.67291E+01 0.00000E+00
 -1       292-3.64087E-06-4.56642E+01 0.00000E+00
 -1       293-3.62020E-06-4.46053E+01 0.00000E+00
 -1       294-3.59879E-06-4.35525E+01 0.00000E+00
 -1       295-3.57662E-06-4.25061E+01 0.00000E+00
 -1       296-3.55369E-06-4.14663E+01 0.00000E+00
 -1       297-3.53000E-06-4.04332E+01 0.00000E+00
 -1       298-3.50552E-06-3.94072E+01 0.00000E+00
 -1       299-3.48026E-06-3.83884E+01 0.00000E+00
 -1       300-3.45419E-06-3.73772E+01 0.00000E+00
 -1       301-3.42734E-06-3.63736E+01 0.00000E+00
 -1       302-3.39966E-06-3.53780E+01 0.00000E+00
 -1       303-3.37117E-06-3.43906E+01 0.00000E+00
 -1       304-3.34186E-06-3.34116E+01 0.00000E+00
 -1       305-3.31172E-06-3.24413E+01 0.00000E+00
 -1       306-3.28073E-06-3.14799E+01 0.00000E+00
 -1       307-3.24890E-06-3.05276E+01 0.00000E+00
 -1       308-3.21622E-06-2.95848E+01 0.00000E+00
 -1       309-3.18268E-06-2.86516E+01 0.00000E+00
 -1       310-3.14828E-06-2.77283E+01 0.00000E+00
 -1       311-3.11300E-06-2.68152E+01 0.00000E+00
 -1       312-3.07686E-06-2.59125E+01 0.00000E+00
 -1       313-3.03983E-06-2.50205E+01 0.00000E+00
 -1       314-3.00192E-06-2.41394E+01 0.00000E+00
 -1       315-2.96311E-06-2.32695E+01 0.00000E+00
 -1       316-2.92341E-06-2.24110E+01 0.00000E+00
 -1       317-2.88281E-06-2.15643E+01 0.00000E+00
 -1       318-2.84131E-06-2.07295E+01 0.00000E+00
 -1       319-2.79890E-06-1.99070E+01 0.00000E+00
 -1       320-2.75557E-06-1.90970E+01 0.00000E+00
 -1       321-2.71133E-06-1.82997E+01 0.00000E+00
 -1       322-2.66616E-06-1.75155E+01 0.00000E+00
 -1       323-2.62008E-06-1.67445E+01 0.00000E+00
 -1       324-2.57305E-06-1.59872E+01 0.00000E+00
 -1       325-2.52510E-06-1.52437E+01 0.00000E+00
 -1       326-2.47623E-06-1.45143E+01 0.00000E+00
 -1       327-2.42640E-06-1.37994E+01 0.00000E+00
 -1       328-2.37564E-06-1.30991E+01 0.00000E+00
 -1       329-2.32393E-06-1.24137E+01 0.00000E+00
 -1       330-2.27129E-06-1.17436E+01 0.00000E+00
 -1       331-2.21767E-06-1.10889E+01 0.00000E+00
 -1       332-2.16313E-06-1.04500E+01 0.00000E+00
 -1       333-2.10762E-06-9.82721E+00 0.00000E+00
 -1       334-2.05116E-06-9.22072E+00 0.00000E+00
 -1       335-1.99375E-06-8.63082E+00 0.00000E+00
 -1       336-1.93537E-06-8.05782E+00 0.00000E+00
 -1       337-1.87604E-06-7.50197E+00 0.00000E+00
 -1       338-1.81573E-06-6.96358E+00 0.00000E+00
 -1       339-1.75448E-06-6.44291E+00 0.00000E+00
 -1       340-1.69225E-06-5.94026E+00 0.00000E+00
 -1       341-1.62905E-06-5.45589E+00 0.00000E+00
 -1       342-1.56490E-06-4.99010E+00 0.00000E+00
 -1       343-1.49975E-06-4.54316E+00 0.00000E+00
 -1       344-1.43368E-06-4.11535E+00 0.00000E+00
 -1       345-1.36657E-06-3.70697E+00 0.00000E+00
 -1       346-1.29857E-06-3.31829E+00 0.00000E+00
 -1       347-1.22952E-06-2.94960E+00 0.00000E+00
 -1       348-1.15958E-06-2.60118E+00 0.00000E+00
 -1       349-1.08856E-06-2.27331E+00 0.00000E+00
 -1       350-1.01670E-06-1.96628E+00 0.00000E+00
 -1       351-9.43710E-07-1.68038E+00 0.00000E+00
 -1       352-8.69914E-07-1.41588E+00 0.00000E+00
 -1       353-7.94967E-07-1.17307E+00 0.00000E+00
 -1       354-7.19242E-07-9.52237E-01 0.00000E+00
 -1       355-6.42306E-07-7.53661E-01 0.00000E+00
 -1       356-5.64678E-07-5.77632E-01 0.00000E+00
 -1       357-4.85742E-07-4.24429E-01 0.00000E+00
 -1       358-4.06207E-07-2.94342E-01 0.00000E+00
 -1       359-3.25294E-07-1.87647E-01 0.00000E+00
 -1       360-2.43713E-07-1.04655E-01 0.00000E+00
 -1       361-1.61446E-07-4.55542E-02 0.00000E+00
 -1       362-7.54996E-08-1.09747E-02 0.00000E+00
 -1       363 0.00000E+00 0.00000E+00 0.00000E+00
 -1       364-3.99134E-06-1.01414E+02 0.00000E+00
 -1       365-3.99134E-06-1.00250E+02 0.00000E+00
 -1       366-3.99131E-06-9.90857E+01 0.00000E+00
 -1       367-3.99125E-06-9.79215E+01 0.00000E+00
 -1       368-3.99112E-06-9.67574E+01 0.00000E+00
 -1       369-3.99092E-06-9.55934E+01 0.00000E+00
 -1       370-3.99061E-06-9.44294E+01 0.00000E+00
 -1       371-3.99018E-06-9.32655E+01 0.00000E+00
 -1       372-3.98961E-06-9.21018E+01 0.00000E+00
 -1       373-3.98888E-06-9.09383E+01 0.00000E+00
 -1       374-3.98798E-06-8.97750E+01 0.00000E+00
 -1       375-3.98688E-06-8.86120E+01 0.00000E+00
 -1       376-3.98556E-06-8.74493E+01 0.00000E+00
 -1       377-3.98402E-06-8.62871E+01 0.00000E+00
 -1       378-3.98222E-06-8.51254E+01 0.00000E+00
 -1       379-3.98015E-06-8.39642E+01 0.00000E+00
 -1       380-3.97780E-06-8.28036E+01 0.00000E+00
 -1       381-3.97515E-06-8.16438E+01 0.00000E+00
 -1       382-3.97218E-06-8.04848E+01 0.00000E+00
 -1       383-3.96888E-06-7.93268E+01 0.00000E+00
 -1       384-3.96522E-06-7.81697E+01 0.00000E+00
 -1       385-3.96119E-06-7.70138E+01 0.00000E+00
 -1       386-3.95678E-06-7.58591E+01 0.00000E+00
 -1       387-3.95197E-06-7.47057E+01 0.00000E+00
 -1       388-3.94675E-06-7.35538E+01 0.00000E+00
 -1       389-3.94109E-06-7.24035E+01 0.00000E+00
 -1       390-3.93499E-06-7.12549E+01 0.00000E+00
 -1       391-3.92843E-06-7.01081E+01 0.00000E+00
 -1       392-3.92139E-06-6.89634E+01 0.00000E+00
 -1       393-3.91387E-06-6.78207E+01 0.00000E+00
 -1       394-3.90584E-06-6.66804E+01 0.00000E+00
 -1       395-3.89730E-06-6.55424E+01 0.00000E+00
 -1       396-3.88822E-06-6.44070E+01 0.00000E+00
 -1       397-3.87861E-06-6.32743E+01 0.00000E+00
 -1       398-3.86843E-06-6.21446E+01 0.00000E+00
 -1       399-3.85769E-06-6.10178E+01 0.00000E+00
 -1       400-3.84637E-06-5.98943E+01 0.00000E+00
 -1       401-3.83445E-06-5.87742E+01 0.00000E+00
 -1       402-3.82192E-06-5.76576E+01 0.00000E+00
 -1       403-3.80878E-06-5.65448E+01 0.00000E+00
 -1       404-3.79501E-06-5.54359E+01 0.00000E+00
 -1       405-3.78059E-06-5.43311E+01 0.00000E+00
 -1       406-3.76552E-06-5.32307E+01 0.00000E+00
 -1       407-3.74979E-06-5.21347E+01 0.00000E+00
 -1       408-3.73338E-06-5.10434E+01 0.00000E+00
 -1       409-3.71629E-06-4.99570E+01 0.00000E+00
 -1       410-3.69850E-06-4.88756E+01 0.00000E+00
 -1       411-3.68001E-06-4.77996E+01 0.00000E+00
 -1       412-3.66080E-06-4.67291E+01 0.00000E+00
 -1       413-3.64087E-06-4.56642E+01 0.00000E+00
 -1       414-3.62020E-06-4.46053E+01 0.00000E+00
 -1       415-3.59879E-06-4.35525E+01 0.00000E+00
 -1       416-3.57662E-06-4.25061E+01 0.00000E+00
 -1       417-3.55369E-06-4.14663E+01 0.00000E+00
 -1       418-3.53000E-06-4.04332E+01 0.00000E+00
 -1       419-3.50552E-06-3.94072E+01 0.00000E+00
 -1       420-3.48026E-06-3.83884E+01 0.00000E+00
 -1       421-3.45419E-06-3.73772E+01 0.00000E+00
 -1       422-3.42733E-06-3.63736E+01 0.00000E+00
 -1       423-3.39966E-06-3.53780E+01 0.00000E+00
 -1       424-3.37117E-06-3.43906E+01 0.00000E+00
 -1       425-3.34185E-06-3.34116E+01 0.00000E+00
 -1       426-3.31171E-06-3.24413E+01 0.00000E+00
 -1       427-3.28072E-06-3.14799E+01 0.00000E+00
 -1       428-3.24889E-06-3.05276E+01 0.00000E+00
 -1       429-3.21621E-06-2.95848E+01 0.00000E+00
 -1       430-3.18267E-06-2.86516E+01 0.00000E+00
 -1       431-3.14827E-06-2.77283E+01 0.00000E+00
 -1       432-3.11299E-06-2.68152E+01 0.00000E+00
 -1       433-3.07685E-06-2.59125E+01 0.00000E+00
 -1       434-3.03982E-06-2.50205E+01 0.00000E+00
 -1       435-3.00191E-06-2.41394E+01 0.00000E+00
 -1       436-2.96310E-06-2.32695E+01 0.00000E+00
 -1       437-2.92340E-06-2.24110E+01 0.00000E+00
 -1       438-2.88280E-06-2.15643E+01 0.00000E+00
 -1       439-2.84130E-06-2.07295E+01 0.00000E+00
 -1       440-2.79889E-06-1.99070E+01 0.00000E+00
 -1       441-2.75556E-06-1.90970E+01 0.00000E+00
 -1       442-2.71132E-06-1.82997E+01 0.00000E+00
 -1       443-2.66615E-06-1.75155E+01 0.00000E+00
 -1       444-2.62007E-06-1.67445E+01 0.00000E+00
 -1       445-2.57304E-06-1.59872E+01 0.00000E+00
 -1       446-2.52509E-06-1.52437E+01 0.00000E+00
 -1       447-2.47622E-06-1.45143E+01 0.00000E+00
 -1       448-2.42639E-06-1.37994E+01 0.00000E+00
 -1       449-2.37563E-06-1.30991E+01 0.00000E+00
 -1       450-2.32392E-06-1.24137E+01 0.00000E+00
 -1       451-2.27128E-06-1.17436E+01 0.00000E+00
 -1       452-2.21766E-06-1.10889E+01 0.00000E+00
 -1       453-2.16313E-06-1.04500E+01 0.00000E+00
 -1       454-2.10762E-06-9.82721E+00 0.00000E+00
 -1       455-2.05116E-06-9.22072E+00 0.00000E+00
 -1       456-1.99374E-06-8.63082E+00 0.00000E+00
 -1       457-1.93536E-06-8.05782E+00 0.00000E+00
 -1       458-1.87604E-06-7.50197E+00 0.00000E+00
 -1       459-1.81573E-06-6.96358E+00 0.00000E+00
 -1       460-1.75447E-06-6.44291E+00 0.00000E+00
 -1       461-1.69224E-06-5.94026E+00 0.00000E+00
 -1       462-1.62905E-06-5.45589E+00 0.00000E+00
 -1       463-1.56489E-06-4.99010E+00 0.00000E+00
 -1       464-1.49974E-06-4.54316E+00 0.00000E+00
 -1       465-1.43368E-06-4.11535E+00 0.00000E+00
 -1       466-1.36657E-06-3.70697E+00 0.00000E+00
 -1       467-1.29857E-06-3.31829E+00 0.00000E+00
 -1       468-1.22951E-06-2.94960E+00 0.00000E+00
 -1       469-1.15958E-06-2.60118E+00 0.00000E+00
 -1       470-1.08856E-06-2.27331E+00 0.00000E+00
 -1       471-1.01670E-06-1.96628E+00 0.00000E+00
 -1       472-9.43707E-07-1.68038E+00 0.00000E+00
 -1       473-8.69911E-07-1.41588E+00 0.00000E+00
 -1       474-7.94965E-07-1.17307E+00 0.00000E+00
 -1       475-7.19240E-07-9.52237E-01 0.00000E+00
 -1       476-6.42304E-07-7.53661E-01 0.00000E+00
 -1       477-5.64676E-07-5.77632E-01 0.00000E+00
 -1       478-4.85741E-07-4.24429E-01 0.00000E+00
 -1       479-4.06206E-07-2.94342E-01 0.00000E+00
 -1       480-3.25293E-07-1.87647E-01 0.00000E+00
 -1       481-2.43712E-07-1.04655E-01 0.00000E+00
 -1       482-1.61446E-07-4.55542E-02 0.00000E+00
 -1       483-7.54994E-08-1.09747E-02 0.00000E+00
 -1       484 0.00000E+00 0.00000E+00 0.00000E+00
 -1       485 9.97823E-02-1.01414E+02 0.00000E+00
 -1       486 9.97822E-02-1.00250E+02 0.00000E+00
 -1       487 9.97815E-02-9.90856E+01 0.00000E+00
 -1       488 9.97799E-02-9.79215E+01 0.00000E+00
 -1       489 9.97767E-02-9.67574E+01 0.00000E+00
 -1       490 9.97715E-02-9.55933E+01 0.00000E+00
 -1       491 9.97638E-02-9.44294E+01 0.00000E+00
 -1       492 9.97531E-02-9.32655E+01 0.00000E+00
 -1       493 9.97388E-02-9.21017E+01 0.00000E+00
 -1       494 9.97206E-02-9.09382E+01 0.00000E+00
 -1       495 9.96980E-02-8.97749E+01 0.00000E+00
 -1       496 9.96705E-02-8.86119E+01 0.00000E+00
 -1       497 9.96376E-02-8.74492E+01 0.00000E+00
 -1       498 9.95989E-02-8.62870E+01 0.00000E+00
 -1       499 9.95540E-02-8.51252E+01 0.00000E+00
 -1       500 9.95023E-02-8.39640E+01 0.00000E+00
 -1       501 9.94436E-02-8.28035E+01 0.00000E+00
 -1       502 9.93773E-02-8.16437E+01 0.00000E+00
 -1       503 9.93030E-02-8.04846E+01 0.00000E+00
 -1       504 9.92203E-02-7.93266E+01 0.00000E+00
 -1       505 9.91289E-02-7.81695E+01 0.00000E+00
 -1       506 9.90282E-02-7.70135E+01 0.00000E+00
 -1       507 9.89179E-02-7.58588E+01 0.00000E+00
 -1       508 9.87976E-02-7.47055E+01 0.00000E+00
 -1       509 9.86670E-02-7.35536E+01 0.00000E+00
 -1       510 9.85256E-02-7.24032E+01 0.00000E+00
 -1       511 9.83731E-02-7.12546E+01 0.00000E+00
 -1       512 9.82091E-02-7.01079E+01 0.00000E+00
 -1       513 9.80332E-02-6.89631E+01 0.00000E+00
 -1       514 9.78451E-02-6.78204E+01 0.00000E+00
 -1       515 9.76444E-02-6.66801E+01 0.00000E+00
 -1       516 9.74309E-02-6.55421E+01 0.00000E+00
 -1       517 9.72040E-02-6.44067E+01 0.00000E+00
 -1       518 9.69636E-02-6.32740E+01 0.00000E+00
 -1       519 9.67093E-02-6.21442E+01 0.00000E+00
 -1       520 9.64407E-02-6.10175E+01 0.00000E+00
 -1       521 9.61577E-02-5.98940E+01 0.00000E+00
 -1       522 9.58596E-02-5.87738E+01 0.00000E+00
 -1       523 9.55466E-02-5.76573E+01 0.00000E+00
 -1       524 9.52179E-02-5.65444E+01 0.00000E+00
 -1       525 9.48737E-02-5.54355E+01 0.00000E+00
 -1       526 9.45132E-02-5.43307E+01 0.00000E+00
 -1       527 9.41366E-02-5.32303E+01 0.00000E+00
 -1       528 9.37433E-02-5.21343E+01 0.00000E+00
 -1       529 9.33331E-02-5.10430E+01 0.00000E+00
 -1       530 9.29059E-02-4.99565E+01 0.00000E+00
 -1       531 9.24610E-02-4.88752E+01 0.00000E+00
 -1       532 9.19989E-02-4.77991E+01 0.00000E+00
 -1       533 9.15185E-02-4.67286E+01 0.00000E+00
 -1       534 9.10203E-02-4.56638E+01 0.00000E+00
 -1       535 9.05035E-02-4.46049E+01 0.00000E+00
 -1       536 8.99683E-02-4.35521E+01 0.00000E+00
 -1       537 8.94141E-02-4.25056E+01 0.00000E+00
 -1       538 8.88409E-02-4.14658E+01 0.00000E+00
 -1       539 8.82485E-02-4.04327E+01 0.00000E+00
 -1       540 8.76365E-02-3.94067E+01 0.00000E+00
 -1       541 8.70050E-02-3.83880E+01 0.00000E+00
 -1       542 8.63534E-02-3.73767E+01 0.00000E+00
 -1       543 8.56820E-02-3.63731E+01 0.00000E+00
 -1       544 8.49901E-02-3.53775E+01 0.00000E+00
 -1       545 8.42779E-02-3.43901E+01 0.00000E+00
 -1       546 8.35449E-02-3.34111E+01 0.00000E+00
 -1       547 8.27914E-02-3.24407E+01 0.00000E+00
 -1       548 8.20167E-02-3.14793E+01 0.00000E+00
 -1       549 8.12209E-02-3.05271E+01 0.00000E+00
 -1       550 8.04040E-02-2.95843E+01 0.00000E+00
 -1       551 7.95654E-02-2.86511E+01 0.00000E+00
 -1       552 7.87054E-02-2.77278E+01 0.00000E+00
 -1       553 7.78235E-02-2.68147E+01 0.00000E+00
 -1       554 7.69200E-02-2.59120E+01 0.00000E+00
 -1       555 7.59941E-02-2.50200E+01 0.00000E+00
 -1       556 7.50464E-02-2.41389E+01 0.00000E+00
 -1       557 7.40762E-02-2.32690E+01 0.00000E+00
 -1       558 7.30838E-02-2.24105E+01 0.00000E+00
 -1       559 7.20688E-02-2.15638E+01 0.00000E+00
 -1       560 7.10311E-02-2.07290E+01 0.00000E+00
 -1       561 6.99710E-02-1.99065E+01 0.00000E+00
 -1       562 6.88876E-02-1.90964E+01 0.00000E+00
 -1       563 6.77817E-02-1.82992E+01 0.00000E+00
 -1       564 6.66524E-02-1.75149E+01 0.00000E+00
 -1       565 6.55005E-02-1.67440E+01 0.00000E+00
 -1       566 6.43248E-02-1.59867E+01 0.00000E+00
 -1       567 6.31261E-02-1.52432E+01 0.00000E+00
 -1       568 6.19042E-02-1.45138E+01 0.00000E+00
 -1       569 6.06584E-02-1.37989E+01 0.00000E+00
 -1       570 5.93896E-02-1.30986E+01 0.00000E+00
 -1       571 5.80966E-02-1.24132E+01 0.00000E+00
 -1       572 5.67808E-02-1.17431E+01 0.00000E+00
 -1       573 5.54403E-02-1.10884E+01 0.00000E+00
 -1       574 5.40769E-02-1.04496E+01 0.00000E+00
 -1       575 5.26891E-02-9.82675E+00 0.00000E+00
 -1       576 5.12776E-02-9.22027E+00 0.00000E+00
 -1       577 4.98424E-02-8.63038E+00 0.00000E+00
 -1       578 4.83827E-02-8.05739E+00 0.00000E+00
 -1       579 4.68998E-02-7.50156E+00 0.00000E+00
 -1       580 4.53917E-02-6.96317E+00 0.00000E+00
 -1       581 4.38607E-02-6.44252E+00 0.00000E+00
 -1       582 4.23046E-02-5.93987E+00 0.00000E+00
 -1       583 4.07251E-02-5.45552E+00 0.00000E+00
 -1       584 3.91209E-02-4.98974E+00 0.00000E+00
 -1       585 3.74925E-02-4.54281E+00 0.00000E+00
 -1       586 3.58405E-02-4.11502E+00 0.00000E+00
 -1       587 3.41631E-02-3.70665E+00 0.00000E+00
 -1       588 3.24627E-02-3.31799E+00 0.00000E+00
 -1       589 3.07369E-02-2.94931E+00 0.00000E+00
 -1       590 2.89877E-02-2.60091E+00 0.00000E+00
 -1       591 2.72133E-02-2.27306E+00 0.00000E+00
 -1       592 2.54155E-02-1.96605E+00 0.00000E+00
 -1       593 2.35924E-02-1.68016E+00 0.00000E+00
 -1       594 2.17454E-02-1.41568E+00 0.00000E+00
 -1       595 1.98743E-02-1.17289E+00 0.00000E+00
 -1       596 1.79781E-02-9.52078E-01 0.00000E+00
 -1       597 1.60584E-02-7.53525E-01 0.00000E+00
 -1       598 1.41133E-02-5.77518E-01 0.00000E+00
 -1       599 1.21451E-02-4.24337E-01 0.00000E+00
 -1       600 1.01506E-02-2.94272E-01 0.00000E+00
 -1       601 8.13509E-03-1.87601E-01 0.00000E+00
 -1       602 6.08699E-03-1.04636E-01 0.00000E+00
 -1       603 4.04014E-03-4.55541E-02 0.00000E+00
 -1       604 1.88133E-03-1.10229E-02 0.00000E+00
 -1       605 0.00000E+00 0.00000E+00 0.00000E+00
 -1       606 9.97823E-02-1.01414E+02 0.00000E+00
 -1       607 9.97822E-02-1.00250E+02 0.00000E+00
 -1       608 9.97815E-02-9.90856E+01 0.00000E+00
 -1       609 9.97799E-02-9.79215E+01 0.00000E+00
 -1       610 9.97767E-02-9.67574E+01 0.00000E+00
 -1       611 9.97715E-02-9.55933E+01 0.00000E+00
 -1       612 9.97638E-02-9.44294E+01 0.00000E+00
 -1       613 9.97531E-02-9.32655E+01 0.00000E+00
 -1       614 9.97388E-02-9.21017E+01 0.00000E+00
 -1       615 9.97206E-02-9.09382E+01 0.00000E+00
 -1       616 9.96980E-02-8.97749E+01 0.00000E+00
 -1       617 9.96705E-02-8.86119E+01 0.00000E+00
 -1       618 9.96376E-02-8.74492E+01 0.00000E+00
 -1       619 9.95989E-02-8.62870E+01 0.00000E+00
 -1       620 9.95540E-02-8.51252E+01 0.00000E+00
 -1       621 9.95023E-02-8.39640E+01 0.00000E+00
 -1       622 9.94436E-02-8.28035E+01 0.00000E+00
 -1       623 9.93773E-02-8.16437E+01 0.00000E+00
 -1       624 9.93030E-02-8.04846E+01 0.00000E+00
 -1       625 9.92203E-02-7.93266E+01 0.00000E+00
 -1       626 9.91289E-02-7.81695E+01 0.00000E+00
 -1       627 9.90282E-02-7.70135E+01 0.00000E+00
 -1       628 9.89179E-02-7.58588E+01 0.00000E+00
 -1       629 9.87976E-02-7.47055E+01 0.00000E+00
 -1       630 9.86670E-02-7.35536E+01 0.00000E+00
 -1       631 9.85256E-02-7.24032E+01 0.00000E+00
 -1       632 9.83731E-02-7.12546E+01 0.00000E+00
 -1       633 9.82091E-02-7.01079E+01 0.00000E+00
 -1       634 9.80332E-02-6.89631E+01 0.00000E+00
 -1       635 9.78451E-02-6.78204E+01 0.00000E+00
 -1       636 9.76444E-02-6.66801E+01 0.00000E+00
 -1       637 9.74309E-02-6.55421E+01 0.00000E+00
 -1       638 9.72040E-02-6.44067E+01 0.00000E+00
 -1       639 9.69636E-02-6.32740E+01 0.00000E+00
 -1       640 9.67093E-02-6.21442E+01 0.00000E+00
 -1       641 9.64407E-02-6.10175E+01 0.00000E+00
 -1       642 9.61577E-02-5.98940E+01 0.00000E+00
 -1       643 9.58596E-02-5.87738E+01 0.00000E+00
 -1       644 9.55466E-02-5.76573E+01 0.00000E+00
 -1       645 9.52179E-02-5.65444E+01 0.00000E+00
 -1       646 9.48737E-02-5.54355E+01 0.00000E+00
 -1       647 9.45132E-02-5.43307E+01 0.00000E+00
 -1       648 9.41366E-02-5.32303E+01 0.00000E+00
 -1       649 9.37433E-02-5.21343E+01 0.00000E+00
 -1       650 9.33331E-02-5.10430E+01 0.00000E+00
 -1       651 9.29059E-02-4.99565E+01 0.00000E+00
 -1       652 9.24610E-02-4.88752E+01 0.00000E+00
 -1       653 9.19989E-02-4.77991E+01 0.00000E+00
 -1       654 9.15185E-02-4.67286E+01 0.00000E+00
 -1       655 9.10203E-02-4.56638E+01 0.00000E+00
 -1       656 9.05035E-02-4.46049E+01 0.00000E+00
 -1       657 8.99683E-02-4.35521E+01 0.00000E+00
 -1       658 8.94141E-02-4.25056E+01 0.00000E+00
 -1       659 8.88409E-02-4.14658E+01 0.00000E+00
 -1       660 8.82485E-02-4.04327E+01 0.00000E+00
 -1       661 8.76365E-02-3.94067E+01 0.00000E+00
 -1       662 8.70050E-02-3.83880E+01 0.00000E+00
 -1       663 8.63534E-02-3.73767E+01 0.00000E+00
 -1       664 8.56820E-02-3.63731E+01 0.00000E+00
 -1       665 8.49901E-02-3.53775E+01 0.00000E+00
 -1       666 8.42779E-02-3.43901E+01 0.00000E+00
 -1       667 8.35449E-02-3.34111E+01 0.00000E+00
 -1       668 8.27914E-02-3.24407E+01 0.00000E+00
 -1       669 8.20167E-02-3.14793E+01 0.00000E+00
 -1       670 8.12209E-02-3.05271E+01 0.00000E+00
 -1       671 8.04040E-02-2.95843E+01 0.00000E+00
 -1       672 7.95654E-02-2.86511E+01 0.00000E+00
 -1       673 7.87054E-02-2.77278E+01 0.00000E+00
 -1       674 7.78235E-02-2.68147E+01 0.00000E+00
 -1       675 7.69200E-02-2.59120E+01 0.00000E+00
 -1       676 7.59941E-02-2.50200E+01 0.00000E+00
 -1       677 7.50464E-02-2.41389E+01 0.00000E+00
 -1       678 7.40762E-02-2.32690E+01 0.00000E+00
 -1       679 7.30838E-02-2.24105E+01 0.00000E+00
 -1       680 7.20688E-02-2.15638E+01 0.00000E+00
 -1       681 7.10311E-02-2.07290E+01 0.00000E+00
 -1       682 6.99710E-02-1.99065E+01 0.00000E+00
 -1       683 6.88876E-02-1.90964E+01 0.00000E+00
 -1       684 6.77817E-02-1.82992E+01 0.00000E+00
 -1       685 6.66524E-02-1.75149E+01 0.00000E+00
 -1       686 6.55005E-02-1.67440E+01 0.00000E+00
 -1       687 6.43248E-02-1.59867E+01 0.00000E+00
 -1       688 6.31261E-02-1.52432E+01 0.00000E+00
 -1       689 6.19042E-02-1.45138E+01 0.00000E+00
 -1       690 6.06584E-02-1.37989E+01 0.00000E+00
 -1       691 5.93896E-02-1.30986E+01 0.00000E+00
 -1       692 5.80966E-02-1.24132E+01 0.00000E+00
 -1       693 5.67808E-02-1.17431E+01 0.00000E+00
 -1       694 5.54403E-02-1.10884E+01 0.00000E+00
 -1       695 5.40769E-02-1.04496E+01 0.00000E+00
 -1       696 5.26891E-02-9.82675E+00 0.00000E+00
 -1       697 5.12776E-02-9.22027E+00 0.00000E+00
 -1       698 4.98424E-02-8.63038E+00 0.00000E+00
 -1       699 4.83827E-02-8.05739E+00 0.00000E+00
 -1       700 4.68998E-02-7.50156E+00 0.00000E+00
 -1       701 4.53917E-02-6.96317E+00 0.00000E+00
 -1       702 4.38607E-02-6.44252E+00 0.00000E+00
 -1       703 4.23046E-02-5.93987E+00 0.00000E+00
 -1       704 4.07251E-02-5.45552E+00 0.00000E+00
 -1       705 3.91209E-02-4.98974E+00 0.00000E+00
 -1       706 3.74925E-02-4.54281E+00 0.00000E+00
 -1       707 3.58405E-02-4.11502E+00 0.00000E+00
 -1       708 3.41631E-02-3.70665E+00 0.00000E+00
 -1       709 3.24627E-02-3.31799E+00 0.00000E+00
 -1       710 3.07369E-02-2.94931E+00 0.00000E+00
 -1       711 2.89877E-02-2.60091E+00 0.00000E+00
 -1       712 2.72133E-02-2.27306E+00 0.00000E+00
 -1       713 2.54155E-02-1.96605E+00 0.00000E+00
 -1       714 2.35924E-02-1.68016E+00 0.00000E+00
 -1       715 2.17454E-02-1.41568E+00 0.00000E+00
 -1       716 1.98743E-02-1.17289E+00 0.00000E+00
 -1       717 1.79781E-02-9.52078E-01 0.00000E+00
 -1       718 1.60584E-02-7.53525E-01 0.00000E+00
 -1       719 1.41133E-02-5.77518E-01 0.00000E+00
 -1       720 1.21451E-02-4.24337E-01 0.00000E+00
 -1       721 1.01506E-02-2.94272E-01 0.00000E+00
 -1       722 8.13509E-03-1.87601E-01 0.00000E+00
 -1       723 6.08699E-03-1.04636E-01 0.00000E+00
 -1       724 4.04014E-03-4.55541E-02 0.00000E+00
 -1       725 1.88133E-03-1.10229E-02 0.00000E+00
 -1       726 0.00000E+00 0.00000E+00 0.00000E+00
 -1       727-9.97823E-02-1.01414E+02 0.00000E+00
 -3
    1PSTEP                         2           1           1          
    1PGM                1.000000E+00                                  
    1PGK                6.954368E+03                                  
    1PHID                         -1                                  
    1PSUBC                         0                                  
    1PMODE                         1                                  
  100CL  101 13.27238496         726                     2    1MODAL      1
 -4  STRESS      6    1
 -5  SXX         1    4    1    1
 -5  SYY         1    4    2    2
 -5  SZZ         1    4    3    3
 -5  SXY         1    4    1    2
 -5  SYZ         1    4    2    3
 -5  SZX         1    4    3    1
 -1         2-6.71523E+06-5.20264E+05-2.74946E+06-2.84604E+05 7.75248E+07 3.85574E+04
 -1         3-2.15720E+07-5.10732E+05-8.39135E+06-5.65357E+05 7.66248E+07 3.85574E+04
 -1         4-4.62077E+07-5.11413E+05-1.77531E+07-8.43114E+05 7.57249E+07 3.85576E+04
 -1         5-8.04988E+07-4.75114E+05-3.07699E+07-1.11756E+06 7.48249E+07 3.85576E+04
 -1         6-1.24347E+08-5.19342E+05-4.74491E+07-1.39080E+06 7.39250E+07 3.85572E+04
 -1         7-1.77615E+08-4.79714E+05-6.76758E+07-1.65537E+06 7.30251E+07 3.85560E+04
 -1         8-2.40200E+08-4.36726E+05-9.14417E+07-1.92476E+06 7.21253E+07 3.85537E+04
 -1         9-3.12012E+08-5.59247E+05-1.18777E+08-2.18470E+06 7.12256E+07 3.85505E+04
 -1        10-3.92881E+08-4.66159E+05-1.49472E+08-2.43741E+06 7.03259E+07 3.85458E+04
 -1        11-4.82733E+08-4.31371E+05-1.83602E+08-2.69563E+06 6.94265E+07 3.85394E+04
 -1        12-5.81450E+08-4.36433E+05-2.21116E+08-2.94715E+06 6.85272E+07 3.85311E+04
 -1        13-6.88907E+08-4.21356E+05-2.61944E+08-3.19977E+06 6.76282E+07 3.85208E+04
 -1        14-8.05017E+08-5.57906E+05-3.06118E+08-3.44218E+06 6.67295E+07 3.85081E+04
 -1        15-9.29592E+08-3.73011E+05-3.53386E+08-3.67746E+06 6.58311E+07 3.84926E+04
 -1        16-1.06260E+09-3.74623E+05-4.03928E+08-3.92693E+06 6.49332E+07 3.84745E+04
 -1        17-1.20390E+09-5.14461E+05-4.57679E+08-4.15736E+06 6.40357E+07 3.84537E+04
 -1        18-1.35334E+09-3.55363E+05-5.14403E+08-4.38905E+06 6.31388E+07 3.84300E+04
 -1        19-1.51089E+09-5.74823E+05-5.74355E+08-4.61817E+06 6.22425E+07 3.84031E+04
 -1        20-1.67629E+09-2.44367E+05-6.37083E+08-4.83227E+06 6.13468E+07 3.83726E+04
 -1        21-1.84961E+09-4.86536E+05-7.03036E+08-5.07540E+06 6.04520E+07 3.83386E+04
 -1        22-2.03058E+09-3.37118E+05-7.71748E+08-5.27114E+06 5.95580E+07 3.83005E+04
 -1        23-2.21919E+09-4.68579E+05-8.43472E+08-5.51162E+06 5.86649E+07 3.82583E+04
 -1        24-2.41524E+09-2.25489E+05-9.17876E+08-5.69674E+06 5.77729E+07 3.82118E+04
 -1        25-2.61869E+09-2.54358E+05-9.95199E+08-5.95090E+06 5.68820E+07 3.81609E+04
 -1        26-2.82952E+09-1.02146E+06-1.07560E+09-6.11456E+06 5.59923E+07 3.81058E+04
 -1        27-3.04719E+09 1.81173E+05-1.15786E+09-6.30886E+06 5.51040E+07 3.80460E+04
 -1        28-3.27219E+09-5.62073E+05-1.24365E+09-6.54691E+06 5.42171E+07 3.79818E+04
 -1        29-3.50394E+09-2.31074E+05-1.33158E+09-6.70316E+06 5.33318E+07 3.79128E+04
 -1        30-3.74259E+09-5.14914E+05-1.42238E+09-6.93828E+06 5.24481E+07 3.78390E+04
 -1        31-3.98780E+09 5.13810E+04-1.51534E+09-7.08185E+06 5.15661E+07 3.77604E+04
 -1        32-4.23977E+09-6.17987E+05-1.61135E+09-7.34402E+06 5.06861E+07 3.76770E+04
 -1        33-4.49813E+09-7.08307E+05-1.70956E+09-7.42644E+06 4.98081E+07 3.75887E+04
 -1        34-4.76264E+09 5.38557E+05-1.80960E+09-7.68003E+06 4.89321E+07 3.74953E+04
 -1        35-5.03386E+09-1.28781E+06-1.91335E+09-7.83780E+06 4.80584E+07 3.73965E+04
 -1        36-5.31068E+09 3.55783E+05-2.01792E+09-7.97323E+06 4.71871E+07 3.72919E+04
 -1        37-5.59393E+09-6.85700E+05-2.12595E+09-8.21087E+06 4.63182E+07 3.71817E+04
 -1        38-5.88278E+09 2.85548E+05-2.23535E+09-8.30685E+06 4.54520E+07 3.70657E+04
 -1        39-6.17773E+09-7.22518E+05-2.34781E+09-8.58207E+06 4.45886E+07 3.69442E+04
 -1        40-6.47821E+09-6.46969E+05-2.46196E+09-8.59919E+06 4.37280E+07 3.68171E+04
 -1        41-6.78415E+09 2.06285E+05-2.57790E+09-8.86135E+06 4.28705E+07 3.66840E+04
 -1        42-7.09580E+09-5.81342E+05-2.69663E+09-8.94316E+06 4.20162E+07 3.65451E+04
 -1        43-7.41252E+09 6.01233E+05-2.81653E+09-9.17307E+06 4.11652E+07 3.64000E+04
 -1        44-7.73503E+09-1.81744E+06-2.94000E+09-9.28970E+06 4.03176E+07 3.62485E+04
 -1        45-8.06184E+09 1.36131E+06-3.06298E+09-9.37230E+06 3.94737E+07 3.60902E+04
 -1        46-8.39455E+09-1.12699E+06-3.19036E+09-9.67592E+06 3.86336E+07 3.59254E+04
 -1        47-8.73173E+09-6.29683E+05-3.31830E+09-9.60920E+06 3.77973E+07 3.57536E+04
 -1        48-9.07367E+09 3.60014E+05-3.44786E+09-9.89706E+06 3.69652E+07 3.55747E+04
 -1        49-9.42058E+09-4.06655E+05-3.57998E+09-9.92397E+06 3.61373E+07 3.53888E+04
 -1        50-9.77196E+09-1.82546E+05-3.71341E+09-1.01644E+07 3.53139E+07 3.51957E+04
 -1        51-1.01279E+10-4.09196E+05-3.84876E+09-1.01773E+07 3.44950E+07 3.49955E+04
 -1        52-1.04881E+10 6.53531E+05-3.98521E+09-1.04189E+07 3.36809E+07 3.47880E+04
 -1        53-1.08529E+10-1.18698E+06-4.12457E+09-1.04875E+07 3.28717E+07 3.45732E+04
 -1        54-1.12215E+10 3.46974E+05-4.26405E+09-1.06010E+07 3.20675E+07 3.43511E+04
 -1        55-1.15947E+10-1.33303E+06-4.40648E+09-1.07224E+07 3.12687E+07 3.41217E+04
 -1        56-1.19712E+10 8.62883E+05-4.54874E+09-1.07531E+07 3.04753E+07 3.38848E+04
 -1        57-1.23522E+10-4.85861E+05-4.69403E+09-1.10099E+07 2.96875E+07 3.36405E+04
 -1        58-1.27368E+10-3.37961E+05-4.84010E+09-1.09722E+07 2.89055E+07 3.33885E+04
 -1        59-1.31248E+10 7.97893E+05-4.98713E+09-1.12176E+07 2.81294E+07 3.31287E+04
 -1        60-1.35169E+10-9.64996E+05-5.13680E+09-1.12590E+07 2.73595E+07 3.28610E+04
 -1        61-1.39123E+10-9.76764E+05-5.28703E+09-1.13533E+07 2.65960E+07 3.25853E+04
 -1        62-1.43108E+10 5.27026E+05-5.43789E+09-1.13569E+07 2.58389E+07 3.23015E+04
 -1        63-1.47127E+10 1.08315E+06-5.59042E+09-1.16124E+07 2.50886E+07 3.20097E+04
 -1        64-1.51185E+10-2.52617E+06-5.74598E+09-1.16443E+07 2.43452E+07 3.17098E+04
 -1        65-1.55262E+10 1.18319E+06-5.89952E+09-1.16156E+07 2.36089E+07 3.14018E+04
 -1        66-1.59377E+10 5.34166E+05-6.05611E+09-1.18874E+07 2.28798E+07 3.10857E+04
 -1        67-1.63521E+10-8.89499E+05-6.21415E+09-1.18857E+07 2.21582E+07 3.07616E+04
 -1        68-1.67693E+10-1.29217E+06-6.37282E+09-1.19732E+07 2.14443E+07 3.04293E+04
 -1        69-1.71887E+10 1.20298E+06-6.53127E+09-1.19233E+07 2.07382E+07 3.00887E+04
 -1        70-1.76115E+10-4.11596E+05-6.69251E+09-1.22166E+07 2.00402E+07 2.97396E+04
 -1        71-1.80365E+10-4.09997E+05-6.85402E+09-1.20815E+07 1.93504E+07 2.93819E+04
 -1        72-1.84637E+10 1.37744E+06-7.01568E+09-1.23498E+07 1.86691E+07 2.90156E+04
 -1        73-1.88940E+10-1.77369E+06-7.18041E+09-1.23313E+07 1.79964E+07 2.86407E+04
 -1        74-1.93258E+10 8.02789E+05-7.34351E+09-1.23822E+07 1.73326E+07 2.82570E+04
 -1        75-1.97606E+10-1.99523E+06-7.50980E+09-1.24566E+07 1.66778E+07 2.78647E+04
 -1        76-2.01966E+10 1.79592E+06-7.67402E+09-1.23772E+07 1.60323E+07 2.74636E+04
 -1        77-2.06355E+10-7.86731E+05-7.84180E+09-1.26890E+07 1.53963E+07 2.70538E+04
 -1        78-2.10759E+10 1.51122E+05-8.00879E+09-1.24911E+07 1.47699E+07 2.66352E+04
 -1        79-2.15184E+10-4.05635E+05-8.17715E+09-1.27922E+07 1.41534E+07 2.62077E+04
 -1        80-2.19624E+10 1.00854E+06-8.34533E+09-1.25922E+07 1.35470E+07 2.57713E+04
 -1        81-2.24083E+10 9.67733E+05-8.51480E+09-1.30159E+07 1.29508E+07 2.53260E+04
 -1        82-2.28569E+10-5.29102E+06-8.68762E+09-1.27376E+07 1.23652E+07 2.48717E+04
 -1        83-2.33046E+10 4.19838E+06-8.85416E+09-1.26847E+07 1.17902E+07 2.44083E+04
 -1        84-2.37562E+10-1.45800E+06-9.02790E+09-1.30487E+07 1.12262E+07 2.39359E+04
 -1        85-2.42080E+10 6.28192E+05-9.19878E+09-1.27918E+07 1.06734E+07 2.34544E+04
 -1        86-2.46616E+10-8.42453E+05-9.37175E+09-1.31341E+07 1.01318E+07 2.29637E+04
 -1        87-2.51160E+10 1.95093E+06-9.54333E+09-1.28486E+07 9.60183E+06 2.24640E+04
 -1        88-2.55725E+10-1.43069E+06-9.71808E+09-1.33603E+07 9.08361E+06 2.19551E+04
 -1        89-2.60298E+10-2.43949E+06-9.89224E+09-1.28035E+07 8.57738E+06 2.14370E+04
 -1        90-2.64869E+10 4.89642E+06-1.00632E+10-1.32167E+07 8.08334E+06 2.09097E+04
 -1        91-2.69477E+10-5.24788E+06-1.02421E+10-1.31912E+07 7.60171E+06 2.03732E+04
 -1        92-2.74067E+10 3.29126E+06-1.04133E+10-1.29773E+07 7.13272E+06 1.98274E+04
 -1        93-2.78686E+10-1.62826E+06-1.05907E+10-1.33661E+07 6.67656E+06 1.92723E+04
 -1        94-2.83300E+10 2.51101E+06-1.07644E+10-1.30323E+07 6.23346E+06 1.87080E+04
 -1        95-2.87934E+10-1.96596E+06-1.09422E+10-1.35837E+07 5.80364E+06 1.81344E+04
 -1        96-2.92569E+10-1.69228E+06-1.11183E+10-1.29416E+07 5.38731E+06 1.75514E+04
 -1        97-2.97205E+10 2.40168E+06-1.12929E+10-1.34219E+07 4.98469E+06 1.69591E+04
 -1        98-3.01860E+10-1.65693E+06-1.14713E+10-1.31368E+07 4.59600E+06 1.63575E+04
 -1        99-3.06507E+10 3.77995E+06-1.16458E+10-1.34464E+07 4.22146E+06 1.57465E+04
 -1       100-3.11181E+10-6.13553E+06-1.18272E+10-1.33948E+07 3.86127E+06 1.51262E+04
 -1       101-3.15828E+10 5.97150E+06-1.19992E+10-1.30893E+07 3.51568E+06 1.44964E+04
 -1       102-3.20511E+10-3.07586E+06-1.21806E+10-1.37567E+07 3.18488E+06 1.38574E+04
 -1       103-3.25182E+10-1.60663E+06-1.23575E+10-1.29984E+07 2.86910E+06 1.32089E+04
 -1       104-3.29853E+10 2.45279E+06-1.25335E+10-1.35380E+07 2.56856E+06 1.25510E+04
 -1       105-3.34538E+10-6.18816E+05-1.27127E+10-1.31995E+07 2.28348E+06 1.18838E+04
 -1       106-3.39221E+10-4.24312E+05-1.28906E+10-1.35808E+07 2.01408E+06 1.12071E+04
 -1       107-3.43904E+10 1.76493E+06-1.30677E+10-1.31774E+07 1.76057E+06 1.05211E+04
 -1       108-3.48592E+10 1.57344E+06-1.32459E+10-1.37901E+07 1.52318E+06 9.82562E+03
 -1       109-3.53296E+10-8.11935E+06-1.34283E+10-1.32900E+07 1.30213E+06 9.12078E+03
 -1       110-3.57966E+10 6.85323E+06-1.36001E+10-1.31310E+07 1.09763E+06 8.40650E+03
 -1       111-3.62672E+10-2.27727E+06-1.37824E+10-1.36528E+07 9.09902E+05 7.68283E+03
 -1       112-3.67362E+10 1.03481E+06-1.39594E+10-1.31877E+07 7.39173E+05 6.94976E+03
 -1       113-3.72061E+10-1.64194E+06-1.41389E+10-1.36508E+07 5.85657E+05 6.20727E+03
 -1       114-3.76747E+10 5.10119E+06-1.43144E+10-1.31443E+07 4.49576E+05 5.45535E+03
 -1       115-3.81465E+10-9.30175E+06-1.44992E+10-1.39713E+07 3.31149E+05 4.69402E+03
 -1       116-3.86114E+10 2.15412E+07-1.46642E+10-1.27247E+07 2.30596E+05 3.92325E+03
 -1       117-3.90965E+10-7.86018E+07-1.48865E+10-1.46031E+07 1.48138E+05 3.14316E+03
 -1       118-3.95104E+10 2.87253E+08-1.49048E+10-9.91559E+06 8.39940E+04 2.35322E+03
 -1       119-4.01791E+10-1.00958E+09-1.56517E+10-2.56510E+07 3.83821E+04 1.55536E+03
 -1       120-3.99613E+10 3.48305E+09-1.38617E+10 2.95640E+07 1.15345E+04 7.42890E+02
 -1       121-3.92310E+10-1.29280E+10-1.98204E+10-1.73690E+08 2.83372E+03 3.30677E+02
 -1       122-1.74464E+06-5.17094E+05-8.59460E+05-2.64564E+02-7.79780E+07-3.86103E+04
 -1       123-6.71488E+06-5.20085E+05-2.74931E+06-2.84937E+05-7.75276E+07-3.86103E+04
 -1       124-2.15707E+07-5.10269E+05-8.39086E+06-5.65952E+05-7.66270E+07-3.86097E+04
 -1       125-4.62053E+07-5.10506E+05-1.77522E+07-8.43564E+05-7.57264E+07-3.86081E+04
 -1       126-8.04955E+07-4.73807E+05-3.07686E+07-1.11783E+06-7.48259E+07-3.86055E+04
 -1       127-1.24344E+08-5.17898E+05-4.74476E+07-1.39095E+06-7.39255E+07-3.86019E+04
 -1       128-1.77611E+08-4.78136E+05-6.76742E+07-1.65555E+06-7.30251E+07-3.85971E+04
 -1       129-2.40196E+08-4.34900E+05-9.14399E+07-1.92505E+06-7.21248E+07-3.85910E+04
 -1       130-3.12007E+08-5.57232E+05-1.18775E+08-2.18497E+06-7.12246E+07-3.85833E+04
 -1       131-3.92876E+08-4.64042E+05-1.49470E+08-2.43742E+06-7.03247E+07-3.85737E+04
 -1       132-4.82728E+08-4.29206E+05-1.83600E+08-2.69554E+06-6.94249E+07-3.85624E+04
 -1       133-5.81445E+08-4.34382E+05-2.21114E+08-2.94719E+06-6.85254E+07-3.85493E+04
 -1       134-6.88902E+08-4.19333E+05-2.61942E+08-3.19961E+06-6.76262E+07-3.85341E+04
 -1       135-8.05012E+08-5.56059E+05-3.06116E+08-3.44187E+06-6.67273E+07-3.85169E+04
 -1       136-9.29588E+08-3.71277E+05-3.53385E+08-3.67739E+06-6.58289E+07-3.84975E+04
 -1       137-1.06259E+09-3.72963E+05-4.03927E+08-3.92698E+06-6.49309E+07-3.84756E+04
 -1       138-1.20390E+09-5.12812E+05-4.57677E+08-4.15737E+06-6.40334E+07-3.84509E+04
 -1       139-1.35333E+09-3.53776E+05-5.14402E+08-4.38895E+06-6.31365E+07-3.84233E+04
 -1       140-1.51088E+09-5.73334E+05-5.74353E+08-4.61798E+06-6.22403E+07-3.83928E+04
 -1       141-1.67629E+09-2.43083E+05-6.37082E+08-4.83197E+06-6.13448E+07-3.83591E+04
 -1       142-1.84961E+09-4.85509E+05-7.03035E+08-5.07498E+06-6.04501E+07-3.83223E+04
 -1       143-2.03058E+09-3.36570E+05-7.71748E+08-5.27064E+06-5.95563E+07-3.82824E+04
 -1       144-2.21919E+09-4.68348E+05-8.43471E+08-5.51112E+06-5.86635E+07-3.82393E+04
 -1       145-2.41524E+09-2.25670E+05-9.17876E+08-5.69640E+06-5.77716E+07-3.81928E+04
 -1       146-2.61869E+09-2.54739E+05-9.95199E+08-5.95076E+06-5.68810E+07-3.81426E+04
 -1       147-2.82952E+09-1.02196E+06-1.07561E+09-6.11443E+06-5.59915E+07-3.80885E+04
 -1       148-3.04719E+09 1.80552E+05-1.15786E+09-6.30871E+06-5.51034E+07-3.80300E+04
 -1       149-3.27219E+09-5.62840E+05-1.24365E+09-6.54672E+06-5.42167E+07-3.79674E+04
 -1       150-3.50394E+09-2.31922E+05-1.33159E+09-6.70307E+06-5.33315E+07-3.79003E+04
 -1       151-3.74259E+09-5.15794E+05-1.42238E+09-6.93835E+06-5.24479E+07-3.78286E+04
 -1       152-3.98780E+09 5.06460E+04-1.51534E+09-7.08205E+06-5.15661E+07-3.77520E+04
 -1       153-4.23977E+09-6.18537E+05-1.61135E+09-7.34434E+06-5.06861E+07-3.76702E+04
 -1       154-4.49813E+09-7.08675E+05-1.70956E+09-7.42658E+06-4.98081E+07-3.75829E+04
 -1       155-4.76264E+09 5.38186E+05-1.80960E+09-7.67985E+06-4.89323E+07-3.74903E+04
 -1       156-5.03386E+09-1.28830E+06-1.91336E+09-7.83765E+06-4.80586E+07-3.73925E+04
 -1       157-5.31068E+09 3.55151E+05-2.01792E+09-7.97313E+06-4.71873E+07-3.72892E+04
 -1       158-5.59393E+09-6.86305E+05-2.12595E+09-8.21090E+06-4.63185E+07-3.71805E+04
 -1       159-5.88278E+09 2.85069E+05-2.23535E+09-8.30715E+06-4.54523E+07-3.70659E+04
 -1       160-6.17773E+09-7.22781E+05-2.34781E+09-8.58242E+06-4.45888E+07-3.69453E+04
 -1       161-6.47821E+09-6.46895E+05-2.46196E+09-8.59948E+06-4.37283E+07-3.68183E+04
 -1       162-6.78415E+09 2.06570E+05-2.57790E+09-8.86162E+06-4.28707E+07-3.66849E+04
 -1       163-7.09580E+09-5.80898E+05-2.69663E+09-8.94332E+06-4.20164E+07-3.65451E+04
 -1       164-7.41252E+09 6.01686E+05-2.81653E+09-9.17303E+06-4.11654E+07-3.63989E+04
 -1       165-7.73503E+09-1.81697E+06-2.94000E+09-9.28960E+06-4.03179E+07-3.62463E+04
 -1       166-8.06184E+09 1.36166E+06-3.06298E+09-9.37219E+06-3.94740E+07-3.60872E+04
 -1       167-8.39454E+09-1.12678E+06-3.19036E+09-9.67574E+06-3.86339E+07-3.59216E+04
 -1       168-8.73173E+09-6.29655E+05-3.31830E+09-9.60895E+06-3.77977E+07-3.57495E+04
 -1       169-9.07367E+09 3.59882E+05-3.44786E+09-9.89690E+06-3.69656E+07-3.55707E+04
 -1       170-9.42058E+09-4.06907E+05-3.57998E+09-9.92389E+06-3.61378E+07-3.53852E+04
 -1       171-9.77196E+09-1.82838E+05-3.71341E+09-1.01643E+07-3.53143E+07-3.51928E+04
 -1       172-1.01279E+10-4.09617E+05-3.84876E+09-1.01772E+07-3.44955E+07-3.49934E+04
 -1       173-1.04881E+10 6.53120E+05-3.98521E+09-1.04189E+07-3.36814E+07-3.47869E+04
 -1       174-1.08529E+10-1.18738E+06-4.12457E+09-1.04876E+07-3.28722E+07-3.45732E+04
 -1       175-1.12215E+10 3.46662E+05-4.26405E+09-1.06011E+07-3.20681E+07-3.43519E+04
 -1       176-1.15947E+10-1.33324E+06-4.40648E+09-1.07225E+07-3.12692E+07-3.41231E+04
 -1       177-1.19712E+10 8.62736E+05-4.54874E+09-1.07532E+07-3.04758E+07-3.38867E+04
 -1       178-1.23522E+10-4.85930E+05-4.69403E+09-1.10101E+07-2.96879E+07-3.36425E+04
 -1       179-1.27368E+10-3.38005E+05-4.84010E+09-1.09722E+07-2.89059E+07-3.33907E+04
 -1       180-1.31248E+10 7.97764E+05-4.98713E+09-1.12175E+07-2.81298E+07-3.31311E+04
 -1       181-1.35169E+10-9.65228E+05-5.13680E+09-1.12589E+07-2.73599E+07-3.28638E+04
 -1       182-1.39123E+10-9.77049E+05-5.28703E+09-1.13532E+07-2.65963E+07-3.25887E+04
 -1       183-1.43108E+10 5.26689E+05-5.43789E+09-1.13568E+07-2.58392E+07-3.23056E+04
 -1       184-1.47127E+10 1.08283E+06-5.59042E+09-1.16124E+07-2.50889E+07-3.20145E+04
 -1       185-1.51185E+10-2.52645E+06-5.74598E+09-1.16444E+07-2.43454E+07-3.17154E+04
 -1       186-1.55262E+10 1.18305E+06-5.89952E+09-1.16158E+07-2.36090E+07-3.14079E+04
 -1       187-1.59377E+10 5.34190E+05-6.05611E+09-1.18876E+07-2.28799E+07-3.10921E+04
 -1       188-1.63521E+10-8.89309E+05-6.21415E+09-1.18858E+07-2.21582E+07-3.07678E+04
 -1       189-1.67693E+10-1.29191E+06-6.37282E+09-1.19733E+07-2.14442E+07-3.04349E+04
 -1       190-1.71887E+10 1.20328E+06-6.53127E+09-1.19233E+07-2.07381E+07-3.00935E+04
 -1       191-1.76115E+10-4.11346E+05-6.69251E+09-1.22165E+07-2.00400E+07-2.97438E+04
 -1       192-1.80365E+10-4.09808E+05-6.85402E+09-1.20815E+07-1.93502E+07-2.93856E+04
 -1       193-1.84637E+10 1.37761E+06-7.01568E+09-1.23498E+07-1.86688E+07-2.90188E+04
 -1       194-1.88940E+10-1.77354E+06-7.18041E+09-1.23312E+07-1.79961E+07-2.86435E+04
 -1       195-1.93258E+10 8.02906E+05-7.34351E+09-1.23822E+07-1.73323E+07-2.82596E+04
 -1       196-1.97606E+10-1.99510E+06-7.50980E+09-1.24566E+07-1.66775E+07-2.78670E+04
 -1       197-2.01966E+10 1.79610E+06-7.67402E+09-1.23772E+07-1.60319E+07-2.74656E+04
 -1       198-2.06355E+10-7.86542E+05-7.84180E+09-1.26890E+07-1.53959E+07-2.70553E+04
 -1       199-2.10759E+10 1.51307E+05-8.00879E+09-1.24912E+07-1.47695E+07-2.66363E+04
 -1       200-2.15184E+10-4.05435E+05-8.17715E+09-1.27922E+07-1.41530E+07-2.62083E+04
 -1       201-2.19624E+10 1.00873E+06-8.34533E+09-1.25922E+07-1.35465E+07-2.57715E+04
 -1       202-2.24083E+10 9.67914E+05-8.51480E+09-1.30159E+07-1.29504E+07-2.53258E+04
 -1       203-2.28569E+10-5.29085E+06-8.68762E+09-1.27376E+07-1.23648E+07-2.48711E+04
 -1       204-2.33046E+10 4.19850E+06-8.85416E+09-1.26846E+07-1.17898E+07-2.44073E+04
 -1       205-2.37562E+10-1.45791E+06-9.02790E+09-1.30486E+07-1.12258E+07-2.39346E+04
 -1       206-2.42080E+10 6.28271E+05-9.19878E+09-1.27918E+07-1.06730E+07-2.34529E+04
 -1       207-2.46616E+10-8.42377E+05-9.37175E+09-1.31341E+07-1.01315E+07-2.29621E+04
 -1       208-2.51160E+10 1.95101E+06-9.54333E+09-1.28486E+07-9.60150E+06-2.24621E+04
 -1       209-2.55725E+10-1.43062E+06-9.71808E+09-1.33603E+07-9.08331E+06-2.19531E+04
 -1       210-2.60298E+10-2.43945E+06-9.89224E+09-1.28035E+07-8.57710E+06-2.14349E+04
 -1       211-2.64869E+10 4.89645E+06-1.00632E+10-1.32167E+07-8.08309E+06-2.09075E+04
 -1       212-2.69477E+10-5.24786E+06-1.02421E+10-1.31912E+07-7.60149E+06-2.03709E+04
 -1       213-2.74067E+10 3.29127E+06-1.04133E+10-1.29773E+07-7.13252E+06-1.98251E+04
 -1       214-2.78686E+10-1.62827E+06-1.05907E+10-1.33661E+07-6.67639E+06-1.92700E+04
 -1       215-2.83300E+10 2.51099E+06-1.07644E+10-1.30323E+07-6.23332E+06-1.87057E+04
 -1       216-2.87934E+10-1.96600E+06-1.09422E+10-1.35837E+07-5.80353E+06-1.81322E+04
 -1       217-2.92569E+10-1.69235E+06-1.11183E+10-1.29416E+07-5.38722E+06-1.75493E+04
 -1       218-2.97205E+10 2.40160E+06-1.12929E+10-1.34219E+07-4.98463E+06-1.69572E+04
 -1       219-3.01860E+10-1.65700E+06-1.14713E+10-1.31368E+07-4.59596E+06-1.63557E+04
 -1       220-3.06507E+10 3.77987E+06-1.16458E+10-1.34464E+07-4.22144E+06-1.57449E+04
 -1       221-3.11181E+10-6.13562E+06-1.18272E+10-1.33948E+07-3.86128E+06-1.51248E+04
 -1       222-3.15828E+10 5.97140E+06-1.19992E+10-1.30893E+07-3.51570E+06-1.44953E+04
 -1       223-3.20511E+10-3.07596E+06-1.21806E+10-1.37567E+07-3.18491E+06-1.38564E+04
 -1       224-3.25182E+10-1.60673E+06-1.23575E+10-1.29984E+07-2.86914E+06-1.32082E+04
 -1       225-3.29853E+10 2.45270E+06-1.25335E+10-1.35380E+07-2.56861E+06-1.25505E+04
 -1       226-3.34538E+10-6.18903E+05-1.27127E+10-1.31995E+07-2.28354E+06-1.18835E+04
 -1       227-3.39221E+10-4.24395E+05-1.28906E+10-1.35808E+07-2.01414E+06-1.12070E+04
 -1       228-3.43904E+10 1.76484E+06-1.30677E+10-1.31774E+07-1.76064E+06-1.05211E+04
 -1       229-3.48592E+10 1.57337E+06-1.32459E+10-1.37901E+07-1.52324E+06-9.82586E+03
 -1       230-3.53296E+10-8.11940E+06-1.34283E+10-1.32900E+07-1.30219E+06-9.12116E+03
 -1       231-3.57966E+10 6.85319E+06-1.36001E+10-1.31310E+07-1.09768E+06-8.40699E+03
 -1       232-3.62672E+10-2.27729E+06-1.37824E+10-1.36528E+07-9.09952E+05-7.68339E+03
 -1       233-3.67362E+10 1.03480E+06-1.39594E+10-1.31877E+07-7.39216E+05-6.95035E+03
 -1       234-3.72061E+10-1.64195E+06-1.41389E+10-1.36508E+07-5.85694E+05-6.20788E+03
 -1       235-3.76747E+10 5.10120E+06-1.43144E+10-1.31443E+07-4.49606E+05-5.45595E+03
 -1       236-3.81465E+10-9.30174E+06-1.44992E+10-1.39714E+07-3.31173E+05-4.69460E+03
 -1       237-3.86114E+10 2.15413E+07-1.46642E+10-1.27248E+07-2.30614E+05-3.92378E+03
 -1       238-3.90965E+10-7.86017E+07-1.48865E+10-1.46031E+07-1.48150E+05-3.14362E+03
 -1       239-3.95104E+10 2.87253E+08-1.49048E+10-9.91560E+06-8.40009E+04-2.35360E+03
 -1       240-4.01791E+10-1.00958E+09-1.56517E+10-2.56510E+07-3.83853E+04-1.55563E+03
 -1       241-3.99613E+10 3.48305E+09-1.38617E+10 2.95640E+07-1.15353E+04-7.43028E+02
 -1       242-3.92310E+10-1.29280E+10-1.98204E+10-1.73690E+08-2.83372E+03-3.30709E+02
 -1       243-8.15782E+01-2.60448E+01-3.35785E+01-3.05289E+02 7.79746E+07 1.70075E+00
 -1       244-2.68854E+02-1.56209E+01-1.03688E+02-2.84334E+05 7.75248E+07 1.70406E+00
 -1       245-8.63531E+02-1.06173E+01-3.29331E+02-5.65626E+05 7.66248E+07 1.71217E+00
 -1       246-1.85233E+03-8.10062E+00-7.04182E+02-8.43130E+05 7.57249E+07 1.72524E+00
 -1       247-3.24016E+03-3.51873E+01-1.24026E+03-1.11757E+06 7.48249E+07 1.74133E+00
 -1       248-4.98305E+03-2.28798E+01-1.89730E+03-1.38742E+06 7.39250E+07 1.75708E+00
 -1       249-7.10219E+03-1.74539E+01-2.70441E+03-1.65882E+06 7.30251E+07 1.76884E+00
 -1       250-9.60952E+03-2.46594E+01-3.66051E+03-1.91853E+06 7.21253E+07 1.77511E+00
 -1       251-1.24812E+04-2.69713E+01-4.75079E+03-2.18293E+06 7.12256E+07 1.78095E+00
 -1       252-1.57157E+04-9.05638E+00-5.97396E+03-2.44563E+06 7.03259E+07 1.79164E+00
 -1       253-1.93117E+04-1.44596E+01-7.34375E+03-2.69567E+06 6.94265E+07 1.80342E+00
 -1       254-2.32619E+04-2.50186E+01-8.84635E+03-2.94700E+06 6.85272E+07 1.81158E+00
 -1       255-2.75578E+04-2.47354E+01-1.04796E+04-3.19172E+06 6.76282E+07 1.81649E+00
 -1       256-3.21965E+04-1.32139E+01-1.22386E+04-3.44067E+06 6.67295E+07 1.82044E+00
 -1       257-3.71827E+04-2.76934E+01-1.41383E+04-3.68717E+06 6.58311E+07 1.82076E+00
 -1       258-4.25021E+04-1.85673E+01-1.61573E+04-3.91436E+06 6.49332E+07 1.81727E+00
 -1       259-4.81455E+04-1.09500E+01-1.82978E+04-4.15582E+06 6.40357E+07 1.81539E+00
 -1       260-5.41391E+04-2.24800E+01-2.05771E+04-4.38742E+06 6.31388E+07 1.81972E+00
 -1       261-6.04245E+04-9.41435E+00-2.29622E+04-4.61645E+06 6.22425E+07 1.82611E+00
 -1       262-6.70433E+04-4.73164E+00-2.54782E+04-4.85065E+06 6.13468E+07 1.82799E+00
 -1       263-7.39845E+04-4.21430E+01-2.81288E+04-5.05268E+06 6.04520E+07 1.82346E+00
 -1       264-8.12104E+04-1.61288E+01-3.08669E+04-5.29410E+06 5.95580E+07 1.81482E+00
 -1       265-8.87607E+04-2.71932E+01-3.37398E+04-5.48518E+06 5.86649E+07 1.80603E+00
 -1       266-9.65962E+04-3.63348E+00-3.67064E+04-5.72344E+06 5.77729E+07 1.80060E+00
 -1       267-1.04735E+05-5.75189E+00-3.98022E+04-5.88862E+06 5.68820E+07 1.79712E+00
 -1       268-1.13168E+05-3.64757E+01-4.30192E+04-6.14265E+06 5.59923E+07 1.79199E+00
 -1       269-1.21881E+05 1.01872E+01-4.63130E+04-6.34361E+06 5.51040E+07 1.78517E+00
 -1       270-1.30870E+05-1.39309E+01-4.97384E+04-6.50822E+06 5.42171E+07 1.77507E+00
 -1       271-1.40134E+05 1.01886E+01-5.32489E+04-6.74218E+06 5.33318E+07 1.76124E+00
 -1       272-1.49692E+05-2.30272E+01-5.68948E+04-6.89412E+06 5.24481E+07 1.74581E+00
 -1       273-1.59489E+05 1.13256E+01-6.06053E+04-7.12635E+06 5.15661E+07 1.72787E+00
 -1       274-1.69571E+05-2.45681E+01-6.44495E+04-7.24266E+06 5.06861E+07 1.70683E+00
 -1       275-1.79911E+05-2.64138E+01-6.83795E+04-7.52825E+06 4.98081E+07 1.68704E+00
 -1       276-1.90497E+05 2.64090E+01-7.23808E+04-7.62404E+06 4.89321E+07 1.67092E+00
 -1       277-2.01350E+05-5.71751E+01-7.65352E+04-7.83490E+06 4.80584E+07 1.65819E+00
 -1       278-2.12421E+05 1.99981E+01-8.07139E+04-8.03275E+06 4.71871E+07 1.64608E+00
 -1       279-2.23756E+05-4.49256E+01-8.50475E+04-8.14348E+06 4.63182E+07 1.63197E+00
 -1       280-2.35307E+05 4.65438E+00-8.94178E+04-8.37466E+06 4.54520E+07 1.61567E+00
 -1       281-2.47092E+05-1.62681E+01-9.39039E+04-8.43716E+06 4.45886E+07 1.59924E+00
 -1       282-2.59122E+05-3.33062E+01-9.84830E+04-8.74260E+06 4.37280E+07 1.58268E+00
 -1       283-2.71361E+05 8.20181E+00-1.03119E+05-8.78618E+06 4.28705E+07 1.56570E+00
 -1       284-2.83819E+05-2.37137E+01-1.07866E+05-9.02084E+06 4.20162E+07 1.54851E+00
 -1       285-2.96489E+05 4.01547E+01-1.12655E+05-9.08409E+06 4.11652E+07 1.53267E+00
 -1       286-3.09396E+05-8.77850E+01-1.17607E+05-9.28861E+06 4.03176E+07 1.51805E+00
 -1       287-3.22465E+05 6.38783E+01-1.22514E+05-9.46568E+06 3.94737E+07 1.50349E+00
 -1       288-3.35770E+05-4.55044E+01-1.27611E+05-9.47188E+06 3.86336E+07 1.49041E+00
 -1       289-3.49268E+05-2.38715E+01-1.32734E+05-9.81407E+06 3.77973E+07 1.47916E+00
 -1       290-3.62943E+05 1.32474E+01-1.37916E+05-9.78560E+06 3.69652E+07 1.46829E+00
 -1       291-3.76811E+05-1.05260E+00-1.43191E+05-1.00332E+07 3.61373E+07 1.45782E+00
 -1       292-3.90875E+05-5.15432E+00-1.48537E+05-1.00505E+07 3.53139E+07 1.44712E+00
 -1       293-4.05110E+05-1.88558E+01-1.53950E+05-1.02949E+07 3.44950E+07 1.43486E+00
 -1       294-4.19518E+05 3.29702E+01-1.59406E+05-1.02903E+07 3.36809E+07 1.42047E+00
 -1       295-4.34109E+05-5.30166E+01-1.64984E+05-1.04869E+07 3.28717E+07 1.40424E+00
 -1       296-4.48858E+05 1.67766E+01-1.70562E+05-1.05935E+07 3.20675E+07 1.38732E+00
 -1       297-4.63782E+05-6.43738E+01-1.76262E+05-1.07220E+07 3.12687E+07 1.36948E+00
 -1       298-4.78842E+05 4.40827E+01-1.81945E+05-1.08885E+07 3.04753E+07 1.34989E+00
 -1       299-4.94086E+05-2.98215E+01-1.87769E+05-1.08663E+07 2.96875E+07 1.32851E+00
 -1       300-5.09469E+05-2.11792E+01-1.93611E+05-1.11164E+07 2.89055E+07 1.30604E+00
 -1       301-5.24983E+05 4.27280E+01-1.99481E+05-1.10651E+07 2.81294E+07 1.28375E+00
 -1       302-5.40668E+05-2.95266E+01-2.05469E+05-1.12506E+07 2.73595E+07 1.26303E+00
 -1       303-5.56493E+05-3.93201E+01-2.11486E+05-1.13533E+07 2.65960E+07 1.24363E+00
 -1       304-5.72423E+05 2.52029E+01-2.17513E+05-1.15190E+07 2.58389E+07 1.22542E+00
 -1       305-5.88516E+05 3.97715E+01-2.23624E+05-1.14416E+07 2.50886E+07 1.20768E+00
 -1       306-6.04727E+05-9.05019E+01-2.29834E+05-1.16400E+07 2.43452E+07 1.18880E+00
 -1       307-6.21055E+05 4.51073E+01-2.35986E+05-1.17916E+07 2.36089E+07 1.16999E+00
 -1       308-6.37506E+05 1.93606E+01-2.42247E+05-1.16975E+07 2.28798E+07 1.15225E+00
 -1       309-6.54090E+05-3.62579E+01-2.48569E+05-1.18863E+07 2.21582E+07 1.13457E+00
 -1       310-6.70771E+05-5.06341E+01-2.54915E+05-1.19635E+07 2.14443E+07 1.11650E+00
 -1       311-6.87551E+05 4.87837E+01-2.61253E+05-1.21291E+07 2.07382E+07 1.09834E+00
 -1       312-7.04464E+05-1.64548E+01-2.67703E+05-1.20071E+07 2.00402E+07 1.08141E+00
 -1       313-7.21458E+05-1.23345E+01-2.74159E+05-1.22863E+07 1.93504E+07 1.06689E+00
 -1       314-7.38561E+05 5.79859E+01-2.80632E+05-1.21301E+07 1.86691E+07 1.05329E+00
 -1       315-7.55761E+05-7.52342E+01-2.87218E+05-1.23325E+07 1.79964E+07 1.03859E+00
 -1       316-7.73046E+05 3.90817E+01-2.93742E+05-1.23716E+07 1.73326E+07 1.02314E+00
 -1       317-7.90425E+05-8.46944E+01-3.00393E+05-1.24642E+07 1.66778E+07 1.00754E+00
 -1       318-8.07877E+05 7.13787E+01-3.06966E+05-1.26005E+07 1.60323E+07 9.91641E-01
 -1       319-8.25427E+05-3.48643E+01-3.13675E+05-1.24436E+07 1.53963E+07 9.75831E-01
 -1       320-8.43045E+05 8.16371E+00-3.20353E+05-1.27372E+07 1.47699E+07 9.60943E-01
 -1       321-8.60750E+05-1.75577E+01-3.27091E+05-1.25498E+07 1.41534E+07 9.46946E-01
 -1       322-8.78501E+05 3.63170E+01-3.33816E+05-1.28284E+07 1.35470E+07 9.32851E-01
 -1       323-8.96348E+05 4.60705E+01-3.40594E+05-1.25039E+07 1.29508E+07 9.17539E-01
 -1       324-9.14277E+05-2.22582E+02-3.47509E+05-1.29855E+07 1.23652E+07 9.01551E-01
 -1       325-9.32201E+05 1.76994E+02-3.54169E+05-1.29569E+07 1.17902E+07 8.85331E-01
 -1       326-9.50249E+05-6.55571E+01-3.61119E+05-1.27739E+07 1.12262E+07 8.67884E-01
 -1       327-9.68330E+05 3.00064E+01-3.67954E+05-1.30748E+07 1.06734E+07 8.49427E-01
 -1       328-9.86472E+05-3.13340E+01-3.74871E+05-1.28336E+07 1.01318E+07 8.30848E-01
 -1       329-1.00465E+06 7.59355E+01-3.81736E+05-1.31422E+07 9.60183E+06 8.11898E-01
 -1       330-1.02292E+06-5.46940E+01-3.88730E+05-1.27607E+07 9.08361E+06 7.92641E-01
 -1       331-1.04119E+06-1.05244E+02-3.95691E+05-1.34040E+07 8.57738E+06 7.73115E-01
 -1       332-1.05951E+06 2.08710E+02-4.02533E+05-1.29106E+07 8.08334E+06 7.53812E-01
 -1       333-1.07790E+06-2.22284E+02-4.09686E+05-1.31863E+07 7.60171E+06 7.34416E-01
 -1       334-1.09629E+06 1.50230E+02-4.16534E+05-1.32894E+07 7.13272E+06 7.14243E-01
 -1       335-1.11474E+06-8.05185E+01-4.23631E+05-1.30441E+07 6.67656E+06 6.94002E-01
 -1       336-1.13322E+06 1.14274E+02-4.30581E+05-1.33462E+07 6.23346E+06 6.73902E-01
 -1       337-1.15174E+06-9.17075E+01-4.37695E+05-1.29269E+07 5.80364E+06 6.53639E-01
 -1       338-1.17030E+06-5.99967E+01-4.44735E+05-1.36081E+07 5.38731E+06 6.33395E-01
 -1       339-1.18883E+06 8.92515E+01-4.51720E+05-1.30786E+07 4.98469E+06 6.12743E-01
 -1       340-1.20746E+06-5.77331E+01-4.58855E+05-1.34808E+07 4.59600E+06 5.91717E-01
 -1       341-1.22603E+06 1.42782E+02-4.65838E+05-1.30925E+07 4.22146E+06 5.70679E-01
 -1       342-1.24475E+06-2.34650E+02-4.73093E+05-1.33802E+07 3.86127E+06 5.49151E-01
 -1       343-1.26331E+06 2.22419E+02-4.79972E+05-1.34590E+07 3.51568E+06 5.26913E-01
 -1       344-1.28209E+06-9.84583E+01-4.87230E+05-1.30062E+07 3.18488E+06 5.04178E-01
 -1       345-1.30070E+06-9.91170E+01-4.94303E+05-1.37598E+07 2.86910E+06 4.81162E-01
 -1       346-1.31948E+06 1.46722E+02-5.01347E+05-1.31471E+07 2.56856E+06 4.57726E-01
 -1       347-1.33810E+06-8.70959E+01-5.08510E+05-1.35705E+07 2.28348E+06 4.33904E-01
 -1       348-1.35698E+06 6.11445E+01-5.15630E+05-1.31998E+07 2.01408E+06 4.09811E-01
 -1       349-1.37553E+06-2.58108E+01-5.22709E+05-1.35696E+07 1.76057E+06 3.85311E-01
 -1       350-1.39451E+06 1.79272E+02-5.29844E+05-1.29744E+07 1.52318E+06 3.60250E-01
 -1       351-1.41305E+06-4.64534E+02-5.37135E+05-1.37097E+07 1.30213E+06 3.34610E-01
 -1       352-1.43205E+06 4.40804E+02-5.44012E+05-1.35283E+07 1.09763E+06 3.08545E-01
 -1       353-1.45050E+06-2.86379E+02-5.51300E+05-1.32230E+07 9.09902E+05 2.82110E-01
 -1       354-1.46970E+06 2.68383E+02-5.58383E+05-1.36182E+07 7.39173E+05 2.55199E-01
 -1       355-1.48798E+06-3.29905E+02-5.65559E+05-1.32215E+07 5.85657E+05 2.27874E-01
 -1       356-1.50733E+06 5.12561E+02-5.72588E+05-1.35743E+07 4.49576E+05 2.00292E-01
 -1       357-1.52550E+06-7.28919E+02-5.79967E+05-1.30907E+07 3.31149E+05 1.72411E-01
 -1       358-1.54491E+06 1.26057E+03-5.86585E+05-1.36063E+07 2.30596E+05 1.44133E-01
 -1       359-1.56340E+06-3.55559E+03-5.95443E+05-1.41387E+07 1.48138E+05 1.15501E-01
 -1       360-1.58087E+06 1.18177E+04-5.96238E+05-9.92876E+06 8.39940E+04 8.64983E-02
 -1       361-1.60713E+06-4.03991E+04-6.26060E+05-2.61031E+07 3.83821E+04 5.71714E-02
 -1       362-1.59691E+06 1.38745E+05-5.54102E+05 2.97653E+07 1.15345E+04 2.72423E-02
 -1       363-1.57400E+06-5.16344E+05-7.94329E+05-1.74076E+08 2.83372E+03 1.20316E-02
 -1       364-7.51576E+01-3.02755E+01-4.73828E+01-2.55212E+02-7.79780E+07-1.38587E+00
 -1       365-2.53383E+02-2.63640E+00-1.01700E+02-2.84662E+05-7.75276E+07-1.38255E+00
 -1       366-8.59048E+02-2.81560E+01-3.39983E+02-5.66216E+05-7.66270E+07-1.37440E+00
 -1       367-1.84310E+03-3.48463E+01-7.16403E+02-8.43576E+05-7.57264E+07-1.36127E+00
 -1       368-3.19117E+03 3.17835E+00-1.21581E+03-1.11784E+06-7.48259E+07-1.34507E+00
 -1       369-4.95493E+03-1.32561E+01-1.89286E+03-1.38757E+06-7.39255E+07-1.32916E+00
 -1       370-7.08795E+03-1.78850E+01-2.70127E+03-1.65900E+06-7.30251E+07-1.31714E+00
 -1       371-9.59785E+03-1.66796E+01-3.65400E+03-1.91882E+06-7.21248E+07-1.31053E+00
 -1       372-1.24762E+04-3.92205E+01-4.75816E+03-2.18319E+06-7.12246E+07-1.30427E+00
 -1       373-1.56997E+04-2.01585E+01-5.97500E+03-2.44563E+06-7.03247E+07-1.29302E+00
 -1       374-1.92895E+04-8.72966E+00-7.33352E+03-2.69558E+06-6.94249E+07-1.28055E+00
 -1       375-2.32506E+04-2.14523E+01-8.84605E+03-2.94704E+06-6.85254E+07-1.27154E+00
 -1       376-2.75531E+04-2.75837E+01-1.04824E+04-3.19157E+06-6.76262E+07-1.26561E+00
 -1       377-3.21966E+04-2.39939E+01-1.22449E+04-3.44035E+06-6.67273E+07-1.26045E+00
 -1       378-3.71738E+04-5.91871E+00-1.41299E+04-3.68709E+06-6.58289E+07-1.25874E+00
 -1       379-4.24954E+04 4.89306E+00-1.61469E+04-3.91440E+06-6.49309E+07-1.26062E+00
 -1       380-4.81518E+04-2.59280E+01-1.83092E+04-4.15582E+06-6.40334E+07-1.26067E+00
 -1       381-5.41196E+04-8.14781E+00-2.05728E+04-4.38732E+06-6.31365E+07-1.25428E+00
 -1       382-6.04289E+04-3.25610E+01-2.29780E+04-4.61626E+06-6.22403E+07-1.24557E+00
 -1       383-6.70468E+04-8.70827E+00-2.54811E+04-4.85035E+06-6.13448E+07-1.24115E+00
 -1       384-7.39683E+04 2.61796E+00-2.81083E+04-5.05227E+06-6.04501E+07-1.24288E+00
 -1       385-8.12223E+04-1.26500E+01-3.08685E+04-5.29361E+06-5.95563E+07-1.24839E+00
 -1       386-8.87566E+04-4.07278E+00-3.37286E+04-5.48469E+06-5.86635E+07-1.25377E+00
 -1       387-9.66134E+04-2.61144E+01-3.67246E+04-5.72310E+06-5.77716E+07-1.25548E+00
 -1       388-1.04746E+05-1.86732E+01-3.98097E+04-5.88848E+06-5.68810E+07-1.25492E+00
 -1       389-1.13180E+05-4.68459E+01-4.30248E+04-6.14252E+06-5.59915E+07-1.25568E+00
 -1       390-1.21889E+05 8.23586E+00-4.63127E+04-6.34346E+06-5.51034E+07-1.25776E+00
 -1       391-1.30892E+05-2.39147E+01-4.97455E+04-6.50803E+06-5.42167E+07-1.26276E+00
 -1       392-1.40162E+05-2.68443E+00-5.32610E+04-6.74209E+06-5.33315E+07-1.27116E+00
 -1       393-1.49713E+05-2.41974E+01-5.68973E+04-6.89420E+06-5.24479E+07-1.28079E+00
 -1       394-1.59527E+05-5.90153E+00-6.06187E+04-7.12655E+06-5.15661E+07-1.29251E+00
 -1       395-1.69599E+05-2.25158E+01-6.44529E+04-7.24299E+06-5.06861E+07-1.30695E+00
 -1       396-1.79935E+05-2.80895E+01-6.83829E+04-7.52839E+06-4.98081E+07-1.31972E+00
 -1       397-1.90514E+05 2.51050E+01-7.23839E+04-7.62387E+06-4.89323E+07-1.32841E+00
 -1       398-2.01352E+05-3.93246E+01-7.65283E+04-7.83475E+06-4.80586E+07-1.33326E+00
 -1       399-2.12439E+05 1.11685E+01-8.07212E+04-8.03265E+06-4.71873E+07-1.33705E+00
 -1       400-2.23760E+05-2.26915E+01-8.50342E+04-8.14350E+06-4.63185E+07-1.34240E+00
 -1       401-2.35319E+05 1.48010E+01-8.94129E+04-8.37496E+06-4.54523E+07-1.34950E+00
 -1       402-2.47119E+05-3.07063E+01-9.39140E+04-8.43750E+06-4.45888E+07-1.35624E+00
 -1       403-2.59129E+05-1.69543E+01-9.84713E+04-8.74288E+06-4.37283E+07-1.36265E+00
 -1       404-2.71373E+05 1.54419E+01-1.03111E+05-8.78644E+06-4.28707E+07-1.36899E+00
 -1       405-2.83829E+05-1.51107E+01-1.07855E+05-9.02099E+06-4.20164E+07-1.37500E+00
 -1       406-2.96515E+05 1.64268E+01-1.12665E+05-9.08405E+06-4.11654E+07-1.37918E+00
 -1       407-3.09399E+05-7.24131E+01-1.17596E+05-9.28851E+06-4.03179E+07-1.38164E+00
 -1       408-3.22483E+05 5.42818E+01-1.22521E+05-9.46557E+06-3.94740E+07-1.38349E+00
 -1       409-3.35782E+05-5.23926E+01-1.27616E+05-9.47170E+06-3.86339E+07-1.38337E+00
 -1       410-3.49277E+05-3.19343E+01-1.32734E+05-9.81382E+06-3.77977E+07-1.38086E+00
 -1       411-3.62946E+05 1.52256E+01-1.37911E+05-9.78544E+06-3.69656E+07-1.37741E+00
 -1       412-3.76832E+05-3.15835E+01-1.43206E+05-1.00331E+07-3.61378E+07-1.37303E+00
 -1       413-3.90878E+05-3.42918E+00-1.48532E+05-1.00505E+07-3.53143E+07-1.36831E+00
 -1       414-4.05120E+05-2.39555E+01-1.53953E+05-1.02947E+07-3.44955E+07-1.36458E+00
 -1       415-4.19530E+05 3.03549E+01-1.59408E+05-1.02903E+07-3.36814E+07-1.36242E+00
 -1       416-4.34119E+05-4.95262E+01-1.64982E+05-1.04870E+07-3.28722E+07-1.36153E+00
 -1       417-4.48871E+05 1.62609E+01-1.70563E+05-1.05936E+07-3.20681E+07-1.36071E+00
 -1       418-4.63791E+05-5.38652E+01-1.76260E+05-1.07220E+07-3.12692E+07-1.36020E+00
 -1       419-4.78864E+05 3.60948E+01-1.81953E+05-1.08886E+07-3.04758E+07-1.36088E+00
 -1       420-4.94096E+05-1.79750E+01-1.87758E+05-1.08664E+07-2.96879E+07-1.36272E+00
 -1       421-5.09479E+05-9.29389E+00-1.93601E+05-1.11164E+07-2.89059E+07-1.36502E+00
 -1       422-5.25016E+05 1.64429E+01-1.99496E+05-1.10650E+07-2.81298E+07-1.36655E+00
 -1       423-5.40686E+05-3.96407E+01-2.05472E+05-1.12505E+07-2.73599E+07-1.36589E+00
 -1       424-5.56500E+05-3.20811E+01-2.11479E+05-1.13532E+07-2.65963E+07-1.36327E+00
 -1       425-5.72444E+05 7.03400E+00-2.17525E+05-1.15190E+07-2.58392E+07-1.35879E+00
 -1       426-5.88515E+05 5.56168E+01-2.23612E+05-1.14416E+07-2.50889E+07-1.35318E+00
 -1       427-6.04750E+05-1.11442E+02-2.29844E+05-1.16401E+07-2.43454E+07-1.34811E+00
 -1       428-6.21064E+05 4.46740E+01-2.35985E+05-1.17918E+07-2.36090E+07-1.34233E+00
 -1       429-6.37509E+05 2.54829E+01-2.42242E+05-1.16977E+07-2.28799E+07-1.33479E+00
 -1       430-6.54096E+05-3.32296E+01-2.48568E+05-1.18865E+07-2.21582E+07-1.32648E+00
 -1       431-6.70783E+05-5.98429E+01-2.54917E+05-1.19636E+07-2.14442E+07-1.31795E+00
 -1       432-6.87559E+05 4.51239E+01-2.61253E+05-1.21290E+07-2.07381E+07-1.30885E+00
 -1       433-7.04468E+05-1.72613E+01-2.67705E+05-1.20070E+07-2.00400E+07-1.29782E+00
 -1       434-7.21462E+05-2.26306E+01-2.74164E+05-1.22863E+07-1.93502E+07-1.28371E+00
 -1       435-7.38557E+05 6.12565E+01-2.80628E+05-1.21301E+07-1.86688E+07-1.26800E+00
 -1       436-7.55762E+05-7.69915E+01-2.87219E+05-1.23325E+07-1.79961E+07-1.25268E+00
 -1       437-7.73045E+05 4.06117E+01-2.93742E+05-1.23716E+07-1.73323E+07-1.23744E+00
 -1       438-7.90428E+05-8.92277E+01-3.00397E+05-1.24642E+07-1.66775E+07-1.22165E+00
 -1       439-8.07872E+05 7.92427E+01-3.06961E+05-1.26005E+07-1.60319E+07-1.20545E+00
 -1       440-8.25426E+05-3.63695E+01-3.13676E+05-1.24436E+07-1.53959E+07-1.18846E+00
 -1       441-8.43042E+05 6.51245E+00-3.20354E+05-1.27372E+07-1.47695E+07-1.16982E+00
 -1       442-8.60740E+05-1.12613E+01-3.27086E+05-1.25498E+07-1.41530E+07-1.14959E+00
 -1       443-8.78495E+05 3.69132E+01-3.33814E+05-1.28284E+07-1.35465E+07-1.12877E+00
 -1       444-8.96346E+05 4.41851E+01-3.40596E+05-1.25039E+07-1.29504E+07-1.10845E+00
 -1       445-9.14270E+05-2.15709E+02-3.47506E+05-1.29855E+07-1.23648E+07-1.08807E+00
 -1       446-9.32200E+05 1.74071E+02-3.54171E+05-1.29569E+07-1.17898E+07-1.06721E+00
 -1       447-9.50248E+05-6.46311E+01-3.61119E+05-1.27739E+07-1.12258E+07-1.04686E+00
 -1       448-9.68329E+05 2.97869E+01-3.67954E+05-1.30748E+07-1.06730E+07-1.02677E+00
 -1       449-9.86474E+05-3.61359E+01-3.74874E+05-1.28336E+07-1.01315E+07-1.00609E+00
 -1       450-1.00464E+06 7.48095E+01-3.81737E+05-1.31422E+07-9.60150E+06-9.85066E-01
 -1       451-1.02291E+06-4.88965E+01-3.88726E+05-1.27606E+07-9.08331E+06-9.63603E-01
 -1       452-1.04119E+06-1.09386E+02-3.95692E+05-1.34040E+07-8.57710E+06-9.41670E-01
 -1       453-1.05950E+06 2.11580E+02-4.02529E+05-1.29106E+07-8.08309E+06-9.18775E-01
 -1       454-1.07790E+06-2.27212E+02-4.09689E+05-1.31863E+07-7.60149E+06-8.95265E-01
 -1       455-1.09629E+06 1.46904E+02-4.16537E+05-1.32894E+07-7.13252E+06-8.71790E-01
 -1       456-1.11474E+06-8.20306E+01-4.23631E+05-1.30441E+07-6.67639E+06-8.47627E-01
 -1       457-1.13322E+06 1.15841E+02-4.30580E+05-1.33461E+07-6.23332E+06-8.22587E-01
 -1       458-1.15173E+06-8.97991E+01-4.37694E+05-1.29269E+07-5.80353E+06-7.96965E-01
 -1       459-1.17029E+06-5.55674E+01-4.44732E+05-1.36081E+07-5.38722E+06-7.70575E-01
 -1       460-1.18883E+06 8.62617E+01-4.51723E+05-1.30786E+07-4.98463E+06-7.43828E-01
 -1       461-1.20746E+06-5.95133E+01-4.58857E+05-1.34808E+07-4.59596E+06-7.16737E-01
 -1       462-1.22603E+06 1.43764E+02-4.65837E+05-1.30925E+07-4.22144E+06-6.88905E-01
 -1       463-1.24475E+06-2.35568E+02-4.73094E+05-1.33802E+07-3.86128E+06-6.60800E-01
 -1       464-1.26330E+06 2.22538E+02-4.79972E+05-1.34590E+07-3.51570E+06-6.32691E-01
 -1       465-1.28208E+06-9.76684E+01-4.87229E+05-1.30062E+07-3.18491E+06-6.04314E-01
 -1       466-1.30070E+06-1.00723E+02-4.94304E+05-1.37598E+07-2.86914E+06-5.75452E-01
 -1       467-1.31948E+06 1.47163E+02-5.01346E+05-1.31471E+07-2.56861E+06-5.46263E-01
 -1       468-1.33809E+06-8.78683E+01-5.08510E+05-1.35705E+07-2.28354E+06-5.16724E-01
 -1       469-1.35698E+06 6.17751E+01-5.15630E+05-1.31998E+07-2.01414E+06-4.86694E-01
 -1       470-1.37552E+06-2.59174E+01-5.22709E+05-1.35696E+07-1.76064E+06-4.56317E-01
 -1       471-1.39450E+06 1.79366E+02-5.29844E+05-1.29744E+07-1.52324E+06-4.25753E-01
 -1       472-1.41305E+06-4.64665E+02-5.37135E+05-1.37097E+07-1.30219E+06-3.95015E-01
 -1       473-1.43205E+06 4.40903E+02-5.44012E+05-1.35283E+07-1.09768E+06-3.63940E-01
 -1       474-1.45050E+06-2.85559E+02-5.51299E+05-1.32230E+07-9.09952E+05-3.32460E-01
 -1       475-1.46970E+06 2.67633E+02-5.58384E+05-1.36182E+07-7.39216E+05-3.00717E-01
 -1       476-1.48798E+06-3.30645E+02-5.65559E+05-1.32215E+07-5.85694E+05-2.68658E-01
 -1       477-1.50732E+06 5.12788E+02-5.72588E+05-1.35743E+07-4.49606E+05-2.36124E-01
 -1       478-1.52550E+06-7.28800E+02-5.79966E+05-1.30907E+07-3.31173E+05-2.03106E-01
 -1       479-1.54490E+06 1.26041E+03-5.86585E+05-1.36063E+07-2.30614E+05-1.69698E-01
 -1       480-1.56340E+06-3.55563E+03-5.95443E+05-1.41388E+07-1.48150E+05-1.35935E-01
 -1       481-1.58086E+06 1.18180E+04-5.96238E+05-9.92877E+06-8.40009E+04-1.01741E-01
 -1       482-1.60713E+06-4.03989E+04-6.26060E+05-2.61032E+07-3.83853E+04-6.72111E-02
 -1       483-1.59691E+06 1.38745E+05-5.54102E+05 2.97653E+07-1.15353E+04-3.21743E-02
 -1       484-1.57399E+06-5.16342E+05-7.94328E+05-1.74076E+08-2.83372E+03-1.44492E-02
 -1       485 1.74460E+06 5.17029E+05 8.59430E+05-3.18679E+02 7.79746E+07-3.85539E+04
 -1       486 6.71524E+06 5.20230E+05 2.74946E+06-2.84616E+05 7.75248E+07-3.85540E+04
 -1       487 2.15720E+07 5.10719E+05 8.39136E+06-5.65379E+05 7.66248E+07-3.85540E+04
 -1       488 4.62077E+07 5.11393E+05 1.77531E+07-8.43148E+05 7.57249E+07-3.85541E+04
 -1       489 8.04987E+07 4.75025E+05 3.07698E+07-1.11760E+06 7.48249E+07-3.85541E+04
 -1       490 1.24347E+08 5.19310E+05 4.74491E+07-1.39086E+06 7.39250E+07-3.85537E+04
 -1       491 1.77615E+08 4.79698E+05 6.76758E+07-1.65543E+06 7.30251E+07-3.85524E+04
 -1       492 2.40200E+08 4.36655E+05 9.14417E+07-1.92484E+06 7.21253E+07-3.85502E+04
 -1       493 3.12012E+08 5.59219E+05 1.18777E+08-2.18478E+06 7.12256E+07-3.85469E+04
 -1       494 3.92881E+08 4.66130E+05 1.49472E+08-2.43751E+06 7.03259E+07-3.85422E+04
 -1       495 4.82733E+08 4.31312E+05 1.83602E+08-2.69574E+06 6.94265E+07-3.85358E+04
 -1       496 5.81450E+08 4.36396E+05 2.21116E+08-2.94726E+06 6.85272E+07-3.85275E+04
 -1       497 6.88907E+08 4.21318E+05 2.61944E+08-3.19990E+06 6.76282E+07-3.85172E+04
 -1       498 8.05017E+08 5.57878E+05 3.06118E+08-3.44232E+06 6.67295E+07-3.85044E+04
 -1       499 9.29592E+08 3.72942E+05 3.53386E+08-3.67761E+06 6.58311E+07-3.84890E+04
 -1       500 1.06260E+09 3.74588E+05 4.03928E+08-3.92709E+06 6.49332E+07-3.84709E+04
 -1       501 1.20390E+09 5.14407E+05 4.57679E+08-4.15752E+06 6.40357E+07-3.84501E+04
 -1       502 1.35334E+09 3.55350E+05 5.14403E+08-4.38922E+06 6.31388E+07-3.84263E+04
 -1       503 1.51089E+09 5.74800E+05 5.74355E+08-4.61835E+06 6.22425E+07-3.83994E+04
 -1       504 1.67629E+09 2.44344E+05 6.37083E+08-4.83246E+06 6.13468E+07-3.83690E+04
 -1       505 1.84961E+09 4.86456E+05 7.03036E+08-5.07560E+06 6.04520E+07-3.83349E+04
 -1       506 2.03058E+09 3.37102E+05 7.71748E+08-5.27135E+06 5.95580E+07-3.82969E+04
 -1       507 2.21919E+09 4.68526E+05 8.43472E+08-5.51184E+06 5.86649E+07-3.82547E+04
 -1       508 2.41524E+09 2.25479E+05 9.17876E+08-5.69697E+06 5.77729E+07-3.82082E+04
 -1       509 2.61869E+09 2.54327E+05 9.95199E+08-5.95114E+06 5.68820E+07-3.81573E+04
 -1       510 2.82952E+09 1.02140E+06 1.07560E+09-6.11480E+06 5.59923E+07-3.81022E+04
 -1       511 3.04719E+09-1.81162E+05 1.15786E+09-6.30912E+06 5.51040E+07-3.80425E+04
 -1       512 3.27219E+09 5.62027E+05 1.24365E+09-6.54717E+06 5.42171E+07-3.79782E+04
 -1       513 3.50394E+09 2.31075E+05 1.33158E+09-6.70343E+06 5.33318E+07-3.79092E+04
 -1       514 3.74259E+09 5.14880E+05 1.42238E+09-6.93856E+06 5.24481E+07-3.78355E+04
 -1       515 3.98780E+09-5.13772E+04 1.51534E+09-7.08213E+06 5.15661E+07-3.77569E+04
 -1       516 4.23977E+09 6.17946E+05 1.61135E+09-7.34431E+06 5.06861E+07-3.76736E+04
 -1       517 4.49813E+09 7.08245E+05 1.70956E+09-7.42674E+06 4.98081E+07-3.75854E+04
 -1       518 4.76264E+09-5.38497E+05 1.80960E+09-7.68033E+06 4.89321E+07-3.74920E+04
 -1       519 5.03386E+09 1.28768E+06 1.91335E+09-7.83811E+06 4.80584E+07-3.73932E+04
 -1       520 5.31068E+09-3.55731E+05 2.01792E+09-7.97355E+06 4.71871E+07-3.72886E+04
 -1       521 5.59393E+09 6.85619E+05 2.12595E+09-8.21120E+06 4.63182E+07-3.71784E+04
 -1       522 5.88278E+09-2.85533E+05 2.23535E+09-8.30718E+06 4.54520E+07-3.70625E+04
 -1       523 6.17773E+09 7.22490E+05 2.34781E+09-8.58242E+06 4.45886E+07-3.69411E+04
 -1       524 6.47821E+09 6.46894E+05 2.46196E+09-8.59953E+06 4.37280E+07-3.68139E+04
 -1       525 6.78415E+09-2.06259E+05 2.57790E+09-8.86171E+06 4.28705E+07-3.66809E+04
 -1       526 7.09580E+09 5.81296E+05 2.69663E+09-8.94351E+06 4.20162E+07-3.65420E+04
 -1       527 7.41252E+09-6.01156E+05 2.81653E+09-9.17344E+06 4.11652E+07-3.63969E+04
 -1       528 7.73503E+09 1.81728E+06 2.94000E+09-9.29007E+06 4.03176E+07-3.62454E+04
 -1       529 8.06184E+09-1.36117E+06 3.06298E+09-9.37267E+06 3.94737E+07-3.60872E+04
 -1       530 8.39455E+09 1.12690E+06 3.19036E+09-9.67630E+06 3.86336E+07-3.59224E+04
 -1       531 8.73173E+09 6.29644E+05 3.31830E+09-9.60959E+06 3.77973E+07-3.57506E+04
 -1       532 9.07367E+09-3.59987E+05 3.44786E+09-9.89746E+06 3.69652E+07-3.55717E+04
 -1       533 9.42058E+09 4.06646E+05 3.57998E+09-9.92437E+06 3.61373E+07-3.53858E+04
 -1       534 9.77196E+09 1.82528E+05 3.71341E+09-1.01648E+07 3.53139E+07-3.51928E+04
 -1       535 1.01279E+10 4.09166E+05 3.84876E+09-1.01777E+07 3.44950E+07-3.49926E+04
 -1       536 1.04881E+10-6.53470E+05 3.98521E+09-1.04194E+07 3.36809E+07-3.47851E+04
 -1       537 1.08529E+10 1.18688E+06 4.12457E+09-1.04879E+07 3.28717E+07-3.45704E+04
 -1       538 1.12215E+10-3.46939E+05 4.26405E+09-1.06014E+07 3.20675E+07-3.43484E+04
 -1       539 1.15947E+10 1.33291E+06 4.40648E+09-1.07228E+07 3.12687E+07-3.41190E+04
 -1       540 1.19712E+10-8.62794E+05 4.54874E+09-1.07535E+07 3.04753E+07-3.38821E+04
 -1       541 1.23522E+10 4.85816E+05 4.69403E+09-1.10104E+07 2.96875E+07-3.36378E+04
 -1       542 1.27368E+10 3.37926E+05 4.84010E+09-1.09727E+07 2.89055E+07-3.33859E+04
 -1       543 1.31248E+10-7.97825E+05 4.98713E+09-1.12181E+07 2.81294E+07-3.31262E+04
 -1       544 1.35169E+10 9.64931E+05 5.13680E+09-1.12594E+07 2.73595E+07-3.28585E+04
 -1       545 1.39123E+10 9.76681E+05 5.28703E+09-1.13537E+07 2.65960E+07-3.25828E+04
 -1       546 1.43108E+10-5.26978E+05 5.43789E+09-1.13573E+07 2.58389E+07-3.22991E+04
 -1       547 1.47127E+10-1.08307E+06 5.59042E+09-1.16128E+07 2.50886E+07-3.20073E+04
 -1       548 1.51185E+10 2.52597E+06 5.74598E+09-1.16448E+07 2.43452E+07-3.17074E+04
 -1       549 1.55262E+10-1.18309E+06 5.89952E+09-1.16160E+07 2.36089E+07-3.13994E+04
 -1       550 1.59377E+10-5.34129E+05 6.05611E+09-1.18879E+07 2.28798E+07-3.10834E+04
 -1       551 1.63521E+10 8.89422E+05 6.21415E+09-1.18862E+07 2.21582E+07-3.07594E+04
 -1       552 1.67693E+10 1.29207E+06 6.37282E+09-1.19737E+07 2.14443E+07-3.04271E+04
 -1       553 1.71887E+10-1.20288E+06 6.53127E+09-1.19238E+07 2.07382E+07-3.00865E+04
 -1       554 1.76115E+10 4.11565E+05 6.69251E+09-1.22171E+07 2.00402E+07-2.97374E+04
 -1       555 1.80365E+10 4.09975E+05 6.85402E+09-1.20820E+07 1.93504E+07-2.93797E+04
 -1       556 1.84637E+10-1.37732E+06 7.01568E+09-1.23503E+07 1.86691E+07-2.90135E+04
 -1       557 1.88940E+10 1.77354E+06 7.18041E+09-1.23318E+07 1.79964E+07-2.86386E+04
 -1       558 1.93258E+10-8.02707E+05 7.34351E+09-1.23827E+07 1.73326E+07-2.82550E+04
 -1       559 1.97606E+10 1.99506E+06 7.50980E+09-1.24570E+07 1.66778E+07-2.78627E+04
 -1       560 2.01966E+10-1.79578E+06 7.67402E+09-1.23777E+07 1.60323E+07-2.74616E+04
 -1       561 2.06355E+10 7.86667E+05 7.84180E+09-1.26896E+07 1.53963E+07-2.70518E+04
 -1       562 2.10759E+10-1.51107E+05 8.00879E+09-1.24916E+07 1.47699E+07-2.66333E+04
 -1       563 2.15184E+10 4.05602E+05 8.17715E+09-1.27927E+07 1.41534E+07-2.62058E+04
 -1       564 2.19624E+10-1.00846E+06 8.34533E+09-1.25927E+07 1.35470E+07-2.57694E+04
 -1       565 2.24083E+10-9.67648E+05 8.51480E+09-1.30164E+07 1.29508E+07-2.53242E+04
 -1       566 2.28569E+10 5.29057E+06 8.68762E+09-1.27381E+07 1.23652E+07-2.48699E+04
 -1       567 2.33046E+10-4.19803E+06 8.85416E+09-1.26852E+07 1.17902E+07-2.44065E+04
 -1       568 2.37562E+10 1.45788E+06 9.02790E+09-1.30492E+07 1.12262E+07-2.39342E+04
 -1       569 2.42080E+10-6.28131E+05 9.19879E+09-1.27923E+07 1.06734E+07-2.34527E+04
 -1       570 2.46616E+10 8.42391E+05 9.37175E+09-1.31346E+07 1.01318E+07-2.29621E+04
 -1       571 2.51160E+10-1.95078E+06 9.54333E+09-1.28491E+07 9.60183E+06-2.24624E+04
 -1       572 2.55725E+10 1.43058E+06 9.71808E+09-1.33609E+07 9.08361E+06-2.19535E+04
 -1       573 2.60298E+10 2.43928E+06 9.89224E+09-1.28040E+07 8.57738E+06-2.14355E+04
 -1       574 2.64869E+10-4.89600E+06 1.00632E+10-1.32173E+07 8.08334E+06-2.09082E+04
 -1       575 2.69477E+10 5.24743E+06 1.02421E+10-1.31917E+07 7.60171E+06-2.03717E+04
 -1       576 2.74067E+10-3.29096E+06 1.04133E+10-1.29778E+07 7.13272E+06-1.98260E+04
 -1       577 2.78686E+10 1.62810E+06 1.05907E+10-1.33667E+07 6.67656E+06-1.92710E+04
 -1       578 2.83300E+10-2.51078E+06 1.07644E+10-1.30328E+07 6.23346E+06-1.87067E+04
 -1       579 2.87934E+10 1.96577E+06 1.09422E+10-1.35843E+07 5.80364E+06-1.81331E+04
 -1       580 2.92569E+10 1.69216E+06 1.11183E+10-1.29422E+07 5.38731E+06-1.75502E+04
 -1       581 2.97205E+10-2.40150E+06 1.12929E+10-1.34224E+07 4.98469E+06-1.69579E+04
 -1       582 3.01860E+10 1.65681E+06 1.14713E+10-1.31373E+07 4.59600E+06-1.63563E+04
 -1       583 3.06507E+10-3.77966E+06 1.16458E+10-1.34469E+07 4.22146E+06-1.57454E+04
 -1       584 3.11181E+10 6.13506E+06 1.18272E+10-1.33954E+07 3.86127E+06-1.51251E+04
 -1       585 3.15828E+10-5.97105E+06 1.19992E+10-1.30898E+07 3.51568E+06-1.44954E+04
 -1       586 3.20511E+10 3.07567E+06 1.21806E+10-1.37573E+07 3.18488E+06-1.38563E+04
 -1       587 3.25182E+10 1.60643E+06 1.23575E+10-1.29988E+07 2.86910E+06-1.32079E+04
 -1       588 3.29853E+10-2.45250E+06 1.25335E+10-1.35386E+07 2.56856E+06-1.25501E+04
 -1       589 3.34538E+10 6.18640E+05 1.27127E+10-1.32000E+07 2.28348E+06-1.18829E+04
 -1       590 3.39221E+10 4.24436E+05 1.28906E+10-1.35814E+07 2.01408E+06-1.12063E+04
 -1       591 3.43904E+10-1.76498E+06 1.30677E+10-1.31778E+07 1.76057E+06-1.05203E+04
 -1       592 3.48592E+10-1.57308E+06 1.32459E+10-1.37907E+07 1.52318E+06-9.82490E+03
 -1       593 3.53296E+10 8.11842E+06 1.34283E+10-1.32904E+07 1.30213E+06-9.12011E+03
 -1       594 3.57966E+10-6.85235E+06 1.36001E+10-1.31317E+07 1.09763E+06-8.40589E+03
 -1       595 3.62672E+10 2.27670E+06 1.37824E+10-1.36532E+07 9.09902E+05-7.68227E+03
 -1       596 3.67362E+10-1.03428E+06 1.39594E+10-1.31884E+07 7.39173E+05-6.94925E+03
 -1       597 3.72061E+10 1.64129E+06 1.41389E+10-1.36511E+07 5.85657E+05-6.20681E+03
 -1       598 3.76747E+10-5.10017E+06 1.43144E+10-1.31450E+07 4.49576E+05-5.45495E+03
 -1       599 3.81465E+10 9.30030E+06 1.44992E+10-1.39716E+07 3.31149E+05-4.69368E+03
 -1       600 3.86114E+10-2.15387E+07 1.46642E+10-1.27256E+07 2.30596E+05-3.92296E+03
 -1       601 3.90965E+10 7.85946E+07 1.48865E+10-1.46033E+07 1.48138E+05-3.14293E+03
 -1       602 3.95104E+10-2.87229E+08 1.49048E+10-9.91654E+06 8.39940E+04-2.35305E+03
 -1       603 4.01791E+10 1.00950E+09 1.56517E+10-2.56510E+07 3.83821E+04-1.55525E+03
 -1       604 3.99612E+10-3.48277E+09 1.38618E+10 2.95629E+07 1.15345E+04-7.42835E+02
 -1       605 3.92308E+10 1.29269E+10 1.98199E+10-1.73652E+08 2.83372E+03-3.30653E+02
 -1       606 1.74465E+06 5.17039E+05 8.59430E+05-2.70772E+02-7.79780E+07 3.86076E+04
 -1       607 6.71492E+06 5.20072E+05 2.74931E+06-2.84947E+05-7.75276E+07 3.86076E+04
 -1       608 2.15707E+07 5.10196E+05 8.39083E+06-5.65975E+05-7.66270E+07 3.86070E+04
 -1       609 4.62054E+07 5.10472E+05 1.77522E+07-8.43597E+05-7.57264E+07 3.86053E+04
 -1       610 8.04956E+07 4.73783E+05 3.07686E+07-1.11788E+06-7.48259E+07 3.86028E+04
 -1       611 1.24344E+08 5.17857E+05 4.74476E+07-1.39100E+06-7.39255E+07 3.85992E+04
 -1       612 1.77611E+08 4.78101E+05 6.76742E+07-1.65561E+06-7.30251E+07 3.85945E+04
 -1       613 2.40196E+08 4.34876E+05 9.14399E+07-1.92513E+06-7.21248E+07 3.85884E+04
 -1       614 3.12007E+08 5.57190E+05 1.18775E+08-2.18506E+06-7.12246E+07 3.85807E+04
 -1       615 3.92876E+08 4.64007E+05 1.49470E+08-2.43752E+06-7.03247E+07 3.85711E+04
 -1       616 4.82728E+08 4.29182E+05 1.83600E+08-2.69565E+06-6.94249E+07 3.85598E+04
 -1       617 5.81445E+08 4.34346E+05 2.21114E+08-2.94730E+06-6.85254E+07 3.85467E+04
 -1       618 6.88902E+08 4.19307E+05 2.61942E+08-3.19974E+06-6.76262E+07 3.85316E+04
 -1       619 8.05012E+08 5.56003E+05 3.06116E+08-3.44200E+06-6.67273E+07 3.85144E+04
 -1       620 9.29588E+08 3.71269E+05 3.53385E+08-3.67754E+06-6.58289E+07 3.84950E+04
 -1       621 1.06259E+09 3.72962E+05 4.03927E+08-3.92713E+06-6.49309E+07 3.84731E+04
 -1       622 1.20390E+09 5.12767E+05 4.57677E+08-4.15753E+06-6.40334E+07 3.84484E+04
 -1       623 1.35333E+09 3.53728E+05 5.14402E+08-4.38912E+06-6.31365E+07 3.84208E+04
 -1       624 1.51088E+09 5.73305E+05 5.74353E+08-4.61816E+06-6.22403E+07 3.83903E+04
 -1       625 1.67629E+09 2.43065E+05 6.37082E+08-4.83217E+06-6.13448E+07 3.83566E+04
 -1       626 1.84961E+09 4.85503E+05 7.03035E+08-5.07519E+06-6.04501E+07 3.83198E+04
 -1       627 2.03058E+09 3.36536E+05 7.71748E+08-5.27085E+06-5.95563E+07 3.82800E+04
 -1       628 2.21919E+09 4.68342E+05 8.43471E+08-5.51134E+06-5.86635E+07 3.82368E+04
 -1       629 2.41524E+09 2.25609E+05 9.17876E+08-5.69663E+06-5.77716E+07 3.81903E+04
 -1       630 2.61869E+09 2.54722E+05 9.95199E+08-5.95100E+06-5.68810E+07 3.81401E+04
 -1       631 2.82952E+09 1.02187E+06 1.07561E+09-6.11467E+06-5.59915E+07 3.80860E+04
 -1       632 3.04719E+09-1.80526E+05 1.15786E+09-6.30896E+06-5.51034E+07 3.80275E+04
 -1       633 3.27219E+09 5.62797E+05 1.24365E+09-6.54698E+06-5.42167E+07 3.79649E+04
 -1       634 3.50394E+09 2.31918E+05 1.33159E+09-6.70334E+06-5.33315E+07 3.78978E+04
 -1       635 3.74259E+09 5.15741E+05 1.42238E+09-6.93863E+06-5.24479E+07 3.78260E+04
 -1       636 3.98780E+09-5.06471E+04 1.51534E+09-7.08233E+06-5.15661E+07 3.77494E+04
 -1       637 4.23977E+09 6.18487E+05 1.61135E+09-7.34464E+06-5.06861E+07 3.76676E+04
 -1       638 4.49813E+09 7.08610E+05 1.70956E+09-7.42687E+06-4.98081E+07 3.75803E+04
 -1       639 4.76264E+09-5.38137E+05 1.80960E+09-7.68016E+06-4.89323E+07 3.74876E+04
 -1       640 5.03386E+09 1.28823E+06 1.91336E+09-7.83796E+06-4.80586E+07 3.73898E+04
 -1       641 5.31068E+09-3.55146E+05 2.01792E+09-7.97345E+06-4.71873E+07 3.72865E+04
 -1       642 5.59393E+09 6.86256E+05 2.12595E+09-8.21123E+06-4.63185E+07 3.71778E+04
 -1       643 5.88278E+09-2.85047E+05 2.23535E+09-8.30748E+06-4.54523E+07 3.70632E+04
 -1       644 6.17773E+09 7.22689E+05 2.34781E+09-8.58276E+06-4.45888E+07 3.69426E+04
 -1       645 6.47821E+09 6.46869E+05 2.46196E+09-8.59982E+06-4.37283E+07 3.68156E+04
 -1       646 6.78415E+09-2.06537E+05 2.57790E+09-8.86198E+06-4.28707E+07 3.66822E+04
 -1       647 7.09580E+09 5.80872E+05 2.69663E+09-8.94367E+06-4.20164E+07 3.65424E+04
 -1       648 7.41252E+09-6.01667E+05 2.81653E+09-9.17339E+06-4.11654E+07 3.63961E+04
 -1       649 7.73503E+09 1.81683E+06 2.94000E+09-9.28997E+06-4.03179E+07 3.62435E+04
 -1       650 8.06184E+09-1.36154E+06 3.06298E+09-9.37256E+06-3.94740E+07 3.60844E+04
 -1       651 8.39454E+09 1.12668E+06 3.19036E+09-9.67613E+06-3.86339E+07 3.59189E+04
 -1       652 8.73173E+09 6.29592E+05 3.31830E+09-9.60934E+06-3.77977E+07 3.57467E+04
 -1       653 9.07367E+09-3.59865E+05 3.44786E+09-9.89729E+06-3.69656E+07 3.55680E+04
 -1       654 9.42058E+09 4.06849E+05 3.57998E+09-9.92429E+06-3.61378E+07 3.53825E+04
 -1       655 9.77196E+09 1.82828E+05 3.71341E+09-1.01647E+07-3.53143E+07 3.51901E+04
 -1       656 1.01279E+10 4.09576E+05 3.84876E+09-1.01776E+07-3.44955E+07 3.49907E+04
 -1       657 1.04881E+10-6.53056E+05 3.98521E+09-1.04194E+07-3.36814E+07 3.47842E+04
 -1       658 1.08529E+10 1.18728E+06 4.12457E+09-1.04880E+07-3.28722E+07 3.45704E+04
 -1       659 1.12215E+10-3.46635E+05 4.26405E+09-1.06015E+07-3.20681E+07 3.43492E+04
 -1       660 1.15947E+10 1.33315E+06 4.40648E+09-1.07229E+07-3.12692E+07 3.41204E+04
 -1       661 1.19712E+10-8.62667E+05 4.54874E+09-1.07536E+07-3.04758E+07 3.38839E+04
 -1       662 1.23522E+10 4.85897E+05 4.69403E+09-1.10105E+07-2.96879E+07 3.36398E+04
 -1       663 1.27368E+10 3.37979E+05 4.84010E+09-1.09726E+07-2.89059E+07 3.33879E+04
 -1       664 1.31248E+10-7.97721E+05 4.98713E+09-1.12179E+07-2.81298E+07 3.31283E+04
 -1       665 1.35169E+10 9.65140E+05 5.13680E+09-1.12593E+07-2.73599E+07 3.28610E+04
 -1       666 1.39123E+10 9.76985E+05 5.28703E+09-1.13537E+07-2.65963E+07 3.25859E+04
 -1       667 1.43108E+10-5.26675E+05 5.43789E+09-1.13573E+07-2.58392E+07 3.23029E+04
 -1       668 1.47127E+10-1.08272E+06 5.59042E+09-1.16129E+07-2.50889E+07 3.20118E+04
 -1       669 1.51185E+10 2.52624E+06 5.74598E+09-1.16449E+07-2.43454E+07 3.17127E+04
 -1       670 1.55262E+10-1.18296E+06 5.89952E+09-1.16162E+07-2.36090E+07 3.14053E+04
 -1       671 1.59377E+10-5.34142E+05 6.05611E+09-1.18881E+07-2.28799E+07 3.10894E+04
 -1       672 1.63521E+10 8.89247E+05 6.21415E+09-1.18863E+07-2.21582E+07 3.07651E+04
 -1       673 1.67693E+10 1.29179E+06 6.37282E+09-1.19738E+07-2.14442E+07 3.04323E+04
 -1       674 1.71887E+10-1.20319E+06 6.53127E+09-1.19238E+07-2.07381E+07 3.00909E+04
 -1       675 1.76115E+10 4.11321E+05 6.69251E+09-1.22170E+07-2.00400E+07 2.97412E+04
 -1       676 1.80365E+10 4.09762E+05 6.85402E+09-1.20820E+07-1.93502E+07 2.93830E+04
 -1       677 1.84637E+10-1.37750E+06 7.01568E+09-1.23503E+07-1.86688E+07 2.90163E+04
 -1       678 1.88940E+10 1.77339E+06 7.18041E+09-1.23317E+07-1.79961E+07 2.86410E+04
 -1       679 1.93258E+10-8.02826E+05 7.34351E+09-1.23827E+07-1.73323E+07 2.82571E+04
 -1       680 1.97606E+10 1.99492E+06 7.50980E+09-1.24571E+07-1.66775E+07 2.78646E+04
 -1       681 2.01966E+10-1.79594E+06 7.67402E+09-1.23777E+07-1.60319E+07 2.74632E+04
 -1       682 2.06355E+10 7.86470E+05 7.84180E+09-1.26896E+07-1.53959E+07 2.70530E+04
 -1       683 2.10759E+10-1.51299E+05 8.00879E+09-1.24916E+07-1.47695E+07 2.66339E+04
 -1       684 2.15184E+10 4.05419E+05 8.17715E+09-1.27927E+07-1.41530E+07 2.62060E+04
 -1       685 2.19624E+10-1.00866E+06 8.34533E+09-1.25927E+07-1.35465E+07 2.57692E+04
 -1       686 2.24083E+10-9.67824E+05 8.51480E+09-1.30164E+07-1.29504E+07 2.53235E+04
 -1       687 2.28569E+10 5.29042E+06 8.68762E+09-1.27381E+07-1.23648E+07 2.48689E+04
 -1       688 2.33046E+10-4.19815E+06 8.85416E+09-1.26852E+07-1.17898E+07 2.44052E+04
 -1       689 2.37562E+10 1.45778E+06 9.02790E+09-1.30492E+07-1.12258E+07 2.39325E+04
 -1       690 2.42080E+10-6.28214E+05 9.19878E+09-1.27923E+07-1.06730E+07 2.34508E+04
 -1       691 2.46616E+10 8.42307E+05 9.37175E+09-1.31346E+07-1.01315E+07 2.29601E+04
 -1       692 2.51160E+10-1.95086E+06 9.54333E+09-1.28491E+07-9.60150E+06 2.24602E+04
 -1       693 2.55725E+10 1.43052E+06 9.71808E+09-1.33608E+07-9.08331E+06 2.19512E+04
 -1       694 2.60298E+10 2.43923E+06 9.89224E+09-1.28040E+07-8.57710E+06 2.14330E+04
 -1       695 2.64869E+10-4.89602E+06 1.00632E+10-1.32173E+07-8.08309E+06 2.09056E+04
 -1       696 2.69477E+10 5.24741E+06 1.02421E+10-1.31917E+07-7.60149E+06 2.03691E+04
 -1       697 2.74067E+10-3.29098E+06 1.04133E+10-1.29778E+07-7.13252E+06 1.98233E+04
 -1       698 2.78686E+10 1.62810E+06 1.05907E+10-1.33666E+07-6.67639E+06 1.92683E+04
 -1       699 2.83300E+10-2.51076E+06 1.07644E+10-1.30328E+07-6.23332E+06 1.87041E+04
 -1       700 2.87934E+10 1.96583E+06 1.09422E+10-1.35842E+07-5.80353E+06 1.81306E+04
 -1       701 2.92569E+10 1.69223E+06 1.11183E+10-1.29421E+07-5.38722E+06 1.75478E+04
 -1       702 2.97205E+10-2.40143E+06 1.12929E+10-1.34224E+07-4.98463E+06 1.69557E+04
 -1       703 3.01860E+10 1.65688E+06 1.14713E+10-1.31373E+07-4.59596E+06 1.63543E+04
 -1       704 3.06507E+10-3.77958E+06 1.16458E+10-1.34469E+07-4.22144E+06 1.57435E+04
 -1       705 3.11181E+10 6.13515E+06 1.18272E+10-1.33954E+07-3.86128E+06 1.51235E+04
 -1       706 3.15828E+10-5.97095E+06 1.19992E+10-1.30898E+07-3.51570E+06 1.44940E+04
 -1       707 3.20511E+10 3.07577E+06 1.21806E+10-1.37573E+07-3.18491E+06 1.38552E+04
 -1       708 3.25182E+10 1.60652E+06 1.23575E+10-1.29988E+07-2.86914E+06 1.32070E+04
 -1       709 3.29853E+10-2.45241E+06 1.25335E+10-1.35386E+07-2.56861E+06 1.25494E+04
 -1       710 3.34538E+10 6.18726E+05 1.27127E+10-1.32000E+07-2.28354E+06 1.18824E+04
 -1       711 3.39221E+10 4.24520E+05 1.28906E+10-1.35814E+07-2.01414E+06 1.12060E+04
 -1       712 3.43904E+10-1.76490E+06 1.30677E+10-1.31779E+07-1.76064E+06 1.05202E+04
 -1       713 3.48592E+10-1.57301E+06 1.32459E+10-1.37907E+07-1.52324E+06 9.82501E+03
 -1       714 3.53296E+10 8.11847E+06 1.34283E+10-1.32904E+07-1.30219E+06 9.12037E+03
 -1       715 3.57966E+10-6.85231E+06 1.36001E+10-1.31317E+07-1.09768E+06 8.40626E+03
 -1       716 3.62672E+10 2.27673E+06 1.37824E+10-1.36532E+07-9.09952E+05 7.68272E+03
 -1       717 3.67362E+10-1.03427E+06 1.39594E+10-1.31884E+07-7.39216E+05 6.94975E+03
 -1       718 3.72061E+10 1.64129E+06 1.41389E+10-1.36512E+07-5.85694E+05 6.20734E+03
 -1       719 3.76747E+10-5.10017E+06 1.43144E+10-1.31450E+07-4.49606E+05 5.45548E+03
 -1       720 3.81465E+10 9.30028E+06 1.44992E+10-1.39717E+07-3.31173E+05 4.69420E+03
 -1       721 3.86114E+10-2.15387E+07 1.46642E+10-1.27256E+07-2.30614E+05 3.92344E+03
 -1       722 3.90965E+10 7.85946E+07 1.48865E+10-1.46033E+07-1.48150E+05 3.14335E+03
 -1       723 3.95104E+10-2.87229E+08 1.49048E+10-9.91654E+06-8.40009E+04 2.35339E+03
 -1       724 4.01791E+10 1.00950E+09 1.56517E+10-2.56510E+07-3.83853E+04 1.55549E+03
 -1       725 3.99612E+10-3.48277E+09 1.38618E+10 2.95629E+07-1.15353E+04 7.42963E+02
 -1       726 3.92308E+10 1.29269E+10 1.98199E+10-1.73652E+08-2.83371E+03 3.30680E+02
 -1       727-1.74460E+06-5.17081E+05-8.59435E+05-3.15117E+02 7.79746E+07 3.85573E+04
 -3
    1PSTEP                         3           1           1          
    1PGM                1.000000E+00                                  
    1PGK                6.954368E+03                                  
    1PHID                         -1                                  
    1PSUBC                         0                                  
    1PMODE                         1                                  
  100CL  101 13.27238496         726                     2    1MODAL      1
 -4  TOSTRAIN    6    1
 -5  EXX         1    4    1    1
 -5  EYY         1    4    2    2
 -5  EZZ         1    4    3    3
 -5  EXY         1    4    1    2
 -5  EYZ         1    4    2    3
 -5  EZX         1    4    3    1
 -1         2-1.13897E-03 6.40233E-04 4.58778E-09-8.17386E-05 2.22652E-02 1.10737E-05
 -1         3-3.78547E-03 2.26334E-03 1.78555E-08-1.62371E-04 2.20067E-02 1.10737E-05
 -1         4-8.17215E-03 4.95186E-03 3.34786E-08-2.42143E-04 2.17482E-02 1.10738E-05
 -1         5-1.42821E-02 8.70072E-03 4.49990E-08-3.20964E-04 2.14898E-02 1.10738E-05
 -1         6-2.20852E-02 1.34783E-02 5.10093E-08-3.99440E-04 2.12313E-02 1.10737E-05
 -1         7-3.15746E-02 1.92988E-02 5.44595E-08-4.75422E-04 2.09729E-02 1.10733E-05
 -1         8-4.27235E-02 2.61368E-02 6.15495E-08-5.52792E-04 2.07144E-02 1.10727E-05
 -1         9-5.54973E-02 3.39523E-02 7.06142E-08-6.27447E-04 2.04560E-02 1.10717E-05
 -1        10-6.99074E-02 4.27946E-02 7.43994E-08-7.00027E-04 2.01977E-02 1.10704E-05
 -1        11-8.59106E-02 5.26069E-02 7.22267E-08-7.74187E-04 1.99393E-02 1.10685E-05
 -1        12-1.03488E-01 6.33795E-02 7.25171E-08-8.46423E-04 1.96811E-02 1.10662E-05
 -1        13-1.22624E-01 7.51097E-02 7.14221E-08-9.18976E-04 1.94229E-02 1.10632E-05
 -1        14-1.43284E-01 8.77572E-02 6.36075E-08-9.88598E-04 1.91648E-02 1.10596E-05
 -1        15-1.65487E-01 1.01386E-01 5.72520E-08-1.05617E-03 1.89068E-02 1.10551E-05
 -1        16-1.89170E-01 1.15901E-01 5.68096E-08-1.12782E-03 1.86489E-02 1.10499E-05
 -1        17-2.14317E-01 1.31298E-01 5.79746E-08-1.19400E-03 1.83911E-02 1.10439E-05
 -1        18-2.40943E-01 1.47635E-01 5.71389E-08-1.26054E-03 1.81335E-02 1.10371E-05
 -1        19-2.68972E-01 1.64790E-01 5.26722E-08-1.32634E-03 1.78761E-02 1.10294E-05
 -1        20-2.98461E-01 1.82901E-01 4.51265E-08-1.38783E-03 1.76189E-02 1.10207E-05
 -1        21-3.29296E-01 2.01773E-01 3.49030E-08-1.45766E-03 1.73619E-02 1.10109E-05
 -1        22-3.61537E-01 2.21550E-01 2.11282E-08-1.51387E-03 1.71051E-02 1.09999E-05
 -1        23-3.95109E-01 2.42111E-01 6.45489E-09-1.58294E-03 1.68486E-02 1.09878E-05
 -1        24-4.30043E-01 2.63550E-01-5.81252E-09-1.63611E-03 1.65924E-02 1.09745E-05
 -1        25-4.66268E-01 2.85749E-01-1.36436E-08-1.70910E-03 1.63366E-02 1.09598E-05
 -1        26-5.03725E-01 3.08621E-01-1.74854E-08-1.75611E-03 1.60810E-02 1.09440E-05
 -1        27-5.42616E-01 3.32592E-01-2.15518E-08-1.81191E-03 1.58259E-02 1.09269E-05
 -1        28-5.82599E-01 3.57014E-01-2.71194E-08-1.88028E-03 1.55712E-02 1.09084E-05
 -1        29-6.23902E-01 3.82366E-01-3.11620E-08-1.92515E-03 1.53169E-02 1.08886E-05
 -1        30-6.66366E-01 4.08360E-01-3.13984E-08-1.99268E-03 1.50631E-02 1.08674E-05
 -1        31-7.10091E-01 4.35223E-01-2.75381E-08-2.03391E-03 1.48098E-02 1.08448E-05
 -1        32-7.54885E-01 4.62603E-01-1.94727E-08-2.10921E-03 1.45571E-02 1.08209E-05
 -1        33-8.00880E-01 4.90783E-01-1.18842E-08-2.13288E-03 1.43049E-02 1.07955E-05
 -1        34-8.48116E-01 5.19873E-01-1.24965E-08-2.20571E-03 1.40533E-02 1.07687E-05
 -1        35-8.96211E-01 5.49147E-01-1.77669E-08-2.25102E-03 1.38024E-02 1.07403E-05
 -1        36-9.45682E-01 5.79651E-01-2.15185E-08-2.28992E-03 1.35522E-02 1.07103E-05
 -1        37-9.96005E-01 6.10378E-01-2.32104E-08-2.35817E-03 1.33026E-02 1.06786E-05
 -1        38-1.04755E+00 6.42076E-01-1.87684E-08-2.38573E-03 1.30539E-02 1.06453E-05
 -1        39-1.09995E+00 6.74086E-01-8.50527E-09-2.46478E-03 1.28059E-02 1.06104E-05
 -1        40-1.15347E+00 7.06892E-01 9.34930E-10-2.46970E-03 1.25587E-02 1.05739E-05
 -1        41-1.20804E+00 7.40433E-01 8.69493E-09-2.54499E-03 1.23125E-02 1.05357E-05
 -1        42-1.26345E+00 7.74306E-01 1.49353E-08-2.56848E-03 1.20671E-02 1.04958E-05
 -1        43-1.31997E+00 8.09082E-01 1.67206E-08-2.63451E-03 1.18227E-02 1.04541E-05
 -1        44-1.37714E+00 8.43849E-01 1.48559E-08-2.66801E-03 1.15793E-02 1.04106E-05
 -1        45-1.43568E+00 8.80082E-01 1.22401E-08-2.69173E-03 1.13369E-02 1.03651E-05
 -1        46-1.49465E+00 9.15949E-01 8.17296E-09-2.77893E-03 1.10956E-02 1.03178E-05
 -1        47-1.55474E+00 9.52837E-01 1.04026E-09-2.75977E-03 1.08554E-02 1.02685E-05
 -1        48-1.61574E+00 9.90331E-01-5.33667E-09-2.84244E-03 1.06164E-02 1.02171E-05
 -1        49-1.67743E+00 1.02806E+00-8.50219E-09-2.85017E-03 1.03787E-02 1.01637E-05
 -1        50-1.74002E+00 1.06644E+00-1.08271E-08-2.91923E-03 1.01422E-02 1.01082E-05
 -1        51-1.80338E+00 1.10525E+00-1.41406E-08-2.92292E-03 9.90699E-03 1.00507E-05
 -1        52-1.86762E+00 1.14474E+00-1.61334E-08-2.99233E-03 9.67317E-03 9.99113E-06
 -1        53-1.93240E+00 1.18424E+00-1.41858E-08-3.01201E-03 9.44077E-03 9.92945E-06
 -1        54-1.99819E+00 1.22474E+00-1.11700E-08-3.04462E-03 9.20983E-03 9.86568E-06
 -1        55-2.06446E+00 1.26516E+00-8.00745E-09-3.07948E-03 8.98040E-03 9.79979E-06
 -1        56-2.13175E+00 1.30665E+00-5.53499E-09-3.08830E-03 8.75253E-03 9.73176E-06
 -1        57-2.19944E+00 1.34799E+00-3.19288E-09-3.16206E-03 8.52627E-03 9.66157E-06
 -1        58-2.26793E+00 1.38998E+00-1.68581E-09-3.15124E-03 8.30168E-03 9.58920E-06
 -1        59-2.33715E+00 1.43254E+00-4.15094E-09-3.22172E-03 8.07879E-03 9.51460E-06
 -1        60-2.40678E+00 1.47502E+00-8.23176E-09-3.23359E-03 7.85768E-03 9.43772E-06
 -1        61-2.47717E+00 1.51816E+00-1.08427E-08-3.26067E-03 7.63839E-03 9.35853E-06
 -1        62-2.54830E+00 1.56192E+00-1.17042E-08-3.26170E-03 7.42097E-03 9.27702E-06
 -1        63-2.61993E+00 1.60588E+00-1.21540E-08-3.33508E-03 7.20547E-03 9.19320E-06
 -1        64-2.69179E+00 1.64952E+00-1.07735E-08-3.34426E-03 6.99196E-03 9.10708E-06
 -1        65-2.76480E+00 1.69469E+00-6.17204E-09-3.33600E-03 6.78049E-03 9.01862E-06
 -1        66-2.83799E+00 1.73947E+00 2.03995E-10-3.41408E-03 6.57110E-03 8.92785E-06
 -1        67-2.91164E+00 1.78445E+00 5.85746E-09-3.41358E-03 6.36386E-03 8.83477E-06
 -1        68-2.98588E+00 1.82991E+00 9.47369E-09-3.43872E-03 6.15882E-03 8.73933E-06
 -1        69-3.06084E+00 1.87613E+00 1.07123E-08-3.42440E-03 5.95603E-03 8.64149E-06
 -1        70-3.13593E+00 1.92198E+00 9.05754E-09-3.50862E-03 5.75556E-03 8.54122E-06
 -1        71-3.21161E+00 1.96836E+00 6.88250E-09-3.46983E-03 5.55746E-03 8.43849E-06
 -1        72-3.28788E+00 2.01531E+00 6.14062E-09-3.54688E-03 5.36178E-03 8.33329E-06
 -1        73-3.36417E+00 2.06171E+00 5.20656E-09-3.54155E-03 5.16859E-03 8.22562E-06
 -1        74-3.44133E+00 2.10929E+00 3.97390E-09-3.55619E-03 4.97794E-03 8.11544E-06
 -1        75-3.51845E+00 2.15625E+00 4.36934E-09-3.57753E-03 4.78989E-03 8.00276E-06
 -1        76-3.59649E+00 2.20450E+00 5.94263E-09-3.55474E-03 4.60450E-03 7.88757E-06
 -1        77-3.67437E+00 2.25195E+00 6.61697E-09-3.64430E-03 4.42182E-03 7.76987E-06
 -1        78-3.75289E+00 2.30017E+00 6.72171E-09-3.58747E-03 4.24193E-03 7.64965E-06
 -1        79-3.83162E+00 2.34837E+00 6.86295E-09-3.67392E-03 4.06486E-03 7.52687E-06
 -1        80-3.91083E+00 2.39708E+00 6.70007E-09-3.61650E-03 3.89070E-03 7.40154E-06
 -1        81-3.99023E+00 2.44573E+00 6.42456E-09-3.73818E-03 3.71949E-03 7.27365E-06
 -1        82-4.06942E+00 2.49357E+00 6.01062E-09-3.65824E-03 3.55129E-03 7.14318E-06
 -1        83-4.15019E+00 2.54413E+00 5.07349E-09-3.64305E-03 3.38617E-03 7.01009E-06
 -1        84-4.22997E+00 2.59240E+00 3.51938E-09-3.74760E-03 3.22418E-03 6.87441E-06
 -1        85-4.31065E+00 2.64208E+00 2.62396E-09-3.67381E-03 3.06540E-03 6.73611E-06
 -1        86-4.39127E+00 2.69133E+00 2.88570E-09-3.77212E-03 2.90987E-03 6.59520E-06
 -1        87-4.47248E+00 2.74141E+00 3.07076E-09-3.69013E-03 2.75765E-03 6.45167E-06
 -1        88-4.55339E+00 2.79063E+00 2.21578E-09-3.83710E-03 2.60882E-03 6.30552E-06
 -1        89-4.63471E+00 2.84036E+00 1.21169E-09-3.67717E-03 2.46343E-03 6.15673E-06
 -1        90-4.71691E+00 2.89156E+00 8.65426E-10-3.79585E-03 2.32154E-03 6.00528E-06
 -1        91-4.79786E+00 2.94004E+00 8.25551E-10-3.78851E-03 2.18322E-03 5.85119E-06
 -1        92-4.88052E+00 2.99165E+00 7.51014E-10-3.72710E-03 2.04852E-03 5.69444E-06
 -1        93-4.96223E+00 3.04118E+00 1.59465E-10-3.83877E-03 1.91751E-03 5.53503E-06
 -1        94-5.04483E+00 3.09227E+00-5.86988E-10-3.74288E-03 1.79026E-03 5.37296E-06
 -1        95-5.12687E+00 3.14206E+00-1.63565E-09-3.90126E-03 1.66681E-03 5.20821E-06
 -1        96-5.20944E+00 3.19269E+00-2.47500E-09-3.71685E-03 1.54724E-03 5.04078E-06
 -1        97-5.29244E+00 3.24402E+00-2.30923E-09-3.85477E-03 1.43161E-03 4.87067E-06
 -1        98-5.37488E+00 3.29410E+00-2.22827E-09-3.77290E-03 1.31998E-03 4.69788E-06
 -1        99-5.45821E+00 3.34577E+00-2.55287E-09-3.86182E-03 1.21241E-03 4.52241E-06
 -1       100-5.54037E+00 3.39503E+00-2.99679E-09-3.84701E-03 1.10896E-03 4.34425E-06
 -1       101-5.62443E+00 3.44789E+00-3.26825E-09-3.75925E-03 1.00971E-03 4.16339E-06
 -1       102-5.70682E+00 3.49739E+00-3.31137E-09-3.95093E-03 9.14700E-04 3.97984E-06
 -1       103-5.79016E+00 3.54863E+00-3.25718E-09-3.73314E-03 8.24008E-04 3.79360E-06
 -1       104-5.87378E+00 3.60033E+00-3.01678E-09-3.88813E-03 7.37693E-04 3.60466E-06
 -1       105-5.95687E+00 3.65092E+00-2.84606E-09-3.79090E-03 6.55818E-04 3.41303E-06
 -1       106-6.04028E+00 3.70206E+00-2.73750E-09-3.90043E-03 5.78445E-04 3.21870E-06
 -1       107-6.12389E+00 3.75355E+00-2.60576E-09-3.78456E-03 5.05638E-04 3.02166E-06
 -1       108-6.20735E+00 3.80468E+00-2.34787E-09-3.96052E-03 4.37459E-04 2.82193E-06
 -1       109-6.29007E+00 3.85430E+00-1.87382E-09-3.81689E-03 3.73972E-04 2.61950E-06
 -1       110-6.37485E+00 3.90793E+00-1.32890E-09-3.77123E-03 3.15239E-04 2.41436E-06
 -1       111-6.45766E+00 3.95767E+00-7.81706E-10-3.92108E-03 2.61325E-04 2.20652E-06
 -1       112-6.54152E+00 4.00944E+00-3.17015E-10-3.78752E-03 2.12291E-04 1.99598E-06
 -1       113-6.62491E+00 4.06024E+00-1.13604E-11-3.92051E-03 1.68201E-04 1.78273E-06
 -1       114-6.70908E+00 4.11258E+00 2.76109E-10-3.77504E-03 1.29119E-04 1.56678E-06
 -1       115-6.79151E+00 4.16151E+00 6.04634E-10-4.01258E-03 9.51063E-05 1.34813E-06
 -1       116-6.87768E+00 4.21775E+00 9.22698E-10-3.65456E-03 6.62274E-05 1.12676E-06
 -1       117-6.95312E+00 4.25285E+00 1.22963E-09-4.19403E-03 4.25453E-05 9.02718E-07
 -1       118-7.06675E+00 4.36317E+00 1.52577E-09-2.84777E-03 2.41232E-05 6.75848E-07
 -1       119-7.04428E+00 4.20522E+00 1.77629E-09-7.36698E-03 1.10234E-05 4.46701E-07
 -1       120-7.49582E+00 4.98144E+00 2.35668E-09 8.49081E-03 3.31271E-06 2.13359E-07
 -1       121-5.57473E+00 1.97951E+00 2.83738E-09-4.98838E-02 8.13846E-07 9.49706E-08
 -1       122-2.54224E-04 9.83272E-05-5.50438E-10-7.59830E-08-2.23954E-02-1.10889E-05
 -1       123-1.13892E-03 6.40230E-04-4.58778E-09-8.18340E-05-2.22660E-02-1.10889E-05
 -1       124-3.78528E-03 2.26329E-03-1.78555E-08-1.62542E-04-2.20073E-02-1.10887E-05
 -1       125-8.17180E-03 4.95179E-03-3.34786E-08-2.42272E-04-2.17487E-02-1.10883E-05
 -1       126-1.42817E-02 8.70064E-03-4.49990E-08-3.21042E-04-2.14901E-02-1.10875E-05
 -1       127-2.20847E-02 1.34782E-02-5.10093E-08-3.99481E-04-2.12315E-02-1.10865E-05
 -1       128-3.15741E-02 1.92987E-02-5.44595E-08-4.75475E-04-2.09729E-02-1.10851E-05
 -1       129-4.27228E-02 2.61366E-02-6.15495E-08-5.52877E-04-2.07143E-02-1.10834E-05
 -1       130-5.54966E-02 3.39521E-02-7.06142E-08-6.27524E-04-2.04558E-02-1.10812E-05
 -1       131-6.99066E-02 4.27944E-02-7.43994E-08-7.00029E-04-2.01973E-02-1.10784E-05
 -1       132-8.59098E-02 5.26067E-02-7.22267E-08-7.74162E-04-1.99389E-02-1.10751E-05
 -1       133-1.03487E-01 6.33794E-02-7.25171E-08-8.46434E-04-1.96805E-02-1.10714E-05
 -1       134-1.22623E-01 7.51096E-02-7.14221E-08-9.18931E-04-1.94223E-02-1.10670E-05
 -1       135-1.43283E-01 8.77571E-02-6.36075E-08-9.88507E-04-1.91641E-02-1.10621E-05
 -1       136-1.65486E-01 1.01386E-01-5.72520E-08-1.05615E-03-1.89061E-02-1.10565E-05
 -1       137-1.89169E-01 1.15901E-01-5.68096E-08-1.12783E-03-1.86482E-02-1.10502E-05
 -1       138-2.14316E-01 1.31298E-01-5.79746E-08-1.19400E-03-1.83905E-02-1.10431E-05
 -1       139-2.40942E-01 1.47635E-01-5.71389E-08-1.26051E-03-1.81329E-02-1.10352E-05
 -1       140-2.68972E-01 1.64790E-01-5.26722E-08-1.32629E-03-1.78755E-02-1.10264E-05
 -1       141-2.98461E-01 1.82901E-01-4.51265E-08-1.38775E-03-1.76183E-02-1.10168E-05
 -1       142-3.29296E-01 2.01773E-01-3.49030E-08-1.45754E-03-1.73613E-02-1.10062E-05
 -1       143-3.61537E-01 2.21550E-01-2.11282E-08-1.51373E-03-1.71046E-02-1.09948E-05
 -1       144-3.95108E-01 2.42111E-01-6.45489E-09-1.58280E-03-1.68482E-02-1.09824E-05
 -1       145-4.30043E-01 2.63550E-01 5.81252E-09-1.63601E-03-1.65921E-02-1.09690E-05
 -1       146-4.66268E-01 2.85749E-01 1.36436E-08-1.70906E-03-1.63363E-02-1.09546E-05
 -1       147-5.03725E-01 3.08621E-01 1.74854E-08-1.75607E-03-1.60808E-02-1.09390E-05
 -1       148-5.42617E-01 3.32592E-01 2.15518E-08-1.81187E-03-1.58257E-02-1.09223E-05
 -1       149-5.82599E-01 3.57015E-01 2.71194E-08-1.88022E-03-1.55711E-02-1.09043E-05
 -1       150-6.23902E-01 3.82366E-01 3.11620E-08-1.92513E-03-1.53168E-02-1.08850E-05
 -1       151-6.66366E-01 4.08360E-01 3.13984E-08-1.99270E-03-1.50631E-02-1.08644E-05
 -1       152-7.10091E-01 4.35223E-01 2.75381E-08-2.03397E-03-1.48098E-02-1.08424E-05
 -1       153-7.54885E-01 4.62603E-01 1.94727E-08-2.10930E-03-1.45571E-02-1.08189E-05
 -1       154-8.00880E-01 4.90783E-01 1.18842E-08-2.13292E-03-1.43049E-02-1.07939E-05
 -1       155-8.48116E-01 5.19873E-01 1.24965E-08-2.20566E-03-1.40534E-02-1.07672E-05
 -1       156-8.96211E-01 5.49147E-01 1.77669E-08-2.25098E-03-1.38025E-02-1.07392E-05
 -1       157-9.45682E-01 5.79651E-01 2.15185E-08-2.28989E-03-1.35522E-02-1.07095E-05
 -1       158-9.96005E-01 6.10379E-01 2.32104E-08-2.35818E-03-1.33027E-02-1.06783E-05
 -1       159-1.04755E+00 6.42076E-01 1.87684E-08-2.38582E-03-1.30539E-02-1.06454E-05
 -1       160-1.09996E+00 6.74086E-01 8.50527E-09-2.46488E-03-1.28060E-02-1.06107E-05
 -1       161-1.15347E+00 7.06892E-01-9.34930E-10-2.46978E-03-1.25588E-02-1.05743E-05
 -1       162-1.20804E+00 7.40433E-01-8.69493E-09-2.54507E-03-1.23125E-02-1.05359E-05
 -1       163-1.26345E+00 7.74306E-01-1.49353E-08-2.56853E-03-1.20671E-02-1.04958E-05
 -1       164-1.31997E+00 8.09082E-01-1.67206E-08-2.63450E-03-1.18227E-02-1.04538E-05
 -1       165-1.37714E+00 8.43849E-01-1.48559E-08-2.66798E-03-1.15793E-02-1.04100E-05
 -1       166-1.43568E+00 8.80082E-01-1.22401E-08-2.69170E-03-1.13370E-02-1.03643E-05
 -1       167-1.49465E+00 9.15949E-01-8.17296E-09-2.77888E-03-1.10957E-02-1.03167E-05
 -1       168-1.55474E+00 9.52837E-01-1.04026E-09-2.75970E-03-1.08555E-02-1.02673E-05
 -1       169-1.61574E+00 9.90331E-01 5.33667E-09-2.84240E-03-1.06165E-02-1.02159E-05
 -1       170-1.67743E+00 1.02806E+00 8.50219E-09-2.85015E-03-1.03788E-02-1.01627E-05
 -1       171-1.74002E+00 1.06644E+00 1.08271E-08-2.91921E-03-1.01423E-02-1.01074E-05
 -1       172-1.80338E+00 1.10525E+00 1.41406E-08-2.92289E-03-9.90713E-03-1.00501E-05
 -1       173-1.86762E+00 1.14474E+00 1.61334E-08-2.99233E-03-9.67332E-03-9.99083E-06
 -1       174-1.93240E+00 1.18424E+00 1.41858E-08-3.01204E-03-9.44092E-03-9.92944E-06
 -1       175-1.99819E+00 1.22474E+00 1.11700E-08-3.04464E-03-9.20997E-03-9.86590E-06
 -1       176-2.06446E+00 1.26516E+00 8.00745E-09-3.07951E-03-8.98054E-03-9.80019E-06
 -1       177-2.13175E+00 1.30665E+00 5.53499E-09-3.08832E-03-8.75266E-03-9.73228E-06
 -1       178-2.19944E+00 1.34799E+00 3.19288E-09-3.16210E-03-8.52640E-03-9.66217E-06
 -1       179-2.26793E+00 1.38998E+00 1.68581E-09-3.15123E-03-8.30180E-03-9.58983E-06
 -1       180-2.33715E+00 1.43254E+00 4.15094E-09-3.22167E-03-8.07891E-03-9.51527E-06
 -1       181-2.40678E+00 1.47502E+00 8.23176E-09-3.23356E-03-7.85779E-03-9.43850E-06
 -1       182-2.47718E+00 1.51816E+00 1.08427E-08-3.26065E-03-7.63848E-03-9.35949E-06
 -1       183-2.54830E+00 1.56192E+00 1.17042E-08-3.26169E-03-7.42105E-03-9.27819E-06
 -1       184-2.61993E+00 1.60588E+00 1.21540E-08-3.33509E-03-7.20554E-03-9.19460E-06
 -1       185-2.69179E+00 1.64952E+00 1.07735E-08-3.34429E-03-6.99202E-03-9.10869E-06
 -1       186-2.76480E+00 1.69469E+00 6.17204E-09-3.33606E-03-6.78052E-03-9.02039E-06
 -1       187-2.83799E+00 1.73947E+00-2.03995E-10-3.41414E-03-6.57112E-03-8.92967E-06
 -1       188-2.91164E+00 1.78445E+00-5.85746E-09-3.41362E-03-6.36385E-03-8.83653E-06
 -1       189-2.98587E+00 1.82991E+00-9.47369E-09-3.43875E-03-6.15879E-03-8.74093E-06
 -1       190-3.06084E+00 1.87613E+00-1.07123E-08-3.42439E-03-5.95599E-03-8.64289E-06
 -1       191-3.13593E+00 1.92198E+00-9.05754E-09-3.50860E-03-5.75551E-03-8.54243E-06
 -1       192-3.21161E+00 1.96836E+00-6.88250E-09-3.46982E-03-5.55739E-03-8.43956E-06
 -1       193-3.28788E+00 2.01531E+00-6.14062E-09-3.54688E-03-5.36170E-03-8.33423E-06
 -1       194-3.36417E+00 2.06171E+00-5.20656E-09-3.54153E-03-5.16850E-03-8.22645E-06
 -1       195-3.44133E+00 2.10929E+00-3.97390E-09-3.55618E-03-4.97784E-03-8.11618E-06
 -1       196-3.51845E+00 2.15625E+00-4.36934E-09-3.57755E-03-4.78978E-03-8.00342E-06
 -1       197-3.59649E+00 2.20450E+00-5.94263E-09-3.55475E-03-4.60439E-03-7.88813E-06
 -1       198-3.67437E+00 2.25195E+00-6.61697E-09-3.64430E-03-4.42171E-03-7.77031E-06
 -1       199-3.75289E+00 2.30017E+00-6.72171E-09-3.58747E-03-4.24181E-03-7.64996E-06
 -1       200-3.83162E+00 2.34837E+00-6.86295E-09-3.67392E-03-4.06474E-03-7.52706E-06
 -1       201-3.91083E+00 2.39708E+00-6.70007E-09-3.61650E-03-3.89057E-03-7.40160E-06
 -1       202-3.99023E+00 2.44573E+00-6.42456E-09-3.73817E-03-3.71936E-03-7.27358E-06
 -1       203-4.06942E+00 2.49357E+00-6.01062E-09-3.65824E-03-3.55117E-03-7.14299E-06
 -1       204-4.15019E+00 2.54413E+00-5.07349E-09-3.64304E-03-3.38605E-03-7.00980E-06
 -1       205-4.22997E+00 2.59240E+00-3.51938E-09-3.74758E-03-3.22407E-03-6.87404E-06
 -1       206-4.31065E+00 2.64208E+00-2.62396E-09-3.67381E-03-3.06529E-03-6.73569E-06
 -1       207-4.39127E+00 2.69133E+00-2.88570E-09-3.77213E-03-2.90976E-03-6.59473E-06
 -1       208-4.47248E+00 2.74141E+00-3.07076E-09-3.69013E-03-2.75756E-03-6.45115E-06
 -1       209-4.55339E+00 2.79063E+00-2.21578E-09-3.83709E-03-2.60873E-03-6.30495E-06
 -1       210-4.63471E+00 2.84036E+00-1.21169E-09-3.67716E-03-2.46335E-03-6.15612E-06
 -1       211-4.71691E+00 2.89156E+00-8.65426E-10-3.79585E-03-2.32147E-03-6.00464E-06
 -1       212-4.79786E+00 2.94004E+00-8.25551E-10-3.78851E-03-2.18315E-03-5.85054E-06
 -1       213-4.88052E+00 2.99165E+00-7.51014E-10-3.72709E-03-2.04847E-03-5.69378E-06
 -1       214-4.96223E+00 3.04118E+00-1.59465E-10-3.83876E-03-1.91747E-03-5.53436E-06
 -1       215-5.04483E+00 3.09227E+00 5.86988E-10-3.74287E-03-1.79022E-03-5.37229E-06
 -1       216-5.12687E+00 3.14206E+00 1.63565E-09-3.90125E-03-1.66678E-03-5.20757E-06
 -1       217-5.20944E+00 3.19269E+00 2.47500E-09-3.71685E-03-1.54722E-03-5.04018E-06
 -1       218-5.29244E+00 3.24402E+00 2.30923E-09-3.85477E-03-1.43159E-03-4.87012E-06
 -1       219-5.37488E+00 3.29410E+00 2.22827E-09-3.77290E-03-1.31996E-03-4.69737E-06
 -1       220-5.45821E+00 3.34577E+00 2.55287E-09-3.86182E-03-1.21240E-03-4.52195E-06
 -1       221-5.54037E+00 3.39503E+00 2.99679E-09-3.84700E-03-1.10896E-03-4.34385E-06
 -1       222-5.62443E+00 3.44789E+00 3.26825E-09-3.75925E-03-1.00971E-03-4.16305E-06
 -1       223-5.70682E+00 3.49739E+00 3.31137E-09-3.95093E-03-9.14709E-04-3.97957E-06
 -1       224-5.79016E+00 3.54863E+00 3.25718E-09-3.73314E-03-8.24021E-04-3.79340E-06
 -1       225-5.87378E+00 3.60033E+00 3.01678E-09-3.88813E-03-7.37708E-04-3.60452E-06
 -1       226-5.95687E+00 3.65092E+00 2.84606E-09-3.79090E-03-6.55835E-04-3.41294E-06
 -1       227-6.04028E+00 3.70206E+00 2.73750E-09-3.90043E-03-5.78463E-04-3.21866E-06
 -1       228-6.12389E+00 3.75355E+00 2.60576E-09-3.78456E-03-5.05656E-04-3.02168E-06
 -1       229-6.20735E+00 3.80468E+00 2.34787E-09-3.96053E-03-4.37477E-04-2.82199E-06
 -1       230-6.29007E+00 3.85430E+00 1.87382E-09-3.81690E-03-3.73989E-04-2.61961E-06
 -1       231-6.37485E+00 3.90793E+00 1.32890E-09-3.77124E-03-3.15255E-04-2.41450E-06
 -1       232-6.45766E+00 3.95767E+00 7.81706E-10-3.92109E-03-2.61339E-04-2.20668E-06
 -1       233-6.54152E+00 4.00944E+00 3.17015E-10-3.78752E-03-2.12303E-04-1.99615E-06
 -1       234-6.62491E+00 4.06024E+00 1.13604E-11-3.92052E-03-1.68212E-04-1.78291E-06
 -1       235-6.70908E+00 4.11258E+00-2.76109E-10-3.77504E-03-1.29127E-04-1.56695E-06
 -1       236-6.79151E+00 4.16151E+00-6.04634E-10-4.01258E-03-9.51130E-05-1.34829E-06
 -1       237-6.87768E+00 4.21775E+00-9.22698E-10-3.65456E-03-6.62324E-05-1.12691E-06
 -1       238-6.95312E+00 4.25285E+00-1.22963E-09-4.19403E-03-4.25487E-05-9.02851E-07
 -1       239-7.06675E+00 4.36317E+00-1.52577E-09-2.84777E-03-2.41251E-05-6.75955E-07
 -1       240-7.04428E+00 4.20522E+00-1.77629E-09-7.36698E-03-1.10243E-05-4.46777E-07
 -1       241-7.49582E+00 4.98144E+00-2.35668E-09 8.49081E-03-3.31295E-06-2.13398E-07
 -1       242-5.57473E+00 1.97951E+00-2.83738E-09-4.98838E-02-8.13846E-07-9.49799E-08
 -1       243-1.22625E-08 3.68674E-09 1.52304E-09-8.76791E-08 2.23944E-02 4.88457E-10
 -1       244-4.65175E-08 2.62112E-08 9.18346E-10-8.16609E-05 2.22652E-02 4.89406E-10
 -1       245-1.52831E-07 9.21270E-08 5.92269E-10-1.62448E-04 2.20067E-02 4.91737E-10
 -1       246-3.29171E-07 2.00494E-07 5.79128E-10-2.42148E-04 2.17482E-02 4.95490E-10
 -1       247-5.73463E-07 3.47008E-07 9.09949E-10-3.20968E-04 2.14898E-02 5.00111E-10
 -1       248-8.85199E-07 5.39366E-07 1.03020E-09-3.98469E-04 2.12313E-02 5.04635E-10
 -1       249-1.26283E-06 7.71915E-07 2.20005E-10-4.76415E-04 2.09729E-02 5.08014E-10
 -1       250-1.70846E-06 1.04432E-06 9.99634E-11-5.51003E-04 2.07144E-02 5.09813E-10
 -1       251-2.21969E-06 1.35716E-06 4.80222E-10-6.26938E-04 2.04560E-02 5.11491E-10
 -1       252-2.79753E-06 1.71342E-06 2.99844E-10-7.02386E-04 2.01977E-02 5.14559E-10
 -1       253-3.43717E-06 2.10502E-06 3.98666E-11-7.74199E-04 1.99393E-02 5.17943E-10
 -1       254-4.13960E-06 2.53405E-06 5.56986E-10-8.46380E-04 1.96811E-02 5.20287E-10
 -1       255-4.90450E-06 3.00301E-06 3.61173E-10-9.16666E-04 1.94229E-02 5.21696E-10
 -1       256-5.73170E-06 3.51137E-06 2.26397E-10-9.88164E-04 1.91648E-02 5.22832E-10
 -1       257-6.61803E-06 4.05292E-06 3.44332E-10-1.05896E-03 1.89068E-02 5.22922E-10
 -1       258-7.56613E-06 4.63517E-06 1.10754E-10-1.12421E-03 1.86489E-02 5.21921E-10
 -1       259-8.57193E-06 5.25234E-06 3.36137E-10-1.19355E-03 1.83911E-02 5.21381E-10
 -1       260-9.63814E-06 5.90420E-06 8.95353E-10-1.26007E-03 1.81335E-02 5.22624E-10
 -1       261-1.07586E-05 6.59262E-06 5.52442E-10-1.32585E-03 1.78761E-02 5.24460E-10
 -1       262-1.19375E-05 7.31601E-06 8.19714E-12-1.39311E-03 1.76189E-02 5.25000E-10
 -1       263-1.31695E-05 8.06678E-06 2.80586E-10-1.45114E-03 1.73619E-02 5.23698E-10
 -1       264-1.44589E-05 8.86020E-06-1.65210E-10-1.52047E-03 1.71051E-02 5.21218E-10
 -1       265-1.58021E-05 9.68220E-06-9.48665E-11-1.57535E-03 1.68486E-02 5.18693E-10
 -1       266-1.72001E-05 1.05414E-05 3.26225E-10-1.64378E-03 1.65924E-02 5.17134E-10
 -1       267-1.86489E-05 1.14294E-05-1.49994E-10-1.69122E-03 1.63366E-02 5.16135E-10
 -1       268-2.01471E-05 1.23444E-05-3.12264E-10-1.76417E-03 1.60810E-02 5.14660E-10
 -1       269-2.17036E-05 1.33036E-05-4.27088E-10-1.82189E-03 1.58259E-02 5.12702E-10
 -1       270-2.33016E-05 1.42804E-05-5.13822E-10-1.86917E-03 1.55712E-02 5.09800E-10
 -1       271-2.49539E-05 1.52957E-05-3.51302E-10-1.93636E-03 1.53169E-02 5.05830E-10
 -1       272-2.66522E-05 1.63330E-05-6.03033E-10-1.98000E-03 1.50631E-02 5.01397E-10
 -1       273-2.84003E-05 1.74084E-05-7.67453E-10-2.04669E-03 1.48098E-02 4.96247E-10
 -1       274-3.01916E-05 1.85022E-05-6.77073E-10-2.08010E-03 1.45571E-02 4.90203E-10
 -1       275-3.20327E-05 1.96304E-05-6.57561E-10-2.16212E-03 1.43049E-02 4.84519E-10
 -1       276-3.39235E-05 2.07950E-05-3.98250E-10-2.18963E-03 1.40533E-02 4.79890E-10
 -1       277-3.58470E-05 2.19645E-05-9.29661E-11-2.25019E-03 1.38024E-02 4.76233E-10
 -1       278-3.78267E-05 2.31865E-05-3.25253E-10-2.30701E-03 1.35522E-02 4.72756E-10
 -1       279-3.98379E-05 2.44121E-05-6.47335E-10-2.33881E-03 1.33026E-02 4.68703E-10
 -1       280-4.19001E-05 2.56816E-05-5.99604E-10-2.40521E-03 1.30539E-02 4.64021E-10
 -1       281-4.39963E-05 2.69640E-05-5.73345E-10-2.42316E-03 1.28059E-02 4.59302E-10
 -1       282-4.61365E-05 2.82740E-05-8.42050E-10-2.51088E-03 1.25587E-02 4.54548E-10
 -1       283-4.83202E-05 2.96172E-05-1.09340E-09-2.52340E-03 1.23125E-02 4.49671E-10
 -1       284-5.05350E-05 3.09712E-05-1.19970E-09-2.59079E-03 1.20671E-02 4.44733E-10
 -1       285-5.27982E-05 3.23652E-05-9.50152E-10-2.60896E-03 1.18227E-02 4.40183E-10
 -1       286-5.50826E-05 3.37509E-05-6.51465E-10-2.66770E-03 1.15793E-02 4.35984E-10
 -1       287-5.74264E-05 3.52041E-05-3.43423E-10-2.71855E-03 1.13369E-02 4.31805E-10
 -1       288-5.97837E-05 3.66367E-05-2.80651E-10-2.72033E-03 1.10956E-02 4.28048E-10
 -1       289-6.21894E-05 3.81138E-05-6.39694E-10-2.81861E-03 1.08554E-02 4.24817E-10
 -1       290-6.46285E-05 3.96128E-05-5.44412E-10-2.81043E-03 1.06164E-02 4.21693E-10
 -1       291-6.70963E-05 4.11238E-05-5.20726E-10-2.88153E-03 1.03787E-02 4.18686E-10
 -1       292-6.96002E-05 4.26579E-05-5.39355E-10-2.88653E-03 1.01422E-02 4.15614E-10
 -1       293-7.21335E-05 4.42089E-05-3.46044E-10-2.95669E-03 9.90699E-03 4.12094E-10
 -1       294-7.47046E-05 4.57907E-05-4.57335E-10-2.95538E-03 9.67317E-03 4.07961E-10
 -1       295-7.72934E-05 4.73678E-05-4.64216E-10-3.01185E-03 9.44077E-03 4.03299E-10
 -1       296-7.99273E-05 4.89898E-05-4.20041E-10-3.04247E-03 9.20983E-03 3.98440E-10
 -1       297-8.25759E-05 5.06040E-05-1.85820E-10-3.07935E-03 8.98040E-03 3.93317E-10
 -1       298-8.52694E-05 5.22670E-05-3.98356E-10-3.12720E-03 8.75253E-03 3.87689E-10
 -1       299-8.79755E-05 5.39178E-05-1.03501E-09-3.12081E-03 8.52627E-03 3.81549E-10
 -1       300-9.07156E-05 5.55982E-05-1.01967E-09-3.19265E-03 8.30168E-03 3.75095E-10
 -1       301-9.34852E-05 5.73026E-05-7.92790E-10-3.17791E-03 8.07879E-03 3.68693E-10
 -1       302-9.62701E-05 5.90015E-05-8.60081E-10-3.23118E-03 7.85768E-03 3.62744E-10
 -1       303-9.90871E-05 6.07269E-05-7.36961E-10-3.26067E-03 7.63839E-03 3.57171E-10
 -1       304-1.01931E-04 6.24768E-05-2.93912E-10-3.30827E-03 7.42097E-03 3.51940E-10
 -1       305-1.04798E-04 6.42358E-05-5.35121E-10-3.28603E-03 7.20547E-03 3.46847E-10
 -1       306-1.07670E-04 6.59819E-05-6.84588E-10-3.34302E-03 6.99196E-03 3.41424E-10
 -1       307-1.10593E-04 6.77879E-05-4.40508E-10-3.38657E-03 6.78049E-03 3.36023E-10
 -1       308-1.13519E-04 6.95787E-05-3.04041E-10-3.35954E-03 6.57110E-03 3.30927E-10
 -1       309-1.16466E-04 7.13786E-05-2.36916E-10-3.41376E-03 6.36386E-03 3.25851E-10
 -1       310-1.19435E-04 7.31967E-05-5.58544E-10-3.43593E-03 6.15882E-03 3.20660E-10
 -1       311-1.22434E-04 7.50456E-05-4.40282E-10-3.48348E-03 5.95603E-03 3.15445E-10
 -1       312-1.25438E-04 7.68797E-05 3.31703E-11-3.44844E-03 5.75556E-03 3.10581E-10
 -1       313-1.28465E-04 7.87351E-05-1.20643E-12-3.52864E-03 5.55746E-03 3.06412E-10
 -1       314-1.31518E-04 8.06142E-05-1.24842E-10-3.48377E-03 5.36178E-03 3.02505E-10
 -1       315-1.34566E-04 8.24676E-05-5.32772E-11-3.54191E-03 5.16859E-03 2.98283E-10
 -1       316-1.37656E-04 8.43743E-05 1.20726E-10-3.55313E-03 4.97794E-03 2.93846E-10
 -1       317-1.40737E-04 8.62489E-05 1.71009E-10-3.57972E-03 4.78989E-03 2.89368E-10
 -1       318-1.43862E-04 8.81814E-05-2.44656E-11-3.61887E-03 4.60450E-03 2.84800E-10
 -1       319-1.46975E-04 9.00778E-05 1.53239E-11-3.57382E-03 4.42182E-03 2.80260E-10
 -1       320-1.50117E-04 9.20082E-05 1.56396E-10-3.65813E-03 4.24193E-03 2.75984E-10
 -1       321-1.53267E-04 9.39359E-05 1.09010E-10-3.60432E-03 4.06486E-03 2.71964E-10
 -1       322-1.56434E-04 9.58828E-05 5.04982E-11-3.68432E-03 3.89070E-03 2.67916E-10
 -1       323-1.59613E-04 9.78322E-05 1.87174E-10-3.59113E-03 3.71949E-03 2.63518E-10
 -1       324-1.62776E-04 9.97411E-05 2.46424E-10-3.72944E-03 3.55129E-03 2.58926E-10
 -1       325-1.66011E-04 1.01768E-04 1.51088E-10-3.72124E-03 3.38617E-03 2.54268E-10
 -1       326-1.69199E-04 1.03695E-04 7.68635E-11-3.66868E-03 3.22418E-03 2.49257E-10
 -1       327-1.72429E-04 1.05685E-04 2.76477E-11-3.75510E-03 3.06540E-03 2.43956E-10
 -1       328-1.75652E-04 1.07654E-04 1.28836E-10-3.68582E-03 2.90987E-03 2.38620E-10
 -1       329-1.78900E-04 1.09657E-04 1.23808E-10-3.77445E-03 2.75765E-03 2.33178E-10
 -1       330-1.82140E-04 1.11628E-04 2.38021E-11-3.66488E-03 2.60882E-03 2.27647E-10
 -1       331-1.85387E-04 1.13613E-04-4.61669E-11-3.84963E-03 2.46343E-03 2.22039E-10
 -1       332-1.88683E-04 1.15668E-04-1.22815E-10-3.70793E-03 2.32154E-03 2.16495E-10
 -1       333-1.91911E-04 1.17598E-04 5.83844E-11-3.78712E-03 2.18322E-03 2.10925E-10
 -1       334-1.95228E-04 1.19672E-04 1.66469E-10-3.81673E-03 2.04852E-03 2.05131E-10
 -1       335-1.98487E-04 1.21644E-04 5.16473E-11-3.74628E-03 1.91751E-03 1.99318E-10
 -1       336-2.01800E-04 1.23696E-04 8.26232E-11-3.83303E-03 1.79026E-03 1.93545E-10
 -1       337-2.05074E-04 1.25680E-04 1.24234E-10-3.71262E-03 1.66681E-03 1.87726E-10
 -1       338-2.08382E-04 1.27711E-04 1.55377E-10-3.90827E-03 1.54724E-03 1.81912E-10
 -1       339-2.11698E-04 1.29760E-04 2.61246E-10-3.75617E-03 1.43161E-03 1.75980E-10
 -1       340-2.14999E-04 1.31767E-04 2.53758E-10-3.87170E-03 1.31998E-03 1.69942E-10
 -1       341-2.18329E-04 1.33830E-04 1.95184E-10-3.76017E-03 1.21241E-03 1.63899E-10
 -1       342-2.21620E-04 1.35806E-04 1.84584E-10-3.84280E-03 1.10896E-03 1.57716E-10
 -1       343-2.24975E-04 1.37912E-04 1.75898E-10-3.86543E-03 1.00971E-03 1.51330E-10
 -1       344-2.28283E-04 1.39905E-04 1.65026E-10-3.73540E-03 9.14700E-04 1.44800E-10
 -1       345-2.31598E-04 1.41936E-04 1.50058E-10-3.95183E-03 8.24008E-04 1.38190E-10
 -1       346-2.34969E-04 1.44029E-04 1.57563E-10-3.77586E-03 7.37693E-04 1.31459E-10
 -1       347-2.38258E-04 1.46020E-04 1.45922E-10-3.89746E-03 6.55818E-04 1.24617E-10
 -1       348-2.41637E-04 1.48107E-04 1.74946E-10-3.79099E-03 5.78445E-04 1.17698E-10
 -1       349-2.44930E-04 1.50115E-04 1.73845E-10-3.89719E-03 5.05638E-04 1.10662E-10
 -1       350-2.48332E-04 1.52223E-04 1.58639E-10-3.72626E-03 4.37459E-04 1.03464E-10
 -1       351-2.51563E-04 1.54132E-04 1.60253E-10-3.93744E-03 3.73972E-04 9.61004E-11
 -1       352-2.55046E-04 1.56367E-04 1.32141E-10-3.88534E-03 3.15239E-04 8.86144E-11
 -1       353-2.58252E-04 1.58252E-04 1.37032E-10-3.79765E-03 2.61325E-04 8.10222E-11
 -1       354-2.61731E-04 1.60445E-04 1.58163E-10-3.91116E-03 2.12291E-04 7.32934E-11
 -1       355-2.64921E-04 1.62334E-04 1.56762E-10-3.79722E-03 1.68201E-04 6.54456E-11
 -1       356-2.68457E-04 1.64595E-04 1.46656E-10-3.89854E-03 1.29119E-04 5.75242E-11
 -1       357-2.71558E-04 1.66358E-04 1.48693E-10-3.75965E-03 9.51063E-05 4.95165E-11
 -1       358-2.75231E-04 1.68830E-04 1.57165E-10-3.90774E-03 6.62274E-05 4.13951E-11
 -1       359-2.77998E-04 1.69991E-04 1.54252E-10-4.06066E-03 4.25453E-05 3.31721E-11
 -1       360-2.82786E-04 1.74634E-04 1.49275E-10-2.85155E-03 2.41232E-05 2.48424E-11
 -1       361-2.81764E-04 1.68203E-04 1.52197E-10-7.49684E-03 1.10234E-05 1.64197E-11
 -1       362-2.99495E-04 1.98986E-04 1.65908E-10 8.54863E-03 3.31271E-06 7.82400E-12
 -1       363-2.23921E-04 7.98376E-05 1.80050E-10-4.99947E-02 8.13846E-07 3.45548E-12
 -1       364-9.50000E-09 3.39020E-09-1.52304E-09-7.32971E-08-2.23954E-02-3.98022E-10
 -1       365-4.44818E-08 2.75328E-08-9.18346E-10-8.17552E-05-2.22660E-02-3.97069E-10
 -1       366-1.49668E-07 8.89648E-08-5.92269E-10-1.62618E-04-2.20073E-02-3.94729E-10
 -1       367-3.24168E-07 1.95165E-07-5.79128E-10-2.42276E-04-2.17487E-02-3.90957E-10
 -1       368-5.68236E-07 3.49185E-07-9.09949E-10-3.21045E-04-2.14901E-02-3.86305E-10
 -1       369-8.80458E-07 5.38793E-07-1.03020E-09-3.98510E-04-2.12315E-02-3.81735E-10
 -1       370-1.26008E-06 7.70452E-07-2.20005E-10-4.76467E-04-2.09729E-02-3.78283E-10
 -1       371-1.70718E-06 1.04454E-06-9.99634E-11-5.51086E-04-2.07143E-02-3.76386E-10
 -1       372-2.21710E-06 1.35480E-06-4.80222E-10-6.27014E-04-2.04558E-02-3.74587E-10
 -1       373-2.79325E-06 1.70993E-06-2.99844E-10-7.02388E-04-2.01973E-02-3.71358E-10
 -1       374-3.43381E-06 2.10364E-06-3.98666E-11-7.74173E-04-1.99389E-02-3.67776E-10
 -1       375-4.13755E-06 2.53388E-06-5.56986E-10-8.46391E-04-1.96805E-02-3.65188E-10
 -1       376-4.90309E-06 3.00227E-06-3.61173E-10-9.16621E-04-1.94223E-02-3.63484E-10
 -1       377-5.73037E-06 3.50963E-06-2.26397E-10-9.88072E-04-1.91641E-02-3.62003E-10
 -1       378-6.61856E-06 4.05609E-06-3.44332E-10-1.05894E-03-1.89061E-02-3.61512E-10
 -1       379-7.56742E-06 4.63871E-06-1.10754E-10-1.12422E-03-1.86482E-02-3.62052E-10
 -1       380-8.57118E-06 5.25062E-06-3.36137E-10-1.19356E-03-1.83905E-02-3.62065E-10
 -1       381-9.63554E-06 5.90530E-06-8.95353E-10-1.26004E-03-1.81329E-02-3.60229E-10
 -1       382-1.07565E-05 6.58940E-06-5.52442E-10-1.32579E-03-1.78755E-02-3.57730E-10
 -1       383-1.19377E-05 7.31570E-06-8.19714E-12-1.39302E-03-1.76183E-02-3.56460E-10
 -1       384-1.31713E-05 8.07320E-06-2.80586E-10-1.45102E-03-1.73613E-02-3.56956E-10
 -1       385-1.44615E-05 8.86199E-06 1.65210E-10-1.52033E-03-1.71046E-02-3.58539E-10
 -1       386-1.58040E-05 9.68580E-06 9.48665E-11-1.57521E-03-1.68482E-02-3.60083E-10
 -1       387-1.72004E-05 1.05395E-05-3.26225E-10-1.64368E-03-1.65921E-02-3.60574E-10
 -1       388-1.86495E-05 1.14282E-05 1.49994E-10-1.69118E-03-1.63363E-02-3.60413E-10
 -1       389-2.01484E-05 1.23436E-05 3.12264E-10-1.76414E-03-1.60808E-02-3.60632E-10
 -1       390-2.17052E-05 1.33038E-05 4.27088E-10-1.82185E-03-1.58257E-02-3.61230E-10
 -1       391-2.33048E-05 1.42806E-05 5.13822E-10-1.86911E-03-1.55711E-02-3.62666E-10
 -1       392-2.49578E-05 1.52962E-05 3.51302E-10-1.93633E-03-1.53168E-02-3.65078E-10
 -1       393-2.66562E-05 1.63346E-05 6.03033E-10-1.98002E-03-1.50631E-02-3.67844E-10
 -1       394-2.84057E-05 1.74088E-05 7.67453E-10-2.04675E-03-1.48098E-02-3.71209E-10
 -1       395-3.01974E-05 1.85051E-05 6.77073E-10-2.08019E-03-1.45571E-02-3.75357E-10
 -1       396-3.20373E-05 1.96322E-05 6.57561E-10-2.16216E-03-1.43049E-02-3.79025E-10
 -1       397-3.39267E-05 2.07963E-05 3.98250E-10-2.18958E-03-1.40534E-02-3.81519E-10
 -1       398-3.58494E-05 2.19678E-05 9.29661E-11-2.25015E-03-1.38025E-02-3.82915E-10
 -1       399-3.78293E-05 2.31867E-05 3.25253E-10-2.30698E-03-1.35522E-02-3.84000E-10
 -1       400-3.98414E-05 2.44160E-05 6.47335E-10-2.33882E-03-1.33027E-02-3.85539E-10
 -1       401-4.19039E-05 2.56843E-05 5.99604E-10-2.40529E-03-1.30539E-02-3.87578E-10
 -1       402-4.39999E-05 2.69639E-05 5.73345E-10-2.42326E-03-1.28060E-02-3.89513E-10
 -1       403-4.61401E-05 2.82770E-05 8.42050E-10-2.51096E-03-1.25588E-02-3.91355E-10
 -1       404-4.83240E-05 2.96190E-05 1.09340E-09-2.52347E-03-1.23125E-02-3.93174E-10
 -1       405-5.05386E-05 3.09729E-05 1.19970E-09-2.59084E-03-1.20671E-02-3.94900E-10
 -1       406-5.28009E-05 3.23631E-05 9.50152E-10-2.60895E-03-1.18227E-02-3.96103E-10
 -1       407-5.50853E-05 3.37535E-05 6.51465E-10-2.66767E-03-1.15793E-02-3.96809E-10
 -1       408-5.74289E-05 3.52042E-05 3.43423E-10-2.71852E-03-1.13370E-02-3.97340E-10
 -1       409-5.97852E-05 3.66365E-05 2.80651E-10-2.72028E-03-1.10957E-02-3.97304E-10
 -1       410-6.21906E-05 3.81129E-05 6.39694E-10-2.81854E-03-1.08555E-02-3.96583E-10
 -1       411-6.46296E-05 3.96131E-05 5.44412E-10-2.81039E-03-1.06165E-02-3.95592E-10
 -1       412-6.70971E-05 4.11202E-05 5.20726E-10-2.88151E-03-1.03788E-02-3.94334E-10
 -1       413-6.96012E-05 4.26581E-05 5.39355E-10-2.88650E-03-1.01423E-02-3.92978E-10
 -1       414-7.21350E-05 4.42089E-05 3.46044E-10-2.95666E-03-9.90713E-03-3.91908E-10
 -1       415-7.47069E-05 4.57912E-05 4.57335E-10-2.95539E-03-9.67332E-03-3.91288E-10
 -1       416-7.72959E-05 4.73691E-05 4.64216E-10-3.01188E-03-9.44092E-03-3.91034E-10
 -1       417-7.99299E-05 4.89908E-05 4.20041E-10-3.04250E-03-9.20997E-03-3.90798E-10
 -1       418-8.25789E-05 5.06068E-05 1.85820E-10-3.07938E-03-8.98054E-03-3.90649E-10
 -1       419-8.52728E-05 5.22677E-05 3.98356E-10-3.12722E-03-8.75266E-03-3.90846E-10
 -1       420-8.79794E-05 5.39202E-05 1.03501E-09-3.12085E-03-8.52640E-03-3.91374E-10
 -1       421-9.07195E-05 5.56006E-05 1.01967E-09-3.19264E-03-8.30180E-03-3.92036E-10
 -1       422-9.34887E-05 5.73009E-05 7.92790E-10-3.17787E-03-8.07891E-03-3.92475E-10
 -1       423-9.62729E-05 5.90011E-05 8.60081E-10-3.23115E-03-7.85779E-03-3.92286E-10
 -1       424-9.90896E-05 6.07283E-05 7.36961E-10-3.26066E-03-7.63848E-03-3.91533E-10
 -1       425-1.01933E-04 6.24755E-05 2.93912E-10-3.30826E-03-7.42105E-03-3.90245E-10
 -1       426-1.04800E-04 6.42381E-05 5.35121E-10-3.28604E-03-7.20554E-03-3.88636E-10
 -1       427-1.07673E-04 6.59801E-05 6.84588E-10-3.34305E-03-6.99202E-03-3.87179E-10
 -1       428-1.10594E-04 6.77884E-05 4.40508E-10-3.38662E-03-6.78052E-03-3.85519E-10
 -1       429-1.13521E-04 6.95799E-05 3.04041E-10-3.35960E-03-6.57112E-03-3.83353E-10
 -1       430-1.16468E-04 7.13796E-05 2.36916E-10-3.41381E-03-6.36385E-03-3.80967E-10
 -1       431-1.19436E-04 7.31959E-05 5.58544E-10-3.43595E-03-6.15879E-03-3.78517E-10
 -1       432-1.22435E-04 7.50455E-05 4.40282E-10-3.48347E-03-5.95599E-03-3.75902E-10
 -1       433-1.25439E-04 7.68800E-05-3.31703E-11-3.44841E-03-5.75551E-03-3.72735E-10
 -1       434-1.28464E-04 7.87337E-05 1.20643E-12-3.52863E-03-5.55739E-03-3.68682E-10
 -1       435-1.31518E-04 8.06143E-05 1.24842E-10-3.48377E-03-5.36170E-03-3.64171E-10
 -1       436-1.34566E-04 8.24674E-05 5.32772E-11-3.54190E-03-5.16850E-03-3.59772E-10
 -1       437-1.37656E-04 8.43746E-05-1.20726E-10-3.55313E-03-4.97784E-03-3.55394E-10
 -1       438-1.40737E-04 8.62485E-05-1.71009E-10-3.57974E-03-4.78978E-03-3.50859E-10
 -1       439-1.43862E-04 8.81823E-05 2.44656E-11-3.61888E-03-4.60439E-03-3.46206E-10
 -1       440-1.46975E-04 9.00775E-05-1.53239E-11-3.57382E-03-4.42171E-03-3.41325E-10
 -1       441-1.50116E-04 9.20077E-05-1.56396E-10-3.65814E-03-4.24181E-03-3.35973E-10
 -1       442-1.53266E-04 9.39360E-05-1.09010E-10-3.60432E-03-4.06474E-03-3.30164E-10
 -1       443-1.56433E-04 9.58823E-05-5.04982E-11-3.68431E-03-3.89057E-03-3.24183E-10
 -1       444-1.59612E-04 9.78319E-05-1.87174E-10-3.59112E-03-3.71936E-03-3.18348E-10
 -1       445-1.62775E-04 9.97417E-05-2.46424E-10-3.72944E-03-3.55117E-03-3.12496E-10
 -1       446-1.66011E-04 1.01768E-04-1.51088E-10-3.72122E-03-3.38605E-03-3.06505E-10
 -1       447-1.69198E-04 1.03695E-04-7.68635E-11-3.66866E-03-3.22407E-03-3.00659E-10
 -1       448-1.72428E-04 1.05685E-04-2.76477E-11-3.75509E-03-3.06529E-03-2.94889E-10
 -1       449-1.75652E-04 1.07654E-04-1.28836E-10-3.68582E-03-2.90976E-03-2.88950E-10
 -1       450-1.78900E-04 1.09657E-04-1.23808E-10-3.77445E-03-2.75756E-03-2.82912E-10
 -1       451-1.82139E-04 1.11628E-04-2.38021E-11-3.66487E-03-2.60873E-03-2.76747E-10
 -1       452-1.85387E-04 1.13612E-04 4.61669E-11-3.84963E-03-2.46335E-03-2.70448E-10
 -1       453-1.88682E-04 1.15667E-04 1.22815E-10-3.70793E-03-2.32147E-03-2.63873E-10
 -1       454-1.91911E-04 1.17598E-04-5.83844E-11-3.78712E-03-2.18315E-03-2.57121E-10
 -1       455-1.95227E-04 1.19672E-04-1.66469E-10-3.81673E-03-2.04847E-03-2.50379E-10
 -1       456-1.98486E-04 1.21644E-04-5.16473E-11-3.74627E-03-1.91747E-03-2.43439E-10
 -1       457-2.01799E-04 1.23696E-04-8.26232E-11-3.83302E-03-1.79022E-03-2.36248E-10
 -1       458-2.05073E-04 1.25680E-04-1.24234E-10-3.71261E-03-1.66678E-03-2.28889E-10
 -1       459-2.08381E-04 1.27711E-04-1.55377E-10-3.90827E-03-1.54722E-03-2.21310E-10
 -1       460-2.11697E-04 1.29760E-04-2.61246E-10-3.75617E-03-1.43159E-03-2.13628E-10
 -1       461-2.14998E-04 1.31767E-04-2.53758E-10-3.87170E-03-1.31996E-03-2.05848E-10
 -1       462-2.18328E-04 1.33830E-04-1.95184E-10-3.76017E-03-1.21240E-03-1.97854E-10
 -1       463-2.21619E-04 1.35805E-04-1.84584E-10-3.84280E-03-1.10896E-03-1.89782E-10
 -1       464-2.24974E-04 1.37912E-04-1.75898E-10-3.86543E-03-1.00971E-03-1.81709E-10
 -1       465-2.28283E-04 1.39904E-04-1.65026E-10-3.73540E-03-9.14709E-04-1.73560E-10
 -1       466-2.31597E-04 1.41935E-04-1.50058E-10-3.95183E-03-8.24021E-04-1.65270E-10
 -1       467-2.34968E-04 1.44029E-04-1.57563E-10-3.77586E-03-7.37708E-04-1.56887E-10
 -1       468-2.38257E-04 1.46019E-04-1.45922E-10-3.89746E-03-6.55835E-04-1.48403E-10
 -1       469-2.41637E-04 1.48107E-04-1.74946E-10-3.79099E-03-5.78463E-04-1.39779E-10
 -1       470-2.44929E-04 1.50115E-04-1.73845E-10-3.89719E-03-5.05656E-04-1.31055E-10
 -1       471-2.48331E-04 1.52223E-04-1.58639E-10-3.72627E-03-4.37477E-04-1.22277E-10
 -1       472-2.51563E-04 1.54132E-04-1.60253E-10-3.93744E-03-3.73989E-04-1.13449E-10
 -1       473-2.55045E-04 1.56367E-04-1.32141E-10-3.88534E-03-3.15255E-04-1.04524E-10
 -1       474-2.58251E-04 1.58251E-04-1.37032E-10-3.79765E-03-2.61339E-04-9.54828E-11
 -1       475-2.61730E-04 1.60445E-04-1.58163E-10-3.91117E-03-2.12303E-04-8.63662E-11
 -1       476-2.64920E-04 1.62334E-04-1.56762E-10-3.79722E-03-1.68212E-04-7.71587E-11
 -1       477-2.68456E-04 1.64595E-04-1.46656E-10-3.89855E-03-1.29127E-04-6.78151E-11
 -1       478-2.71557E-04 1.66357E-04-1.48693E-10-3.75965E-03-9.51130E-05-5.83322E-11
 -1       479-2.75230E-04 1.68830E-04-1.57165E-10-3.90775E-03-6.62324E-05-4.87374E-11
 -1       480-2.77998E-04 1.69990E-04-1.54252E-10-4.06066E-03-4.25487E-05-3.90406E-11
 -1       481-2.82785E-04 1.74634E-04-1.49275E-10-2.85155E-03-2.41251E-05-2.92200E-11
 -1       482-2.81763E-04 1.68202E-04-1.52197E-10-7.49685E-03-1.10243E-05-1.93031E-11
 -1       483-2.99494E-04 1.98986E-04-1.65908E-10 8.54863E-03-3.31295E-06-9.24048E-12
 -1       484-2.23920E-04 7.98376E-05-1.80050E-10-4.99947E-02-8.13846E-07-4.14981E-12
 -1       485 2.54223E-04-9.83354E-05 2.49565E-09-9.15249E-08 2.23944E-02-1.10727E-05
 -1       486 1.13897E-03-6.40241E-04-2.75109E-09-8.17421E-05 2.22652E-02-1.10727E-05
 -1       487 3.78548E-03-2.26334E-03-1.66709E-08-1.62377E-04 2.20067E-02-1.10727E-05
 -1       488 8.17216E-03-4.95187E-03-3.23204E-08-2.42153E-04 2.17482E-02-1.10728E-05
 -1       489 1.42821E-02-8.70073E-03-4.31791E-08-3.20977E-04 2.14898E-02-1.10728E-05
 -1       490 2.20852E-02-1.34783E-02-4.89489E-08-3.99456E-04 2.12313E-02-1.10727E-05
 -1       491 3.15747E-02-1.92988E-02-5.40195E-08-4.75441E-04 2.09729E-02-1.10723E-05
 -1       492 4.27235E-02-2.61368E-02-6.13496E-08-5.52815E-04 2.07144E-02-1.10716E-05
 -1       493 5.54973E-02-3.39523E-02-6.96538E-08-6.27472E-04 2.04560E-02-1.10707E-05
 -1       494 6.99074E-02-4.27946E-02-7.37997E-08-7.00055E-04 2.01977E-02-1.10693E-05
 -1       495 8.59106E-02-5.26069E-02-7.21470E-08-7.74218E-04 1.99393E-02-1.10675E-05
 -1       496 1.03488E-01-6.33796E-02-7.14032E-08-8.46457E-04 1.96811E-02-1.10651E-05
 -1       497 1.22624E-01-7.51097E-02-7.06998E-08-9.19013E-04 1.94229E-02-1.10622E-05
 -1       498 1.43284E-01-8.77572E-02-6.31547E-08-9.88638E-04 1.91648E-02-1.10585E-05
 -1       499 1.65487E-01-1.01386E-01-5.65633E-08-1.05621E-03 1.89068E-02-1.10541E-05
 -1       500 1.89170E-01-1.15901E-01-5.65881E-08-1.12786E-03 1.86489E-02-1.10489E-05
 -1       501 2.14317E-01-1.31298E-01-5.73023E-08-1.19404E-03 1.83911E-02-1.10429E-05
 -1       502 2.40943E-01-1.47635E-01-5.53482E-08-1.26059E-03 1.81335E-02-1.10361E-05
 -1       503 2.68972E-01-1.64790E-01-5.15674E-08-1.32640E-03 1.78761E-02-1.10283E-05
 -1       504 2.98461E-01-1.82901E-01-4.51101E-08-1.38789E-03 1.76189E-02-1.10196E-05
 -1       505 3.29296E-01-2.01773E-01-3.43418E-08-1.45772E-03 1.73619E-02-1.10098E-05
 -1       506 3.61537E-01-2.21550E-01-2.14586E-08-1.51393E-03 1.71051E-02-1.09989E-05
 -1       507 3.95109E-01-2.42111E-01-6.64463E-09-1.58300E-03 1.68486E-02-1.09868E-05
 -1       508 4.30043E-01-2.63550E-01 6.46497E-09-1.63617E-03 1.65924E-02-1.09734E-05
 -1       509 4.66268E-01-2.85749E-01 1.33436E-08-1.70917E-03 1.63366E-02-1.09588E-05
 -1       510 5.03725E-01-3.08621E-01 1.68609E-08-1.75618E-03 1.60810E-02-1.09430E-05
 -1       511 5.42616E-01-3.32592E-01 2.06976E-08-1.81198E-03 1.58259E-02-1.09258E-05
 -1       512 5.82599E-01-3.57014E-01 2.60918E-08-1.88035E-03 1.55712E-02-1.09074E-05
 -1       513 6.23902E-01-3.82366E-01 3.04594E-08-1.92523E-03 1.53169E-02-1.08876E-05
 -1       514 6.66366E-01-4.08360E-01 3.01924E-08-1.99276E-03 1.50631E-02-1.08664E-05
 -1       515 7.10091E-01-4.35223E-01 2.60032E-08-2.03399E-03 1.48098E-02-1.08438E-05
 -1       516 7.54885E-01-4.62603E-01 1.81185E-08-2.10929E-03 1.45571E-02-1.08199E-05
 -1       517 8.00880E-01-4.90783E-01 1.05691E-08-2.13297E-03 1.43049E-02-1.07945E-05
 -1       518 8.48116E-01-5.19873E-01 1.17000E-08-2.20580E-03 1.40533E-02-1.07677E-05
 -1       519 8.96211E-01-5.49147E-01 1.75810E-08-2.25111E-03 1.38024E-02-1.07394E-05
 -1       520 9.45682E-01-5.79651E-01 2.08680E-08-2.29001E-03 1.35522E-02-1.07093E-05
 -1       521 9.96005E-01-6.10379E-01 2.19157E-08-2.35826E-03 1.33026E-02-1.06777E-05
 -1       522 1.04755E+00-6.42076E-01 1.75691E-08-2.38583E-03 1.30539E-02-1.06444E-05
 -1       523 1.09995E+00-6.74086E-01 7.35858E-09-2.46488E-03 1.28059E-02-1.06095E-05
 -1       524 1.15347E+00-7.06892E-01-2.61903E-09-2.46979E-03 1.25587E-02-1.05730E-05
 -1       525 1.20804E+00-7.40433E-01-1.08817E-08-2.54509E-03 1.23125E-02-1.05348E-05
 -1       526 1.26345E+00-7.74306E-01-1.73347E-08-2.56858E-03 1.20671E-02-1.04949E-05
 -1       527 1.31997E+00-8.09082E-01-1.86210E-08-2.63462E-03 1.18227E-02-1.04532E-05
 -1       528 1.37714E+00-8.43849E-01-1.61588E-08-2.66812E-03 1.15793E-02-1.04097E-05
 -1       529 1.43568E+00-8.80082E-01-1.29270E-08-2.69184E-03 1.13369E-02-1.03643E-05
 -1       530 1.49465E+00-9.15949E-01-8.73426E-09-2.77904E-03 1.10956E-02-1.03169E-05
 -1       531 1.55474E+00-9.52837E-01-2.31965E-09-2.75988E-03 1.08554E-02-1.02676E-05
 -1       532 1.61574E+00-9.90331E-01 4.24784E-09-2.84256E-03 1.06164E-02-1.02162E-05
 -1       533 1.67743E+00-1.02806E+00 7.46074E-09-2.85029E-03 1.03787E-02-1.01628E-05
 -1       534 1.74002E+00-1.06644E+00 9.74841E-09-2.91935E-03 1.01422E-02-1.01074E-05
 -1       535 1.80338E+00-1.10525E+00 1.34485E-08-2.92304E-03 9.90699E-03-1.00499E-05
 -1       536 1.86762E+00-1.14474E+00 1.52187E-08-2.99245E-03 9.67317E-03-9.99032E-06
 -1       537 1.93240E+00-1.18424E+00 1.32574E-08-3.01213E-03 9.44077E-03-9.92865E-06
 -1       538 1.99819E+00-1.22474E+00 1.03300E-08-3.04474E-03 9.20983E-03-9.86488E-06
 -1       539 2.06446E+00-1.26516E+00 7.63580E-09-3.07960E-03 8.98040E-03-9.79900E-06
 -1       540 2.13175E+00-1.30665E+00 4.73828E-09-3.08843E-03 8.75253E-03-9.73098E-06
 -1       541 2.19944E+00-1.34799E+00 1.12286E-09-3.16219E-03 8.52627E-03-9.66081E-06
 -1       542 2.26793E+00-1.38998E+00-3.53526E-10-3.15136E-03 8.30168E-03-9.58845E-06
 -1       543 2.33715E+00-1.43254E+00 2.56536E-09-3.22184E-03 8.07879E-03-9.51386E-06
 -1       544 2.40678E+00-1.47502E+00 6.51159E-09-3.23372E-03 7.85768E-03-9.43699E-06
 -1       545 2.47717E+00-1.51816E+00 9.36873E-09-3.26080E-03 7.63839E-03-9.35781E-06
 -1       546 2.54830E+00-1.56192E+00 1.11163E-08-3.26183E-03 7.42097E-03-9.27632E-06
 -1       547 2.61993E+00-1.60588E+00 1.10837E-08-3.33522E-03 7.20547E-03-9.19251E-06
 -1       548 2.69179E+00-1.64952E+00 9.40429E-09-3.34439E-03 6.99196E-03-9.10639E-06
 -1       549 2.76480E+00-1.69469E+00 5.29102E-09-3.33614E-03 6.78049E-03-9.01794E-06
 -1       550 2.83799E+00-1.73947E+00-8.12077E-10-3.41422E-03 6.57110E-03-8.92719E-06
 -1       551 2.91164E+00-1.78445E+00-6.33129E-09-3.41371E-03 6.36386E-03-8.83412E-06
 -1       552 2.98588E+00-1.82991E+00-1.05908E-08-3.43886E-03 6.15882E-03-8.73869E-06
 -1       553 3.06084E+00-1.87613E+00-1.15929E-08-3.42453E-03 5.95603E-03-8.64086E-06
 -1       554 3.13593E+00-1.92198E+00-8.99120E-09-3.50877E-03 5.75556E-03-8.54060E-06
 -1       555 3.21161E+00-1.96836E+00-6.88491E-09-3.46997E-03 5.55746E-03-8.43788E-06
 -1       556 3.28788E+00-2.01531E+00-6.39030E-09-3.54702E-03 5.36178E-03-8.33269E-06
 -1       557 3.36417E+00-2.06171E+00-5.31311E-09-3.54169E-03 5.16859E-03-8.22502E-06
 -1       558 3.44133E+00-2.10929E+00-3.73245E-09-3.55633E-03 4.97794E-03-8.11485E-06
 -1       559 3.51845E+00-2.15625E+00-4.02732E-09-3.57767E-03 4.78989E-03-8.00218E-06
 -1       560 3.59649E+00-2.20450E+00-5.99157E-09-3.55488E-03 4.60450E-03-7.88700E-06
 -1       561 3.67437E+00-2.25195E+00-6.58632E-09-3.64445E-03 4.42182E-03-7.76931E-06
 -1       562 3.75289E+00-2.30017E+00-6.40892E-09-3.58761E-03 4.24193E-03-7.64909E-06
 -1       563 3.83162E+00-2.34837E+00-6.64493E-09-3.67407E-03 4.06486E-03-7.52633E-06
 -1       564 3.91083E+00-2.39708E+00-6.59908E-09-3.61665E-03 3.89070E-03-7.40101E-06
 -1       565 3.99023E+00-2.44573E+00-6.05022E-09-3.73833E-03 3.71949E-03-7.27312E-06
 -1       566 4.06942E+00-2.49357E+00-5.51777E-09-3.65839E-03 3.55129E-03-7.14266E-06
 -1       567 4.15019E+00-2.54413E+00-4.77131E-09-3.64320E-03 3.38617E-03-7.00958E-06
 -1       568 4.22997E+00-2.59240E+00-3.36565E-09-3.74775E-03 3.22418E-03-6.87391E-06
 -1       569 4.31065E+00-2.64208E+00-2.56867E-09-3.67395E-03 3.06540E-03-6.73562E-06
 -1       570 4.39127E+00-2.69133E+00-2.62802E-09-3.77227E-03 2.90987E-03-6.59472E-06
 -1       571 4.47248E+00-2.74141E+00-2.82314E-09-3.69027E-03 2.75765E-03-6.45121E-06
 -1       572 4.55339E+00-2.79063E+00-2.16818E-09-3.83726E-03 2.60882E-03-6.30507E-06
 -1       573 4.63471E+00-2.84036E+00-1.30402E-09-3.67731E-03 2.46343E-03-6.15628E-06
 -1       574 4.71691E+00-2.89156E+00-1.11106E-09-3.79601E-03 2.32154E-03-6.00484E-06
 -1       575 4.79786E+00-2.94004E+00-7.08783E-10-3.78866E-03 2.18322E-03-5.85077E-06
 -1       576 4.88052E+00-2.99165E+00-4.18077E-10-3.72725E-03 2.04852E-03-5.69403E-06
 -1       577 4.96223E+00-3.04118E+00-5.61705E-11-3.83892E-03 1.91751E-03-5.53464E-06
 -1       578 5.04483E+00-3.09227E+00 7.52235E-10-3.74303E-03 1.79026E-03-5.37257E-06
 -1       579 5.12687E+00-3.14206E+00 1.88411E-09-3.90141E-03 1.66681E-03-5.20784E-06
 -1       580 5.20944E+00-3.19269E+00 2.78575E-09-3.71700E-03 1.54724E-03-5.04042E-06
 -1       581 5.29244E+00-3.24402E+00 2.83172E-09-3.85492E-03 1.43161E-03-4.87032E-06
 -1       582 5.37488E+00-3.29410E+00 2.73579E-09-3.77305E-03 1.31998E-03-4.69754E-06
 -1       583 5.45821E+00-3.34577E+00 2.94324E-09-3.86197E-03 1.21241E-03-4.52208E-06
 -1       584 5.54037E+00-3.39503E+00 3.36596E-09-3.84716E-03 1.10896E-03-4.34393E-06
 -1       585 5.62443E+00-3.44789E+00 3.62004E-09-3.75940E-03 1.00971E-03-4.16309E-06
 -1       586 5.70682E+00-3.49739E+00 3.64142E-09-3.95110E-03 9.14700E-04-3.97955E-06
 -1       587 5.79016E+00-3.54863E+00 3.55730E-09-3.73328E-03 8.24008E-04-3.79333E-06
 -1       588 5.87378E+00-3.60033E+00 3.33190E-09-3.88830E-03 7.37693E-04-3.60440E-06
 -1       589 5.95687E+00-3.65092E+00 3.13790E-09-3.79104E-03 6.55818E-04-3.41278E-06
 -1       590 6.04028E+00-3.70206E+00 3.08739E-09-3.90060E-03 5.78445E-04-3.21846E-06
 -1       591 6.12389E+00-3.75355E+00 2.95345E-09-3.78469E-03 5.05638E-04-3.02144E-06
 -1       592 6.20735E+00-3.80468E+00 2.66515E-09-3.96070E-03 4.37459E-04-2.82172E-06
 -1       593 6.29007E+00-3.85430E+00 2.19433E-09-3.81701E-03 3.73972E-04-2.61930E-06
 -1       594 6.37485E+00-3.90792E+00 1.59318E-09-3.77142E-03 3.15239E-04-2.41418E-06
 -1       595 6.45766E+00-3.95767E+00 1.05577E-09-3.92120E-03 2.61325E-04-2.20635E-06
 -1       596 6.54152E+00-4.00944E+00 6.33341E-10-3.78771E-03 2.12291E-04-1.99583E-06
 -1       597 6.62491E+00-4.06024E+00 3.24885E-10-3.92062E-03 1.68201E-04-1.78260E-06
 -1       598 6.70908E+00-4.11258E+00 1.72025E-11-3.77525E-03 1.29119E-04-1.56667E-06
 -1       599 6.79151E+00-4.16151E+00-3.07249E-10-4.01267E-03 9.51063E-05-1.34803E-06
 -1       600 6.87768E+00-4.21775E+00-6.08368E-10-3.65479E-03 6.62274E-05-1.12668E-06
 -1       601 6.95312E+00-4.25285E+00-9.21129E-10-4.19409E-03 4.25453E-05-9.02651E-07
 -1       602 7.06674E+00-4.36316E+00-1.22722E-09-2.84804E-03 2.41232E-05-6.75798E-07
 -1       603 7.04430E+00-4.20524E+00-1.47189E-09-7.36699E-03 1.10234E-05-4.46668E-07
 -1       604 7.49577E+00-4.98138E+00-2.02487E-09 8.49048E-03 3.31271E-06-2.13343E-07
 -1       605 5.57481E+00-1.97967E+00-2.47728E-09-4.98731E-02 8.13845E-07-9.49637E-08
 -1       606 2.54234E-04-9.83377E-05-2.49565E-09-7.77661E-08-2.23954E-02 1.10881E-05
 -1       607 1.13893E-03-6.40237E-04 2.75109E-09-8.18371E-05-2.22660E-02 1.10881E-05
 -1       608 3.78529E-03-2.26331E-03 1.66709E-08-1.62549E-04-2.20073E-02 1.10880E-05
 -1       609 8.17181E-03-4.95180E-03 3.23204E-08-2.42282E-04-2.17487E-02 1.10875E-05
 -1       610 1.42817E-02-8.70064E-03 4.31791E-08-3.21055E-04-2.14901E-02 1.10867E-05
 -1       611 2.20847E-02-1.34782E-02 4.89489E-08-3.99497E-04-2.12315E-02 1.10857E-05
 -1       612 3.15741E-02-1.92987E-02 5.40195E-08-4.75494E-04-2.09729E-02 1.10844E-05
 -1       613 4.27228E-02-2.61366E-02 6.13496E-08-5.52899E-04-2.07143E-02 1.10826E-05
 -1       614 5.54966E-02-3.39521E-02 6.96538E-08-6.27550E-04-2.04558E-02 1.10804E-05
 -1       615 6.99066E-02-4.27944E-02 7.37997E-08-7.00057E-04-2.01973E-02 1.10777E-05
 -1       616 8.59098E-02-5.26067E-02 7.21470E-08-7.74193E-04-1.99389E-02 1.10744E-05
 -1       617 1.03487E-01-6.33794E-02 7.14032E-08-8.46468E-04-1.96805E-02 1.10707E-05
 -1       618 1.22623E-01-7.51096E-02 7.06998E-08-9.18968E-04-1.94223E-02 1.10663E-05
 -1       619 1.43283E-01-8.77571E-02 6.31547E-08-9.88546E-04-1.91641E-02 1.10614E-05
 -1       620 1.65486E-01-1.01386E-01 5.65633E-08-1.05619E-03-1.89061E-02 1.10558E-05
 -1       621 1.89169E-01-1.15901E-01 5.65881E-08-1.12788E-03-1.86482E-02 1.10495E-05
 -1       622 2.14316E-01-1.31298E-01 5.73023E-08-1.19405E-03-1.83905E-02 1.10424E-05
 -1       623 2.40942E-01-1.47635E-01 5.53482E-08-1.26056E-03-1.81329E-02 1.10345E-05
 -1       624 2.68972E-01-1.64790E-01 5.15674E-08-1.32634E-03-1.78755E-02 1.10257E-05
 -1       625 2.98461E-01-1.82901E-01 4.51101E-08-1.38780E-03-1.76183E-02 1.10160E-05
 -1       626 3.29296E-01-2.01773E-01 3.43418E-08-1.45760E-03-1.73613E-02 1.10055E-05
 -1       627 3.61537E-01-2.21550E-01 2.14586E-08-1.51379E-03-1.71046E-02 1.09940E-05
 -1       628 3.95108E-01-2.42111E-01 6.64463E-09-1.58286E-03-1.68482E-02 1.09816E-05
 -1       629 4.30043E-01-2.63550E-01-6.46497E-09-1.63608E-03-1.65921E-02 1.09683E-05
 -1       630 4.66268E-01-2.85749E-01-1.33436E-08-1.70913E-03-1.63363E-02 1.09539E-05
 -1       631 5.03725E-01-3.08621E-01-1.68609E-08-1.75614E-03-1.60808E-02 1.09383E-05
 -1       632 5.42617E-01-3.32592E-01-2.06976E-08-1.81194E-03-1.58257E-02 1.09215E-05
 -1       633 5.82599E-01-3.57015E-01-2.60918E-08-1.88030E-03-1.55711E-02 1.09035E-05
 -1       634 6.23902E-01-3.82366E-01-3.04594E-08-1.92521E-03-1.53168E-02 1.08843E-05
 -1       635 6.66366E-01-4.08360E-01-3.01924E-08-1.99278E-03-1.50631E-02 1.08637E-05
 -1       636 7.10091E-01-4.35223E-01-2.60032E-08-2.03405E-03-1.48098E-02 1.08417E-05
 -1       637 7.54885E-01-4.62603E-01-1.81185E-08-2.10939E-03-1.45571E-02 1.08182E-05
 -1       638 8.00880E-01-4.90783E-01-1.05691E-08-2.13300E-03-1.43049E-02 1.07931E-05
 -1       639 8.48116E-01-5.19873E-01-1.17000E-08-2.20575E-03-1.40534E-02 1.07665E-05
 -1       640 8.96211E-01-5.49147E-01-1.75810E-08-2.25107E-03-1.38025E-02 1.07384E-05
 -1       641 9.45682E-01-5.79651E-01-2.08680E-08-2.28998E-03-1.35522E-02 1.07087E-05
 -1       642 9.96005E-01-6.10379E-01-2.19157E-08-2.35827E-03-1.33027E-02 1.06775E-05
 -1       643 1.04755E+00-6.42076E-01-1.75691E-08-2.38591E-03-1.30539E-02 1.06446E-05
 -1       644 1.09996E+00-6.74086E-01-7.35858E-09-2.46498E-03-1.28060E-02 1.06099E-05
 -1       645 1.15347E+00-7.06892E-01 2.61903E-09-2.46988E-03-1.25588E-02 1.05735E-05
 -1       646 1.20804E+00-7.40433E-01 1.08817E-08-2.54517E-03-1.23125E-02 1.05352E-05
 -1       647 1.26345E+00-7.74306E-01 1.73347E-08-2.56863E-03-1.20671E-02 1.04950E-05
 -1       648 1.31997E+00-8.09082E-01 1.86210E-08-2.63461E-03-1.18227E-02 1.04530E-05
 -1       649 1.37714E+00-8.43849E-01 1.61588E-08-2.66809E-03-1.15793E-02 1.04092E-05
 -1       650 1.43568E+00-8.80082E-01 1.29270E-08-2.69181E-03-1.13370E-02 1.03635E-05
 -1       651 1.49465E+00-9.15949E-01 8.73426E-09-2.77899E-03-1.10957E-02 1.03159E-05
 -1       652 1.55474E+00-9.52837E-01 2.31965E-09-2.75981E-03-1.08555E-02 1.02665E-05
 -1       653 1.61574E+00-9.90331E-01-4.24784E-09-2.84251E-03-1.06165E-02 1.02151E-05
 -1       654 1.67743E+00-1.02806E+00-7.46074E-09-2.85026E-03-1.03788E-02 1.01619E-05
 -1       655 1.74002E+00-1.06644E+00-9.74841E-09-2.91932E-03-1.01423E-02 1.01066E-05
 -1       656 1.80338E+00-1.10525E+00-1.34485E-08-2.92300E-03-9.90713E-03 1.00494E-05
 -1       657 1.86762E+00-1.14474E+00-1.52187E-08-2.99245E-03-9.67332E-03 9.99005E-06
 -1       658 1.93240E+00-1.18424E+00-1.32574E-08-3.01216E-03-9.44092E-03 9.92866E-06
 -1       659 1.99819E+00-1.22474E+00-1.03300E-08-3.04477E-03-9.20997E-03 9.86512E-06
 -1       660 2.06446E+00-1.26516E+00-7.63580E-09-3.07963E-03-8.98054E-03 9.79941E-06
 -1       661 2.13175E+00-1.30665E+00-4.73828E-09-3.08845E-03-8.75266E-03 9.73149E-06
 -1       662 2.19944E+00-1.34799E+00-1.12286E-09-3.16222E-03-8.52640E-03 9.66138E-06
 -1       663 2.26793E+00-1.38998E+00 3.53526E-10-3.15135E-03-8.30180E-03 9.58904E-06
 -1       664 2.33715E+00-1.43254E+00-2.56536E-09-3.22180E-03-8.07891E-03 9.51448E-06
 -1       665 2.40678E+00-1.47502E+00-6.51159E-09-3.23369E-03-7.85779E-03 9.43772E-06
 -1       666 2.47718E+00-1.51816E+00-9.36873E-09-3.26078E-03-7.63848E-03 9.35871E-06
 -1       667 2.54830E+00-1.56192E+00-1.11163E-08-3.26182E-03-7.42105E-03 9.27741E-06
 -1       668 2.61993E+00-1.60588E+00-1.10837E-08-3.33522E-03-7.20554E-03 9.19383E-06
 -1       669 2.69179E+00-1.64952E+00-9.40429E-09-3.34442E-03-6.99202E-03 9.10792E-06
 -1       670 2.76480E+00-1.69469E+00-5.29102E-09-3.33619E-03-6.78052E-03 9.01961E-06
 -1       671 2.83799E+00-1.73947E+00 8.12077E-10-3.41428E-03-6.57112E-03 8.92890E-06
 -1       672 2.91164E+00-1.78445E+00 6.33129E-09-3.41376E-03-6.36385E-03 8.83577E-06
 -1       673 2.98587E+00-1.82991E+00 1.05908E-08-3.43888E-03-6.15879E-03 8.74018E-06
 -1       674 3.06084E+00-1.87613E+00 1.15929E-08-3.42452E-03-5.95599E-03 8.64214E-06
 -1       675 3.13593E+00-1.92198E+00 8.99120E-09-3.50874E-03-5.75551E-03 8.54169E-06
 -1       676 3.21161E+00-1.96836E+00 6.88491E-09-3.46996E-03-5.55739E-03 8.43882E-06
 -1       677 3.28788E+00-2.01531E+00 6.39030E-09-3.54702E-03-5.36170E-03 8.33350E-06
 -1       678 3.36417E+00-2.06171E+00 5.31311E-09-3.54167E-03-5.16850E-03 8.22573E-06
 -1       679 3.44133E+00-2.10929E+00 3.73245E-09-3.55632E-03-4.97784E-03 8.11547E-06
 -1       680 3.51845E+00-2.15625E+00 4.02732E-09-3.57769E-03-4.78978E-03 8.00272E-06
 -1       681 3.59649E+00-2.20450E+00 5.99157E-09-3.55489E-03-4.60439E-03 7.88744E-06
 -1       682 3.67437E+00-2.25195E+00 6.58632E-09-3.64445E-03-4.42171E-03 7.76963E-06
 -1       683 3.75289E+00-2.30017E+00 6.40892E-09-3.58761E-03-4.24181E-03 7.64929E-06
 -1       684 3.83162E+00-2.34837E+00 6.64493E-09-3.67407E-03-4.06474E-03 7.52639E-06
 -1       685 3.91083E+00-2.39708E+00 6.59908E-09-3.61664E-03-3.89057E-03 7.40095E-06
 -1       686 3.99023E+00-2.44573E+00 6.05022E-09-3.73832E-03-3.71936E-03 7.27294E-06
 -1       687 4.06942E+00-2.49357E+00 5.51777E-09-3.65838E-03-3.55117E-03 7.14237E-06
 -1       688 4.15019E+00-2.54413E+00 4.77131E-09-3.64319E-03-3.38605E-03 7.00919E-06
 -1       689 4.22997E+00-2.59240E+00 3.36565E-09-3.74773E-03-3.22407E-03 6.87344E-06
 -1       690 4.31065E+00-2.64208E+00 2.56867E-09-3.67395E-03-3.06529E-03 6.73510E-06
 -1       691 4.39127E+00-2.69133E+00 2.62802E-09-3.77228E-03-2.90976E-03 6.59415E-06
 -1       692 4.47248E+00-2.74141E+00 2.82314E-09-3.69027E-03-2.75756E-03 6.45058E-06
 -1       693 4.55339E+00-2.79063E+00 2.16818E-09-3.83725E-03-2.60873E-03 6.30439E-06
 -1       694 4.63471E+00-2.84036E+00 1.30402E-09-3.67731E-03-2.46335E-03 6.15558E-06
 -1       695 4.71691E+00-2.89156E+00 1.11106E-09-3.79601E-03-2.32147E-03 6.00412E-06
 -1       696 4.79786E+00-2.94004E+00 7.08783E-10-3.78866E-03-2.18315E-03 5.85003E-06
 -1       697 4.88052E+00-2.99165E+00 4.18077E-10-3.72725E-03-2.04847E-03 5.69328E-06
 -1       698 4.96223E+00-3.04118E+00 5.61705E-11-3.83891E-03-1.91747E-03 5.53388E-06
 -1       699 5.04483E+00-3.09227E+00-7.52235E-10-3.74302E-03-1.79022E-03 5.37182E-06
 -1       700 5.12687E+00-3.14206E+00-1.88411E-09-3.90140E-03-1.66678E-03 5.20711E-06
 -1       701 5.20944E+00-3.19269E+00-2.78575E-09-3.71699E-03-1.54722E-03 5.03974E-06
 -1       702 5.29244E+00-3.24402E+00-2.83172E-09-3.85493E-03-1.43159E-03 4.86969E-06
 -1       703 5.37488E+00-3.29410E+00-2.73579E-09-3.77305E-03-1.31996E-03 4.69696E-06
 -1       704 5.45821E+00-3.34577E+00-2.94324E-09-3.86197E-03-1.21240E-03 4.52155E-06
 -1       705 5.54037E+00-3.39503E+00-3.36596E-09-3.84716E-03-1.10896E-03 4.34347E-06
 -1       706 5.62443E+00-3.44789E+00-3.62004E-09-3.75940E-03-1.00971E-03 4.16269E-06
 -1       707 5.70682E+00-3.49739E+00-3.64142E-09-3.95110E-03-9.14709E-04 3.97922E-06
 -1       708 5.79016E+00-3.54863E+00-3.55730E-09-3.73328E-03-8.24021E-04 3.79307E-06
 -1       709 5.87378E+00-3.60033E+00-3.33190E-09-3.88830E-03-7.37708E-04 3.60420E-06
 -1       710 5.95687E+00-3.65092E+00-3.13790E-09-3.79104E-03-6.55835E-04 3.41264E-06
 -1       711 6.04028E+00-3.70206E+00-3.08739E-09-3.90060E-03-5.78463E-04 3.21838E-06
 -1       712 6.12389E+00-3.75355E+00-2.95345E-09-3.78469E-03-5.05656E-04 3.02142E-06
 -1       713 6.20735E+00-3.80468E+00-2.66515E-09-3.96071E-03-4.37477E-04 2.82175E-06
 -1       714 6.29007E+00-3.85430E+00-2.19433E-09-3.81702E-03-3.73989E-04 2.61938E-06
 -1       715 6.37485E+00-3.90792E+00-1.59318E-09-3.77143E-03-3.15255E-04 2.41429E-06
 -1       716 6.45766E+00-3.95767E+00-1.05577E-09-3.92121E-03-2.61339E-04 2.20648E-06
 -1       717 6.54152E+00-4.00944E+00-6.33341E-10-3.78772E-03-2.12303E-04 1.99597E-06
 -1       718 6.62491E+00-4.06024E+00-3.24885E-10-3.92062E-03-1.68212E-04 1.78275E-06
 -1       719 6.70908E+00-4.11258E+00-1.72025E-11-3.77526E-03-1.29127E-04 1.56682E-06
 -1       720 6.79151E+00-4.16151E+00 3.07249E-10-4.01267E-03-9.51130E-05 1.34818E-06
 -1       721 6.87768E+00-4.21775E+00 6.08368E-10-3.65479E-03-6.62324E-05 1.12682E-06
 -1       722 6.95312E+00-4.25285E+00 9.21129E-10-4.19409E-03-4.25487E-05 9.02773E-07
 -1       723 7.06674E+00-4.36316E+00 1.22722E-09-2.84804E-03-2.41251E-05 6.75897E-07
 -1       724 7.04430E+00-4.20524E+00 1.47189E-09-7.36699E-03-1.10243E-05 4.46739E-07
 -1       725 7.49577E+00-4.98138E+00 2.02487E-09 8.49048E-03-3.31295E-06 2.13380E-07
 -1       726 5.57481E+00-1.97967E+00 2.47728E-09-4.98731E-02-8.13845E-07 9.49716E-08
 -1       727-2.54219E-04 9.83249E-05 5.50438E-10-9.05020E-08 2.23944E-02 1.10737E-05
 -3
    1PSTEP                         4           1           1          
    1PGM                1.000000E+00                                  
    1PGK                6.954368E+03                                  
    1PHID                         -1                                  
    1PSUBC                         0                                  
    1PMODE                         1                                  
  100CL  101 13.27238496         726                     2    1MODAL      1
 -4  ERROR       1    1
 -5  STR(%)      1    1    0    0
 -1         2 2.02470E+00
 -1         3 4.00204E+00
 -1         4 1.11974E+01
 -1         5 4.28412E+01
 -1         6 6.72072E+01
 -1         7 8.06095E+01
 -1         8 8.40513E+01
 -1         9 8.41275E+01
 -1        10 8.41275E+01
 -1        11 8.41319E+01
 -1        12 8.41319E+01
 -1        13 8.41284E+01
 -1        14 8.41337E+01
 -1        15 8.41337E+01
 -1        16 8.41306E+01
 -1        17 8.41306E+01
 -1        18 8.41223E+01
 -1        19 8.41326E+01
 -1        20 8.41326E+01
 -1        21 8.41401E+01
 -1        22 8.41401E+01
 -1        23 8.41412E+01
 -1        24 8.41412E+01
 -1        25 8.41384E+01
 -1        26 8.41384E+01
 -1        27 8.41203E+01
 -1        28 8.41375E+01
 -1        29 8.41375E+01
 -1        30 8.41411E+01
 -1        31 8.41411E+01
 -1        32 8.41504E+01
 -1        33 8.41504E+01
 -1        34 8.41270E+01
 -1        35 8.41270E+01
 -1        36 8.41263E+01
 -1        37 8.41400E+01
 -1        38 8.41400E+01
 -1        39 8.41504E+01
 -1        40 8.41504E+01
 -1        41 8.41381E+01
 -1        42 8.41381E+01
 -1        43 8.41241E+01
 -1        44 8.41289E+01
 -1        45 8.41289E+01
 -1        46 8.41509E+01
 -1        47 8.41509E+01
 -1        48 8.41403E+01
 -1        49 8.41403E+01
 -1        50 8.41370E+01
 -1        51 8.41370E+01
 -1        52 8.41279E+01
 -1        53 8.41279E+01
 -1        54 8.41166E+01
 -1        55 8.41277E+01
 -1        56 8.41277E+01
 -1        57 8.41357E+01
 -1        58 8.41357E+01
 -1        59 8.41279E+01
 -1        60 8.41279E+01
 -1        61 8.41275E+01
 -1        62 8.41275E+01
 -1        63 8.41240E+01
 -1        64 8.41249E+01
 -1        65 8.41249E+01
 -1        66 8.41278E+01
 -1        67 8.41278E+01
 -1        68 8.41292E+01
 -1        69 8.41292E+01
 -1        70 8.41360E+01
 -1        71 8.41360E+01
 -1        72 8.41276E+01
 -1        73 8.41276E+01
 -1        74 8.41167E+01
 -1        75 8.41272E+01
 -1        76 8.41272E+01
 -1        77 8.41367E+01
 -1        78 8.41367E+01
 -1        79 8.41380E+01
 -1        80 8.41380E+01
 -1        81 8.41372E+01
 -1        82 8.41372E+01
 -1        83 8.41172E+01
 -1        84 8.41361E+01
 -1        85 8.41361E+01
 -1        86 8.41401E+01
 -1        87 8.41401E+01
 -1        88 8.41496E+01
 -1        89 8.41496E+01
 -1        90 8.41270E+01
 -1        91 8.41270E+01
 -1        92 8.41247E+01
 -1        93 8.41384E+01
 -1        94 8.41384E+01
 -1        95 8.41498E+01
 -1        96 8.41498E+01
 -1        97 8.41383E+01
 -1        98 8.41383E+01
 -1        99 8.41238E+01
 -1       100 8.41281E+01
 -1       101 8.41281E+01
 -1       102 8.41499E+01
 -1       103 8.41499E+01
 -1       104 8.41397E+01
 -1       105 8.41397E+01
 -1       106 8.41387E+01
 -1       107 8.41387E+01
 -1       108 8.41384E+01
 -1       109 8.41384E+01
 -1       110 8.41161E+01
 -1       111 8.41361E+01
 -1       112 8.41361E+01
 -1       113 8.41414E+01
 -1       114 8.41414E+01
 -1       115 8.41704E+01
 -1       116 8.41704E+01
 -1       117 8.43717E+01
 -1       118 8.43717E+01
 -1       119 8.69099E+01
 -1       120 8.69099E+01
 -1       121 7.43982E+01
 -1       122 5.50738E-01
 -1       123 2.02470E+00
 -1       124 4.00204E+00
 -1       125 1.11974E+01
 -1       126 4.28412E+01
 -1       127 6.72072E+01
 -1       128 8.06095E+01
 -1       129 8.40513E+01
 -1       130 8.41275E+01
 -1       131 8.41275E+01
 -1       132 8.41319E+01
 -1       133 8.41319E+01
 -1       134 8.41284E+01
 -1       135 8.41337E+01
 -1       136 8.41337E+01
 -1       137 8.41306E+01
 -1       138 8.41306E+01
 -1       139 8.41223E+01
 -1       140 8.41326E+01
 -1       141 8.41326E+01
 -1       142 8.41401E+01
 -1       143 8.41401E+01
 -1       144 8.41412E+01
 -1       145 8.41412E+01
 -1       146 8.41384E+01
 -1       147 8.41384E+01
 -1       148 8.41203E+01
 -1       149 8.41375E+01
 -1       150 8.41375E+01
 -1       151 8.41411E+01
 -1       152 8.41411E+01
 -1       153 8.41504E+01
 -1       154 8.41504E+01
 -1       155 8.41270E+01
 -1       156 8.41270E+01
 -1       157 8.41263E+01
 -1       158 8.41400E+01
 -1       159 8.41400E+01
 -1       160 8.41504E+01
 -1       161 8.41504E+01
 -1       162 8.41381E+01
 -1       163 8.41381E+01
 -1       164 8.41241E+01
 -1       165 8.41289E+01
 -1       166 8.41289E+01
 -1       167 8.41509E+01
 -1       168 8.41509E+01
 -1       169 8.41403E+01
 -1       170 8.41403E+01
 -1       171 8.41370E+01
 -1       172 8.41370E+01
 -1       173 8.41279E+01
 -1       174 8.41279E+01
 -1       175 8.41166E+01
 -1       176 8.41277E+01
 -1       177 8.41277E+01
 -1       178 8.41357E+01
 -1       179 8.41357E+01
 -1       180 8.41279E+01
 -1       181 8.41279E+01
 -1       182 8.41275E+01
 -1       183 8.41275E+01
 -1       184 8.41240E+01
 -1       185 8.41249E+01
 -1       186 8.41249E+01
 -1       187 8.41278E+01
 -1       188 8.41278E+01
 -1       189 8.41292E+01
 -1       190 8.41292E+01
 -1       191 8.41360E+01
 -1       192 8.41360E+01
 -1       193 8.41276E+01
 -1       194 8.41276E+01
 -1       195 8.41167E+01
 -1       196 8.41272E+01
 -1       197 8.41272E+01
 -1       198 8.41367E+01
 -1       199 8.41367E+01
 -1       200 8.41380E+01
 -1       201 8.41380E+01
 -1       202 8.41372E+01
 -1       203 8.41372E+01
 -1       204 8.41172E+01
 -1       205 8.41361E+01
 -1       206 8.41361E+01
 -1       207 8.41401E+01
 -1       208 8.41401E+01
 -1       209 8.41496E+01
 -1       210 8.41496E+01
 -1       211 8.41270E+01
 -1       212 8.41270E+01
 -1       213 8.41247E+01
 -1       214 8.41384E+01
 -1       215 8.41384E+01
 -1       216 8.41498E+01
 -1       217 8.41498E+01
 -1       218 8.41383E+01
 -1       219 8.41383E+01
 -1       220 8.41238E+01
 -1       221 8.41281E+01
 -1       222 8.41281E+01
 -1       223 8.41499E+01
 -1       224 8.41499E+01
 -1       225 8.41397E+01
 -1       226 8.41397E+01
 -1       227 8.41387E+01
 -1       228 8.41387E+01
 -1       229 8.41384E+01
 -1       230 8.41384E+01
 -1       231 8.41161E+01
 -1       232 8.41361E+01
 -1       233 8.41361E+01
 -1       234 8.41414E+01
 -1       235 8.41414E+01
 -1       236 8.41704E+01
 -1       237 8.41704E+01
 -1       238 8.43717E+01
 -1       239 8.43717E+01
 -1       240 8.69099E+01
 -1       241 8.69099E+01
 -1       242 7.43982E+01
 -1       243 5.50738E-01
 -1       244 2.02470E+00
 -1       245 4.00208E+00
 -1       246 1.11983E+01
 -1       247 4.28415E+01
 -1       248 6.72083E+01
 -1       249 8.06116E+01
 -1       250 8.40615E+01
 -1       251 8.41378E+01
 -1       252 8.41378E+01
 -1       253 8.41423E+01
 -1       254 8.41423E+01
 -1       255 8.41388E+01
 -1       256 8.41440E+01
 -1       257 8.41440E+01
 -1       258 8.41410E+01
 -1       259 8.41410E+01
 -1       260 8.41327E+01
 -1       261 8.41430E+01
 -1       262 8.41430E+01
 -1       263 8.41505E+01
 -1       264 8.41505E+01
 -1       265 8.41515E+01
 -1       266 8.41515E+01
 -1       267 8.41488E+01
 -1       268 8.41488E+01
 -1       269 8.41307E+01
 -1       270 8.41479E+01
 -1       271 8.41479E+01
 -1       272 8.41514E+01
 -1       273 8.41514E+01
 -1       274 8.41608E+01
 -1       275 8.41608E+01
 -1       276 8.41374E+01
 -1       277 8.41374E+01
 -1       278 8.41367E+01
 -1       279 8.41503E+01
 -1       280 8.41503E+01
 -1       281 8.41608E+01
 -1       282 8.41608E+01
 -1       283 8.41485E+01
 -1       284 8.41485E+01
 -1       285 8.41345E+01
 -1       286 8.41393E+01
 -1       287 8.41393E+01
 -1       288 8.41613E+01
 -1       289 8.41613E+01
 -1       290 8.41507E+01
 -1       291 8.41507E+01
 -1       292 8.41474E+01
 -1       293 8.41474E+01
 -1       294 8.41383E+01
 -1       295 8.41383E+01
 -1       296 8.41270E+01
 -1       297 8.41380E+01
 -1       298 8.41380E+01
 -1       299 8.41460E+01
 -1       300 8.41460E+01
 -1       301 8.41383E+01
 -1       302 8.41383E+01
 -1       303 8.41378E+01
 -1       304 8.41378E+01
 -1       305 8.41344E+01
 -1       306 8.41353E+01
 -1       307 8.41353E+01
 -1       308 8.41382E+01
 -1       309 8.41382E+01
 -1       310 8.41396E+01
 -1       311 8.41396E+01
 -1       312 8.41463E+01
 -1       313 8.41463E+01
 -1       314 8.41379E+01
 -1       315 8.41379E+01
 -1       316 8.41271E+01
 -1       317 8.41376E+01
 -1       318 8.41376E+01
 -1       319 8.41470E+01
 -1       320 8.41470E+01
 -1       321 8.41484E+01
 -1       322 8.41484E+01
 -1       323 8.41475E+01
 -1       324 8.41475E+01
 -1       325 8.41276E+01
 -1       326 8.41464E+01
 -1       327 8.41464E+01
 -1       328 8.41505E+01
 -1       329 8.41505E+01
 -1       330 8.41600E+01
 -1       331 8.41600E+01
 -1       332 8.41374E+01
 -1       333 8.41374E+01
 -1       334 8.41350E+01
 -1       335 8.41488E+01
 -1       336 8.41488E+01
 -1       337 8.41602E+01
 -1       338 8.41602E+01
 -1       339 8.41487E+01
 -1       340 8.41487E+01
 -1       341 8.41342E+01
 -1       342 8.41385E+01
 -1       343 8.41385E+01
 -1       344 8.41603E+01
 -1       345 8.41603E+01
 -1       346 8.41500E+01
 -1       347 8.41500E+01
 -1       348 8.41491E+01
 -1       349 8.41491E+01
 -1       350 8.41488E+01
 -1       351 8.41488E+01
 -1       352 8.41265E+01
 -1       353 8.41464E+01
 -1       354 8.41464E+01
 -1       355 8.41517E+01
 -1       356 8.41517E+01
 -1       357 8.41808E+01
 -1       358 8.41808E+01
 -1       359 8.43820E+01
 -1       360 8.43820E+01
 -1       361 8.69203E+01
 -1       362 8.69203E+01
 -1       363 7.44081E+01
 -1       364 5.50738E-01
 -1       365 2.02470E+00
 -1       366 4.00208E+00
 -1       367 1.11983E+01
 -1       368 4.28415E+01
 -1       369 6.72083E+01
 -1       370 8.06116E+01
 -1       371 8.40615E+01
 -1       372 8.41378E+01
 -1       373 8.41378E+01
 -1       374 8.41423E+01
 -1       375 8.41423E+01
 -1       376 8.41388E+01
 -1       377 8.41440E+01
 -1       378 8.41440E+01
 -1       379 8.41410E+01
 -1       380 8.41410E+01
 -1       381 8.41327E+01
 -1       382 8.41430E+01
 -1       383 8.41430E+01
 -1       384 8.41505E+01
 -1       385 8.41505E+01
 -1       386 8.41515E+01
 -1       387 8.41515E+01
 -1       388 8.41488E+01
 -1       389 8.41488E+01
 -1       390 8.41307E+01
 -1       391 8.41479E+01
 -1       392 8.41479E+01
 -1       393 8.41514E+01
 -1       394 8.41514E+01
 -1       395 8.41608E+01
 -1       396 8.41608E+01
 -1       397 8.41374E+01
 -1       398 8.41374E+01
 -1       399 8.41367E+01
 -1       400 8.41503E+01
 -1       401 8.41503E+01
 -1       402 8.41608E+01
 -1       403 8.41608E+01
 -1       404 8.41485E+01
 -1       405 8.41485E+01
 -1       406 8.41345E+01
 -1       407 8.41393E+01
 -1       408 8.41393E+01
 -1       409 8.41613E+01
 -1       410 8.41613E+01
 -1       411 8.41507E+01
 -1       412 8.41507E+01
 -1       413 8.41474E+01
 -1       414 8.41474E+01
 -1       415 8.41383E+01
 -1       416 8.41383E+01
 -1       417 8.41270E+01
 -1       418 8.41380E+01
 -1       419 8.41380E+01
 -1       420 8.41460E+01
 -1       421 8.41460E+01
 -1       422 8.41383E+01
 -1       423 8.41383E+01
 -1       424 8.41378E+01
 -1       425 8.41378E+01
 -1       426 8.41344E+01
 -1       427 8.41353E+01
 -1       428 8.41353E+01
 -1       429 8.41382E+01
 -1       430 8.41382E+01
 -1       431 8.41396E+01
 -1       432 8.41396E+01
 -1       433 8.41463E+01
 -1       434 8.41463E+01
 -1       435 8.41379E+01
 -1       436 8.41379E+01
 -1       437 8.41271E+01
 -1       438 8.41376E+01
 -1       439 8.41376E+01
 -1       440 8.41470E+01
 -1       441 8.41470E+01
 -1       442 8.41484E+01
 -1       443 8.41484E+01
 -1       444 8.41475E+01
 -1       445 8.41475E+01
 -1       446 8.41276E+01
 -1       447 8.41464E+01
 -1       448 8.41464E+01
 -1       449 8.41505E+01
 -1       450 8.41505E+01
 -1       451 8.41600E+01
 -1       452 8.41600E+01
 -1       453 8.41374E+01
 -1       454 8.41374E+01
 -1       455 8.41350E+01
 -1       456 8.41488E+01
 -1       457 8.41488E+01
 -1       458 8.41602E+01
 -1       459 8.41602E+01
 -1       460 8.41487E+01
 -1       461 8.41487E+01
 -1       462 8.41342E+01
 -1       463 8.41385E+01
 -1       464 8.41385E+01
 -1       465 8.41603E+01
 -1       466 8.41603E+01
 -1       467 8.41500E+01
 -1       468 8.41500E+01
 -1       469 8.41491E+01
 -1       470 8.41491E+01
 -1       471 8.41488E+01
 -1       472 8.41488E+01
 -1       473 8.41265E+01
 -1       474 8.41464E+01
 -1       475 8.41464E+01
 -1       476 8.41517E+01
 -1       477 8.41517E+01
 -1       478 8.41808E+01
 -1       479 8.41808E+01
 -1       480 8.43820E+01
 -1       481 8.43820E+01
 -1       482 8.69203E+01
 -1       483 8.69203E+01
 -1       484 7.44081E+01
 -1       485 5.50711E-01
 -1       486 2.02469E+00
 -1       487 4.00208E+00
 -1       488 1.11983E+01
 -1       489 4.28415E+01
 -1       490 6.72083E+01
 -1       491 8.06116E+01
 -1       492 8.40615E+01
 -1       493 8.41378E+01
 -1       494 8.41378E+01
 -1       495 8.41423E+01
 -1       496 8.41423E+01
 -1       497 8.41388E+01
 -1       498 8.41440E+01
 -1       499 8.41440E+01
 -1       500 8.41410E+01
 -1       501 8.41410E+01
 -1       502 8.41327E+01
 -1       503 8.41430E+01
 -1       504 8.41430E+01
 -1       505 8.41505E+01
 -1       506 8.41505E+01
 -1       507 8.41515E+01
 -1       508 8.41515E+01
 -1       509 8.41488E+01
 -1       510 8.41488E+01
 -1       511 8.41307E+01
 -1       512 8.41479E+01
 -1       513 8.41479E+01
 -1       514 8.41514E+01
 -1       515 8.41514E+01
 -1       516 8.41608E+01
 -1       517 8.41608E+01
 -1       518 8.41374E+01
 -1       519 8.41374E+01
 -1       520 8.41367E+01
 -1       521 8.41503E+01
 -1       522 8.41503E+01
 -1       523 8.41608E+01
 -1       524 8.41608E+01
 -1       525 8.41485E+01
 -1       526 8.41485E+01
 -1       527 8.41345E+01
 -1       528 8.41393E+01
 -1       529 8.41393E+01
 -1       530 8.41613E+01
 -1       531 8.41613E+01
 -1       532 8.41507E+01
 -1       533 8.41507E+01
 -1       534 8.41474E+01
 -1       535 8.41474E+01
 -1       536 8.41383E+01
 -1       537 8.41383E+01
 -1       538 8.41270E+01
 -1       539 8.41380E+01
 -1       540 8.41380E+01
 -1       541 8.41460E+01
 -1       542 8.41460E+01
 -1       543 8.41383E+01
 -1       544 8.41383E+01
 -1       545 8.41378E+01
 -1       546 8.41378E+01
 -1       547 8.41344E+01
 -1       548 8.41353E+01
 -1       549 8.41353E+01
 -1       550 8.41382E+01
 -1       551 8.41382E+01
 -1       552 8.41396E+01
 -1       553 8.41396E+01
 -1       554 8.41463E+01
 -1       555 8.41463E+01
 -1       556 8.41379E+01
 -1       557 8.41379E+01
 -1       558 8.41271E+01
 -1       559 8.41376E+01
 -1       560 8.41376E+01
 -1       561 8.41470E+01
 -1       562 8.41470E+01
 -1       563 8.41484E+01
 -1       564 8.41484E+01
 -1       565 8.41475E+01
 -1       566 8.41475E+01
 -1       567 8.41276E+01
 -1       568 8.41464E+01
 -1       569 8.41464E+01
 -1       570 8.41505E+01
 -1       571 8.41505E+01
 -1       572 8.41600E+01
 -1       573 8.41600E+01
 -1       574 8.41374E+01
 -1       575 8.41374E+01
 -1       576 8.41350E+01
 -1       577 8.41488E+01
 -1       578 8.41488E+01
 -1       579 8.41602E+01
 -1       580 8.41602E+01
 -1       581 8.41487E+01
 -1       582 8.41487E+01
 -1       583 8.41342E+01
 -1       584 8.41385E+01
 -1       585 8.41385E+01
 -1       586 8.41603E+01
 -1       587 8.41603E+01
 -1       588 8.41500E+01
 -1       589 8.41500E+01
 -1       590 8.41491E+01
 -1       591 8.41491E+01
 -1       592 8.41488E+01
 -1       593 8.41488E+01
 -1       594 8.41265E+01
 -1       595 8.41464E+01
 -1       596 8.41464E+01
 -1       597 8.41517E+01
 -1       598 8.41517E+01
 -1       599 8.41808E+01
 -1       600 8.41808E+01
 -1       601 8.43820E+01
 -1       602 8.43820E+01
 -1       603 8.69203E+01
 -1       604 8.69203E+01
 -1       605 7.44081E+01
 -1       606 5.50711E-01
 -1       607 2.02469E+00
 -1       608 4.00208E+00
 -1       609 1.11983E+01
 -1       610 4.28415E+01
 -1       611 6.72083E+01
 -1       612 8.06116E+01
 -1       613 8.40615E+01
 -1       614 8.41378E+01
 -1       615 8.41378E+01
 -1       616 8.41423E+01
 -1       617 8.41423E+01
 -1       618 8.41388E+01
 -1       619 8.41440E+01
 -1       620 8.41440E+01
 -1       621 8.41410E+01
 -1       622 8.41410E+01
 -1       623 8.41327E+01
 -1       624 8.41430E+01
 -1       625 8.41430E+01
 -1       626 8.41505E+01
 -1       627 8.41505E+01
 -1       628 8.41515E+01
 -1       629 8.41515E+01
 -1       630 8.41488E+01
 -1       631 8.41488E+01
 -1       632 8.41307E+01
 -1       633 8.41479E+01
 -1       634 8.41479E+01
 -1       635 8.41514E+01
 -1       636 8.41514E+01
 -1       637 8.41608E+01
 -1       638 8.41608E+01
 -1       639 8.41374E+01
 -1       640 8.41374E+01
 -1       641 8.41367E+01
 -1       642 8.41503E+01
 -1       643 8.41503E+01
 -1       644 8.41608E+01
 -1       645 8.41608E+01
 -1       646 8.41485E+01
 -1       647 8.41485E+01
 -1       648 8.41345E+01
 -1       649 8.41393E+01
 -1       650 8.41393E+01
 -1       651 8.41613E+01
 -1       652 8.41613E+01
 -1       653 8.41507E+01
 -1       654 8.41507E+01
 -1       655 8.41474E+01
 -1       656 8.41474E+01
 -1       657 8.41383E+01
 -1       658 8.41383E+01
 -1       659 8.41270E+01
 -1       660 8.41380E+01
 -1       661 8.41380E+01
 -1       662 8.41460E+01
 -1       663 8.41460E+01
 -1       664 8.41383E+01
 -1       665 8.41383E+01
 -1       666 8.41378E+01
 -1       667 8.41378E+01
 -1       668 8.41344E+01
 -1       669 8.41353E+01
 -1       670 8.41353E+01
 -1       671 8.41382E+01
 -1       672 8.41382E+01
 -1       673 8.41396E+01
 -1       674 8.41396E+01
 -1       675 8.41463E+01
 -1       676 8.41463E+01
 -1       677 8.41379E+01
 -1       678 8.41379E+01
 -1       679 8.41271E+01
 -1       680 8.41376E+01
 -1       681 8.41376E+01
 -1       682 8.41470E+01
 -1       683 8.41470E+01
 -1       684 8.41484E+01
 -1       685 8.41484E+01
 -1       686 8.41475E+01
 -1       687 8.41475E+01
 -1       688 8.41276E+01
 -1       689 8.41464E+01
 -1       690 8.41464E+01
 -1       691 8.41505E+01
 -1       692 8.41505E+01
 -1       693 8.41600E+01
 -1       694 8.41600E+01
 -1       695 8.41374E+01
 -1       696 8.41374E+01
 -1       697 8.41350E+01
 -1       698 8.41488E+01
 -1       699 8.41488E+01
 -1       700 8.41602E+01
 -1       701 8.41602E+01
 -1       702 8.41487E+01
 -1       703 8.41487E+01
 -1       704 8.41342E+01
 -1       705 8.41385E+01
 -1       706 8.41385E+01
 -1       707 8.41603E+01
 -1       708 8.41603E+01
 -1       709 8.41500E+01
 -1       710 8.41500E+01
 -1       711 8.41491E+01
 -1       712 8.41491E+01
 -1       713 8.41488E+01
 -1       714 8.41488E+01
 -1       715 8.41265E+01
 -1       716 8.41464E+01
 -1       717 8.41464E+01
 -1       718 8.41517E+01
 -1       719 8.41517E+01
 -1       720 8.41808E+01
 -1       721 8.41808E+01
 -1       722 8.43820E+01
 -1       723 8.43820E+01
 -1       724 8.69203E+01
 -1       725 8.69203E+01
 -1       726 7.44081E+01
 -1       727 5.50738E-01
 -3
    1PSTEP                         5           1           1          
    1PGM                1.000000E+00                                  
    1PGK                2.730098E+05                                  
    1PHID                         -1                                  
    1PSUBC                         0                                  
    1PMODE                         2                                  
  100CL  102 83.15900313         726                     2    2MODAL      1
 -4  DISP        4    1
 -5  D1          1    2    1    0
 -5  D2          1    2    2    0
 -5  D3          1    2    3    0
 -5  ALL         1    2    0    0    1ALL
 -1         2-3.46427E-01-9.73297E+01 0.00000E+00
 -1         3-3.46403E-01-9.32881E+01 0.00000E+00
 -1         4-3.46340E-01-8.92470E+01 0.00000E+00
 -1         5-3.46220E-01-8.52069E+01 0.00000E+00
 -1         6-3.46024E-01-8.11687E+01 0.00000E+00
 -1         7-3.45737E-01-7.71333E+01 0.00000E+00
 -1         8-3.45342E-01-7.31019E+01 0.00000E+00
 -1         9-3.44825E-01-6.90758E+01 0.00000E+00
 -1        10-3.44170E-01-6.50565E+01 0.00000E+00
 -1        11-3.43365E-01-6.10458E+01 0.00000E+00
 -1        12-3.42396E-01-5.70454E+01 0.00000E+00
 -1        13-3.41252E-01-5.30574E+01 0.00000E+00
 -1        14-3.39922E-01-4.90837E+01 0.00000E+00
 -1        15-3.38395E-01-4.51268E+01 0.00000E+00
 -1        16-3.36662E-01-4.11888E+01 0.00000E+00
 -1        17-3.34714E-01-3.72724E+01 0.00000E+00
 -1        18-3.32544E-01-3.33799E+01 0.00000E+00
 -1        19-3.30144E-01-2.95141E+01 0.00000E+00
 -1        20-3.27507E-01-2.56777E+01 0.00000E+00
 -1        21-3.24630E-01-2.18734E+01 0.00000E+00
 -1        22-3.21505E-01-1.81042E+01 0.00000E+00
 -1        23-3.18132E-01-1.43728E+01 0.00000E+00
 -1        24-3.14502E-01-1.06824E+01 0.00000E+00
 -1        25-3.10619E-01-7.03573E+00 0.00000E+00
 -1        26-3.06475E-01-3.43586E+00 0.00000E+00
 -1        27-3.02074E-01 1.14119E-01 0.00000E+00
 -1        28-2.97413E-01 3.61123E+00 0.00000E+00
 -1        29-2.92492E-01 7.05245E+00 0.00000E+00
 -1        30-2.87315E-01 1.04348E+01 0.00000E+00
 -1        31-2.81880E-01 1.37552E+01 0.00000E+00
 -1        32-2.76193E-01 1.70107E+01 0.00000E+00
 -1        33-2.70252E-01 2.01984E+01 0.00000E+00
 -1        34-2.64069E-01 2.33154E+01 0.00000E+00
 -1        35-2.57640E-01 2.63588E+01 0.00000E+00
 -1        36-2.50973E-01 2.93258E+01 0.00000E+00
 -1        37-2.44077E-01 3.22137E+01 0.00000E+00
 -1        38-2.36952E-01 3.50198E+01 0.00000E+00
 -1        39-2.29612E-01 3.77415E+01 0.00000E+00
 -1        40-2.22055E-01 4.03763E+01 0.00000E+00
 -1        41-2.14299E-01 4.29218E+01 0.00000E+00
 -1        42-2.06344E-01 4.53756E+01 0.00000E+00
 -1        43-1.98206E-01 4.77355E+01 0.00000E+00
 -1        44-1.89888E-01 4.99995E+01 0.00000E+00
 -1        45-1.81403E-01 5.21654E+01 0.00000E+00
 -1        46-1.72764E-01 5.42315E+01 0.00000E+00
 -1        47-1.63973E-01 5.61959E+01 0.00000E+00
 -1        48-1.55053E-01 5.80569E+01 0.00000E+00
 -1        49-1.46004E-01 5.98131E+01 0.00000E+00
 -1        50-1.36848E-01 6.14631E+01 0.00000E+00
 -1        51-1.27588E-01 6.30057E+01 0.00000E+00
 -1        52-1.18244E-01 6.44398E+01 0.00000E+00
 -1        53-1.08823E-01 6.57644E+01 0.00000E+00
 -1        54-9.93428E-02 6.69787E+01 0.00000E+00
 -1        55-8.98144E-02 6.80822E+01 0.00000E+00
 -1        56-8.02505E-02 6.90742E+01 0.00000E+00
 -1        57-7.06690E-02 6.99546E+01 0.00000E+00
 -1        58-6.10773E-02 7.07232E+01 0.00000E+00
 -1        59-5.14971E-02 7.13799E+01 0.00000E+00
 -1        60-4.19360E-02 7.19249E+01 0.00000E+00
 -1        61-3.24128E-02 7.23586E+01 0.00000E+00
 -1        62-2.29392E-02 7.26815E+01 0.00000E+00
 -1        63-1.35336E-02 7.28943E+01 0.00000E+00
 -1        64-4.20604E-03 7.29977E+01 0.00000E+00
 -1        65 5.02657E-03 7.29929E+01 0.00000E+00
 -1        66 1.41476E-02 7.28811E+01 0.00000E+00
 -1        67 2.31467E-02 7.26635E+01 0.00000E+00
 -1        68 3.20054E-02 7.23418E+01 0.00000E+00
 -1        69 4.07122E-02 7.19176E+01 0.00000E+00
 -1        70 4.92483E-02 7.13928E+01 0.00000E+00
 -1        71 5.76052E-02 7.07694E+01 0.00000E+00
 -1        72 6.57621E-02 7.00497E+01 0.00000E+00
 -1        73 7.37106E-02 6.92361E+01 0.00000E+00
 -1        74 8.14330E-02 6.83311E+01 0.00000E+00
 -1        75 8.89168E-02 6.73373E+01 0.00000E+00
 -1        76 9.61488E-02 6.62577E+01 0.00000E+00
 -1        77 1.03113E-01 6.50953E+01 0.00000E+00
 -1        78 1.09801E-01 6.38533E+01 0.00000E+00
 -1        79 1.16194E-01 6.25349E+01 0.00000E+00
 -1        80 1.22285E-01 6.11437E+01 0.00000E+00
 -1        81 1.28055E-01 5.96833E+01 0.00000E+00
 -1        82 1.33499E-01 5.81575E+01 0.00000E+00
 -1        83 1.38601E-01 5.65702E+01 0.00000E+00
 -1        84 1.43349E-01 5.49254E+01 0.00000E+00
 -1        85 1.47734E-01 5.32274E+01 0.00000E+00
 -1        86 1.51743E-01 5.14804E+01 0.00000E+00
 -1        87 1.55368E-01 4.96888E+01 0.00000E+00
 -1        88 1.58596E-01 4.78573E+01 0.00000E+00
 -1        89 1.61420E-01 4.59904E+01 0.00000E+00
 -1        90 1.63828E-01 4.40930E+01 0.00000E+00
 -1        91 1.65812E-01 4.21701E+01 0.00000E+00
 -1        92 1.67364E-01 4.02265E+01 0.00000E+00
 -1        93 1.68474E-01 3.82673E+01 0.00000E+00
 -1        94 1.69136E-01 3.62978E+01 0.00000E+00
 -1        95 1.69342E-01 3.43233E+01 0.00000E+00
 -1        96 1.69083E-01 3.23490E+01 0.00000E+00
 -1        97 1.68355E-01 3.03806E+01 0.00000E+00
 -1        98 1.67150E-01 2.84234E+01 0.00000E+00
 -1        99 1.65463E-01 2.64830E+01 0.00000E+00
 -1       100 1.63288E-01 2.45652E+01 0.00000E+00
 -1       101 1.60620E-01 2.26757E+01 0.00000E+00
 -1       102 1.57455E-01 2.08202E+01 0.00000E+00
 -1       103 1.53785E-01 1.90045E+01 0.00000E+00
 -1       104 1.49612E-01 1.72346E+01 0.00000E+00
 -1       105 1.44927E-01 1.55164E+01 0.00000E+00
 -1       106 1.39731E-01 1.38558E+01 0.00000E+00
 -1       107 1.34016E-01 1.22588E+01 0.00000E+00
 -1       108 1.27785E-01 1.07316E+01 0.00000E+00
 -1       109 1.21030E-01 9.28007E+00 0.00000E+00
 -1       110 1.13754E-01 7.91042E+00 0.00000E+00
 -1       111 1.05954E-01 6.62872E+00 0.00000E+00
 -1       112 9.76249E-02 5.44111E+00 0.00000E+00
 -1       113 8.87720E-02 4.35372E+00 0.00000E+00
 -1       114 7.93860E-02 3.37274E+00 0.00000E+00
 -1       115 6.94774E-02 2.50430E+00 0.00000E+00
 -1       116 5.90280E-02 1.75462E+00 0.00000E+00
 -1       117 4.80688E-02 1.12983E+00 0.00000E+00
 -1       118 3.65281E-02 6.36299E-01 0.00000E+00
 -1       119 2.46177E-02 2.79541E-01 0.00000E+00
 -1       120 1.16264E-02 6.81545E-02 0.00000E+00
 -1       121 0.00000E+00 0.00000E+00 0.00000E+00
 -1       122-3.46430E-01-1.01371E+02 0.00000E+00
 -1       123-3.46427E-01-9.73297E+01 0.00000E+00
 -1       124-3.46403E-01-9.32881E+01 0.00000E+00
 -1       125-3.46340E-01-8.92470E+01 0.00000E+00
 -1       126-3.46220E-01-8.52069E+01 0.00000E+00
 -1       127-3.46024E-01-8.11687E+01 0.00000E+00
 -1       128-3.45737E-01-7.71333E+01 0.00000E+00
 -1       129-3.45342E-01-7.31019E+01 0.00000E+00
 -1       130-3.44825E-01-6.90758E+01 0.00000E+00
 -1       131-3.44170E-01-6.50565E+01 0.00000E+00
 -1       132-3.43365E-01-6.10458E+01 0.00000E+00
 -1       133-3.42396E-01-5.70454E+01 0.00000E+00
 -1       134-3.41252E-01-5.30574E+01 0.00000E+00
 -1       135-3.39922E-01-4.90837E+01 0.00000E+00
 -1       136-3.38395E-01-4.51268E+01 0.00000E+00
 -1       137-3.36662E-01-4.11888E+01 0.00000E+00
 -1       138-3.34714E-01-3.72724E+01 0.00000E+00
 -1       139-3.32544E-01-3.33799E+01 0.00000E+00
 -1       140-3.30144E-01-2.95141E+01 0.00000E+00
 -1       141-3.27507E-01-2.56777E+01 0.00000E+00
 -1       142-3.24630E-01-2.18734E+01 0.00000E+00
 -1       143-3.21505E-01-1.81042E+01 0.00000E+00
 -1       144-3.18132E-01-1.43728E+01 0.00000E+00
 -1       145-3.14502E-01-1.06824E+01 0.00000E+00
 -1       146-3.10619E-01-7.03573E+00 0.00000E+00
 -1       147-3.06475E-01-3.43586E+00 0.00000E+00
 -1       148-3.02074E-01 1.14119E-01 0.00000E+00
 -1       149-2.97413E-01 3.61123E+00 0.00000E+00
 -1       150-2.92492E-01 7.05245E+00 0.00000E+00
 -1       151-2.87315E-01 1.04348E+01 0.00000E+00
 -1       152-2.81880E-01 1.37552E+01 0.00000E+00
 -1       153-2.76193E-01 1.70107E+01 0.00000E+00
 -1       154-2.70252E-01 2.01984E+01 0.00000E+00
 -1       155-2.64069E-01 2.33154E+01 0.00000E+00
 -1       156-2.57640E-01 2.63588E+01 0.00000E+00
 -1       157-2.50973E-01 2.93258E+01 0.00000E+00
 -1       158-2.44077E-01 3.22137E+01 0.00000E+00
 -1       159-2.36952E-01 3.50198E+01 0.00000E+00
 -1       160-2.29612E-01 3.77415E+01 0.00000E+00
 -1       161-2.22055E-01 4.03763E+01 0.00000E+00
 -1       162-2.14299E-01 4.29218E+01 0.00000E+00
 -1       163-2.06344E-01 4.53756E+01 0.00000E+00
 -1       164-1.98206E-01 4.77355E+01 0.00000E+00
 -1       165-1.89888E-01 4.99995E+01 0.00000E+00
 -1       166-1.81403E-01 5.21654E+01 0.00000E+00
 -1       167-1.72764E-01 5.42315E+01 0.00000E+00
 -1       168-1.63973E-01 5.61959E+01 0.00000E+00
 -1       169-1.55053E-01 5.80569E+01 0.00000E+00
 -1       170-1.46004E-01 5.98131E+01 0.00000E+00
 -1       171-1.36848E-01 6.14631E+01 0.00000E+00
 -1       172-1.27588E-01 6.30057E+01 0.00000E+00
 -1       173-1.18244E-01 6.44398E+01 0.00000E+00
 -1       174-1.08823E-01 6.57644E+01 0.00000E+00
 -1       175-9.93428E-02 6.69787E+01 0.00000E+00
 -1       176-8.98144E-02 6.80822E+01 0.00000E+00
 -1       177-8.02505E-02 6.90742E+01 0.00000E+00
 -1       178-7.06690E-02 6.99546E+01 0.00000E+00
 -1       179-6.10773E-02 7.07232E+01 0.00000E+00
 -1       180-5.14971E-02 7.13799E+01 0.00000E+00
 -1       181-4.19360E-02 7.19249E+01 0.00000E+00
 -1       182-3.24128E-02 7.23586E+01 0.00000E+00
 -1       183-2.29392E-02 7.26815E+01 0.00000E+00
 -1       184-1.35336E-02 7.28943E+01 0.00000E+00
 -1       185-4.20604E-03 7.29977E+01 0.00000E+00
 -1       186 5.02657E-03 7.29929E+01 0.00000E+00
 -1       187 1.41476E-02 7.28811E+01 0.00000E+00
 -1       188 2.31467E-02 7.26635E+01 0.00000E+00
 -1       189 3.20054E-02 7.23418E+01 0.00000E+00
 -1       190 4.07122E-02 7.19176E+01 0.00000E+00
 -1       191 4.92483E-02 7.13928E+01 0.00000E+00
 -1       192 5.76052E-02 7.07694E+01 0.00000E+00
 -1       193 6.57621E-02 7.00497E+01 0.00000E+00
 -1       194 7.37106E-02 6.92361E+01 0.00000E+00
 -1       195 8.14330E-02 6.83311E+01 0.00000E+00
 -1       196 8.89168E-02 6.73373E+01 0.00000E+00
 -1       197 9.61488E-02 6.62577E+01 0.00000E+00
 -1       198 1.03113E-01 6.50953E+01 0.00000E+00
 -1       199 1.09801E-01 6.38533E+01 0.00000E+00
 -1       200 1.16194E-01 6.25349E+01 0.00000E+00
 -1       201 1.22285E-01 6.11437E+01 0.00000E+00
 -1       202 1.28055E-01 5.96833E+01 0.00000E+00
 -1       203 1.33499E-01 5.81575E+01 0.00000E+00
 -1       204 1.38601E-01 5.65702E+01 0.00000E+00
 -1       205 1.43349E-01 5.49254E+01 0.00000E+00
 -1       206 1.47734E-01 5.32274E+01 0.00000E+00
 -1       207 1.51743E-01 5.14804E+01 0.00000E+00
 -1       208 1.55368E-01 4.96888E+01 0.00000E+00
 -1       209 1.58596E-01 4.78573E+01 0.00000E+00
 -1       210 1.61420E-01 4.59904E+01 0.00000E+00
 -1       211 1.63828E-01 4.40930E+01 0.00000E+00
 -1       212 1.65812E-01 4.21701E+01 0.00000E+00
 -1       213 1.67364E-01 4.02265E+01 0.00000E+00
 -1       214 1.68474E-01 3.82673E+01 0.00000E+00
 -1       215 1.69136E-01 3.62978E+01 0.00000E+00
 -1       216 1.69342E-01 3.43233E+01 0.00000E+00
 -1       217 1.69083E-01 3.23490E+01 0.00000E+00
 -1       218 1.68355E-01 3.03806E+01 0.00000E+00
 -1       219 1.67150E-01 2.84234E+01 0.00000E+00
 -1       220 1.65463E-01 2.64830E+01 0.00000E+00
 -1       221 1.63288E-01 2.45652E+01 0.00000E+00
 -1       222 1.60620E-01 2.26757E+01 0.00000E+00
 -1       223 1.57455E-01 2.08202E+01 0.00000E+00
 -1       224 1.53785E-01 1.90045E+01 0.00000E+00
 -1       225 1.49612E-01 1.72346E+01 0.00000E+00
 -1       226 1.44927E-01 1.55164E+01 0.00000E+00
 -1       227 1.39731E-01 1.38558E+01 0.00000E+00
 -1       228 1.34016E-01 1.22588E+01 0.00000E+00
 -1       229 1.27785E-01 1.07316E+01 0.00000E+00
 -1       230 1.21030E-01 9.28007E+00 0.00000E+00
 -1       231 1.13754E-01 7.91042E+00 0.00000E+00
 -1       232 1.05954E-01 6.62872E+00 0.00000E+00
 -1       233 9.76249E-02 5.44111E+00 0.00000E+00
 -1       234 8.87720E-02 4.35372E+00 0.00000E+00
 -1       235 7.93860E-02 3.37274E+00 0.00000E+00
 -1       236 6.94774E-02 2.50430E+00 0.00000E+00
 -1       237 5.90280E-02 1.75462E+00 0.00000E+00
 -1       238 4.80688E-02 1.12983E+00 0.00000E+00
 -1       239 3.65281E-02 6.36299E-01 0.00000E+00
 -1       240 2.46177E-02 2.79541E-01 0.00000E+00
 -1       241 1.16264E-02 6.81545E-02 0.00000E+00
 -1       242 0.00000E+00 0.00000E+00 0.00000E+00
 -1       243-1.38575E-05-1.01371E+02 0.00000E+00
 -1       244-1.38573E-05-9.73297E+01 0.00000E+00
 -1       245-1.38564E-05-9.32882E+01 0.00000E+00
 -1       246-1.38538E-05-8.92471E+01 0.00000E+00
 -1       247-1.38490E-05-8.52070E+01 0.00000E+00
 -1       248-1.38412E-05-8.11688E+01 0.00000E+00
 -1       249-1.38297E-05-7.71335E+01 0.00000E+00
 -1       250-1.38139E-05-7.31021E+01 0.00000E+00
 -1       251-1.37932E-05-6.90760E+01 0.00000E+00
 -1       252-1.37670E-05-6.50569E+01 0.00000E+00
 -1       253-1.37348E-05-6.10462E+01 0.00000E+00
 -1       254-1.36961E-05-5.70458E+01 0.00000E+00
 -1       255-1.36503E-05-5.30577E+01 0.00000E+00
 -1       256-1.35971E-05-4.90842E+01 0.00000E+00
 -1       257-1.35360E-05-4.51272E+01 0.00000E+00
 -1       258-1.34667E-05-4.11893E+01 0.00000E+00
 -1       259-1.33888E-05-3.72729E+01 0.00000E+00
 -1       260-1.33020E-05-3.33804E+01 0.00000E+00
 -1       261-1.32060E-05-2.95146E+01 0.00000E+00
 -1       262-1.31005E-05-2.56783E+01 0.00000E+00
 -1       263-1.29854E-05-2.18740E+01 0.00000E+00
 -1       264-1.28604E-05-1.81048E+01 0.00000E+00
 -1       265-1.27255E-05-1.43735E+01 0.00000E+00
 -1       266-1.25803E-05-1.06830E+01 0.00000E+00
 -1       267-1.24250E-05-7.03636E+00 0.00000E+00
 -1       268-1.22592E-05-3.43657E+00 0.00000E+00
 -1       269-1.20832E-05 1.13383E-01 0.00000E+00
 -1       270-1.18967E-05 3.61052E+00 0.00000E+00
 -1       271-1.16999E-05 7.05171E+00 0.00000E+00
 -1       272-1.14928E-05 1.04340E+01 0.00000E+00
 -1       273-1.12754E-05 1.37544E+01 0.00000E+00
 -1       274-1.10479E-05 1.70100E+01 0.00000E+00
 -1       275-1.08103E-05 2.01977E+01 0.00000E+00
 -1       276-1.05629E-05 2.33147E+01 0.00000E+00
 -1       277-1.03058E-05 2.63580E+01 0.00000E+00
 -1       278-1.00391E-05 2.93250E+01 0.00000E+00
 -1       279-9.76328E-06 3.22129E+01 0.00000E+00
 -1       280-9.47829E-06 3.50190E+01 0.00000E+00
 -1       281-9.18466E-06 3.77408E+01 0.00000E+00
 -1       282-8.88241E-06 4.03756E+01 0.00000E+00
 -1       283-8.57217E-06 4.29211E+01 0.00000E+00
 -1       284-8.25397E-06 4.53749E+01 0.00000E+00
 -1       285-7.92843E-06 4.77349E+01 0.00000E+00
 -1       286-7.59572E-06 4.99989E+01 0.00000E+00
 -1       287-7.25632E-06 5.21648E+01 0.00000E+00
 -1       288-6.91074E-06 5.42309E+01 0.00000E+00
 -1       289-6.55913E-06 5.61953E+01 0.00000E+00
 -1       290-6.20229E-06 5.80564E+01 0.00000E+00
 -1       291-5.84036E-06 5.98126E+01 0.00000E+00
 -1       292-5.47407E-06 6.14627E+01 0.00000E+00
 -1       293-5.10369E-06 6.30053E+01 0.00000E+00
 -1       294-4.72992E-06 6.44394E+01 0.00000E+00
 -1       295-4.35311E-06 6.57640E+01 0.00000E+00
 -1       296-3.97388E-06 6.69784E+01 0.00000E+00
 -1       297-3.59274E-06 6.80819E+01 0.00000E+00
 -1       298-3.21019E-06 6.90740E+01 0.00000E+00
 -1       299-2.82691E-06 6.99545E+01 0.00000E+00
 -1       300-2.44325E-06 7.07230E+01 0.00000E+00
 -1       301-2.06003E-06 7.13798E+01 0.00000E+00
 -1       302-1.67759E-06 7.19249E+01 0.00000E+00
 -1       303-1.29665E-06 7.23587E+01 0.00000E+00
 -1       304-9.17712E-07 7.26816E+01 0.00000E+00
 -1       305-5.41474E-07 7.28944E+01 0.00000E+00
 -1       306-1.68370E-07 7.29979E+01 0.00000E+00
 -1       307 2.00934E-07 7.29932E+01 0.00000E+00
 -1       308 5.65790E-07 7.28814E+01 0.00000E+00
 -1       309 9.25747E-07 7.26639E+01 0.00000E+00
 -1       310 1.28011E-06 7.23422E+01 0.00000E+00
 -1       311 1.62837E-06 7.19181E+01 0.00000E+00
 -1       312 1.96984E-06 7.13933E+01 0.00000E+00
 -1       313 2.30411E-06 7.07701E+01 0.00000E+00
 -1       314 2.63040E-06 7.00504E+01 0.00000E+00
 -1       315 2.94834E-06 6.92369E+01 0.00000E+00
 -1       316 3.25724E-06 6.83319E+01 0.00000E+00
 -1       317 3.55660E-06 6.73382E+01 0.00000E+00
 -1       318 3.84588E-06 6.62587E+01 0.00000E+00
 -1       319 4.12447E-06 6.50963E+01 0.00000E+00
 -1       320 4.39197E-06 6.38543E+01 0.00000E+00
 -1       321 4.64771E-06 6.25360E+01 0.00000E+00
 -1       322 4.89134E-06 6.11449E+01 0.00000E+00
 -1       323 5.12218E-06 5.96845E+01 0.00000E+00
 -1       324 5.33995E-06 5.81588E+01 0.00000E+00
 -1       325 5.54400E-06 5.65715E+01 0.00000E+00
 -1       326 5.73394E-06 5.49268E+01 0.00000E+00
 -1       327 5.90936E-06 5.32288E+01 0.00000E+00
 -1       328 6.06973E-06 5.14818E+01 0.00000E+00
 -1       329 6.21473E-06 4.96903E+01 0.00000E+00
 -1       330 6.34386E-06 4.78588E+01 0.00000E+00
 -1       331 6.45682E-06 4.59920E+01 0.00000E+00
 -1       332 6.55315E-06 4.40946E+01 0.00000E+00
 -1       333 6.63251E-06 4.21717E+01 0.00000E+00
 -1       334 6.69461E-06 4.02281E+01 0.00000E+00
 -1       335 6.73901E-06 3.82689E+01 0.00000E+00
 -1       336 6.76552E-06 3.62995E+01 0.00000E+00
 -1       337 6.77371E-06 3.43249E+01 0.00000E+00
 -1       338 6.76344E-06 3.23507E+01 0.00000E+00
 -1       339 6.73427E-06 3.03822E+01 0.00000E+00
 -1       340 6.68614E-06 2.84250E+01 0.00000E+00
 -1       341 6.61861E-06 2.64847E+01 0.00000E+00
 -1       342 6.53169E-06 2.45668E+01 0.00000E+00
 -1       343 6.42486E-06 2.26773E+01 0.00000E+00
 -1       344 6.29838E-06 2.08217E+01 0.00000E+00
 -1       345 6.15148E-06 1.90060E+01 0.00000E+00
 -1       346 5.98472E-06 1.72361E+01 0.00000E+00
 -1       347 5.79712E-06 1.55178E+01 0.00000E+00
 -1       348 5.58951E-06 1.38572E+01 0.00000E+00
 -1       349 5.36064E-06 1.22602E+01 0.00000E+00
 -1       350 5.11177E-06 1.07328E+01 0.00000E+00
 -1       351 4.84116E-06 9.28126E+00 0.00000E+00
 -1       352 4.55064E-06 7.91153E+00 0.00000E+00
 -1       353 4.23802E-06 6.62972E+00 0.00000E+00
 -1       354 3.90561E-06 5.44202E+00 0.00000E+00
 -1       355 3.55060E-06 4.35452E+00 0.00000E+00
 -1       356 3.17624E-06 3.37342E+00 0.00000E+00
 -1       357 2.77862E-06 2.50485E+00 0.00000E+00
 -1       358 2.36218E-06 1.75505E+00 0.00000E+00
 -1       359 1.92201E-06 1.13012E+00 0.00000E+00
 -1       360 1.46251E-06 6.36429E-01 0.00000E+00
 -1       361 9.83676E-07 2.79552E-01 0.00000E+00
 -1       362 4.66536E-07 6.78596E-02 0.00000E+00
 -1       363 0.00000E+00 0.00000E+00 0.00000E+00
 -1       364-1.38576E-05-1.01371E+02 0.00000E+00
 -1       365-1.38574E-05-9.73297E+01 0.00000E+00
 -1       366-1.38565E-05-9.32882E+01 0.00000E+00
 -1       367-1.38539E-05-8.92471E+01 0.00000E+00
 -1       368-1.38491E-05-8.52070E+01 0.00000E+00
 -1       369-1.38413E-05-8.11688E+01 0.00000E+00
 -1       370-1.38298E-05-7.71335E+01 0.00000E+00
 -1       371-1.38140E-05-7.31021E+01 0.00000E+00
 -1       372-1.37933E-05-6.90760E+01 0.00000E+00
 -1       373-1.37671E-05-6.50569E+01 0.00000E+00
 -1       374-1.37349E-05-6.10462E+01 0.00000E+00
 -1       375-1.36962E-05-5.70458E+01 0.00000E+00
 -1       376-1.36504E-05-5.30577E+01 0.00000E+00
 -1       377-1.35972E-05-4.90842E+01 0.00000E+00
 -1       378-1.35361E-05-4.51272E+01 0.00000E+00
 -1       379-1.34668E-05-4.11893E+01 0.00000E+00
 -1       380-1.33889E-05-3.72729E+01 0.00000E+00
 -1       381-1.33021E-05-3.33804E+01 0.00000E+00
 -1       382-1.32061E-05-2.95146E+01 0.00000E+00
 -1       383-1.31006E-05-2.56783E+01 0.00000E+00
 -1       384-1.29855E-05-2.18740E+01 0.00000E+00
 -1       385-1.28606E-05-1.81048E+01 0.00000E+00
 -1       386-1.27256E-05-1.43735E+01 0.00000E+00
 -1       387-1.25804E-05-1.06830E+01 0.00000E+00
 -1       388-1.24251E-05-7.03636E+00 0.00000E+00
 -1       389-1.22593E-05-3.43657E+00 0.00000E+00
 -1       390-1.20833E-05 1.13383E-01 0.00000E+00
 -1       391-1.18969E-05 3.61052E+00 0.00000E+00
 -1       392-1.17000E-05 7.05171E+00 0.00000E+00
 -1       393-1.14929E-05 1.04340E+01 0.00000E+00
 -1       394-1.12755E-05 1.37544E+01 0.00000E+00
 -1       395-1.10481E-05 1.70100E+01 0.00000E+00
 -1       396-1.08104E-05 2.01977E+01 0.00000E+00
 -1       397-1.05631E-05 2.33147E+01 0.00000E+00
 -1       398-1.03059E-05 2.63580E+01 0.00000E+00
 -1       399-1.00393E-05 2.93250E+01 0.00000E+00
 -1       400-9.76340E-06 3.22129E+01 0.00000E+00
 -1       401-9.47841E-06 3.50190E+01 0.00000E+00
 -1       402-9.18478E-06 3.77408E+01 0.00000E+00
 -1       403-8.88252E-06 4.03756E+01 0.00000E+00
 -1       404-8.57229E-06 4.29211E+01 0.00000E+00
 -1       405-8.25409E-06 4.53749E+01 0.00000E+00
 -1       406-7.92855E-06 4.77349E+01 0.00000E+00
 -1       407-7.59584E-06 4.99989E+01 0.00000E+00
 -1       408-7.25644E-06 5.21648E+01 0.00000E+00
 -1       409-6.91086E-06 5.42309E+01 0.00000E+00
 -1       410-6.55925E-06 5.61953E+01 0.00000E+00
 -1       411-6.20241E-06 5.80564E+01 0.00000E+00
 -1       412-5.84048E-06 5.98126E+01 0.00000E+00
 -1       413-5.47419E-06 6.14627E+01 0.00000E+00
 -1       414-5.10381E-06 6.30053E+01 0.00000E+00
 -1       415-4.73004E-06 6.44394E+01 0.00000E+00
 -1       416-4.35323E-06 6.57640E+01 0.00000E+00
 -1       417-3.97400E-06 6.69784E+01 0.00000E+00
 -1       418-3.59286E-06 6.80819E+01 0.00000E+00
 -1       419-3.21031E-06 6.90740E+01 0.00000E+00
 -1       420-2.82703E-06 6.99545E+01 0.00000E+00
 -1       421-2.44338E-06 7.07230E+01 0.00000E+00
 -1       422-2.06015E-06 7.13798E+01 0.00000E+00
 -1       423-1.67771E-06 7.19249E+01 0.00000E+00
 -1       424-1.29678E-06 7.23587E+01 0.00000E+00
 -1       425-9.17837E-07 7.26816E+01 0.00000E+00
 -1       426-5.41598E-07 7.28944E+01 0.00000E+00
 -1       427-1.68494E-07 7.29979E+01 0.00000E+00
 -1       428 2.00809E-07 7.29932E+01 0.00000E+00
 -1       429 5.65667E-07 7.28814E+01 0.00000E+00
 -1       430 9.25624E-07 7.26639E+01 0.00000E+00
 -1       431 1.27999E-06 7.23422E+01 0.00000E+00
 -1       432 1.62825E-06 7.19181E+01 0.00000E+00
 -1       433 1.96972E-06 7.13933E+01 0.00000E+00
 -1       434 2.30399E-06 7.07701E+01 0.00000E+00
 -1       435 2.63029E-06 7.00504E+01 0.00000E+00
 -1       436 2.94822E-06 6.92369E+01 0.00000E+00
 -1       437 3.25713E-06 6.83319E+01 0.00000E+00
 -1       438 3.55649E-06 6.73382E+01 0.00000E+00
 -1       439 3.84577E-06 6.62587E+01 0.00000E+00
 -1       440 4.12436E-06 6.50963E+01 0.00000E+00
 -1       441 4.39187E-06 6.38543E+01 0.00000E+00
 -1       442 4.64760E-06 6.25360E+01 0.00000E+00
 -1       443 4.89124E-06 6.11449E+01 0.00000E+00
 -1       444 5.12208E-06 5.96845E+01 0.00000E+00
 -1       445 5.33985E-06 5.81588E+01 0.00000E+00
 -1       446 5.54391E-06 5.65715E+01 0.00000E+00
 -1       447 5.73385E-06 5.49268E+01 0.00000E+00
 -1       448 5.90927E-06 5.32288E+01 0.00000E+00
 -1       449 6.06965E-06 5.14818E+01 0.00000E+00
 -1       450 6.21464E-06 4.96903E+01 0.00000E+00
 -1       451 6.34378E-06 4.78588E+01 0.00000E+00
 -1       452 6.45673E-06 4.59920E+01 0.00000E+00
 -1       453 6.55307E-06 4.40946E+01 0.00000E+00
 -1       454 6.63243E-06 4.21717E+01 0.00000E+00
 -1       455 6.69453E-06 4.02281E+01 0.00000E+00
 -1       456 6.73894E-06 3.82689E+01 0.00000E+00
 -1       457 6.76545E-06 3.62995E+01 0.00000E+00
 -1       458 6.77364E-06 3.43249E+01 0.00000E+00
 -1       459 6.76337E-06 3.23507E+01 0.00000E+00
 -1       460 6.73421E-06 3.03822E+01 0.00000E+00
 -1       461 6.68608E-06 2.84250E+01 0.00000E+00
 -1       462 6.61855E-06 2.64847E+01 0.00000E+00
 -1       463 6.53163E-06 2.45668E+01 0.00000E+00
 -1       464 6.42481E-06 2.26773E+01 0.00000E+00
 -1       465 6.29833E-06 2.08217E+01 0.00000E+00
 -1       466 6.15143E-06 1.90060E+01 0.00000E+00
 -1       467 5.98468E-06 1.72361E+01 0.00000E+00
 -1       468 5.79708E-06 1.55178E+01 0.00000E+00
 -1       469 5.58947E-06 1.38572E+01 0.00000E+00
 -1       470 5.36060E-06 1.22602E+01 0.00000E+00
 -1       471 5.11174E-06 1.07328E+01 0.00000E+00
 -1       472 4.84113E-06 9.28126E+00 0.00000E+00
 -1       473 4.55061E-06 7.91153E+00 0.00000E+00
 -1       474 4.23799E-06 6.62972E+00 0.00000E+00
 -1       475 3.90559E-06 5.44202E+00 0.00000E+00
 -1       476 3.55058E-06 4.35452E+00 0.00000E+00
 -1       477 3.17623E-06 3.37342E+00 0.00000E+00
 -1       478 2.77861E-06 2.50485E+00 0.00000E+00
 -1       479 2.36217E-06 1.75505E+00 0.00000E+00
 -1       480 1.92200E-06 1.13012E+00 0.00000E+00
 -1       481 1.46251E-06 6.36429E-01 0.00000E+00
 -1       482 9.83671E-07 2.79552E-01 0.00000E+00
 -1       483 4.66534E-07 6.78596E-02 0.00000E+00
 -1       484 0.00000E+00 0.00000E+00 0.00000E+00
 -1       485 3.46430E-01-1.01371E+02 0.00000E+00
 -1       486 3.46427E-01-9.73297E+01 0.00000E+00
 -1       487 3.46403E-01-9.32881E+01 0.00000E+00
 -1       488 3.46340E-01-8.92470E+01 0.00000E+00
 -1       489 3.46220E-01-8.52069E+01 0.00000E+00
 -1       490 3.46024E-01-8.11687E+01 0.00000E+00
 -1       491 3.45737E-01-7.71333E+01 0.00000E+00
 -1       492 3.45342E-01-7.31019E+01 0.00000E+00
 -1       493 3.44825E-01-6.90758E+01 0.00000E+00
 -1       494 3.44170E-01-6.50565E+01 0.00000E+00
 -1       495 3.43365E-01-6.10458E+01 0.00000E+00
 -1       496 3.42396E-01-5.70454E+01 0.00000E+00
 -1       497 3.41252E-01-5.30574E+01 0.00000E+00
 -1       498 3.39922E-01-4.90837E+01 0.00000E+00
 -1       499 3.38395E-01-4.51268E+01 0.00000E+00
 -1       500 3.36662E-01-4.11888E+01 0.00000E+00
 -1       501 3.34714E-01-3.72724E+01 0.00000E+00
 -1       502 3.32544E-01-3.33799E+01 0.00000E+00
 -1       503 3.30144E-01-2.95141E+01 0.00000E+00
 -1       504 3.27507E-01-2.56777E+01 0.00000E+00
 -1       505 3.24630E-01-2.18734E+01 0.00000E+00
 -1       506 3.21505E-01-1.81042E+01 0.00000E+00
 -1       507 3.18132E-01-1.43728E+01 0.00000E+00
 -1       508 3.14502E-01-1.06824E+01 0.00000E+00
 -1       509 3.10619E-01-7.03573E+00 0.00000E+00
 -1       510 3.06475E-01-3.43586E+00 0.00000E+00
 -1       511 3.02074E-01 1.14119E-01 0.00000E+00
 -1       512 2.97413E-01 3.61123E+00 0.00000E+00
 -1       513 2.92492E-01 7.05245E+00 0.00000E+00
 -1       514 2.87315E-01 1.04348E+01 0.00000E+00
 -1       515 2.81880E-01 1.37552E+01 0.00000E+00
 -1       516 2.76193E-01 1.70107E+01 0.00000E+00
 -1       517 2.70252E-01 2.01984E+01 0.00000E+00
 -1       518 2.64069E-01 2.33154E+01 0.00000E+00
 -1       519 2.57640E-01 2.63588E+01 0.00000E+00
 -1       520 2.50973E-01 2.93258E+01 0.00000E+00
 -1       521 2.44077E-01 3.22137E+01 0.00000E+00
 -1       522 2.36952E-01 3.50198E+01 0.00000E+00
 -1       523 2.29612E-01 3.77415E+01 0.00000E+00
 -1       524 2.22055E-01 4.03763E+01 0.00000E+00
 -1       525 2.14299E-01 4.29218E+01 0.00000E+00
 -1       526 2.06344E-01 4.53756E+01 0.00000E+00
 -1       527 1.98206E-01 4.77355E+01 0.00000E+00
 -1       528 1.89888E-01 4.99995E+01 0.00000E+00
 -1       529 1.81403E-01 5.21654E+01 0.00000E+00
 -1       530 1.72764E-01 5.42315E+01 0.00000E+00
 -1       531 1.63973E-01 5.61959E+01 0.00000E+00
 -1       532 1.55053E-01 5.80569E+01 0.00000E+00
 -1       533 1.46004E-01 5.98131E+01 0.00000E+00
 -1       534 1.36848E-01 6.14631E+01 0.00000E+00
 -1       535 1.27588E-01 6.30057E+01 0.00000E+00
 -1       536 1.18244E-01 6.44398E+01 0.00000E+00
 -1       537 1.08823E-01 6.57644E+01 0.00000E+00
 -1       538 9.93428E-02 6.69787E+01 0.00000E+00
 -1       539 8.98144E-02 6.80822E+01 0.00000E+00
 -1       540 8.02505E-02 6.90742E+01 0.00000E+00
 -1       541 7.06690E-02 6.99546E+01 0.00000E+00
 -1       542 6.10773E-02 7.07232E+01 0.00000E+00
 -1       543 5.14971E-02 7.13799E+01 0.00000E+00
 -1       544 4.19360E-02 7.19249E+01 0.00000E+00
 -1       545 3.24128E-02 7.23586E+01 0.00000E+00
 -1       546 2.29392E-02 7.26815E+01 0.00000E+00
 -1       547 1.35336E-02 7.28943E+01 0.00000E+00
 -1       548 4.20604E-03 7.29977E+01 0.00000E+00
 -1       549-5.02657E-03 7.29929E+01 0.00000E+00
 -1       550-1.41476E-02 7.28811E+01 0.00000E+00
 -1       551-2.31467E-02 7.26635E+01 0.00000E+00
 -1       552-3.20054E-02 7.23418E+01 0.00000E+00
 -1       553-4.07122E-02 7.19176E+01 0.00000E+00
 -1       554-4.92483E-02 7.13928E+01 0.00000E+00
 -1       555-5.76052E-02 7.07694E+01 0.00000E+00
 -1       556-6.57621E-02 7.00497E+01 0.00000E+00
 -1       557-7.37106E-02 6.92361E+01 0.00000E+00
 -1       558-8.14330E-02 6.83311E+01 0.00000E+00
 -1       559-8.89168E-02 6.73373E+01 0.00000E+00
 -1       560-9.61488E-02 6.62577E+01 0.00000E+00
 -1       561-1.03113E-01 6.50953E+01 0.00000E+00
 -1       562-1.09801E-01 6.38533E+01 0.00000E+00
 -1       563-1.16194E-01 6.25349E+01 0.00000E+00
 -1       564-1.22285E-01 6.11437E+01 0.00000E+00
 -1       565-1.28055E-01 5.96833E+01 0.00000E+00
 -1       566-1.33499E-01 5.81575E+01 0.00000E+00
 -1       567-1.38601E-01 5.65702E+01 0.00000E+00
 -1       568-1.43349E-01 5.49254E+01 0.00000E+00
 -1       569-1.47734E-01 5.32274E+01 0.00000E+00
 -1       570-1.51743E-01 5.14804E+01 0.00000E+00
 -1       571-1.55368E-01 4.96888E+01 0.00000E+00
 -1       572-1.58596E-01 4.78573E+01 0.00000E+00
 -1       573-1.61420E-01 4.59904E+01 0.00000E+00
 -1       574-1.63828E-01 4.40930E+01 0.00000E+00
 -1       575-1.65812E-01 4.21701E+01 0.00000E+00
 -1       576-1.67364E-01 4.02265E+01 0.00000E+00
 -1       577-1.68474E-01 3.82673E+01 0.00000E+00
 -1       578-1.69136E-01 3.62978E+01 0.00000E+00
 -1       579-1.69342E-01 3.43233E+01 0.00000E+00
 -1       580-1.69083E-01 3.23490E+01 0.00000E+00
 -1       581-1.68355E-01 3.03806E+01 0.00000E+00
 -1       582-1.67150E-01 2.84234E+01 0.00000E+00
 -1       583-1.65463E-01 2.64830E+01 0.00000E+00
 -1       584-1.63288E-01 2.45652E+01 0.00000E+00
 -1       585-1.60620E-01 2.26757E+01 0.00000E+00
 -1       586-1.57455E-01 2.08202E+01 0.00000E+00
 -1       587-1.53785E-01 1.90045E+01 0.00000E+00
 -1       588-1.49612E-01 1.72346E+01 0.00000E+00
 -1       589-1.44927E-01 1.55164E+01 0.00000E+00
 -1       590-1.39731E-01 1.38558E+01 0.00000E+00
 -1       591-1.34016E-01 1.22588E+01 0.00000E+00
 -1       592-1.27785E-01 1.07316E+01 0.00000E+00
 -1       593-1.21030E-01 9.28007E+00 0.00000E+00
 -1       594-1.13754E-01 7.91042E+00 0.00000E+00
 -1       595-1.05954E-01 6.62872E+00 0.00000E+00
 -1       596-9.76249E-02 5.44111E+00 0.00000E+00
 -1       597-8.87720E-02 4.35372E+00 0.00000E+00
 -1       598-7.93860E-02 3.37274E+00 0.00000E+00
 -1       599-6.94774E-02 2.50430E+00 0.00000E+00
 -1       600-5.90280E-02 1.75462E+00 0.00000E+00
 -1       601-4.80688E-02 1.12983E+00 0.00000E+00
 -1       602-3.65281E-02 6.36299E-01 0.00000E+00
 -1       603-2.46177E-02 2.79541E-01 0.00000E+00
 -1       604-1.16264E-02 6.81545E-02 0.00000E+00
 -1       605 0.00000E+00 0.00000E+00 0.00000E+00
 -1       606 3.46430E-01-1.01371E+02 0.00000E+00
 -1       607 3.46427E-01-9.73297E+01 0.00000E+00
 -1       608 3.46403E-01-9.32881E+01 0.00000E+00
 -1       609 3.46340E-01-8.92470E+01 0.00000E+00
 -1       610 3.46220E-01-8.52069E+01 0.00000E+00
 -1       611 3.46024E-01-8.11687E+01 0.00000E+00
 -1       612 3.45737E-01-7.71333E+01 0.00000E+00
 -1       613 3.45342E-01-7.31019E+01 0.00000E+00
 -1       614 3.44825E-01-6.90758E+01 0.00000E+00
 -1       615 3.44170E-01-6.50565E+01 0.00000E+00
 -1       616 3.43365E-01-6.10458E+01 0.00000E+00
 -1       617 3.42396E-01-5.70454E+01 0.00000E+00
 -1       618 3.41252E-01-5.30574E+01 0.00000E+00
 -1       619 3.39922E-01-4.90837E+01 0.00000E+00
 -1       620 3.38395E-01-4.51268E+01 0.00000E+00
 -1       621 3.36662E-01-4.11888E+01 0.00000E+00
 -1       622 3.34714E-01-3.72724E+01 0.00000E+00
 -1       623 3.32544E-01-3.33799E+01 0.00000E+00
 -1       624 3.30144E-01-2.95141E+01 0.00000E+00
 -1       625 3.27507E-01-2.56777E+01 0.00000E+00
 -1       626 3.24630E-01-2.18734E+01 0.00000E+00
 -1       627 3.21505E-01-1.81042E+01 0.00000E+00
 -1       628 3.18132E-01-1.43728E+01 0.00000E+00
 -1       629 3.14502E-01-1.06824E+01 0.00000E+00
 -1       630 3.10619E-01-7.03573E+00 0.00000E+00
 -1       631 3.06475E-01-3.43586E+00 0.00000E+00
 -1       632 3.02074E-01 1.14119E-01 0.00000E+00
 -1       633 2.97413E-01 3.61123E+00 0.00000E+00
 -1       634 2.92492E-01 7.05245E+00 0.00000E+00
 -1       635 2.87315E-01 1.04348E+01 0.00000E+00
 -1       636 2.81880E-01 1.37552E+01 0.00000E+00
 -1       637 2.76193E-01 1.70107E+01 0.00000E+00
 -1       638 2.70252E-01 2.01984E+01 0.00000E+00
 -1       639 2.64069E-01 2.33154E+01 0.00000E+00
 -1       640 2.57640E-01 2.63588E+01 0.00000E+00
 -1       641 2.50973E-01 2.93258E+01 0.00000E+00
 -1       642 2.44077E-01 3.22137E+01 0.00000E+00
 -1       643 2.36952E-01 3.50198E+01 0.00000E+00
 -1       644 2.29612E-01 3.77415E+01 0.00000E+00
 -1       645 2.22055E-01 4.03763E+01 0.00000E+00
 -1       646 2.14299E-01 4.29218E+01 0.00000E+00
 -1       647 2.06344E-01 4.53756E+01 0.00000E+00
 -1       648 1.98206E-01 4.77355E+01 0.00000E+00
 -1       649 1.89888E-01 4.99995E+01 0.00000E+00
 -1       650 1.81403E-01 5.21654E+01 0.00000E+00
 -1       651 1.72764E-01 5.42315E+01 0.00000E+00
 -1       652 1.63973E-01 5.61959E+01 0.00000E+00
 -1       653 1.55053E-01 5.80569E+01 0.00000E+00
 -1       654 1.46004E-01 5.98131E+01 0.00000E+00
 -1       655 1.36848E-01 6.14631E+01 0.00000E+00
 -1       656 1.27588E-01 6.30057E+01 0.00000E+00
 -1       657 1.18244E-01 6.44398E+01 0.00000E+00
 -1       658 1.08823E-01 6.57644E+01 0.00000E+00
 -1       659 9.93428E-02 6.69787E+01 0.00000E+00
 -1       660 8.98144E-02 6.80822E+01 0.00000E+00
 -1       661 8.02505E-02 6.90742E+01 0.00000E+00
 -1       662 7.06690E-02 6.99546E+01 0.00000E+00
 -1       663 6.10773E-02 7.07232E+01 0.00000E+00
 -1       664 5.14971E-02 7.13799E+01 0.00000E+00
 -1       665 4.19360E-02 7.19249E+01 0.00000E+00
 -1       666 3.24128E-02 7.23586E+01 0.00000E+00
 -1       667 2.29392E-02 7.26815E+01 0.00000E+00
 -1       668 1.35336E-02 7.28943E+01 0.00000E+00
 -1       669 4.20604E-03 7.29977E+01 0.00000E+00
 -1       670-5.02657E-03 7.29929E+01 0.00000E+00
 -1       671-1.41476E-02 7.28811E+01 0.00000E+00
 -1       672-2.31467E-02 7.26635E+01 0.00000E+00
 -1       673-3.20054E-02 7.23418E+01 0.00000E+00
 -1       674-4.07122E-02 7.19176E+01 0.00000E+00
 -1       675-4.92483E-02 7.13928E+01 0.00000E+00
 -1       676-5.76052E-02 7.07694E+01 0.00000E+00
 -1       677-6.57621E-02 7.00497E+01 0.00000E+00
 -1       678-7.37106E-02 6.92361E+01 0.00000E+00
 -1       679-8.14330E-02 6.83311E+01 0.00000E+00
 -1       680-8.89168E-02 6.73373E+01 0.00000E+00
 -1       681-9.61488E-02 6.62577E+01 0.00000E+00
 -1       682-1.03113E-01 6.50953E+01 0.00000E+00
 -1       683-1.09801E-01 6.38533E+01 0.00000E+00
 -1       684-1.16194E-01 6.25349E+01 0.00000E+00
 -1       685-1.22285E-01 6.11437E+01 0.00000E+00
 -1       686-1.28055E-01 5.96833E+01 0.00000E+00
 -1       687-1.33499E-01 5.81575E+01 0.00000E+00
 -1       688-1.38601E-01 5.65702E+01 0.00000E+00
 -1       689-1.43349E-01 5.49254E+01 0.00000E+00
 -1       690-1.47734E-01 5.32274E+01 0.00000E+00
 -1       691-1.51743E-01 5.14804E+01 0.00000E+00
 -1       692-1.55368E-01 4.96888E+01 0.00000E+00
 -1       693-1.58596E-01 4.78573E+01 0.00000E+00
 -1       694-1.61420E-01 4.59904E+01 0.00000E+00
 -1       695-1.63828E-01 4.40930E+01 0.00000E+00
 -1       696-1.65812E-01 4.21701E+01 0.00000E+00
 -1       697-1.67364E-01 4.02265E+01 0.00000E+00
 -1       698-1.68474E-01 3.82673E+01 0.00000E+00
 -1       699-1.69136E-01 3.62978E+01 0.00000E+00
 -1       700-1.69342E-01 3.43233E+01 0.00000E+00
 -1       701-1.69083E-01 3.23490E+01 0.00000E+00
 -1       702-1.68355E-01 3.03806E+01 0.00000E+00
 -1       703-1.67150E-01 2.84234E+01 0.00000E+00
 -1       704-1.65463E-01 2.64830E+01 0.00000E+00
 -1       705-1.63288E-01 2.45652E+01 0.00000E+00
 -1       706-1.60620E-01 2.26757E+01 0.00000E+00
 -1       707-1.57455E-01 2.08202E+01 0.00000E+00
 -1       708-1.53785E-01 1.90045E+01 0.00000E+00
 -1       709-1.49612E-01 1.72346E+01 0.00000E+00
 -1       710-1.44927E-01 1.55164E+01 0.00000E+00
 -1       711-1.39731E-01 1.38558E+01 0.00000E+00
 -1       712-1.34016E-01 1.22588E+01 0.00000E+00
 -1       713-1.27785E-01 1.07316E+01 0.00000E+00
 -1       714-1.21030E-01 9.28007E+00 0.00000E+00
 -1       715-1.13754E-01 7.91042E+00 0.00000E+00
 -1       716-1.05954E-01 6.62872E+00 0.00000E+00
 -1       717-9.76249E-02 5.44111E+00 0.00000E+00
 -1       718-8.87720E-02 4.35372E+00 0.00000E+00
 -1       719-7.93860E-02 3.37274E+00 0.00000E+00
 -1       720-6.94774E-02 2.50430E+00 0.00000E+00
 -1       721-5.90280E-02 1.75462E+00 0.00000E+00
 -1       722-4.80688E-02 1.12983E+00 0.00000E+00
 -1       723-3.65281E-02 6.36299E-01 0.00000E+00
 -1       724-2.46177E-02 2.79541E-01 0.00000E+00
 -1       725-1.16264E-02 6.81545E-02 0.00000E+00
 -1       726 0.00000E+00 0.00000E+00 0.00000E+00
 -1       727-3.46430E-01-1.01371E+02 0.00000E+00
 -3
    1PSTEP                         6           1           1          
    1PGM                1.000000E+00                                  
    1PGK                2.730098E+05                                  
    1PHID                         -1                                  
    1PSUBC                         0                                  
    1PMODE                         2                                  
  100CL  102 83.15900313         726                     2    2MODAL      1
 -4  STRESS      6    1
 -5  SXX         1    4    1    1
 -5  SYY         1    4    2    2
 -5  SZZ         1    4    3    3
 -5  SXY         1    4    1    2
 -5  SYZ         1    4    2    3
 -5  SZX         1    4    3    1
 -1         2-2.59841E+08-1.98614E+07-1.06287E+08-1.10476E+07 2.95616E+09 5.26108E+06
 -1         3-8.28169E+08-1.88732E+07-3.21876E+08-2.15973E+07 2.83341E+09 5.26065E+06
 -1         4-1.75813E+09-1.82997E+07-6.75044E+08-3.17031E+07 2.71067E+09 5.25963E+06
 -1         5-3.03377E+09-1.63522E+07-1.15904E+09-4.13611E+07 2.58797E+09 5.25774E+06
 -1         6-4.64007E+09-1.73910E+07-1.76984E+09-5.06495E+07 2.46532E+09 5.25473E+06
 -1         7-6.56052E+09-1.53395E+07-2.49883E+09-5.92920E+07 2.34276E+09 5.25032E+06
 -1         8-8.77991E+09-1.31689E+07-3.34137E+09-6.77886E+07 2.22033E+09 5.24428E+06
 -1         9-1.12835E+10-1.70055E+07-4.29421E+09-7.56068E+07 2.09805E+09 5.23638E+06
 -1        10-1.40537E+10-1.30180E+07-5.34537E+09-8.28367E+07 1.97599E+09 5.22638E+06
 -1        11-1.70764E+10-1.11778E+07-6.49328E+09-8.99409E+07 1.85418E+09 5.21410E+06
 -1        12-2.03359E+10-1.08192E+07-7.73174E+09-9.64821E+07 1.73269E+09 5.19935E+06
 -1        13-2.38163E+10-9.71982E+06-9.05389E+09-1.02725E+08 1.61157E+09 5.18195E+06
 -1        14-2.75032E+10-1.37513E+07-1.04564E+10-1.08287E+08 1.49089E+09 5.16172E+06
 -1        15-3.13787E+10-6.88797E+06-1.19265E+10-1.13293E+08 1.37072E+09 5.13849E+06
 -1        16-3.54300E+10-6.37151E+06-1.34658E+10-1.18444E+08 1.25113E+09 5.11215E+06
 -1        17-3.96417E+10-1.04334E+07-1.50678E+10-1.22626E+08 1.13219E+09 5.08255E+06
 -1        18-4.39964E+10-4.63808E+06-1.67204E+10-1.26530E+08 1.01398E+09 5.04957E+06
 -1        19-4.84824E+10-1.09842E+07-1.84275E+10-1.30027E+08 8.96578E+08 5.01310E+06
 -1        20-5.30801E+10-5.46546E+04-2.01705E+10-1.32727E+08 7.80070E+08 4.97304E+06
 -1        21-5.77801E+10-6.86654E+06-2.19591E+10-1.36019E+08 6.64540E+08 4.92932E+06
 -1        22-6.25631E+10-2.01144E+06-2.37748E+10-1.37515E+08 5.50073E+08 4.88187E+06
 -1        23-6.74175E+10-5.01423E+06-2.56206E+10-1.40072E+08 4.36758E+08 4.83061E+06
 -1        24-7.23261E+10 2.35614E+06-2.74830E+10-1.40642E+08 3.24683E+08 4.77549E+06
 -1        25-7.72772E+10 2.27781E+06-2.93645E+10-1.42954E+08 2.13940E+08 4.71650E+06
 -1        26-8.22590E+10-1.95352E+07-3.12658E+10-1.42282E+08 1.04619E+08 4.65359E+06
 -1        27-8.72455E+10 1.57705E+07-3.31473E+10-1.42247E+08-3.18770E+06 4.58673E+06
 -1        28-9.22401E+10-4.74099E+06-3.50530E+10-1.43139E+08-1.09389E+08 4.51594E+06
 -1        29-9.72161E+10 4.52369E+06-3.69404E+10-1.41435E+08-2.13893E+08 4.44123E+06
 -1        30-1.02167E+11-1.93208E+06-3.88243E+10-1.41627E+08-3.16607E+08 4.36259E+06
 -1        31-1.07075E+11 1.27691E+07-4.06836E+10-1.39043E+08-4.17442E+08 4.28007E+06
 -1        32-1.11934E+11-3.53360E+06-4.25362E+10-1.39332E+08-5.16306E+08 4.19370E+06
 -1        33-1.16725E+11-5.99472E+06-4.43578E+10-1.34627E+08-6.13110E+08 4.10352E+06
 -1        34-1.21433E+11 2.70027E+07-4.61341E+10-1.34120E+08-7.07767E+08 4.00959E+06
 -1        35-1.26062E+11-1.89241E+07-4.79106E+10-1.30864E+08-8.00188E+08 3.91199E+06
 -1        36-1.30576E+11 2.22591E+07-4.96103E+10-1.26850E+08-8.90290E+08 3.81077E+06
 -1        37-1.34986E+11-2.02523E+06-5.12954E+10-1.25074E+08-9.77990E+08 3.70604E+06
 -1        38-1.39264E+11 2.01396E+07-5.29127E+10-1.19651E+08-1.06320E+09 3.59788E+06
 -1        39-1.43413E+11-1.52796E+06-5.44977E+10-1.18190E+08-1.14586E+09 3.48639E+06
 -1        40-1.47413E+11-6.35959E+05-5.60173E+10-1.10554E+08-1.22587E+09 3.37170E+06
 -1        41-1.51254E+11 2.06017E+07-5.74686E+10-1.08308E+08-1.30317E+09 3.25390E+06
 -1        42-1.54934E+11 2.05929E+06-5.88741E+10-1.01810E+08-1.37769E+09 3.13315E+06
 -1        43-1.58431E+11 2.83785E+07-6.01931E+10-9.83351E+07-1.44936E+09 3.00956E+06
 -1        44-1.61755E+11-2.19600E+07-6.14754E+10-9.22064E+07-1.51811E+09 2.88328E+06
 -1        45-1.64868E+11 4.31390E+07-6.26336E+10-8.52834E+07-1.58389E+09 2.75446E+06
 -1        46-1.67797E+11-5.65398E+06-6.37648E+10-8.26019E+07-1.64663E+09 2.62326E+06
 -1        47-1.70506E+11 3.02474E+06-6.47911E+10-7.24143E+07-1.70628E+09 2.48985E+06
 -1        48-1.72996E+11 2.47524E+07-6.57290E+10-6.90352E+07-1.76280E+09 2.35437E+06
 -1        49-1.75266E+11 7.79788E+06-6.65983E+10-6.05140E+07-1.81614E+09 2.21702E+06
 -1        50-1.77302E+11 1.44678E+07-6.73692E+10-5.58083E+07-1.86625E+09 2.07797E+06
 -1        51-1.79101E+11 8.76862E+06-6.80550E+10-4.68721E+07-1.91309E+09 1.93741E+06
 -1        52-1.80652E+11 2.85686E+07-6.86369E+10-4.18537E+07-1.95665E+09 1.79553E+06
 -1        53-1.81961E+11-3.48878E+06-6.91467E+10-3.36990E+07-1.99687E+09 1.65252E+06
 -1        54-1.83007E+11 2.26714E+07-6.95341E+10-2.62569E+07-2.03375E+09 1.50858E+06
 -1        55-1.83801E+11-3.42032E+06-6.98459E+10-1.88613E+07-2.06727E+09 1.36392E+06
 -1        56-1.84323E+11 2.99617E+07-7.00313E+10-1.00394E+07-2.09740E+09 1.21873E+06
 -1        57-1.84585E+11 1.06803E+07-7.01382E+10-4.56320E+06-2.12414E+09 1.07324E+06
 -1        58-1.84573E+11 1.13577E+07-7.01333E+10 5.34911E+06-2.14748E+09 9.27646E+05
 -1        59-1.84284E+11 2.88816E+07-7.00169E+10 1.12125E+07-2.16743E+09 7.82171E+05
 -1        60-1.83725E+11 2.77271E+06-6.98145E+10 2.00261E+07-2.18399E+09 6.37033E+05
 -1        61-1.82883E+11 5.18272E+06-6.94937E+10 2.80928E+07-2.19716E+09 4.92449E+05
 -1        62-1.81759E+11 2.34285E+07-6.90595E+10 3.72499E+07-2.20697E+09 3.48638E+05
 -1        63-1.80355E+11 2.99117E+07-6.85235E+10 4.32812E+07-2.21344E+09 2.05821E+05
 -1        64-1.78676E+11-1.30975E+07-6.79017E+10 5.21292E+07-2.21659E+09 6.42258E+04
 -1        65-1.76701E+11 3.00880E+07-6.71348E+10 6.15030E+07-2.21645E+09-7.59291E+04
 -1        66-1.74451E+11 2.25370E+07-6.62827E+10 6.74948E+07-2.21306E+09-2.14423E+05
 -1        67-1.71919E+11 5.63834E+06-6.53273E+10 7.65140E+07-2.20646E+09-3.51029E+05
 -1        68-1.69104E+11 4.49854E+06-6.42580E+10 8.44885E+07-2.19670E+09-4.85525E+05
 -1        69-1.66006E+11 2.66840E+07-6.30721E+10 9.36465E+07-2.18383E+09-6.17691E+05
 -1        70-1.62634E+11 1.30771E+07-6.17959E+10 9.95278E+07-2.16790E+09-7.47306E+05
 -1        71-1.58984E+11 1.07109E+07-6.04097E+10 1.09255E+08-2.14898E+09-8.74150E+05
 -1        72-1.55056E+11 2.73867E+07-5.89109E+10 1.15354E+08-2.12713E+09-9.98006E+05
 -1        73-1.50864E+11-7.17036E+04-5.73283E+10 1.23832E+08-2.10243E+09-1.11866E+06
 -1        74-1.46396E+11 2.07700E+07-5.56227E+10 1.31566E+08-2.07496E+09-1.23590E+06
 -1        75-1.41670E+11 1.08465E+06-5.38342E+10 1.38999E+08-2.04479E+09-1.34951E+06
 -1        76-1.36676E+11 2.55610E+07-5.19272E+10 1.47277E+08-2.01202E+09-1.45929E+06
 -1        77-1.31432E+11 1.02096E+07-4.99401E+10 1.52898E+08-1.97673E+09-1.56503E+06
 -1        78-1.25932E+11 1.26399E+07-4.78494E+10 1.61576E+08-1.93902E+09-1.66653E+06
 -1        79-1.20186E+11 1.29748E+07-4.56656E+10 1.67166E+08-1.89900E+09-1.76360E+06
 -1        80-1.14196E+11 1.59552E+07-4.33886E+10 1.75332E+08-1.85676E+09-1.85604E+06
 -1        81-1.07970E+11 1.75343E+07-4.10221E+10 1.80243E+08-1.81243E+09-1.94367E+06
 -1        82-1.01518E+11-1.14989E+07-3.85812E+10 1.88356E+08-1.76611E+09-2.02629E+06
 -1        83-9.48294E+10 2.94624E+07-3.60240E+10 1.94970E+08-1.71792E+09-2.10373E+06
 -1        84-8.79313E+10 6.97151E+06-3.34113E+10 1.99889E+08-1.66798E+09-2.17581E+06
 -1        85-8.08164E+10 1.12772E+07-3.07059E+10 2.06895E+08-1.61643E+09-2.24237E+06
 -1        86-7.34959E+10 1.05148E+07-2.79245E+10 2.11770E+08-1.56339E+09-2.30323E+06
 -1        87-6.59756E+10 1.23437E+07-2.50661E+10 2.18224E+08-1.50900E+09-2.35824E+06
 -1        88-5.82636E+10 8.61516E+06-2.21369E+10 2.22581E+08-1.45340E+09-2.40724E+06
 -1        89-5.03663E+10 3.16312E+06-1.91380E+10 2.28992E+08-1.39672E+09-2.45009E+06
 -1        90-4.22878E+10 1.80764E+07-1.60625E+10 2.33239E+08-1.33912E+09-2.48663E+06
 -1        91-3.40432E+10 1.57185E+06-1.29358E+10 2.38161E+08-1.28074E+09-2.51674E+06
 -1        92-2.56313E+10 1.09772E+07-9.73572E+09 2.42906E+08-1.22173E+09-2.54028E+06
 -1        93-1.70653E+10 8.49676E+06-6.48157E+09 2.46986E+08-1.16225E+09-2.55712E+06
 -1        94-8.35102E+09 5.29594E+06-3.17138E+09 2.51231E+08-1.10246E+09-2.56715E+06
 -1        95 5.04972E+08 9.17944E+06 1.95378E+08 2.55198E+08-1.04252E+09-2.57025E+06
 -1        96 9.49282E+09 4.90905E+06 3.60914E+09 2.58734E+08-9.82580E+08-2.56631E+06
 -1        97 1.86070E+10 7.36446E+06 7.07346E+09 2.62389E+08-9.22820E+08-2.55523E+06
 -1        98 2.78383E+10 5.59289E+06 1.05807E+10 2.65362E+08-8.63403E+08-2.53691E+06
 -1        99 3.71793E+10 9.31752E+05 1.41285E+10 2.68728E+08-8.04498E+08-2.51127E+06
 -1       100 4.66258E+10 1.45953E+07 1.77233E+10 2.71553E+08-7.46278E+08-2.47823E+06
 -1       101 5.61621E+10-7.39085E+06 2.13388E+10 2.73541E+08-6.88916E+08-2.43769E+06
 -1       102 6.57925E+10 1.20630E+07 2.50058E+10 2.77310E+08-6.32588E+08-2.38960E+06
 -1       103 7.54999E+10 5.49884E+06 2.86921E+10 2.77795E+08-5.77471E+08-2.33388E+06
 -1       104 8.52811E+10 7.42399E+04 3.24069E+10 2.81067E+08-5.23743E+08-2.27047E+06
 -1       105 9.51303E+10 2.26232E+06 3.61504E+10 2.81875E+08-4.71585E+08-2.19933E+06
 -1       106 1.05040E+11 6.46933E+06 3.99176E+10 2.84662E+08-4.21179E+08-2.12038E+06
 -1       107 1.15001E+11-5.74013E+06 4.36982E+10 2.84727E+08-3.72705E+08-2.03361E+06
 -1       108 1.25012E+11-2.99773E+06 4.75032E+10 2.88206E+08-3.26348E+08-1.93895E+06
 -1       109 1.35069E+11 3.26575E+07 5.13387E+10 2.87515E+08-2.82292E+08-1.83639E+06
 -1       110 1.45148E+11-2.55699E+07 5.51467E+10 2.87674E+08-2.40721E+08-1.72588E+06
 -1       111 1.55273E+11 1.19328E+07 5.90083E+10 2.90636E+08-2.01822E+08-1.60740E+06
 -1       112 1.65415E+11-5.50204E+06 6.28556E+10 2.89213E+08-1.65781E+08-1.48093E+06
 -1       113 1.75583E+11 1.17182E+07 6.67261E+10 2.91933E+08-1.32783E+08-1.34645E+06
 -1       114 1.85760E+11-2.99670E+07 7.05773E+10 2.89798E+08-1.03018E+08-1.20394E+06
 -1       115 1.95969E+11 5.83516E+07 7.44903E+10 2.94539E+08-7.66703E+07-1.05341E+06
 -1       116 2.06144E+11-1.39488E+08 7.82819E+10 2.87803E+08-5.39296E+07-8.94812E+05
 -1       117 2.16455E+11 5.00236E+08 8.24430E+10 2.99250E+08-3.49831E+07-7.28194E+05
 -1       118 2.26320E+11-1.80830E+09 8.53143E+10 2.69993E+08-2.00189E+07-5.53414E+05
 -1       119 2.37790E+11 6.34141E+09 9.27698E+10 3.68958E+08-9.22429E+06-3.70944E+05
 -1       120 2.43693E+11-2.18715E+10 8.42922E+10 2.21064E+07-2.79044E+06-1.79133E+05
 -1       121 2.42742E+11 8.00686E+10 1.22668E+11 1.28464E+09-6.88331E+05-8.03152E+04
 -1       122-6.79864E+07-2.00788E+07-3.34648E+07-3.78141E+04-3.01754E+09-5.26121E+06
 -1       123-2.59841E+08-1.98613E+07-1.06287E+08-1.10479E+07-2.95616E+09-5.26112E+06
 -1       124-8.28168E+08-1.88727E+07-3.21876E+08-2.15979E+07-2.83341E+09-5.26070E+06
 -1       125-1.75813E+09-1.82989E+07-6.75043E+08-3.17035E+07-2.71067E+09-5.25967E+06
 -1       126-3.03376E+09-1.63510E+07-1.15904E+09-4.13613E+07-2.58797E+09-5.25778E+06
 -1       127-4.64007E+09-1.73897E+07-1.76984E+09-5.06496E+07-2.46532E+09-5.25477E+06
 -1       128-6.56052E+09-1.53380E+07-2.49883E+09-5.92921E+07-2.34277E+09-5.25036E+06
 -1       129-8.77990E+09-1.31673E+07-3.34137E+09-6.77888E+07-2.22033E+09-5.24431E+06
 -1       130-1.12835E+10-1.70039E+07-4.29421E+09-7.56069E+07-2.09805E+09-5.23641E+06
 -1       131-1.40537E+10-1.30162E+07-5.34536E+09-8.28366E+07-1.97599E+09-5.22641E+06
 -1       132-1.70764E+10-1.11762E+07-6.49328E+09-8.99408E+07-1.85418E+09-5.21412E+06
 -1       133-2.03359E+10-1.08176E+07-7.73174E+09-9.64820E+07-1.73269E+09-5.19936E+06
 -1       134-2.38163E+10-9.71835E+06-9.05389E+09-1.02725E+08-1.61157E+09-5.18196E+06
 -1       135-2.75032E+10-1.37499E+07-1.04564E+10-1.08287E+08-1.49089E+09-5.16173E+06
 -1       136-3.13787E+10-6.88682E+06-1.19265E+10-1.13293E+08-1.37072E+09-5.13850E+06
 -1       137-3.54300E+10-6.37043E+06-1.34658E+10-1.18444E+08-1.25113E+09-5.11215E+06
 -1       138-3.96417E+10-1.04323E+07-1.50678E+10-1.22626E+08-1.13219E+09-5.08255E+06
 -1       139-4.39964E+10-4.63705E+06-1.67204E+10-1.26530E+08-1.01398E+09-5.04957E+06
 -1       140-4.84824E+10-1.09834E+07-1.84275E+10-1.30026E+08-8.96577E+08-5.01310E+06
 -1       141-5.30801E+10-5.38856E+04-2.01705E+10-1.32727E+08-7.80069E+08-4.97304E+06
 -1       142-5.77801E+10-6.86598E+06-2.19590E+10-1.36019E+08-6.64538E+08-4.92932E+06
 -1       143-6.25631E+10-2.01098E+06-2.37748E+10-1.37514E+08-5.50072E+08-4.88186E+06
 -1       144-6.74175E+10-5.01397E+06-2.56206E+10-1.40072E+08-4.36757E+08-4.83060E+06
 -1       145-7.23261E+10 2.35630E+06-2.74830E+10-1.40642E+08-3.24682E+08-4.77548E+06
 -1       146-7.72772E+10 2.27781E+06-2.93645E+10-1.42953E+08-2.13939E+08-4.71649E+06
 -1       147-8.22590E+10-1.95352E+07-3.12658E+10-1.42282E+08-1.04618E+08-4.65358E+06
 -1       148-8.72455E+10 1.57705E+07-3.31473E+10-1.42247E+08 3.18850E+06-4.58672E+06
 -1       149-9.22401E+10-4.74113E+06-3.50530E+10-1.43139E+08 1.09390E+08-4.51593E+06
 -1       150-9.72161E+10 4.52347E+06-3.69404E+10-1.41435E+08 2.13893E+08-4.44122E+06
 -1       151-1.02167E+11-1.93223E+06-3.88243E+10-1.41627E+08 3.16608E+08-4.36258E+06
 -1       152-1.07075E+11 1.27688E+07-4.06836E+10-1.39042E+08 4.17442E+08-4.28006E+06
 -1       153-1.11934E+11-3.53389E+06-4.25362E+10-1.39332E+08 5.16306E+08-4.19369E+06
 -1       154-1.16725E+11-5.99504E+06-4.43578E+10-1.34627E+08 6.13111E+08-4.10352E+06
 -1       155-1.21433E+11 2.70024E+07-4.61341E+10-1.34120E+08 7.07767E+08-4.00958E+06
 -1       156-1.26062E+11-1.89243E+07-4.79106E+10-1.30864E+08 8.00189E+08-3.91198E+06
 -1       157-1.30576E+11 2.22590E+07-4.96103E+10-1.26851E+08 8.90290E+08-3.81077E+06
 -1       158-1.34986E+11-2.02543E+06-5.12954E+10-1.25074E+08 9.77990E+08-3.70603E+06
 -1       159-1.39264E+11 2.01394E+07-5.29127E+10-1.19651E+08 1.06321E+09-3.59787E+06
 -1       160-1.43413E+11-1.52831E+06-5.44977E+10-1.18190E+08 1.14586E+09-3.48639E+06
 -1       161-1.47413E+11-6.36495E+05-5.60173E+10-1.10554E+08 1.22587E+09-3.37169E+06
 -1       162-1.51254E+11 2.06010E+07-5.74686E+10-1.08308E+08 1.30317E+09-3.25390E+06
 -1       163-1.54934E+11 2.05855E+06-5.88741E+10-1.01810E+08 1.37769E+09-3.13314E+06
 -1       164-1.58431E+11 2.83778E+07-6.01931E+10-9.83353E+07 1.44936E+09-3.00956E+06
 -1       165-1.61755E+11-2.19605E+07-6.14754E+10-9.22066E+07 1.51811E+09-2.88329E+06
 -1       166-1.64868E+11 4.31385E+07-6.26336E+10-8.52836E+07 1.58389E+09-2.75447E+06
 -1       167-1.67797E+11-5.65417E+06-6.37648E+10-8.26022E+07 1.64663E+09-2.62327E+06
 -1       168-1.70506E+11 3.02476E+06-6.47911E+10-7.24147E+07 1.70629E+09-2.48985E+06
 -1       169-1.72996E+11 2.47526E+07-6.57290E+10-6.90355E+07 1.76280E+09-2.35437E+06
 -1       170-1.75266E+11 7.79831E+06-6.65983E+10-6.05141E+07 1.81614E+09-2.21702E+06
 -1       171-1.77302E+11 1.44683E+07-6.73692E+10-5.58084E+07 1.86625E+09-2.07797E+06
 -1       172-1.79101E+11 8.76932E+06-6.80550E+10-4.68723E+07 1.91309E+09-1.93741E+06
 -1       173-1.80652E+11 2.85693E+07-6.86369E+10-4.18537E+07 1.95665E+09-1.79553E+06
 -1       174-1.81961E+11-3.48812E+06-6.91467E+10-3.36988E+07 1.99688E+09-1.65252E+06
 -1       175-1.83007E+11 2.26720E+07-6.95341E+10-2.62567E+07 2.03376E+09-1.50858E+06
 -1       176-1.83801E+11-3.41990E+06-6.98459E+10-1.88612E+07 2.06727E+09-1.36391E+06
 -1       177-1.84323E+11 2.99620E+07-7.00313E+10-1.00393E+07 2.09740E+09-1.21873E+06
 -1       178-1.84585E+11 1.06806E+07-7.01382E+10-4.56303E+06 2.12414E+09-1.07323E+06
 -1       179-1.84573E+11 1.13579E+07-7.01333E+10 5.34901E+06 2.14748E+09-9.27639E+05
 -1       180-1.84284E+11 2.88821E+07-7.00169E+10 1.12122E+07 2.16743E+09-7.82164E+05
 -1       181-1.83725E+11 2.77334E+06-6.98145E+10 2.00259E+07 2.18399E+09-6.37025E+05
 -1       182-1.82883E+11 5.18348E+06-6.94937E+10 2.80926E+07 2.19716E+09-4.92439E+05
 -1       183-1.81759E+11 2.34294E+07-6.90595E+10 3.72499E+07 2.20697E+09-3.48626E+05
 -1       184-1.80355E+11 2.99125E+07-6.85235E+10 4.32813E+07 2.21344E+09-2.05808E+05
 -1       185-1.78676E+11-1.30967E+07-6.79017E+10 5.21295E+07 2.21659E+09-6.42102E+04
 -1       186-1.76701E+11 3.00884E+07-6.71348E+10 6.15035E+07 2.21645E+09 7.59460E+04
 -1       187-1.74451E+11 2.25370E+07-6.62827E+10 6.74953E+07 2.21306E+09 2.14440E+05
 -1       188-1.71919E+11 5.63792E+06-6.53273E+10 7.65144E+07 2.20646E+09 3.51046E+05
 -1       189-1.69104E+11 4.49788E+06-6.42580E+10 8.44888E+07 2.19670E+09 4.85541E+05
 -1       190-1.66006E+11 2.66833E+07-6.30721E+10 9.36464E+07 2.18382E+09 6.17705E+05
 -1       191-1.62634E+11 1.30766E+07-6.17959E+10 9.95275E+07 2.16790E+09 7.47318E+05
 -1       192-1.58984E+11 1.07105E+07-6.04097E+10 1.09255E+08 2.14898E+09 8.74161E+05
 -1       193-1.55056E+11 2.73863E+07-5.89109E+10 1.15354E+08 2.12713E+09 9.98017E+05
 -1       194-1.50864E+11-7.20164E+04-5.73283E+10 1.23832E+08 2.10243E+09 1.11867E+06
 -1       195-1.46396E+11 2.07698E+07-5.56227E+10 1.31566E+08 2.07496E+09 1.23591E+06
 -1       196-1.41670E+11 1.08437E+06-5.38342E+10 1.38999E+08 2.04479E+09 1.34952E+06
 -1       197-1.36676E+11 2.55606E+07-5.19272E+10 1.47277E+08 2.01202E+09 1.45930E+06
 -1       198-1.31432E+11 1.02091E+07-4.99401E+10 1.52898E+08 1.97673E+09 1.56504E+06
 -1       199-1.25932E+11 1.26394E+07-4.78494E+10 1.61576E+08 1.93902E+09 1.66654E+06
 -1       200-1.20186E+11 1.29742E+07-4.56656E+10 1.67166E+08 1.89900E+09 1.76361E+06
 -1       201-1.14196E+11 1.59546E+07-4.33886E+10 1.75332E+08 1.85676E+09 1.85605E+06
 -1       202-1.07970E+11 1.75337E+07-4.10221E+10 1.80243E+08 1.81243E+09 1.94367E+06
 -1       203-1.01518E+11-1.14994E+07-3.85812E+10 1.88356E+08 1.76610E+09 2.02629E+06
 -1       204-9.48294E+10 2.94619E+07-3.60240E+10 1.94970E+08 1.71791E+09 2.10373E+06
 -1       205-8.79313E+10 6.97116E+06-3.34113E+10 1.99888E+08 1.66798E+09 2.17581E+06
 -1       206-8.08164E+10 1.12769E+07-3.07059E+10 2.06895E+08 1.61643E+09 2.24236E+06
 -1       207-7.34959E+10 1.05145E+07-2.79245E+10 2.11770E+08 1.56339E+09 2.30322E+06
 -1       208-6.59756E+10 1.23434E+07-2.50661E+10 2.18224E+08 1.50900E+09 2.35823E+06
 -1       209-5.82636E+10 8.61490E+06-2.21369E+10 2.22581E+08 1.45339E+09 2.40724E+06
 -1       210-5.03663E+10 3.16294E+06-1.91380E+10 2.28992E+08 1.39672E+09 2.45008E+06
 -1       211-4.22878E+10 1.80762E+07-1.60625E+10 2.33239E+08 1.33912E+09 2.48662E+06
 -1       212-3.40432E+10 1.57169E+06-1.29358E+10 2.38161E+08 1.28074E+09 2.51673E+06
 -1       213-2.56313E+10 1.09771E+07-9.73572E+09 2.42906E+08 1.22173E+09 2.54027E+06
 -1       214-1.70653E+10 8.49672E+06-6.48157E+09 2.46986E+08 1.16225E+09 2.55711E+06
 -1       215-8.35102E+09 5.29599E+06-3.17138E+09 2.51231E+08 1.10246E+09 2.56714E+06
 -1       216 5.04973E+08 9.17959E+06 1.95378E+08 2.55198E+08 1.04252E+09 2.57024E+06
 -1       217 9.49282E+09 4.90929E+06 3.60914E+09 2.58734E+08 9.82580E+08 2.56630E+06
 -1       218 1.86070E+10 7.36472E+06 7.07346E+09 2.62389E+08 9.22820E+08 2.55522E+06
 -1       219 2.78383E+10 5.59318E+06 1.05807E+10 2.65362E+08 8.63403E+08 2.53691E+06
 -1       220 3.71793E+10 9.32066E+05 1.41285E+10 2.68728E+08 8.04498E+08 2.51127E+06
 -1       221 4.66258E+10 1.45957E+07 1.77233E+10 2.71553E+08 7.46278E+08 2.47823E+06
 -1       222 5.61621E+10-7.39044E+06 2.13388E+10 2.73541E+08 6.88916E+08 2.43769E+06
 -1       223 6.57925E+10 1.20634E+07 2.50058E+10 2.77310E+08 6.32588E+08 2.38960E+06
 -1       224 7.54999E+10 5.49925E+06 2.86921E+10 2.77795E+08 5.77471E+08 2.33388E+06
 -1       225 8.52811E+10 7.46260E+04 3.24069E+10 2.81067E+08 5.23743E+08 2.27047E+06
 -1       226 9.51303E+10 2.26270E+06 3.61504E+10 2.81875E+08 4.71586E+08 2.19932E+06
 -1       227 1.05040E+11 6.46970E+06 3.99176E+10 2.84662E+08 4.21179E+08 2.12039E+06
 -1       228 1.15001E+11-5.73977E+06 4.36982E+10 2.84727E+08 3.72705E+08 2.03361E+06
 -1       229 1.25012E+11-2.99741E+06 4.75032E+10 2.88206E+08 3.26348E+08 1.93896E+06
 -1       230 1.35069E+11 3.26578E+07 5.13387E+10 2.87515E+08 2.82292E+08 1.83639E+06
 -1       231 1.45148E+11-2.55697E+07 5.51467E+10 2.87674E+08 2.40721E+08 1.72588E+06
 -1       232 1.55273E+11 1.19329E+07 5.90083E+10 2.90636E+08 2.01822E+08 1.60740E+06
 -1       233 1.65415E+11-5.50199E+06 6.28556E+10 2.89213E+08 1.65781E+08 1.48093E+06
 -1       234 1.75583E+11 1.17182E+07 6.67261E+10 2.91933E+08 1.32784E+08 1.34645E+06
 -1       235 1.85760E+11-2.99670E+07 7.05773E+10 2.89798E+08 1.03018E+08 1.20395E+06
 -1       236 1.95969E+11 5.83516E+07 7.44903E+10 2.94539E+08 7.66705E+07 1.05341E+06
 -1       237 2.06144E+11-1.39488E+08 7.82819E+10 2.87803E+08 5.39297E+07 8.94815E+05
 -1       238 2.16455E+11 5.00236E+08 8.24430E+10 2.99250E+08 3.49832E+07 7.28196E+05
 -1       239 2.26320E+11-1.80830E+09 8.53143E+10 2.69993E+08 2.00189E+07 5.53416E+05
 -1       240 2.37790E+11 6.34141E+09 9.27698E+10 3.68958E+08 9.22430E+06 3.70945E+05
 -1       241 2.43693E+11-2.18715E+10 8.42922E+10 2.21065E+07 2.79045E+06 1.79134E+05
 -1       242 2.42742E+11 8.00686E+10 1.22668E+11 1.28464E+09 6.88331E+05 8.03154E+04
 -1       243-2.84063E+03-7.94350E+02-1.37564E+03-3.63155E+04 3.01753E+09 2.11525E+02
 -1       244-1.04262E+04-7.79601E+02-4.25343E+03-1.10359E+07 2.95616E+09 2.11523E+02
 -1       245-3.31567E+04-7.60696E+02-1.28844E+04-2.16064E+07 2.83341E+09 2.11509E+02
 -1       246-7.03640E+04-7.11674E+02-2.70068E+04-3.17025E+07 2.71067E+09 2.11474E+02
 -1       247-1.21396E+05-6.65789E+02-4.63798E+04-4.13603E+07 2.58797E+09 2.11411E+02
 -1       248-1.85632E+05-6.69900E+02-7.07901E+04-5.05227E+07 2.46532E+09 2.11311E+02
 -1       249-2.62450E+05-6.17537E+02-9.99656E+04-5.94191E+07 2.34276E+09 2.11141E+02
 -1       250-3.51218E+05-5.04913E+02-1.33652E+05-6.75606E+07 2.22033E+09 2.10906E+02
 -1       251-4.51352E+05-6.68206E+02-1.71764E+05-7.55441E+07 2.09805E+09 2.10604E+02
 -1       252-5.62178E+05-4.98767E+02-2.13817E+05-8.31309E+07 1.97599E+09 2.10216E+02
 -1       253-6.83079E+05-4.51199E+02-2.59741E+05-8.99411E+07 1.85418E+09 2.09739E+02
 -1       254-8.13456E+05-4.18966E+02-3.09269E+05-9.64756E+07 1.73269E+09 2.09159E+02
 -1       255-9.52680E+05-3.95923E+02-3.62166E+05-1.02447E+08 1.61157E+09 2.08466E+02
 -1       256-1.10016E+06-5.43083E+02-4.18268E+05-1.08238E+08 1.49089E+09 2.07664E+02
 -1       257-1.25516E+06-2.78365E+02-4.77067E+05-1.13621E+08 1.37072E+09 2.06741E+02
 -1       258-1.41722E+06-2.15922E+02-5.38624E+05-1.18026E+08 1.25113E+09 2.05687E+02
 -1       259-1.58570E+06-4.50012E+02-6.02736E+05-1.22580E+08 1.13219E+09 2.04504E+02
 -1       260-1.75989E+06-1.73423E+02-6.68823E+05-1.26482E+08 1.01398E+09 2.03186E+02
 -1       261-1.93931E+06-4.38351E+02-7.37100E+05-1.29977E+08 8.96578E+08 2.01730E+02
 -1       262-2.12324E+06 7.70564E+00-8.06827E+05-1.33312E+08 7.80070E+08 2.00139E+02
 -1       263-2.31124E+06-2.90984E+02-8.78380E+05-1.35312E+08 6.64540E+08 1.98403E+02
 -1       264-2.50255E+06-7.40037E+01-9.50995E+05-1.38225E+08 5.50073E+08 1.96505E+02
 -1       265-2.69673E+06-1.82990E+02-1.02483E+06-1.39273E+08 4.36758E+08 1.94457E+02
 -1       266-2.89306E+06 7.39505E+01-1.09933E+06-1.41446E+08 3.24683E+08 1.92255E+02
 -1       267-3.09114E+06 1.34552E+02-1.17458E+06-1.41126E+08 2.13940E+08 1.89901E+02
 -1       268-3.29035E+06-8.05455E+02-1.25064E+06-1.43118E+08 1.04619E+08 1.87389E+02
 -1       269-3.48991E+06 6.42436E+02-1.32592E+06-1.43248E+08-3.18770E+06 1.84711E+02
 -1       270-3.68962E+06-2.38385E+02-1.40214E+06-1.42054E+08-1.09389E+08 1.81875E+02
 -1       271-3.88870E+06 2.18573E+02-1.47762E+06-1.42524E+08-2.13893E+08 1.78896E+02
 -1       272-4.08673E+06-1.05036E+02-1.55300E+06-1.40429E+08-3.16607E+08 1.75759E+02
 -1       273-4.28304E+06 5.07468E+02-1.62736E+06-1.40245E+08-4.17442E+08 1.72461E+02
 -1       274-4.47743E+06-1.38203E+02-1.70147E+06-1.36676E+08-5.16306E+08 1.69014E+02
 -1       275-4.66900E+06-2.70511E+02-1.77432E+06-1.37290E+08-6.13110E+08 1.65411E+02
 -1       276-4.85742E+06 1.11319E+03-1.84539E+06-1.32703E+08-7.07767E+08 1.61659E+02
 -1       277-5.04246E+06-8.17779E+02-1.91645E+06-1.30814E+08-8.00188E+08 1.57756E+02
 -1       278-5.22313E+06 9.37713E+02-1.98443E+06-1.28325E+08-8.90290E+08 1.53704E+02
 -1       279-5.39944E+06-1.13690E+02-2.05183E+06-1.23460E+08-9.77990E+08 1.49519E+02
 -1       280-5.57064E+06 8.37213E+02-2.11652E+06-1.21269E+08-1.06320E+09 1.45203E+02
 -1       281-5.73661E+06-7.61397E+01-2.17994E+06-1.14855E+08-1.14586E+09 1.40748E+02
 -1       282-5.89657E+06-4.93479E+01-2.24072E+06-1.13848E+08-1.22587E+09 1.36174E+02
 -1       283-6.05026E+06 8.63884E+02-2.29877E+06-1.06646E+08-1.30317E+09 1.31471E+02
 -1       284-6.19735E+06 2.27422E+01-2.35498E+06-1.03522E+08-1.37769E+09 1.26633E+02
 -1       285-6.33742E+06 1.18940E+03-2.40776E+06-9.64502E+07-1.44936E+09 1.21694E+02
 -1       286-6.47020E+06-9.51628E+02-2.45904E+06-9.22211E+07-1.51811E+09 1.16649E+02
 -1       287-6.59489E+06 1.79084E+03-2.50538E+06-8.72104E+07-1.58389E+09 1.11491E+02
 -1       288-6.71189E+06-2.80919E+02-2.55062E+06-7.85643E+07-1.64663E+09 1.06247E+02
 -1       289-6.82035E+06 1.44350E+02-2.59168E+06-7.64572E+07-1.70628E+09 1.00908E+02
 -1       290-6.91991E+06 9.83224E+02-2.62919E+06-6.69306E+07-1.76280E+09 9.54752E+01
 -1       291-7.01074E+06 2.83133E+02-2.66397E+06-6.25674E+07-1.81614E+09 8.99802E+01
 -1       292-7.09220E+06 5.97611E+02-2.69481E+06-5.37640E+07-1.86625E+09 8.44149E+01
 -1       293-7.16409E+06 2.96835E+02-2.72224E+06-4.89736E+07-1.91309E+09 7.87900E+01
 -1       294-7.22625E+06 1.18665E+03-2.74552E+06-3.96617E+07-1.95665E+09 7.31194E+01
 -1       295-7.27850E+06-2.00745E+02-2.76590E+06-3.37426E+07-1.99687E+09 6.74125E+01
 -1       296-7.32047E+06 9.51351E+02-2.78142E+06-2.61898E+07-2.03375E+09 6.16562E+01
 -1       297-7.35211E+06-1.95979E+02-2.79388E+06-1.89106E+07-2.06727E+09 5.58631E+01
 -1       298-7.37309E+06 1.22763E+03-2.80130E+06-1.21515E+07-2.09740E+09 5.00681E+01
 -1       299-7.38349E+06 3.84198E+02-2.80558E+06-2.44464E+06-2.12414E+09 4.42575E+01
 -1       300-7.38303E+06 4.76209E+02-2.80537E+06 3.23119E+06-2.14748E+09 3.84391E+01
 -1       301-7.37149E+06 1.13756E+03-2.80073E+06 1.33246E+07-2.16743E+09 3.26340E+01
 -1       302-7.34912E+06 8.22602E+01-2.79263E+06 2.00754E+07-2.18399E+09 2.68456E+01
 -1       303-7.31548E+06 2.15993E+02-2.77980E+06 2.80260E+07-2.19716E+09 2.10683E+01
 -1       304-7.27046E+06 8.91463E+02-2.76244E+06 3.51587E+07-2.20697E+09 1.53051E+01
 -1       305-7.21436E+06 1.22518E+03-2.74099E+06 4.53424E+07-2.21344E+09 9.58059E+00
 -1       306-7.14713E+06-5.97618E+02-2.71613E+06 5.21100E+07-2.21659E+09 3.92174E+00
 -1       307-7.06819E+06 1.25538E+03-2.68544E+06 5.94655E+07-2.21645E+09-1.67691E+00
 -1       308-6.97814E+06 8.52265E+02-2.65137E+06 6.95377E+07-2.21306E+09-7.22485E+00
 -1       309-6.87694E+06 2.46691E+02-2.61314E+06 7.64316E+07-2.20646E+09-1.27099E+01
 -1       310-6.76430E+06 1.66194E+02-2.57037E+06 8.45096E+07-2.19670E+09-1.80952E+01
 -1       311-6.64038E+06 1.07751E+03-2.52293E+06 9.16229E+07-2.18383E+09-2.33845E+01
 -1       312-6.50550E+06 5.29494E+02-2.47189E+06 1.01427E+08-2.16790E+09-2.85821E+01
 -1       313-6.35946E+06 3.93594E+02-2.41645E+06 1.07412E+08-2.14898E+09-3.36706E+01
 -1       314-6.20242E+06 1.12133E+03-2.35650E+06 1.17160E+08-2.12713E+09-3.86426E+01
 -1       315-6.03466E+06-3.62221E+01-2.29319E+06 1.23739E+08-2.10243E+09-4.34897E+01
 -1       316-5.85604E+06 8.71754E+02-2.22497E+06 1.31562E+08-2.07496E+09-4.81936E+01
 -1       317-5.66692E+06-6.81097E+00-2.15344E+06 1.38860E+08-2.04479E+09-5.27528E+01
 -1       318-5.46723E+06 1.06326E+03-2.07715E+06 1.45726E+08-2.01202E+09-5.71668E+01
 -1       319-5.25741E+06 3.67652E+02-1.99768E+06 1.54419E+08-1.97673E+09-6.14176E+01
 -1       320-5.03745E+06 5.07878E+02-1.91405E+06 1.60062E+08-1.93902E+09-6.55087E+01
 -1       321-4.80758E+06 5.28819E+02-1.82669E+06 1.68479E+08-1.89900E+09-6.94236E+01
 -1       322-4.56799E+06 6.14299E+02-1.73561E+06 1.74062E+08-1.85676E+09-7.31467E+01
 -1       323-4.31901E+06 7.27779E+02-1.64096E+06 1.82619E+08-1.81243E+09-7.66719E+01
 -1       324-4.06082E+06-4.89829E+02-1.54331E+06 1.87116E+08-1.76611E+09-8.00031E+01
 -1       325-3.79338E+06 1.22293E+03-1.44103E+06 1.93817E+08-1.71792E+09-8.31267E+01
 -1       326-3.51738E+06 2.24508E+02-1.33653E+06 2.00862E+08-1.66798E+09-8.60310E+01
 -1       327-3.23286E+06 4.76427E+02-1.22831E+06 2.05907E+08-1.61643E+09-8.87211E+01
 -1       328-2.93998E+06 3.77583E+02-1.11706E+06 2.12621E+08-1.56339E+09-9.11783E+01
 -1       329-2.63921E+06 5.21225E+02-1.00271E+06 2.17407E+08-1.50900E+09-9.33954E+01
 -1       330-2.33068E+06 3.34277E+02-8.85538E+05 2.23852E+08-1.45340E+09-9.53762E+01
 -1       331-2.01484E+06 1.29117E+02-7.65592E+05 2.27734E+08-1.39672E+09-9.71148E+01
 -1       332-1.69166E+06 7.08958E+02-6.42565E+05 2.33683E+08-1.33912E+09-9.86054E+01
 -1       333-1.36192E+06 6.51194E+01-5.17509E+05 2.38072E+08-1.28074E+09-9.98269E+01
 -1       334-1.02540E+06 4.07980E+02-3.89504E+05 2.42569E+08-1.22173E+09-1.00787E+02
 -1       335-6.82803E+05 3.66826E+02-2.59331E+05 2.47138E+08-1.16225E+09-1.01486E+02
 -1       336-3.34157E+05 1.65271E+02-1.26923E+05 2.51092E+08-1.10246E+09-1.01913E+02
 -1       337 1.99952E+04 4.22929E+02 7.75135E+03 2.55090E+08-1.04252E+09-1.02063E+02
 -1       338 3.79625E+05 1.35502E+02 1.44301E+05 2.58856E+08-9.82580E+08-1.01936E+02
 -1       339 7.44049E+05 3.70694E+02 2.82869E+05 2.62129E+08-9.22820E+08-1.01532E+02
 -1       340 1.11347E+06 1.24578E+02 4.23156E+05 2.65634E+08-8.63403E+08-1.00827E+02
 -1       341 1.48692E+06 1.43271E+02 5.65073E+05 2.68254E+08-8.04498E+08-9.98334E+01
 -1       342 1.86502E+06 4.51925E+02 7.08872E+05 2.71436E+08-7.46278E+08-9.85479E+01
 -1       343 2.24617E+06-1.31859E+02 8.53484E+05 2.74153E+08-6.88916E+08-9.69489E+01
 -1       344 2.63179E+06 2.77962E+02 1.00018E+06 2.75676E+08-6.32588E+08-9.50504E+01
 -1       345 3.01957E+06 4.69782E+02 1.14761E+06 2.79471E+08-5.77471E+08-9.28552E+01
 -1       346 3.41145E+06-3.16333E+02 1.29622E+06 2.80014E+08-5.23743E+08-9.03505E+01
 -1       347 3.80466E+06 4.77740E+02 1.44594E+06 2.82885E+08-4.71585E+08-8.75301E+01
 -1       348 4.20198E+06-2.19617E+02 1.59666E+06 2.83438E+08-4.21179E+08-8.44013E+01
 -1       349 4.59929E+06 3.48952E+02 1.74786E+06 2.85996E+08-3.72705E+08-8.09602E+01
 -1       350 5.00109E+06-8.17850E+02 1.90010E+06 2.85192E+08-3.26348E+08-7.72005E+01
 -1       351 5.40175E+06 2.13955E+03 2.05347E+06 2.88986E+08-2.82292E+08-7.31234E+01
 -1       352 5.80687E+06-2.01978E+03 2.20583E+06 2.89245E+08-2.40721E+08-6.87323E+01
 -1       353 6.20958E+06 1.65169E+03 2.36026E+06 2.88753E+08-2.01822E+08-6.40300E+01
 -1       354 6.61793E+06-1.60100E+03 2.51420E+06 2.91110E+08-1.65781E+08-5.90016E+01
 -1       355 7.02154E+06 2.08648E+03 2.66897E+06 2.89867E+08-1.32783E+08-5.36438E+01
 -1       356 7.43228E+06-3.09717E+03 2.82308E+06 2.91879E+08-1.03018E+08-4.79564E+01
 -1       357 7.83635E+06 4.53661E+03 2.97953E+06 2.89932E+08-7.66703E+07-4.19600E+01
 -1       358 8.24836E+06-8.04613E+03 3.13131E+06 2.92428E+08-5.39296E+07-3.56512E+01
 -1       359 8.65518E+06 2.25526E+04 3.29753E+06 2.96638E+08-3.49831E+07-2.90089E+01
 -1       360 9.05539E+06-7.43450E+04 3.41279E+06 2.69991E+08-2.00189E+07-2.20465E+01
 -1       361 9.51126E+06 2.53713E+05 3.71068E+06 3.71595E+08-9.22429E+06-1.47794E+01
 -1       362 9.73778E+06-8.71230E+05 3.36928E+06 2.08670E+07-2.79044E+06-7.14016E+00
 -1       363 9.73833E+06 3.19807E+06 4.91582E+06 1.28703E+09-6.88330E+05-3.20829E+00
 -1       364-2.83883E+03-8.10557E+02-1.39242E+03-3.62572E+04-3.01754E+09-2.09381E+02
 -1       365-1.04284E+04-7.91376E+02-4.26832E+03-1.10362E+07-2.95616E+09-2.09375E+02
 -1       366-3.31482E+04-7.63284E+02-1.28906E+04-2.16070E+07-2.83341E+09-2.09347E+02
 -1       367-7.03491E+04-7.30239E+02-2.70121E+04-3.17029E+07-2.71067E+09-2.09288E+02
 -1       368-1.21340E+05-6.13660E+02-4.63461E+04-4.13605E+07-2.58797E+09-2.09194E+02
 -1       369-1.85630E+05-7.06417E+02-7.08124E+04-5.05228E+07-2.46532E+09-2.09062E+02
 -1       370-2.62414E+05-5.91756E+02-9.99423E+04-5.94192E+07-2.34277E+09-2.08866E+02
 -1       371-3.51223E+05-5.21210E+02-1.33665E+05-6.75608E+07-2.22033E+09-2.08614E+02
 -1       372-4.51370E+05-7.15283E+02-1.71796E+05-7.55442E+07-2.09805E+09-2.08301E+02
 -1       373-5.62151E+05-4.95252E+02-2.13806E+05-8.31308E+07-1.97599E+09-2.07891E+02
 -1       374-6.83062E+05-4.50524E+02-2.59735E+05-8.99410E+07-1.85418E+09-2.07390E+02
 -1       375-8.13448E+05-4.16109E+02-3.09272E+05-9.64755E+07-1.73269E+09-2.06795E+02
 -1       376-9.52662E+05-3.78843E+02-3.62159E+05-1.02447E+08-1.61157E+09-2.06091E+02
 -1       377-1.10014E+06-5.35529E+02-4.18258E+05-1.08238E+08-1.49089E+09-2.05275E+02
 -1       378-1.25516E+06-2.77060E+02-4.77065E+05-1.13621E+08-1.37072E+09-2.04339E+02
 -1       379-1.41723E+06-2.43422E+02-5.38643E+05-1.18026E+08-1.25113E+09-2.03277E+02
 -1       380-1.58567E+06-4.13584E+02-6.02714E+05-1.22580E+08-1.13219E+09-2.02086E+02
 -1       381-1.75987E+06-1.50864E+02-6.68810E+05-1.26482E+08-1.01398E+09-2.00755E+02
 -1       382-1.93931E+06-4.57402E+02-7.37114E+05-1.29977E+08-8.96577E+08-1.99287E+02
 -1       383-2.12323E+06 1.09018E+01-8.06824E+05-1.33311E+08-7.80069E+08-1.97686E+02
 -1       384-2.31121E+06-2.58705E+02-8.78360E+05-1.35312E+08-6.64538E+08-1.95943E+02
 -1       385-2.50255E+06-8.30461E+01-9.51000E+05-1.38225E+08-5.50072E+08-1.94039E+02
 -1       386-2.69674E+06-1.98043E+02-1.02484E+06-1.39273E+08-4.36757E+08-1.91984E+02
 -1       387-2.89305E+06 8.21319E+01-1.09933E+06-1.41446E+08-3.24682E+08-1.89779E+02
 -1       388-3.09114E+06 1.18294E+02-1.17459E+06-1.41126E+08-2.13939E+08-1.87419E+02
 -1       389-3.29035E+06-8.19065E+02-1.25065E+06-1.43118E+08-1.04618E+08-1.84900E+02
 -1       390-3.48986E+06 7.00148E+02-1.32588E+06-1.43248E+08 3.18850E+06-1.82214E+02
 -1       391-3.68960E+06-2.21442E+02-1.40213E+06-1.42054E+08 1.09390E+08-1.79368E+02
 -1       392-3.88872E+06 1.75615E+02-1.47765E+06-1.42524E+08 2.13893E+08-1.76385E+02
 -1       393-4.08671E+06-7.89303E+01-1.55298E+06-1.40429E+08 3.16608E+08-1.73242E+02
 -1       394-4.28303E+06 5.14678E+02-1.62736E+06-1.40245E+08 4.17442E+08-1.69934E+02
 -1       395-4.47742E+06-1.31544E+02-1.70147E+06-1.36676E+08 5.16306E+08-1.66477E+02
 -1       396-4.66900E+06-2.82603E+02-1.77433E+06-1.37290E+08 6.13111E+08-1.62867E+02
 -1       397-4.85740E+06 1.12565E+03-1.84539E+06-1.32703E+08 7.07767E+08-1.59107E+02
 -1       398-5.04246E+06-8.21894E+02-1.91645E+06-1.30814E+08 8.00189E+08-1.55199E+02
 -1       399-5.22312E+06 9.41460E+02-1.98443E+06-1.28325E+08 8.90290E+08-1.51141E+02
 -1       400-5.39944E+06-1.21634E+02-2.05183E+06-1.23460E+08 9.77990E+08-1.46950E+02
 -1       401-5.57065E+06 8.22257E+02-2.11653E+06-1.21269E+08 1.06321E+09-1.42624E+02
 -1       402-5.73660E+06-6.62671E+01-2.17994E+06-1.14855E+08 1.14586E+09-1.38160E+02
 -1       403-5.89657E+06-5.83894E+01-2.24072E+06-1.13848E+08 1.22587E+09-1.33576E+02
 -1       404-6.05026E+06 8.55922E+02-2.29878E+06-1.06646E+08 1.30317E+09-1.28860E+02
 -1       405-6.19736E+06 5.73312E+00-2.35500E+06-1.03522E+08 1.37769E+09-1.24012E+02
 -1       406-6.33739E+06 1.21933E+03-2.40775E+06-9.64503E+07 1.44936E+09-1.19065E+02
 -1       407-6.47020E+06-9.60421E+02-2.45904E+06-9.22213E+07 1.51811E+09-1.14015E+02
 -1       408-6.59489E+06 1.79300E+03-2.50538E+06-8.72106E+07 1.58389E+09-1.08854E+02
 -1       409-6.71189E+06-2.85628E+02-2.55063E+06-7.85645E+07 1.64663E+09-1.03613E+02
 -1       410-6.82034E+06 1.70988E+02-2.59166E+06-7.64575E+07 1.70629E+09-9.82778E+01
 -1       411-6.91992E+06 9.71141E+02-2.62920E+06-6.69308E+07 1.76280E+09-9.28510E+01
 -1       412-7.01073E+06 3.11255E+02-2.66396E+06-6.25676E+07 1.81614E+09-8.73646E+01
 -1       413-7.09221E+06 5.95774E+02-2.69481E+06-5.37641E+07 1.86625E+09-8.18065E+01
 -1       414-7.16408E+06 3.18410E+02-2.72223E+06-4.89738E+07 1.91309E+09-7.61855E+01
 -1       415-7.22624E+06 1.18275E+03-2.74552E+06-3.96617E+07 1.95665E+09-7.05142E+01
 -1       416-7.27850E+06-2.09076E+02-2.76591E+06-3.37424E+07 1.99688E+09-6.48020E+01
 -1       417-7.32046E+06 9.61475E+02-2.78141E+06-2.61897E+07 2.03376E+09-5.90385E+01
 -1       418-7.35211E+06-2.04095E+02-2.79388E+06-1.89105E+07 2.06727E+09-5.32362E+01
 -1       419-7.37307E+06 1.23553E+03-2.80130E+06-1.21514E+07 2.09740E+09-4.74296E+01
 -1       420-7.38347E+06 3.89062E+02-2.80558E+06-2.44447E+06 2.12414E+09-4.16013E+01
 -1       421-7.38303E+06 4.56980E+02-2.80538E+06 3.23109E+06 2.14748E+09-3.57598E+01
 -1       422-7.37146E+06 1.16186E+03-2.80072E+06 1.33243E+07 2.16743E+09-2.99366E+01
 -1       423-7.34910E+06 1.00619E+02-2.79263E+06 2.00752E+07 2.18399E+09-2.41384E+01
 -1       424-7.31548E+06 2.15644E+02-2.77980E+06 2.80259E+07 2.19716E+09-1.83553E+01
 -1       425-7.27045E+06 9.31373E+02-2.76241E+06 3.51587E+07 2.20697E+09-1.25938E+01
 -1       426-7.21437E+06 1.21817E+03-2.74100E+06 4.53425E+07 2.21344E+09-6.87408E+00
 -1       427-7.14712E+06-5.73972E+02-2.71612E+06 5.21103E+07 2.21659E+09-1.21624E+00
 -1       428-7.06821E+06 1.23723E+03-2.68545E+06 5.94660E+07 2.21645E+09 4.37790E+00
 -1       429-6.97814E+06 8.58982E+02-2.65137E+06 6.95383E+07 2.21306E+09 9.91579E+00
 -1       430-6.87695E+06 2.42407E+02-2.61315E+06 7.64320E+07 2.20646E+09 1.53892E+01
 -1       431-6.76431E+06 1.69333E+02-2.57038E+06 8.45098E+07 2.19670E+09 2.07627E+01
 -1       432-6.64040E+06 1.06271E+03-2.52295E+06 9.16228E+07 2.18382E+09 2.60391E+01
 -1       433-6.50553E+06 5.17469E+02-2.47190E+06 1.01427E+08 2.16790E+09 3.12146E+01
 -1       434-6.35948E+06 4.17691E+02-2.41644E+06 1.07411E+08 2.14898E+09 3.62667E+01
 -1       435-6.20246E+06 1.11271E+03-2.35651E+06 1.17160E+08 2.12713E+09 4.11961E+01
 -1       436-6.03470E+06-5.40339E+01-2.29320E+06 1.23739E+08 2.10243E+09 4.60047E+01
 -1       437-5.85607E+06 8.63699E+02-2.22497E+06 1.31562E+08 2.07496E+09 5.06718E+01
 -1       438-5.66694E+06 1.48147E+01-2.15342E+06 1.38860E+08 2.04479E+09 5.51920E+01
 -1       439-5.46727E+06 1.04234E+03-2.07716E+06 1.45726E+08 2.01202E+09 5.95675E+01
 -1       440-5.25743E+06 3.85043E+02-1.99767E+06 1.54419E+08 1.97673E+09 6.37770E+01
 -1       441-5.03749E+06 5.15461E+02-1.91404E+06 1.60062E+08 1.93902E+09 6.78178E+01
 -1       442-4.80764E+06 4.99416E+02-1.82671E+06 1.68479E+08 1.89900E+09 7.16755E+01
 -1       443-4.56803E+06 6.31568E+02-1.73560E+06 1.74062E+08 1.85676E+09 7.53407E+01
 -1       444-4.31906E+06 7.17812E+02-1.64096E+06 1.82619E+08 1.81243E+09 7.88129E+01
 -1       445-4.06088E+06-5.18656E+02-1.54332E+06 1.87116E+08 1.76610E+09 8.20934E+01
 -1       446-3.79343E+06 1.20851E+03-1.44104E+06 1.93817E+08 1.71791E+09 8.51665E+01
 -1       447-3.51741E+06 2.37404E+02-1.33652E+06 2.00862E+08 1.66798E+09 8.80256E+01
 -1       448-3.23288E+06 4.92141E+02-1.22830E+06 2.05907E+08 1.61643E+09 9.06742E+01
 -1       449-2.94000E+06 3.94319E+02-1.11704E+06 2.12621E+08 1.56339E+09 9.30880E+01
 -1       450-2.63925E+06 5.10217E+02-1.00271E+06 2.17407E+08 1.50900E+09 9.52621E+01
 -1       451-2.33073E+06 3.09158E+02-8.85555E+05 2.23852E+08 1.45339E+09 9.72000E+01
 -1       452-2.01486E+06 1.49326E+02-7.65586E+05 2.27734E+08 1.39672E+09 9.88948E+01
 -1       453-1.69171E+06 7.00542E+02-6.42581E+05 2.33683E+08 1.33912E+09 1.00337E+02
 -1       454-1.36195E+06 7.57597E+01-5.17505E+05 2.38072E+08 1.28074E+09 1.01509E+02
 -1       455-1.02542E+06 4.23771E+02-3.89492E+05 2.42569E+08 1.22173E+09 1.02422E+02
 -1       456-6.82839E+05 3.76464E+02-2.59330E+05 2.47137E+08 1.16225E+09 1.03071E+02
 -1       457-3.34201E+05 1.63625E+02-1.26928E+05 2.51092E+08 1.10246E+09 1.03443E+02
 -1       458 1.99440E+04 4.12035E+02 7.74280E+03 2.55090E+08 1.04252E+09 1.03537E+02
 -1       459 3.79569E+05 1.20204E+02 1.44290E+05 2.58856E+08 9.82580E+08 1.03350E+02
 -1       460 7.44009E+05 3.75817E+02 2.82876E+05 2.62129E+08 9.22820E+08 1.02886E+02
 -1       461 1.11343E+06 1.31157E+02 4.23163E+05 2.65634E+08 8.63403E+08 1.02121E+02
 -1       462 1.48687E+06 1.42818E+02 5.65072E+05 2.68254E+08 8.04498E+08 1.01063E+02
 -1       463 1.86498E+06 4.47331E+02 7.08870E+05 2.71436E+08 7.46278E+08 9.97158E+01
 -1       464 2.24612E+06-1.36767E+02 8.53482E+05 2.74153E+08 6.88916E+08 9.80580E+01
 -1       465 2.63174E+06 2.78849E+02 1.00018E+06 2.75676E+08 6.32588E+08 9.61021E+01
 -1       466 3.01953E+06 4.74880E+02 1.14761E+06 2.79471E+08 5.77471E+08 9.38482E+01
 -1       467 3.41141E+06-3.19238E+02 1.29622E+06 2.80014E+08 5.23743E+08 9.12855E+01
 -1       468 3.80462E+06 4.78929E+02 1.44594E+06 2.82885E+08 4.71586E+08 8.84073E+01
 -1       469 4.20193E+06-2.19681E+02 1.59666E+06 2.83438E+08 4.21179E+08 8.52197E+01
 -1       470 4.59925E+06 3.47278E+02 1.74786E+06 2.85996E+08 3.72705E+08 8.17201E+01
 -1       471 5.00105E+06-8.18752E+02 1.90010E+06 2.85192E+08 3.26348E+08 7.79037E+01
 -1       472 5.40171E+06 2.13934E+03 2.05347E+06 2.88986E+08 2.82292E+08 7.37720E+01
 -1       473 5.80683E+06-2.01980E+03 2.20583E+06 2.89245E+08 2.40721E+08 6.93270E+01
 -1       474 6.20954E+06 1.64943E+03 2.36026E+06 2.88753E+08 2.01822E+08 6.45705E+01
 -1       475 6.61789E+06-1.59797E+03 2.51420E+06 2.91110E+08 1.65781E+08 5.94890E+01
 -1       476 7.02150E+06 2.09011E+03 2.66897E+06 2.89867E+08 1.32784E+08 5.40787E+01
 -1       477 7.43224E+06-3.09823E+03 2.82308E+06 2.91879E+08 1.03018E+08 4.83376E+01
 -1       478 7.83631E+06 4.53443E+03 2.97953E+06 2.89932E+08 7.66705E+07 4.22865E+01
 -1       479 8.24832E+06-8.04482E+03 3.13131E+06 2.92428E+08 5.39297E+07 3.59230E+01
 -1       480 8.65513E+06 2.25524E+04 3.29753E+06 2.96638E+08 3.49832E+07 2.92259E+01
 -1       481 9.05534E+06-7.43465E+04 3.41279E+06 2.69991E+08 2.00189E+07 2.22085E+01
 -1       482 9.51122E+06 2.53712E+05 3.71068E+06 3.71595E+08 9.22430E+06 1.48862E+01
 -1       483 9.73775E+06-8.71224E+05 3.36929E+06 2.08670E+07 2.79045E+06 7.19259E+00
 -1       484 9.73827E+06 3.19805E+06 4.91581E+06 1.28703E+09 6.88330E+05 3.23404E+00
 -1       485 6.79871E+07 2.00773E+07 3.34645E+07-3.80476E+04 3.01753E+09-5.26074E+06
 -1       486 2.59842E+08 1.98600E+07 1.06287E+08-1.10480E+07 2.95616E+09-5.26065E+06
 -1       487 8.28170E+08 1.88718E+07 3.21876E+08-2.15982E+07 2.83341E+09-5.26023E+06
 -1       488 1.75813E+09 1.82984E+07 6.75043E+08-3.17044E+07 2.71067E+09-5.25920E+06
 -1       489 3.03377E+09 1.63510E+07 1.15904E+09-4.13627E+07 2.58797E+09-5.25732E+06
 -1       490 4.64007E+09 1.73897E+07 1.76984E+09-5.06515E+07 2.46532E+09-5.25431E+06
 -1       491 6.56052E+09 1.53383E+07 2.49883E+09-5.92944E+07 2.34276E+09-5.24990E+06
 -1       492 8.77991E+09 1.31679E+07 3.34137E+09-6.77913E+07 2.22033E+09-5.24385E+06
 -1       493 1.12835E+10 1.70042E+07 4.29421E+09-7.56098E+07 2.09805E+09-5.23596E+06
 -1       494 1.40537E+10 1.30170E+07 5.34537E+09-8.28400E+07 1.97599E+09-5.22596E+06
 -1       495 1.70764E+10 1.11770E+07 6.49328E+09-8.99445E+07 1.85418E+09-5.21368E+06
 -1       496 2.03359E+10 1.08184E+07 7.73174E+09-9.64859E+07 1.73269E+09-5.19893E+06
 -1       497 2.38163E+10 9.71906E+06 9.05389E+09-1.02729E+08 1.61157E+09-5.18153E+06
 -1       498 2.75032E+10 1.37502E+07 1.04564E+10-1.08292E+08 1.49089E+09-5.16130E+06
 -1       499 3.13787E+10 6.88746E+06 1.19265E+10-1.13298E+08 1.37072E+09-5.13808E+06
 -1       500 3.54300E+10 6.37110E+06 1.34658E+10-1.18449E+08 1.25113E+09-5.11174E+06
 -1       501 3.96417E+10 1.04325E+07 1.50678E+10-1.22631E+08 1.13219E+09-5.08214E+06
 -1       502 4.39964E+10 4.63776E+06 1.67204E+10-1.26535E+08 1.01398E+09-5.04916E+06
 -1       503 4.84824E+10 1.09834E+07 1.84275E+10-1.30032E+08 8.96578E+08-5.01270E+06
 -1       504 5.30801E+10 5.46863E+04 2.01705E+10-1.32733E+08 7.80070E+08-4.97264E+06
 -1       505 5.77801E+10 6.86598E+06 2.19591E+10-1.36025E+08 6.64540E+08-4.92893E+06
 -1       506 6.25631E+10 2.01130E+06 2.37748E+10-1.37520E+08 5.50073E+08-4.88147E+06
 -1       507 6.74175E+10 5.01388E+06 2.56206E+10-1.40078E+08 4.36758E+08-4.83022E+06
 -1       508 7.23261E+10-2.35598E+06 2.74830E+10-1.40648E+08 3.24683E+08-4.77511E+06
 -1       509 7.72772E+10-2.27753E+06 2.93645E+10-1.42959E+08 2.13940E+08-4.71612E+06
 -1       510 8.22590E+10 1.95336E+07 3.12658E+10-1.42288E+08 1.04619E+08-4.65321E+06
 -1       511 8.72455E+10-1.57692E+07 3.31473E+10-1.42253E+08-3.18770E+06-4.58636E+06
 -1       512 9.22401E+10 4.74051E+06 3.50530E+10-1.43145E+08-1.09389E+08-4.51558E+06
 -1       513 9.72161E+10-4.52326E+06 3.69404E+10-1.41441E+08-2.13893E+08-4.44087E+06
 -1       514 1.02167E+11 1.93186E+06 3.88243E+10-1.41633E+08-3.16607E+08-4.36224E+06
 -1       515 1.07075E+11-1.27681E+07 4.06836E+10-1.39048E+08-4.17442E+08-4.27973E+06
 -1       516 1.11934E+11 3.53332E+06 4.25362E+10-1.39338E+08-5.16306E+08-4.19336E+06
 -1       517 1.16725E+11 5.99415E+06 4.43578E+10-1.34633E+08-6.13110E+08-4.10319E+06
 -1       518 1.21433E+11-2.70005E+07 4.61341E+10-1.34126E+08-7.07767E+08-4.00927E+06
 -1       519 1.26062E+11 1.89224E+07 4.79106E+10-1.30869E+08-8.00188E+08-3.91167E+06
 -1       520 1.30576E+11-2.22573E+07 4.96103E+10-1.26856E+08-8.90290E+08-3.81046E+06
 -1       521 1.34986E+11 2.02499E+06 5.12954E+10-1.25079E+08-9.77990E+08-3.70574E+06
 -1       522 1.39264E+11-2.01380E+07 5.29127E+10-1.19656E+08-1.06320E+09-3.59759E+06
 -1       523 1.43413E+11 1.52778E+06 5.44977E+10-1.18195E+08-1.14586E+09-3.48611E+06
 -1       524 1.47413E+11 6.35825E+05 5.60173E+10-1.10559E+08-1.22587E+09-3.37143E+06
 -1       525 1.51254E+11-2.06000E+07 5.74686E+10-1.08312E+08-1.30317E+09-3.25364E+06
 -1       526 1.54934E+11-2.05928E+06 5.88741E+10-1.01815E+08-1.37769E+09-3.13289E+06
 -1       527 1.58431E+11-2.83761E+07 6.01931E+10-9.83391E+07-1.44936E+09-3.00931E+06
 -1       528 1.61755E+11 2.19580E+07 6.14754E+10-9.22100E+07-1.51811E+09-2.88305E+06
 -1       529 1.64868E+11-4.31354E+07 6.26336E+10-8.52869E+07-1.58389E+09-2.75424E+06
 -1       530 1.67797E+11 5.65336E+06 6.37648E+10-8.26052E+07-1.64663E+09-2.62305E+06
 -1       531 1.70506E+11-3.02451E+06 6.47911E+10-7.24172E+07-1.70628E+09-2.48964E+06
 -1       532 1.72996E+11-2.47504E+07 6.57290E+10-6.90381E+07-1.76280E+09-2.35418E+06
 -1       533 1.75266E+11-7.79738E+06 6.65983E+10-6.05164E+07-1.81614E+09-2.21684E+06
 -1       534 1.77302E+11-1.44667E+07 6.73692E+10-5.58105E+07-1.86625E+09-2.07780E+06
 -1       535 1.79101E+11-8.76807E+06 6.80550E+10-4.68740E+07-1.91309E+09-1.93725E+06
 -1       536 1.80652E+11-2.85663E+07 6.86369E+10-4.18554E+07-1.95665E+09-1.79538E+06
 -1       537 1.81961E+11 3.48834E+06 6.91467E+10-3.37003E+07-1.99687E+09-1.65238E+06
 -1       538 1.83007E+11-2.26696E+07 6.95341E+10-2.62579E+07-2.03375E+09-1.50846E+06
 -1       539 1.83801E+11 3.41987E+06 6.98459E+10-1.88621E+07-2.06727E+09-1.36380E+06
 -1       540 1.84323E+11-2.99593E+07 7.00313E+10-1.00398E+07-2.09740E+09-1.21863E+06
 -1       541 1.84585E+11-1.06796E+07 7.01382E+10-4.56342E+06-2.12414E+09-1.07315E+06
 -1       542 1.84573E+11-1.13568E+07 7.01333E+10 5.34934E+06-2.14748E+09-9.27569E+05
 -1       543 1.84284E+11-2.88794E+07 7.00169E+10 1.12129E+07-2.16743E+09-7.82106E+05
 -1       544 1.83725E+11-2.77259E+06 6.98145E+10 2.00269E+07-2.18399E+09-6.36979E+05
 -1       545 1.82883E+11-5.18235E+06 6.94937E+10 2.80938E+07-2.19716E+09-4.92407E+05
 -1       546 1.81759E+11-2.34268E+07 6.90595E+10 3.72514E+07-2.20697E+09-3.48607E+05
 -1       547 1.80355E+11-2.99093E+07 6.85235E+10 4.32829E+07-2.21344E+09-2.05802E+05
 -1       548 1.78676E+11 1.30962E+07 6.79017E+10 5.21314E+07-2.21659E+09-6.42180E+04
 -1       549 1.76701E+11-3.00855E+07 6.71348E+10 6.15054E+07-2.21645E+09 7.59257E+04
 -1       550 1.74451E+11-2.25354E+07 6.62827E+10 6.74975E+07-2.21306E+09 2.14409E+05
 -1       551 1.71919E+11-5.63789E+06 6.53273E+10 7.65170E+07-2.20646E+09 3.51004E+05
 -1       552 1.69104E+11-4.49826E+06 6.42580E+10 8.44919E+07-2.19670E+09 4.85489E+05
 -1       553 1.66006E+11-2.66819E+07 6.30721E+10 9.36502E+07-2.18383E+09 6.17644E+05
 -1       554 1.62634E+11-1.30761E+07 6.17959E+10 9.95318E+07-2.16790E+09 7.47249E+05
 -1       555 1.58984E+11-1.07101E+07 6.04097E+10 1.09259E+08-2.14898E+09 8.74082E+05
 -1       556 1.55056E+11-2.73845E+07 5.89109E+10 1.15359E+08-2.12713E+09 9.97929E+05
 -1       557 1.50864E+11 7.15766E+04 5.73283E+10 1.23837E+08-2.10243E+09 1.11857E+06
 -1       558 1.46396E+11-2.07683E+07 5.56227E+10 1.31572E+08-2.07496E+09 1.23580E+06
 -1       559 1.41670E+11-1.08471E+06 5.38342E+10 1.39004E+08-2.04479E+09 1.34940E+06
 -1       560 1.36676E+11-2.55590E+07 5.19272E+10 1.47283E+08-2.01202E+09 1.45917E+06
 -1       561 1.31432E+11-1.02089E+07 4.99401E+10 1.52904E+08-1.97673E+09 1.56491E+06
 -1       562 1.25932E+11-1.26390E+07 4.78494E+10 1.61582E+08-1.93902E+09 1.66640E+06
 -1       563 1.20186E+11-1.29738E+07 4.56656E+10 1.67173E+08-1.89900E+09 1.76346E+06
 -1       564 1.14196E+11-1.59541E+07 4.33886E+10 1.75339E+08-1.85676E+09 1.85590E+06
 -1       565 1.07970E+11-1.75329E+07 4.10221E+10 1.80250E+08-1.81243E+09 1.94352E+06
 -1       566 1.01518E+11 1.14978E+07 3.85812E+10 1.88364E+08-1.76611E+09 2.02613E+06
 -1       567 9.48294E+10-2.94600E+07 3.60240E+10 1.94978E+08-1.71792E+09 2.10356E+06
 -1       568 8.79313E+10-6.97108E+06 3.34113E+10 1.99897E+08-1.66798E+09 2.17564E+06
 -1       569 8.08164E+10-1.12763E+07 3.07059E+10 2.06904E+08-1.61643E+09 2.24219E+06
 -1       570 7.34959E+10-1.05141E+07 2.79245E+10 2.11779E+08-1.56339E+09 2.30305E+06
 -1       571 6.59756E+10-1.23427E+07 2.50661E+10 2.18233E+08-1.50900E+09 2.35805E+06
 -1       572 5.82636E+10-8.61454E+06 2.21369E+10 2.22590E+08-1.45340E+09 2.40705E+06
 -1       573 5.03663E+10-3.16290E+06 1.91380E+10 2.29001E+08-1.39672E+09 2.44989E+06
 -1       574 4.22878E+10-1.80750E+07 1.60625E+10 2.33249E+08-1.33912E+09 2.48643E+06
 -1       575 3.40432E+10-1.57174E+06 1.29358E+10 2.38170E+08-1.28074E+09 2.51654E+06
 -1       576 2.56313E+10-1.09764E+07 9.73572E+09 2.42916E+08-1.22173E+09 2.54008E+06
 -1       577 1.70653E+10-8.49606E+06 6.48157E+09 2.46995E+08-1.16225E+09 2.55692E+06
 -1       578 8.35102E+09-5.29564E+06 3.17138E+09 2.51241E+08-1.10246E+09 2.56694E+06
 -1       579-5.04972E+08-9.17862E+06-1.95377E+08 2.55208E+08-1.04252E+09 2.57004E+06
 -1       580-9.49282E+09-4.90881E+06-3.60914E+09 2.58744E+08-9.82580E+08 2.56610E+06
 -1       581-1.86070E+10-7.36375E+06-7.07346E+09 2.62399E+08-9.22820E+08 2.55502E+06
 -1       582-2.78383E+10-5.59266E+06-1.05807E+10 2.65372E+08-8.63403E+08 2.53671E+06
 -1       583-3.71793E+10-9.31479E+05-1.41285E+10 2.68738E+08-8.04498E+08 2.51108E+06
 -1       584-4.66258E+10-1.45944E+07-1.77233E+10 2.71564E+08-7.46278E+08 2.47803E+06
 -1       585-5.61621E+10 7.39057E+06-2.13388E+10 2.73552E+08-6.88916E+08 2.43750E+06
 -1       586-6.57925E+10-1.20625E+07-2.50058E+10 2.77321E+08-6.32588E+08 2.38941E+06
 -1       587-7.54999E+10-5.49790E+06-2.86921E+10 2.77806E+08-5.77471E+08 2.33370E+06
 -1       588-8.52811E+10-7.48925E+04-3.24069E+10 2.81079E+08-5.23743E+08 2.27029E+06
 -1       589-9.51303E+10-2.26137E+06-3.61504E+10 2.81886E+08-4.71585E+08 2.19915E+06
 -1       590-1.05040E+11-6.46978E+06-3.99176E+10 2.84674E+08-4.21179E+08 2.12022E+06
 -1       591-1.15001E+11 5.74082E+06-4.36982E+10 2.84738E+08-3.72705E+08 2.03345E+06
 -1       592-1.25012E+11 2.99607E+06-4.75033E+10 2.88218E+08-3.26348E+08 1.93880E+06
 -1       593-1.35069E+11-3.26533E+07-5.13387E+10 2.87526E+08-2.82292E+08 1.83625E+06
 -1       594-1.45148E+11 2.55659E+07-5.51467E+10 2.87686E+08-2.40721E+08 1.72574E+06
 -1       595-1.55273E+11-1.19296E+07-5.90082E+10 2.90646E+08-2.01822E+08 1.60727E+06
 -1       596-1.65415E+11 5.49884E+06-6.28556E+10 2.89225E+08-1.65781E+08 1.48081E+06
 -1       597-1.75583E+11-1.17140E+07-6.67261E+10 2.91943E+08-1.32783E+08 1.34634E+06
 -1       598-1.85760E+11 2.99608E+07-7.05773E+10 2.89811E+08-1.03018E+08 1.20385E+06
 -1       599-1.95969E+11-5.83426E+07-7.44903E+10 2.94549E+08-7.66703E+07 1.05332E+06
 -1       600-2.06144E+11 1.39471E+08-7.82819E+10 2.87816E+08-5.39296E+07 8.94741E+05
 -1       601-2.16455E+11-5.00191E+08-8.24429E+10 2.99259E+08-3.49831E+07 7.28136E+05
 -1       602-2.26320E+11 1.80815E+09-8.53144E+10 2.70008E+08-2.00189E+07 5.53370E+05
 -1       603-2.37790E+11-6.34090E+09-9.27697E+10 3.68966E+08-9.22429E+06 3.70914E+05
 -1       604-2.43693E+11 2.18697E+10-8.42927E+10 2.21218E+07-2.79044E+06 1.79119E+05
 -1       605-2.42741E+11-8.00622E+10-1.22665E+11 1.28441E+09-6.88330E+05 8.03088E+04
 -1       606 6.79871E+07 2.00773E+07 3.34645E+07-3.79899E+04-3.01754E+09 5.26079E+06
 -1       607 2.59841E+08 1.98598E+07 1.06286E+08-1.10483E+07-2.95616E+09 5.26070E+06
 -1       608 8.28169E+08 1.88712E+07 3.21875E+08-2.15987E+07-2.83341E+09 5.26028E+06
 -1       609 1.75813E+09 1.82975E+07 6.75042E+08-3.17048E+07-2.71067E+09 5.25925E+06
 -1       610 3.03376E+09 1.63499E+07 1.15904E+09-4.13630E+07-2.58797E+09 5.25736E+06
 -1       611 4.64007E+09 1.73884E+07 1.76983E+09-5.06516E+07-2.46532E+09 5.25435E+06
 -1       612 6.56052E+09 1.53369E+07 2.49882E+09-5.92945E+07-2.34277E+09 5.24994E+06
 -1       613 8.77990E+09 1.31663E+07 3.34137E+09-6.77915E+07-2.22033E+09 5.24389E+06
 -1       614 1.12835E+10 1.70025E+07 4.29421E+09-7.56099E+07-2.09805E+09 5.23599E+06
 -1       615 1.40537E+10 1.30153E+07 5.34536E+09-8.28399E+07-1.97599E+09 5.22599E+06
 -1       616 1.70764E+10 1.11753E+07 6.49327E+09-8.99444E+07-1.85418E+09 5.21370E+06
 -1       617 2.03359E+10 1.08168E+07 7.73174E+09-9.64859E+07-1.73269E+09 5.19895E+06
 -1       618 2.38163E+10 9.71763E+06 9.05388E+09-1.02729E+08-1.61157E+09 5.18155E+06
 -1       619 2.75032E+10 1.37488E+07 1.04564E+10-1.08291E+08-1.49089E+09 5.16132E+06
 -1       620 3.13787E+10 6.88628E+06 1.19265E+10-1.13297E+08-1.37072E+09 5.13809E+06
 -1       621 3.54300E+10 6.36997E+06 1.34658E+10-1.18449E+08-1.25113E+09 5.11175E+06
 -1       622 3.96417E+10 1.04315E+07 1.50678E+10-1.22631E+08-1.13219E+09 5.08215E+06
 -1       623 4.39964E+10 4.63677E+06 1.67204E+10-1.26535E+08-1.01398E+09 5.04917E+06
 -1       624 4.84824E+10 1.09825E+07 1.84275E+10-1.30032E+08-8.96577E+08 5.01270E+06
 -1       625 5.30801E+10 5.39287E+04 2.01705E+10-1.32733E+08-7.80069E+08 4.97264E+06
 -1       626 5.77801E+10 6.86547E+06 2.19590E+10-1.36024E+08-6.64538E+08 4.92893E+06
 -1       627 6.25631E+10 2.01083E+06 2.37748E+10-1.37520E+08-5.50072E+08 4.88147E+06
 -1       628 6.74175E+10 5.01358E+06 2.56206E+10-1.40078E+08-4.36757E+08 4.83021E+06
 -1       629 7.23261E+10-2.35612E+06 2.74830E+10-1.40647E+08-3.24682E+08 4.77510E+06
 -1       630 7.72772E+10-2.27757E+06 2.93645E+10-1.42959E+08-2.13939E+08 4.71611E+06
 -1       631 8.22590E+10 1.95336E+07 3.12658E+10-1.42287E+08-1.04618E+08 4.65321E+06
 -1       632 8.72455E+10-1.57691E+07 3.31473E+10-1.42253E+08 3.18850E+06 4.58636E+06
 -1       633 9.22401E+10 4.74069E+06 3.50530E+10-1.43145E+08 1.09390E+08 4.51557E+06
 -1       634 9.72161E+10-4.52312E+06 3.69404E+10-1.41441E+08 2.13893E+08 4.44086E+06
 -1       635 1.02167E+11 1.93207E+06 3.88243E+10-1.41633E+08 3.16608E+08 4.36224E+06
 -1       636 1.07075E+11-1.27678E+07 4.06836E+10-1.39048E+08 4.17442E+08 4.27972E+06
 -1       637 1.11934E+11 3.53361E+06 4.25362E+10-1.39338E+08 5.16306E+08 4.19336E+06
 -1       638 1.16725E+11 5.99446E+06 4.43578E+10-1.34633E+08 6.13111E+08 4.10319E+06
 -1       639 1.21433E+11-2.70001E+07 4.61341E+10-1.34126E+08 7.07767E+08 4.00927E+06
 -1       640 1.26062E+11 1.89226E+07 4.79106E+10-1.30869E+08 8.00189E+08 3.91167E+06
 -1       641 1.30576E+11-2.22571E+07 4.96103E+10-1.26856E+08 8.90290E+08 3.81046E+06
 -1       642 1.34986E+11 2.02517E+06 5.12954E+10-1.25079E+08 9.77990E+08 3.70574E+06
 -1       643 1.39264E+11-2.01378E+07 5.29127E+10-1.19656E+08 1.06321E+09 3.59759E+06
 -1       644 1.43413E+11 1.52816E+06 5.44977E+10-1.18195E+08 1.14586E+09 3.48611E+06
 -1       645 1.47413E+11 6.36339E+05 5.60173E+10-1.10558E+08 1.22587E+09 3.37143E+06
 -1       646 1.51254E+11-2.05993E+07 5.74686E+10-1.08312E+08 1.30317E+09 3.25364E+06
 -1       647 1.54934E+11-2.05859E+06 5.88741E+10-1.01814E+08 1.37769E+09 3.13290E+06
 -1       648 1.58431E+11-2.83754E+07 6.01931E+10-9.83392E+07 1.44936E+09 3.00932E+06
 -1       649 1.61755E+11 2.19586E+07 6.14754E+10-9.22102E+07 1.51811E+09 2.88306E+06
 -1       650 1.64868E+11-4.31350E+07 6.26336E+10-8.52870E+07 1.58389E+09 2.75425E+06
 -1       651 1.67797E+11 5.65358E+06 6.37648E+10-8.26055E+07 1.64663E+09 2.62306E+06
 -1       652 1.70506E+11-3.02448E+06 6.47911E+10-7.24175E+07 1.70629E+09 2.48965E+06
 -1       653 1.72996E+11-2.47507E+07 6.57290E+10-6.90383E+07 1.76280E+09 2.35419E+06
 -1       654 1.75266E+11-7.79775E+06 6.65983E+10-6.05165E+07 1.81614E+09 2.21685E+06
 -1       655 1.77302E+11-1.44672E+07 6.73692E+10-5.58107E+07 1.86625E+09 2.07781E+06
 -1       656 1.79101E+11-8.76873E+06 6.80550E+10-4.68741E+07 1.91309E+09 1.93726E+06
 -1       657 1.80652E+11-2.85670E+07 6.86369E+10-4.18554E+07 1.95665E+09 1.79539E+06
 -1       658 1.81961E+11 3.48764E+06 6.91467E+10-3.37002E+07 1.99688E+09 1.65239E+06
 -1       659 1.83007E+11-2.26701E+07 6.95341E+10-2.62578E+07 2.03376E+09 1.50846E+06
 -1       660 1.83801E+11 3.41940E+06 6.98459E+10-1.88620E+07 2.06727E+09 1.36381E+06
 -1       661 1.84323E+11-2.99596E+07 7.00313E+10-1.00397E+07 2.09740E+09 1.21863E+06
 -1       662 1.84585E+11-1.06798E+07 7.01382E+10-4.56325E+06 2.12414E+09 1.07315E+06
 -1       663 1.84573E+11-1.13570E+07 7.01333E+10 5.34923E+06 2.14748E+09 9.27568E+05
 -1       664 1.84284E+11-2.88798E+07 7.00169E+10 1.12126E+07 2.16743E+09 7.82104E+05
 -1       665 1.83725E+11-2.77319E+06 6.98145E+10 2.00267E+07 2.18399E+09 6.36976E+05
 -1       666 1.82883E+11-5.18312E+06 6.94937E+10 2.80937E+07 2.19716E+09 4.92402E+05
 -1       667 1.81759E+11-2.34276E+07 6.90595E+10 3.72513E+07 2.20697E+09 3.48601E+05
 -1       668 1.80355E+11-2.99101E+07 6.85235E+10 4.32830E+07 2.21344E+09 2.05794E+05
 -1       669 1.78676E+11 1.30955E+07 6.79017E+10 5.21316E+07 2.21659E+09 6.42078E+04
 -1       670 1.76701E+11-3.00859E+07 6.71348E+10 6.15059E+07 2.21645E+09-7.59372E+04
 -1       671 1.74451E+11-2.25354E+07 6.62827E+10 6.74980E+07 2.21306E+09-2.14421E+05
 -1       672 1.71919E+11-5.63751E+06 6.53273E+10 7.65174E+07 2.20646E+09-3.51015E+05
 -1       673 1.69104E+11-4.49760E+06 6.42580E+10 8.44921E+07 2.19670E+09-4.85499E+05
 -1       674 1.66006E+11-2.66812E+07 6.30721E+10 9.36501E+07 2.18382E+09-6.17653E+05
 -1       675 1.62634E+11-1.30756E+07 6.17959E+10 9.95315E+07 2.16790E+09-7.47256E+05
 -1       676 1.58984E+11-1.07097E+07 6.04097E+10 1.09259E+08 2.14898E+09-8.74088E+05
 -1       677 1.55056E+11-2.73841E+07 5.89109E+10 1.15359E+08 2.12713E+09-9.97934E+05
 -1       678 1.50864E+11 7.18670E+04 5.73283E+10 1.23837E+08 2.10243E+09-1.11858E+06
 -1       679 1.46396E+11-2.07681E+07 5.56227E+10 1.31572E+08 2.07496E+09-1.23581E+06
 -1       680 1.41670E+11-1.08439E+06 5.38342E+10 1.39005E+08 2.04479E+09-1.34941E+06
 -1       681 1.36676E+11-2.55585E+07 5.19272E+10 1.47283E+08 2.01202E+09-1.45918E+06
 -1       682 1.31432E+11-1.02084E+07 4.99401E+10 1.52904E+08 1.97673E+09-1.56491E+06
 -1       683 1.25932E+11-1.26384E+07 4.78494E+10 1.61582E+08 1.93902E+09-1.66640E+06
 -1       684 1.20186E+11-1.29732E+07 4.56656E+10 1.67173E+08 1.89900E+09-1.76346E+06
 -1       685 1.14196E+11-1.59534E+07 4.33886E+10 1.75339E+08 1.85676E+09-1.85590E+06
 -1       686 1.07970E+11-1.75323E+07 4.10221E+10 1.80250E+08 1.81243E+09-1.94351E+06
 -1       687 1.01518E+11 1.14983E+07 3.85812E+10 1.88364E+08 1.76610E+09-2.02613E+06
 -1       688 9.48294E+10-2.94596E+07 3.60240E+10 1.94978E+08 1.71791E+09-2.10356E+06
 -1       689 8.79313E+10-6.97074E+06 3.34113E+10 1.99896E+08 1.66798E+09-2.17563E+06
 -1       690 8.08164E+10-1.12759E+07 3.07059E+10 2.06904E+08 1.61643E+09-2.24218E+06
 -1       691 7.34959E+10-1.05137E+07 2.79245E+10 2.11779E+08 1.56339E+09-2.30304E+06
 -1       692 6.59756E+10-1.23424E+07 2.50661E+10 2.18233E+08 1.50900E+09-2.35804E+06
 -1       693 5.82636E+10-8.61430E+06 2.21369E+10 2.22590E+08 1.45339E+09-2.40704E+06
 -1       694 5.03663E+10-3.16268E+06 1.91380E+10 2.29001E+08 1.39672E+09-2.44988E+06
 -1       695 4.22878E+10-1.80748E+07 1.60625E+10 2.33249E+08 1.33912E+09-2.48642E+06
 -1       696 3.40432E+10-1.57158E+06 1.29358E+10 2.38170E+08 1.28074E+09-2.51653E+06
 -1       697 2.56313E+10-1.09763E+07 9.73572E+09 2.42916E+08 1.22173E+09-2.54006E+06
 -1       698 1.70653E+10-8.49598E+06 6.48157E+09 2.46995E+08 1.16225E+09-2.55691E+06
 -1       699 8.35102E+09-5.29569E+06 3.17138E+09 2.51241E+08 1.10246E+09-2.56693E+06
 -1       700-5.04973E+08-9.17880E+06-1.95377E+08 2.55208E+08 1.04252E+09-2.57003E+06
 -1       701-9.49282E+09-4.90907E+06-3.60914E+09 2.58744E+08 9.82580E+08-2.56610E+06
 -1       702-1.86070E+10-7.36399E+06-7.07346E+09 2.62399E+08 9.22820E+08-2.55502E+06
 -1       703-2.78383E+10-5.59293E+06-1.05807E+10 2.65372E+08 8.63403E+08-2.53670E+06
 -1       704-3.71793E+10-9.31810E+05-1.41285E+10 2.68738E+08 8.04498E+08-2.51107E+06
 -1       705-4.66258E+10-1.45948E+07-1.77233E+10 2.71564E+08 7.46278E+08-2.47803E+06
 -1       706-5.61621E+10 7.39016E+06-2.13388E+10 2.73552E+08 6.88916E+08-2.43749E+06
 -1       707-6.57925E+10-1.20629E+07-2.50058E+10 2.77321E+08 6.32588E+08-2.38941E+06
 -1       708-7.54999E+10-5.49831E+06-2.86921E+10 2.77806E+08 5.77471E+08-2.33369E+06
 -1       709-8.52811E+10-7.52815E+04-3.24069E+10 2.81079E+08 5.23743E+08-2.27029E+06
 -1       710-9.51303E+10-2.26174E+06-3.61504E+10 2.81886E+08 4.71586E+08-2.19915E+06
 -1       711-1.05040E+11-6.47015E+06-3.99176E+10 2.84674E+08 4.21179E+08-2.12022E+06
 -1       712-1.15001E+11 5.74047E+06-4.36982E+10 2.84738E+08 3.72705E+08-2.03345E+06
 -1       713-1.25012E+11 2.99575E+06-4.75033E+10 2.88218E+08 3.26348E+08-1.93880E+06
 -1       714-1.35069E+11-3.26535E+07-5.13387E+10 2.87526E+08 2.82292E+08-1.83625E+06
 -1       715-1.45148E+11 2.55657E+07-5.51467E+10 2.87686E+08 2.40721E+08-1.72574E+06
 -1       716-1.55273E+11-1.19296E+07-5.90082E+10 2.90647E+08 2.01822E+08-1.60727E+06
 -1       717-1.65415E+11 5.49880E+06-6.28556E+10 2.89225E+08 1.65781E+08-1.48081E+06
 -1       718-1.75583E+11-1.17140E+07-6.67261E+10 2.91943E+08 1.32784E+08-1.34635E+06
 -1       719-1.85760E+11 2.99609E+07-7.05773E+10 2.89811E+08 1.03018E+08-1.20385E+06
 -1       720-1.95969E+11-5.83425E+07-7.44903E+10 2.94549E+08 7.66705E+07-1.05332E+06
 -1       721-2.06144E+11 1.39472E+08-7.82819E+10 2.87816E+08 5.39297E+07-8.94743E+05
 -1       722-2.16455E+11-5.00191E+08-8.24429E+10 2.99259E+08 3.49832E+07-7.28138E+05
 -1       723-2.26320E+11 1.80815E+09-8.53144E+10 2.70008E+08 2.00189E+07-5.53372E+05
 -1       724-2.37790E+11-6.34090E+09-9.27697E+10 3.68967E+08 9.22430E+06-3.70915E+05
 -1       725-2.43693E+11 2.18697E+10-8.42927E+10 2.21219E+07 2.79045E+06-1.79120E+05
 -1       726-2.42741E+11-8.00622E+10-1.22665E+11 1.28441E+09 6.88330E+05-8.03090E+04
 -1       727-6.79864E+07-2.00788E+07-3.34648E+07-3.78708E+04 3.01753E+09 5.26116E+06
 -3
    1PSTEP                         7           1           1          
    1PGM                1.000000E+00                                  
    1PGK                2.730098E+05                                  
    1PHID                         -1                                  
    1PSUBC                         0                                  
    1PMODE                         2                                  
  100CL  102 83.15900313         726                     2    2MODAL      1
 -4  TOSTRAIN    6    1
 -5  EXX         1    4    1    1
 -5  EYY         1    4    2    2
 -5  EZZ         1    4    3    3
 -5  EXY         1    4    1    2
 -5  EYZ         1    4    2    3
 -5  EZX         1    4    3    1
 -1         2-4.41009E-02 2.48215E-02 4.50576E-09-3.17288E-03 8.49011E-01 1.51099E-03
 -1         3-1.45408E-01 8.70227E-02 1.68107E-08-6.20277E-03 8.13757E-01 1.51086E-03
 -1         4-3.11064E-01 1.88617E-01 3.08186E-08-9.10516E-03 7.78507E-01 1.51057E-03
 -1         5-5.38421E-01 3.28182E-01 4.19053E-08-1.18789E-02 7.43267E-01 1.51003E-03
 -1         6-8.24335E-01 5.03304E-01 4.68097E-08-1.45466E-02 7.08043E-01 1.50916E-03
 -1         7-1.16652E+00 7.13260E-01 4.87300E-08-1.70287E-02 6.72844E-01 1.50790E-03
 -1         8-1.56195E+00 9.55862E-01 5.41478E-08-1.94690E-02 6.37680E-01 1.50616E-03
 -1         9-2.00734E+00 1.22842E+00 6.03822E-08-2.17143E-02 6.02562E-01 1.50389E-03
 -1        10-2.50105E+00 1.53146E+00 6.14343E-08-2.37908E-02 5.67505E-01 1.50102E-03
 -1        11-3.03948E+00 1.86166E+00 5.80405E-08-2.58311E-02 5.32522E-01 1.49749E-03
 -1        12-3.61991E+00 2.21745E+00 5.70408E-08-2.77097E-02 4.97629E-01 1.49326E-03
 -1        13-4.23978E+00 2.59749E+00 5.47603E-08-2.95028E-02 4.62844E-01 1.48826E-03
 -1        14-4.89584E+00 2.99915E+00 4.74085E-08-3.11002E-02 4.28186E-01 1.48245E-03
 -1        15-5.58667E+00 3.42333E+00 4.12693E-08-3.25379E-02 3.93673E-01 1.47578E-03
 -1        16-6.30813E+00 3.86557E+00 3.85027E-08-3.40173E-02 3.59325E-01 1.46821E-03
 -1        17-7.05764E+00 4.32449E+00 3.68502E-08-3.52184E-02 3.25166E-01 1.45971E-03
 -1        18-7.83369E+00 4.80078E+00 3.45064E-08-3.63396E-02 2.91216E-01 1.45024E-03
 -1        19-8.63179E+00 5.28923E+00 3.05763E-08-3.73437E-02 2.57498E-01 1.43977E-03
 -1        20-9.45168E+00 5.79296E+00 2.57329E-08-3.81194E-02 2.24037E-01 1.42826E-03
 -1        21-1.02878E+01 6.30469E+00 2.06117E-08-3.90648E-02 1.90856E-01 1.41571E-03
 -1        22-1.11401E+01 6.82755E+00 1.46007E-08-3.94943E-02 1.57981E-01 1.40208E-03
 -1        23-1.20041E+01 7.35681E+00 9.51705E-09-4.02289E-02 1.25437E-01 1.38735E-03
 -1        24-1.28790E+01 7.89382E+00 5.47781E-09-4.03925E-02 9.32494E-02 1.37153E-03
 -1        25-1.37606E+01 8.43415E+00 1.44612E-09-4.10564E-02 6.14438E-02 1.35458E-03
 -1        26-1.46453E+01 8.97396E+00-8.61440E-10-4.08635E-02 3.00467E-02 1.33651E-03
 -1        27-1.55371E+01 9.52446E+00-2.65547E-09-4.08536E-02-9.15510E-04 1.31731E-03
 -1        28-1.64242E+01 1.00659E+01-3.91409E-09-4.11096E-02-3.14166E-02 1.29698E-03
 -1        29-1.73112E+01 1.06106E+01-4.78461E-09-4.06203E-02-6.14301E-02 1.27552E-03
 -1        30-1.81922E+01 1.11498E+01-6.41599E-09-4.06754E-02-9.09299E-02 1.25294E-03
 -1        31-1.90676E+01 1.16880E+01-7.50340E-09-3.99331E-02-1.19890E-01 1.22924E-03
 -1        32-1.99311E+01 1.22154E+01-9.57114E-09-4.00164E-02-1.48283E-01 1.20443E-03
 -1        33-2.07839E+01 1.27379E+01-1.15439E-08-3.86651E-02-1.76086E-01 1.17854E-03
 -1        34-2.16258E+01 1.32575E+01-9.98324E-09-3.85195E-02-2.03271E-01 1.15156E-03
 -1        35-2.24450E+01 1.37545E+01-7.66326E-09-3.75841E-02-2.29815E-01 1.12353E-03
 -1        36-2.32533E+01 1.42545E+01-5.57762E-09-3.64316E-02-2.55692E-01 1.09446E-03
 -1        37-2.40360E+01 1.47315E+01-4.31611E-09-3.59214E-02-2.80879E-01 1.06438E-03
 -1        38-2.48002E+01 1.52024E+01-6.80342E-09-3.43639E-02-3.05353E-01 1.03331E-03
 -1        39-2.55367E+01 1.56513E+01-1.22739E-08-3.39443E-02-3.29091E-01 1.00130E-03
 -1        40-2.62490E+01 1.60880E+01-1.79610E-08-3.17512E-02-3.52071E-01 9.68355E-04
 -1        41-2.69352E+01 1.65109E+01-2.22843E-08-3.11061E-02-3.74273E-01 9.34524E-04
 -1        42-2.75884E+01 1.69093E+01-2.44945E-08-2.92401E-02-3.95674E-01 8.99842E-04
 -1        43-2.82141E+01 1.72957E+01-2.38081E-08-2.82419E-02-4.16257E-01 8.64347E-04
 -1        44-2.88005E+01 1.76495E+01-1.98854E-08-2.64818E-02-4.36003E-01 8.28081E-04
 -1        45-2.93619E+01 1.80008E+01-1.49257E-08-2.44935E-02-4.54894E-01 7.91084E-04
 -1        46-2.98780E+01 1.83117E+01-8.67400E-09-2.37233E-02-4.72913E-01 7.53404E-04
 -1        47-3.03614E+01 1.86089E+01 5.35171E-10-2.07975E-02-4.90046E-01 7.15086E-04
 -1        48-3.08071E+01 1.88845E+01 9.58511E-09-1.98270E-02-5.06278E-01 6.76177E-04
 -1        49-3.12096E+01 1.91293E+01 1.44634E-08-1.73797E-02-5.21596E-01 6.36729E-04
 -1        50-3.15727E+01 1.93526E+01 1.75580E-08-1.60282E-02-5.35988E-01 5.96795E-04
 -1        51-3.18925E+01 1.95480E+01 2.30213E-08-1.34617E-02-5.49442E-01 5.56426E-04
 -1        52-3.21708E+01 1.97208E+01 2.63282E-08-1.20204E-02-5.61950E-01 5.15677E-04
 -1        53-3.24005E+01 1.98580E+01 2.36486E-08-9.67837E-03-5.73504E-01 4.74605E-04
 -1        54-3.25896E+01 1.99768E+01 1.95514E-08-7.54099E-03-5.84096E-01 4.33265E-04
 -1        55-3.27281E+01 2.00588E+01 1.50312E-08-5.41699E-03-5.93721E-01 3.91718E-04
 -1        56-3.28246E+01 2.01217E+01 1.19163E-08-2.88333E-03-6.02375E-01 3.50021E-04
 -1        57-3.28692E+01 2.01468E+01 8.31550E-09-1.31055E-03-6.10054E-01 3.08234E-04
 -1        58-3.28671E+01 2.01456E+01 6.72138E-09 1.53627E-03-6.16758E-01 2.66421E-04
 -1        59-3.28176E+01 2.01172E+01 1.31626E-08 3.22024E-03-6.22487E-01 2.24640E-04
 -1        60-3.27152E+01 2.00516E+01 2.13648E-08 5.75151E-03-6.27242E-01 1.82956E-04
 -1        61-3.25656E+01 1.99601E+01 2.67558E-08 8.06826E-03-6.31027E-01 1.41432E-04
 -1        62-3.23674E+01 1.98407E+01 2.90630E-08 1.06982E-02-6.33845E-01 1.00129E-04
 -1        63-3.21181E+01 1.96886E+01 2.97073E-08 1.24304E-02-6.35702E-01 5.91121E-05
 -1        64-3.18144E+01 1.94977E+01 2.61684E-08 1.49716E-02-6.36606E-01 1.84457E-05
 -1        65-3.14674E+01 1.92898E+01 1.51750E-08 1.76637E-02-6.36567E-01-2.18069E-05
 -1        66-3.10659E+01 1.90429E+01-4.55468E-10 1.93846E-02-6.35593E-01-6.15825E-05
 -1        67-3.06134E+01 1.87637E+01-1.42934E-08 2.19749E-02-6.33698E-01-1.00816E-04
 -1        68-3.01120E+01 1.84562E+01-2.30718E-08 2.42652E-02-6.30894E-01-1.39443E-04
 -1        69-2.95626E+01 1.81220E+01-2.58180E-08 2.68954E-02-6.27196E-01-1.77401E-04
 -1        70-2.89607E+01 1.77516E+01-2.09875E-08 2.85845E-02-6.22622E-01-2.14627E-04
 -1        71-2.83105E+01 1.73528E+01-1.52038E-08 3.13780E-02-6.17188E-01-2.51056E-04
 -1        72-2.76130E+01 1.69271E+01-1.35306E-08 3.31299E-02-6.10914E-01-2.86628E-04
 -1        73-2.68635E+01 1.64647E+01-1.12523E-08 3.55647E-02-6.03821E-01-3.21280E-04
 -1        74-2.60703E+01 1.59809E+01-8.13080E-09 3.77860E-02-5.95930E-01-3.54951E-04
 -1        75-2.52265E+01 1.54615E+01-1.03725E-08 3.99206E-02-5.87266E-01-3.87580E-04
 -1        76-2.43400E+01 1.49209E+01-1.61866E-08 4.22980E-02-5.77853E-01-4.19109E-04
 -1        77-2.34044E+01 1.43458E+01-1.89670E-08 4.39125E-02-5.67718E-01-4.49478E-04
 -1        78-2.24254E+01 1.37460E+01-2.00648E-08 4.64046E-02-5.56889E-01-4.78630E-04
 -1        79-2.14022E+01 1.31189E+01-2.15343E-08 4.80103E-02-5.45394E-01-5.06508E-04
 -1        80-2.03361E+01 1.24658E+01-2.18322E-08 5.03555E-02-5.33264E-01-5.33057E-04
 -1        81-1.92276E+01 1.17866E+01-2.15210E-08 5.17660E-02-5.20531E-01-5.58224E-04
 -1        82-1.80755E+01 1.10772E+01-2.10757E-08 5.40961E-02-5.07227E-01-5.81953E-04
 -1        83-1.68890E+01 1.03546E+01-1.83702E-08 5.59955E-02-4.93387E-01-6.04193E-04
 -1        84-1.56582E+01 9.59774E+00-1.32104E-08 5.74082E-02-4.79046E-01-6.24895E-04
 -1        85-1.43918E+01 8.82201E+00-1.06592E-08 5.94205E-02-4.64240E-01-6.44010E-04
 -1        86-1.30882E+01 8.02295E+00-1.24310E-08 6.08206E-02-4.49007E-01-6.61489E-04
 -1        87-1.17493E+01 7.20254E+00-1.38950E-08 6.26742E-02-4.33386E-01-6.77288E-04
 -1        88-1.03756E+01 6.36020E+00-1.09829E-08 6.39256E-02-4.17416E-01-6.91362E-04
 -1        89-8.96880E+00 5.49736E+00-7.36875E-09 6.57667E-02-4.01139E-01-7.03667E-04
 -1        90-7.53193E+00 4.61836E+00-6.40109E-09 6.69865E-02-3.84595E-01-7.14163E-04
 -1        91-6.06206E+00 3.71563E+00-6.47655E-09 6.84000E-02-3.67828E-01-7.22810E-04
 -1        92-4.56522E+00 2.79926E+00-6.28759E-09 6.97629E-02-3.50882E-01-7.29570E-04
 -1        93-3.03964E+00 1.86395E+00-3.91569E-09 7.09345E-02-3.33800E-01-7.34407E-04
 -1        94-1.48760E+00 9.12343E-01-6.46914E-10 7.21537E-02-3.16628E-01-7.37287E-04
 -1        95 8.89158E-02-5.34763E-02 4.03519E-09 7.32930E-02-2.99411E-01-7.38177E-04
 -1        96 1.68980E+00-1.03514E+00 7.76652E-09 7.43086E-02-2.82198E-01-7.37046E-04
 -1        97 3.31244E+00-2.02939E+00 7.14467E-09 7.53583E-02-2.65035E-01-7.33863E-04
 -1        98 4.95641E+00-3.03718E+00 6.83863E-09 7.62121E-02-2.47970E-01-7.28604E-04
 -1        99 6.62022E+00-4.05745E+00 8.50676E-09 7.71788E-02-2.31052E-01-7.21240E-04
 -1       100 8.30081E+00-5.08597E+00 1.08525E-08 7.79902E-02-2.14332E-01-7.11750E-04
 -1       101 1.00013E+01-6.13064E+00 1.23967E-08 7.85613E-02-1.97857E-01-7.00107E-04
 -1       102 1.17140E+01-7.17821E+00 1.28577E-08 7.96437E-02-1.81680E-01-6.86296E-04
 -1       103 1.34433E+01-8.23881E+00 1.27971E-08 7.97829E-02-1.65850E-01-6.70293E-04
 -1       104 1.51855E+01-9.30725E+00 1.18591E-08 8.07227E-02-1.50419E-01-6.52082E-04
 -1       105 1.69391E+01-1.03818E+01 1.12765E-08 8.09547E-02-1.35440E-01-6.31648E-04
 -1       106 1.87032E+01-1.14625E+01 1.10456E-08 8.17553E-02-1.20963E-01-6.08976E-04
 -1       107 2.04782E+01-1.25518E+01 1.06948E-08 8.17739E-02-1.07041E-01-5.84054E-04
 -1       108 2.22604E+01-1.36438E+01 9.62754E-09 8.27731E-02-9.37274E-02-5.56869E-04
 -1       109 2.40475E+01-1.47351E+01 7.37944E-09 8.25746E-02-8.10744E-02-5.27413E-04
 -1       110 2.58486E+01-1.58455E+01 4.72858E-09 8.26202E-02-6.91353E-02-4.95674E-04
 -1       111 2.76473E+01-1.69438E+01 2.05830E-09 8.34708E-02-5.79635E-02-4.61646E-04
 -1       112 2.94551E+01-1.80538E+01-1.62884E-10 8.30621E-02-4.76123E-02-4.25324E-04
 -1       113 3.12639E+01-1.91604E+01-1.50225E-09 8.38434E-02-3.81355E-02-3.86702E-04
 -1       114 3.30805E+01-2.02785E+01-2.75390E-09 8.32303E-02-2.95867E-02-3.45774E-04
 -1       115 3.48887E+01-2.13769E+01-4.25870E-09 8.45918E-02-2.20198E-02-3.02539E-04
 -1       116 3.67222E+01-2.25227E+01-5.72075E-09 8.26572E-02-1.54886E-02-2.56991E-04
 -1       117 3.84883E+01-2.35340E+01-7.12292E-09 8.59447E-02-1.00472E-02-2.09138E-04
 -1       118 4.04969E+01-2.50217E+01-8.46167E-09 7.75423E-02-5.74944E-03-1.58941E-04
 -1       119 4.16498E+01-2.48223E+01-9.58189E-09 1.05965E-01-2.64922E-03-1.06535E-04
 -1       120 4.57801E+01-3.04903E+01-1.23584E-08 6.34898E-03-8.01417E-04-5.14473E-05
 -1       121 3.44854E+01-1.22346E+01-1.46977E-08 3.68949E-01-1.97689E-04-2.30666E-05
 -1       122-9.91463E-03 3.84445E-03-2.80163E-10-1.08602E-05-8.66640E-01-1.51102E-03
 -1       123-4.41008E-02 2.48215E-02-4.50576E-09-3.17296E-03-8.49012E-01-1.51100E-03
 -1       124-1.45408E-01 8.70227E-02-1.68107E-08-6.20293E-03-8.13757E-01-1.51088E-03
 -1       125-3.11063E-01 1.88617E-01-3.08186E-08-9.10528E-03-7.78507E-01-1.51058E-03
 -1       126-5.38421E-01 3.28182E-01-4.19053E-08-1.18790E-02-7.43267E-01-1.51004E-03
 -1       127-8.24334E-01 5.03304E-01-4.68097E-08-1.45466E-02-7.08043E-01-1.50917E-03
 -1       128-1.16652E+00 7.13260E-01-4.87300E-08-1.70287E-02-6.72844E-01-1.50791E-03
 -1       129-1.56195E+00 9.55862E-01-5.41478E-08-1.94690E-02-6.37680E-01-1.50617E-03
 -1       130-2.00734E+00 1.22842E+00-6.03822E-08-2.17144E-02-6.02562E-01-1.50390E-03
 -1       131-2.50105E+00 1.53145E+00-6.14343E-08-2.37908E-02-5.67505E-01-1.50103E-03
 -1       132-3.03948E+00 1.86166E+00-5.80405E-08-2.58311E-02-5.32522E-01-1.49750E-03
 -1       133-3.61991E+00 2.21745E+00-5.70408E-08-2.77097E-02-4.97629E-01-1.49326E-03
 -1       134-4.23978E+00 2.59749E+00-5.47603E-08-2.95028E-02-4.62844E-01-1.48826E-03
 -1       135-4.89584E+00 2.99915E+00-4.74085E-08-3.11001E-02-4.28185E-01-1.48245E-03
 -1       136-5.58667E+00 3.42333E+00-4.12693E-08-3.25378E-02-3.93672E-01-1.47578E-03
 -1       137-6.30813E+00 3.86557E+00-3.85027E-08-3.40173E-02-3.59325E-01-1.46821E-03
 -1       138-7.05764E+00 4.32449E+00-3.68502E-08-3.52184E-02-3.25165E-01-1.45971E-03
 -1       139-7.83369E+00 4.80078E+00-3.45064E-08-3.63396E-02-2.91215E-01-1.45024E-03
 -1       140-8.63179E+00 5.28923E+00-3.05763E-08-3.73437E-02-2.57498E-01-1.43977E-03
 -1       141-9.45168E+00 5.79296E+00-2.57329E-08-3.81194E-02-2.24036E-01-1.42826E-03
 -1       142-1.02878E+01 6.30469E+00-2.06117E-08-3.90648E-02-1.90856E-01-1.41570E-03
 -1       143-1.11401E+01 6.82755E+00-1.46007E-08-3.94942E-02-1.57981E-01-1.40207E-03
 -1       144-1.20041E+01 7.35681E+00-9.51705E-09-4.02289E-02-1.25437E-01-1.38735E-03
 -1       145-1.28790E+01 7.89382E+00-5.47781E-09-4.03924E-02-9.32490E-02-1.37152E-03
 -1       146-1.37606E+01 8.43415E+00-1.44612E-09-4.10563E-02-6.14435E-02-1.35458E-03
 -1       147-1.46453E+01 8.97396E+00 8.61440E-10-4.08634E-02-3.00465E-02-1.33651E-03
 -1       148-1.55371E+01 9.52446E+00 2.65547E-09-4.08536E-02 9.15740E-04-1.31731E-03
 -1       149-1.64242E+01 1.00659E+01 3.91409E-09-4.11096E-02 3.14168E-02-1.29698E-03
 -1       150-1.73112E+01 1.06106E+01 4.78461E-09-4.06203E-02 6.14303E-02-1.27552E-03
 -1       151-1.81922E+01 1.11498E+01 6.41599E-09-4.06754E-02 9.09300E-02-1.25294E-03
 -1       152-1.90676E+01 1.16880E+01 7.50340E-09-3.99331E-02 1.19890E-01-1.22924E-03
 -1       153-1.99311E+01 1.22154E+01 9.57114E-09-4.00163E-02 1.48284E-01-1.20443E-03
 -1       154-2.07839E+01 1.27379E+01 1.15439E-08-3.86651E-02 1.76086E-01-1.17853E-03
 -1       155-2.16258E+01 1.32575E+01 9.98324E-09-3.85195E-02 2.03271E-01-1.15156E-03
 -1       156-2.24450E+01 1.37545E+01 7.66326E-09-3.75841E-02 2.29815E-01-1.12352E-03
 -1       157-2.32533E+01 1.42545E+01 5.57762E-09-3.64316E-02 2.55692E-01-1.09446E-03
 -1       158-2.40360E+01 1.47315E+01 4.31611E-09-3.59214E-02 2.80879E-01-1.06438E-03
 -1       159-2.48002E+01 1.52024E+01 6.80342E-09-3.43639E-02 3.05353E-01-1.03331E-03
 -1       160-2.55367E+01 1.56513E+01 1.22739E-08-3.39443E-02 3.29091E-01-1.00129E-03
 -1       161-2.62490E+01 1.60880E+01 1.79610E-08-3.17512E-02 3.52072E-01-9.68354E-04
 -1       162-2.69352E+01 1.65109E+01 2.22843E-08-3.11060E-02 3.74273E-01-9.34523E-04
 -1       163-2.75884E+01 1.69093E+01 2.44945E-08-2.92400E-02 3.95674E-01-8.99842E-04
 -1       164-2.82141E+01 1.72957E+01 2.38081E-08-2.82420E-02 4.16257E-01-8.64347E-04
 -1       165-2.88005E+01 1.76495E+01 1.98854E-08-2.64818E-02 4.36003E-01-8.28082E-04
 -1       166-2.93619E+01 1.80008E+01 1.49257E-08-2.44935E-02 4.54894E-01-7.91085E-04
 -1       167-2.98780E+01 1.83117E+01 8.67400E-09-2.37234E-02 4.72914E-01-7.53405E-04
 -1       168-3.03614E+01 1.86089E+01-5.35171E-10-2.07976E-02 4.90047E-01-7.15087E-04
 -1       169-3.08071E+01 1.88845E+01-9.58511E-09-1.98270E-02 5.06279E-01-6.76178E-04
 -1       170-3.12096E+01 1.91293E+01-1.44634E-08-1.73797E-02 5.21596E-01-6.36731E-04
 -1       171-3.15727E+01 1.93526E+01-1.75580E-08-1.60282E-02 5.35988E-01-5.96795E-04
 -1       172-3.18925E+01 1.95480E+01-2.30213E-08-1.34618E-02 5.49442E-01-5.56426E-04
 -1       173-3.21708E+01 1.97208E+01-2.63282E-08-1.20204E-02 5.61951E-01-5.15677E-04
 -1       174-3.24005E+01 1.98580E+01-2.36486E-08-9.67833E-03 5.73504E-01-4.74604E-04
 -1       175-3.25896E+01 1.99768E+01-1.95514E-08-7.54095E-03 5.84096E-01-4.33264E-04
 -1       176-3.27281E+01 2.00588E+01-1.50312E-08-5.41695E-03 5.93721E-01-3.91717E-04
 -1       177-3.28246E+01 2.01217E+01-1.19163E-08-2.88330E-03 6.02375E-01-3.50019E-04
 -1       178-3.28692E+01 2.01468E+01-8.31550E-09-1.31051E-03 6.10054E-01-3.08233E-04
 -1       179-3.28671E+01 2.01456E+01-6.72138E-09 1.53624E-03 6.16759E-01-2.66419E-04
 -1       180-3.28176E+01 2.01172E+01-1.31626E-08 3.22014E-03 6.22487E-01-2.24638E-04
 -1       181-3.27152E+01 2.00516E+01-2.13648E-08 5.75144E-03 6.27243E-01-1.82954E-04
 -1       182-3.25656E+01 1.99601E+01-2.67558E-08 8.06823E-03 6.31027E-01-1.41429E-04
 -1       183-3.23674E+01 1.98407E+01-2.90630E-08 1.06982E-02 6.33845E-01-1.00126E-04
 -1       184-3.21181E+01 1.96886E+01-2.97073E-08 1.24304E-02 6.35702E-01-5.91081E-05
 -1       185-3.18144E+01 1.94977E+01-2.61684E-08 1.49716E-02 6.36606E-01-1.84412E-05
 -1       186-3.14674E+01 1.92898E+01-1.51750E-08 1.76639E-02 6.36566E-01 2.18118E-05
 -1       187-3.10659E+01 1.90429E+01 4.55468E-10 1.93847E-02 6.35593E-01 6.15874E-05
 -1       188-3.06134E+01 1.87637E+01 1.42934E-08 2.19750E-02 6.33698E-01 1.00821E-04
 -1       189-3.01120E+01 1.84562E+01 2.30718E-08 2.42652E-02 6.30894E-01 1.39448E-04
 -1       190-2.95626E+01 1.81220E+01 2.58180E-08 2.68953E-02 6.27196E-01 1.77405E-04
 -1       191-2.89607E+01 1.77516E+01 2.09875E-08 2.85844E-02 6.22622E-01 2.14630E-04
 -1       192-2.83105E+01 1.73528E+01 1.52038E-08 3.13780E-02 6.17188E-01 2.51060E-04
 -1       193-2.76130E+01 1.69271E+01 1.35306E-08 3.31299E-02 6.10914E-01 2.86631E-04
 -1       194-2.68635E+01 1.64647E+01 1.12523E-08 3.55647E-02 6.03820E-01 3.21283E-04
 -1       195-2.60703E+01 1.59809E+01 8.13080E-09 3.77860E-02 5.95930E-01 3.54954E-04
 -1       196-2.52265E+01 1.54615E+01 1.03725E-08 3.99207E-02 5.87265E-01 3.87583E-04
 -1       197-2.43400E+01 1.49209E+01 1.61866E-08 4.22981E-02 5.77853E-01 4.19111E-04
 -1       198-2.34044E+01 1.43458E+01 1.89670E-08 4.39125E-02 5.67718E-01 4.49480E-04
 -1       199-2.24254E+01 1.37460E+01 2.00648E-08 4.64046E-02 5.56888E-01 4.78631E-04
 -1       200-2.14022E+01 1.31189E+01 2.15343E-08 4.80103E-02 5.45394E-01 5.06509E-04
 -1       201-2.03361E+01 1.24658E+01 2.18322E-08 5.03555E-02 5.33264E-01 5.33058E-04
 -1       202-1.92276E+01 1.17866E+01 2.15210E-08 5.17660E-02 5.20530E-01 5.58224E-04
 -1       203-1.80755E+01 1.10772E+01 2.10757E-08 5.40961E-02 5.07227E-01 5.81953E-04
 -1       204-1.68890E+01 1.03546E+01 1.83702E-08 5.59955E-02 4.93387E-01 6.04192E-04
 -1       205-1.56582E+01 9.59774E+00 1.32104E-08 5.74081E-02 4.79045E-01 6.24894E-04
 -1       206-1.43918E+01 8.82201E+00 1.06592E-08 5.94205E-02 4.64240E-01 6.44009E-04
 -1       207-1.30882E+01 8.02295E+00 1.24310E-08 6.08206E-02 4.49007E-01 6.61488E-04
 -1       208-1.17493E+01 7.20254E+00 1.38950E-08 6.26742E-02 4.33386E-01 6.77287E-04
 -1       209-1.03756E+01 6.36020E+00 1.09829E-08 6.39255E-02 4.17416E-01 6.91361E-04
 -1       210-8.96880E+00 5.49736E+00 7.36875E-09 6.57667E-02 4.01139E-01 7.03666E-04
 -1       211-7.53193E+00 4.61836E+00 6.40109E-09 6.69865E-02 3.84595E-01 7.14161E-04
 -1       212-6.06206E+00 3.71563E+00 6.47655E-09 6.84000E-02 3.67828E-01 7.22808E-04
 -1       213-4.56522E+00 2.79926E+00 6.28759E-09 6.97629E-02 3.50882E-01 7.29568E-04
 -1       214-3.03964E+00 1.86395E+00 3.91569E-09 7.09345E-02 3.33800E-01 7.34405E-04
 -1       215-1.48760E+00 9.12343E-01 6.46914E-10 7.21537E-02 3.16627E-01 7.37285E-04
 -1       216 8.89159E-02-5.34763E-02-4.03519E-09 7.32930E-02 2.99411E-01 7.38175E-04
 -1       217 1.68980E+00-1.03514E+00-7.76652E-09 7.43086E-02 2.82198E-01 7.37044E-04
 -1       218 3.31244E+00-2.02939E+00-7.14467E-09 7.53583E-02 2.65035E-01 7.33862E-04
 -1       219 4.95641E+00-3.03718E+00-6.83863E-09 7.62121E-02 2.47970E-01 7.28602E-04
 -1       220 6.62022E+00-4.05745E+00-8.50676E-09 7.71788E-02 2.31052E-01 7.21239E-04
 -1       221 8.30081E+00-5.08597E+00-1.08525E-08 7.79901E-02 2.14332E-01 7.11748E-04
 -1       222 1.00013E+01-6.13064E+00-1.23967E-08 7.85613E-02 1.97857E-01 7.00106E-04
 -1       223 1.17140E+01-7.17821E+00-1.28577E-08 7.96437E-02 1.81680E-01 6.86295E-04
 -1       224 1.34433E+01-8.23881E+00-1.27971E-08 7.97829E-02 1.65850E-01 6.70292E-04
 -1       225 1.51855E+01-9.30725E+00-1.18591E-08 8.07227E-02 1.50420E-01 6.52082E-04
 -1       226 1.69391E+01-1.03818E+01-1.12765E-08 8.09547E-02 1.35440E-01 6.31648E-04
 -1       227 1.87032E+01-1.14625E+01-1.10456E-08 8.17553E-02 1.20963E-01 6.08976E-04
 -1       228 2.04782E+01-1.25518E+01-1.06948E-08 8.17740E-02 1.07041E-01 5.84054E-04
 -1       229 2.22604E+01-1.36438E+01-9.62754E-09 8.27731E-02 9.37275E-02 5.56870E-04
 -1       230 2.40475E+01-1.47351E+01-7.37944E-09 8.25746E-02 8.10745E-02 5.27414E-04
 -1       231 2.58486E+01-1.58455E+01-4.72858E-09 8.26202E-02 6.91354E-02 4.95675E-04
 -1       232 2.76473E+01-1.69438E+01-2.05830E-09 8.34708E-02 5.79635E-02 4.61647E-04
 -1       233 2.94551E+01-1.80538E+01 1.62884E-10 8.30621E-02 4.76124E-02 4.25325E-04
 -1       234 3.12639E+01-1.91604E+01 1.50225E-09 8.38434E-02 3.81355E-02 3.86703E-04
 -1       235 3.30805E+01-2.02785E+01 2.75390E-09 8.32303E-02 2.95868E-02 3.45775E-04
 -1       236 3.48887E+01-2.13769E+01 4.25870E-09 8.45918E-02 2.20198E-02 3.02540E-04
 -1       237 3.67222E+01-2.25227E+01 5.72075E-09 8.26572E-02 1.54887E-02 2.56992E-04
 -1       238 3.84883E+01-2.35340E+01 7.12292E-09 8.59447E-02 1.00472E-02 2.09139E-04
 -1       239 4.04969E+01-2.50217E+01 8.46167E-09 7.75423E-02 5.74945E-03 1.58942E-04
 -1       240 4.16498E+01-2.48223E+01 9.58189E-09 1.05965E-01 2.64923E-03 1.06536E-04
 -1       241 4.57801E+01-3.04903E+01 1.23584E-08 6.34900E-03 8.01418E-04 5.14475E-05
 -1       242 3.44854E+01-1.22346E+01 1.46977E-08 3.68949E-01 1.97689E-04 2.30667E-05
 -1       243-4.19571E-07 1.68123E-07 1.17703E-09-1.04298E-05 8.66639E-01 6.07502E-08
 -1       244-1.77184E-06 9.98684E-07 9.97262E-10-3.16951E-03 8.49011E-01 6.07496E-08
 -1       245-5.82135E-06 3.48281E-06 8.85638E-10-6.20538E-03 8.13757E-01 6.07455E-08
 -1       246-1.24518E-05 7.55239E-06 4.04843E-10-9.10497E-03 7.78507E-01 6.07354E-08
 -1       247-2.15440E-05 1.31299E-05 8.12484E-10-1.18787E-02 7.43267E-01 6.07174E-08
 -1       248-3.29816E-05 2.01395E-05 9.18752E-10-1.45102E-02 7.08043E-01 6.06886E-08
 -1       249-4.66656E-05 2.85329E-05 6.80211E-12-1.70652E-02 6.72844E-01 6.06399E-08
 -1       250-6.24845E-05 3.82405E-05 5.34387E-10-1.94035E-02 6.37680E-01 6.05723E-08
 -1       251-8.02971E-05 4.91396E-05 7.82110E-10-2.16963E-02 6.02562E-01 6.04856E-08
 -1       252-1.00050E-04 6.12653E-05 6.09061E-11-2.38753E-02 5.67505E-01 6.03742E-08
 -1       253-1.21583E-04 7.44684E-05 4.61284E-11-2.58312E-02 5.32522E-01 6.02373E-08
 -1       254-1.44802E-04 8.87027E-05 7.41662E-10-2.77079E-02 4.97629E-01 6.00707E-08
 -1       255-1.69596E-04 1.03901E-04 6.25493E-10-2.94230E-02 4.62844E-01 5.98717E-08
 -1       256-1.95840E-04 1.19971E-04 1.00540E-11-3.10860E-02 4.28186E-01 5.96413E-08
 -1       257-2.23470E-04 1.36934E-04 2.07822E-10-3.26321E-02 3.93673E-01 5.93761E-08
 -1       258-2.52333E-04 1.54632E-04 3.43223E-10-3.38972E-02 3.59325E-01 5.90735E-08
 -1       259-2.82308E-04 1.72977E-04 3.81923E-10-3.52050E-02 3.25166E-01 5.87336E-08
 -1       260-3.13356E-04 1.92037E-04 5.76477E-10-3.63258E-02 2.91216E-01 5.83551E-08
 -1       261-3.45274E-04 2.11570E-04 5.64903E-10-3.73295E-02 2.57498E-01 5.79370E-08
 -1       262-3.78074E-04 2.31724E-04 1.59188E-10-3.82872E-02 2.24037E-01 5.74801E-08
 -1       263-4.11518E-04 2.52188E-04 2.03841E-10-3.88619E-02 1.90856E-01 5.69816E-08
 -1       264-4.45606E-04 2.73105E-04 1.41969E-10-3.96984E-02 1.57981E-01 5.64365E-08
 -1       265-4.80172E-04 2.94279E-04 3.21304E-10-3.99994E-02 1.25437E-01 5.58482E-08
 -1       266-5.15159E-04 3.15750E-04 6.79726E-10-4.06233E-02 9.32494E-02 5.52158E-08
 -1       267-5.50437E-04 3.37380E-04 2.10051E-10-4.05316E-02 6.14438E-02 5.45397E-08
 -1       268-5.85807E-04 3.58953E-04 2.13218E-10-4.11035E-02 3.00467E-02 5.38183E-08
 -1       269-6.21499E-04 3.80990E-04-2.35620E-10-4.11410E-02-9.15510E-04 5.30493E-08
 -1       270-6.56964E-04 4.02629E-04 7.58486E-11-4.07981E-02-3.14166E-02 5.22348E-08
 -1       271-6.92463E-04 4.24437E-04 5.20542E-10-4.09331E-02-6.14301E-02 5.13790E-08
 -1       272-7.27690E-04 4.45992E-04-3.99206E-11-4.03313E-02-9.09299E-02 5.04780E-08
 -1       273-7.62713E-04 4.67526E-04 1.15461E-10-4.02786E-02-1.19890E-01 4.95310E-08
 -1       274-7.97256E-04 4.88625E-04 3.99208E-10-3.92535E-02-1.48283E-01 4.85410E-08
 -1       275-8.31354E-04 5.09509E-04 3.44345E-10-3.94298E-02-1.76086E-01 4.75062E-08
 -1       276-8.65055E-04 5.30319E-04 7.79318E-11-3.81124E-02-2.03271E-01 4.64285E-08
 -1       277-8.97794E-04 5.50170E-04-1.37772E-10-3.75699E-02-2.29815E-01 4.53078E-08
 -1       278-9.30156E-04 5.70200E-04 1.18862E-10-3.68550E-02-2.55692E-01 4.41438E-08
 -1       279-9.61437E-04 5.89255E-04 2.75039E-10-3.54579E-02-2.80879E-01 4.29420E-08
 -1       280-9.92025E-04 6.08108E-04 3.73960E-10-3.48287E-02-3.05353E-01 4.17025E-08
 -1       281-1.02148E-03 6.26059E-04 4.95627E-10-3.29865E-02-3.29091E-01 4.04229E-08
 -1       282-1.04997E-03 6.43521E-04 2.19968E-10-3.26973E-02-3.52071E-01 3.91093E-08
 -1       283-1.07743E-03 6.60457E-04 3.23877E-10-3.06290E-02-3.74273E-01 3.77585E-08
 -1       284-1.10353E-03 6.76360E-04 7.46312E-10-2.97315E-02-3.95674E-01 3.63692E-08
 -1       285-1.12860E-03 6.91854E-04 4.00458E-10-2.77006E-02-4.16257E-01 3.49505E-08
 -1       286-1.15201E-03 7.05965E-04 1.48947E-10-2.64860E-02-4.36003E-01 3.35017E-08
 -1       287-1.17451E-03 7.20061E-04 1.63429E-10-2.50469E-02-4.54894E-01 3.20203E-08
 -1       288-1.19512E-03 7.32460E-04 2.05090E-11-2.25637E-02-4.72913E-01 3.05144E-08
 -1       289-1.21448E-03 7.44373E-04 1.91180E-10-2.19586E-02-4.90046E-01 2.89807E-08
 -1       290-1.23230E-03 7.55388E-04 3.79610E-10-1.92225E-02-5.06278E-01 2.74206E-08
 -1       291-1.24839E-03 7.65176E-04 2.88799E-10-1.79694E-02-5.21596E-01 2.58424E-08
 -1       292-1.26293E-03 7.74123E-04 1.05790E-10-1.54411E-02-5.35988E-01 2.42440E-08
 -1       293-1.27570E-03 7.81916E-04-3.31755E-11-1.40653E-02-5.49442E-01 2.26286E-08
 -1       294-1.28687E-03 7.88857E-04 1.33178E-10-1.13909E-02-5.61950E-01 2.10000E-08
 -1       295-1.29602E-03 7.94313E-04 1.80248E-10-9.69089E-03-5.73504E-01 1.93609E-08
 -1       296-1.30362E-03 7.99099E-04-1.28183E-11-7.52173E-03-5.84096E-01 1.77077E-08
 -1       297-1.30913E-03 8.02348E-04-2.99765E-10-5.43114E-03-5.93721E-01 1.60439E-08
 -1       298-1.31302E-03 8.04890E-04 2.77883E-10-3.48993E-03-6.02375E-01 1.43796E-08
 -1       299-1.31478E-03 8.05875E-04 9.97886E-10-7.02103E-04-6.10054E-01 1.27108E-08
 -1       300-1.31471E-03 8.05841E-04 9.49743E-10 9.28001E-04-6.16758E-01 1.10397E-08
 -1       301-1.31272E-03 8.04699E-04 9.99226E-10 3.82684E-03-6.22487E-01 9.37250E-09
 -1       302-1.30863E-03 8.02070E-04 8.17493E-10 5.76567E-03-6.27242E-01 7.71008E-09
 -1       303-1.30265E-03 7.98423E-04 5.29415E-10 8.04911E-03-6.31027E-01 6.05084E-09
 -1       304-1.29471E-03 7.93631E-04-2.02799E-10 1.00976E-02-6.33845E-01 4.39563E-09
 -1       305-1.28476E-03 7.87567E-04 1.24725E-10 1.30224E-02-6.35702E-01 2.75155E-09
 -1       306-1.27258E-03 7.79905E-04 6.12597E-10 1.49660E-02-6.36606E-01 1.12633E-09
 -1       307-1.25873E-03 7.71620E-04 8.57559E-11 1.70785E-02-6.36567E-01-4.81610E-10
 -1       308-1.24265E-03 7.61720E-04-4.33992E-10 1.99713E-02-6.35593E-01-2.07498E-09
 -1       309-1.22457E-03 7.50568E-04-4.46822E-10 2.19512E-02-6.33698E-01-3.65028E-09
 -1       310-1.20450E-03 7.38261E-04 4.10935E-10 2.42712E-02-6.30894E-01-5.19695E-09
 -1       311-1.18253E-03 7.24898E-04 9.82829E-11 2.63142E-02-6.27196E-01-6.71605E-09
 -1       312-1.15846E-03 7.10081E-04-1.14830E-09 2.91299E-02-6.22622E-01-8.20881E-09
 -1       313-1.13244E-03 6.94119E-04-1.17406E-09 3.08487E-02-6.17188E-01-9.67022E-09
 -1       314-1.10455E-03 6.77109E-04-7.95991E-10 3.36485E-02-6.10914E-01-1.10982E-08
 -1       315-1.07455E-03 6.58594E-04-9.72809E-10 3.55379E-02-6.03821E-01-1.24903E-08
 -1       316-1.04285E-03 6.39262E-04-1.42701E-09 3.77848E-02-5.95930E-01-1.38412E-08
 -1       317-1.00908E-03 6.18466E-04-1.60821E-09 3.98806E-02-5.87266E-01-1.51506E-08
 -1       318-9.73635E-04 5.96863E-04-1.11844E-09 4.18526E-02-5.77853E-01-1.64184E-08
 -1       319-9.36197E-04 5.73840E-04-1.14326E-09 4.43492E-02-5.67718E-01-1.76392E-08
 -1       320-8.97046E-04 5.49860E-04-1.56192E-09 4.59700E-02-5.56889E-01-1.88142E-08
 -1       321-8.56116E-04 5.24776E-04-1.54906E-09 4.83873E-02-5.45394E-01-1.99385E-08
 -1       322-8.13464E-04 4.98644E-04-1.30007E-09 4.99907E-02-5.33264E-01-2.10078E-08
 -1       323-7.69142E-04 4.71491E-04-1.64905E-09 5.24482E-02-5.20531E-01-2.20202E-08
 -1       324-7.23034E-04 4.43097E-04-2.00053E-09 5.37398E-02-5.07227E-01-2.29770E-08
 -1       325-6.75600E-04 4.14214E-04-1.66637E-09 5.56645E-02-4.93387E-01-2.38741E-08
 -1       326-6.26345E-04 3.83915E-04-1.24920E-09 5.76876E-02-4.79046E-01-2.47082E-08
 -1       327-5.75709E-04 3.52908E-04-1.10275E-09 5.91368E-02-4.64240E-01-2.54808E-08
 -1       328-5.23547E-04 3.20926E-04-1.45914E-09 6.10650E-02-4.49007E-01-2.61865E-08
 -1       329-4.70006E-04 2.88127E-04-1.49321E-09 6.24395E-02-4.33386E-01-2.68232E-08
 -1       330-4.15048E-04 2.54422E-04-1.14572E-09 6.42906E-02-4.17416E-01-2.73921E-08
 -1       331-3.58784E-04 2.19915E-04-8.23475E-10 6.54055E-02-4.01139E-01-2.78915E-08
 -1       332-3.01302E-04 1.84748E-04-5.74386E-10 6.71140E-02-3.84595E-01-2.83196E-08
 -1       333-2.42515E-04 1.48646E-04-1.22597E-09 6.83746E-02-3.67828E-01-2.86704E-08
 -1       334-1.82631E-04 1.11981E-04-1.60392E-09 6.96661E-02-3.50882E-01-2.89462E-08
 -1       335-1.21623E-04 7.45844E-05-1.21159E-09 7.09781E-02-3.33800E-01-2.91470E-08
 -1       336-5.95191E-05 3.64986E-05-1.36294E-09 7.21138E-02-3.16628E-01-2.92695E-08
 -1       337 3.51487E-06-2.10629E-06-1.56473E-09 7.32621E-02-2.99411E-01-2.93126E-08
 -1       338 6.75837E-05-4.14061E-05-1.71985E-09 7.43436E-02-2.82198E-01-2.92761E-08
 -1       339 1.32449E-04-8.11360E-05-2.12024E-09 7.52836E-02-2.65035E-01-2.91600E-08
 -1       340 1.98257E-04-1.21497E-04-2.10246E-09 7.62903E-02-2.47970E-01-2.89576E-08
 -1       341 2.64752E-04-1.62250E-04-1.87991E-09 7.70427E-02-2.31052E-01-2.86722E-08
 -1       342 3.32046E-04-2.03461E-04-1.79582E-09 7.79566E-02-2.14332E-01-2.83030E-08
 -1       343 3.99977E-04-2.45161E-04-1.75218E-09 7.87370E-02-1.97857E-01-2.78438E-08
 -1       344 4.68598E-04-2.87173E-04-1.69837E-09 7.91743E-02-1.81680E-01-2.72986E-08
 -1       345 5.37628E-04-3.29461E-04-1.63029E-09 8.02642E-02-1.65850E-01-2.66681E-08
 -1       346 6.07494E-04-3.72369E-04-1.65467E-09 8.04203E-02-1.50419E-01-2.59487E-08
 -1       347 6.77423E-04-4.15141E-04-1.59883E-09 8.12449E-02-1.35440E-01-2.51387E-08
 -1       348 7.48248E-04-4.58627E-04-1.75643E-09 8.14037E-02-1.20963E-01-2.42401E-08
 -1       349 8.18934E-04-5.01887E-04-1.74715E-09 8.21383E-02-1.07041E-01-2.32518E-08
 -1       350 8.90607E-04-5.45946E-04-1.66512E-09 8.19073E-02-9.37274E-02-2.21721E-08
 -1       351 9.61627E-04-5.89146E-04-1.66983E-09 8.29970E-02-8.10744E-02-2.10011E-08
 -1       352 1.03422E-03-6.34099E-04-1.52208E-09 8.30714E-02-6.91353E-02-1.97400E-08
 -1       353 1.10553E-03-6.77396E-04-1.54745E-09 8.29302E-02-5.79635E-02-1.83895E-08
 -1       354 1.17859E-03-7.22540E-04-1.66295E-09 8.36069E-02-4.76123E-02-1.69453E-08
 -1       355 1.25006E-03-7.65933E-04-1.65495E-09 8.32500E-02-3.81355E-02-1.54065E-08
 -1       356 1.32376E-03-8.11683E-04-1.59978E-09 8.38279E-02-2.95867E-02-1.37731E-08
 -1       357 1.39488E-03-8.54422E-04-1.61129E-09 8.32687E-02-2.20198E-02-1.20509E-08
 -1       358 1.46962E-03-9.01628E-04-1.65944E-09 8.39856E-02-1.54886E-02-1.02391E-08
 -1       359 1.53872E-03-9.40578E-04-1.64269E-09 8.51948E-02-1.00472E-02-8.33138E-09
 -1       360 1.62056E-03-1.00151E-03-1.61573E-09 7.75418E-02-5.74944E-03-6.33179E-09
 -1       361 1.66593E-03-9.92846E-04-1.62523E-09 1.06722E-01-2.64922E-03-4.24467E-09
 -1       362 1.82904E-03-1.21788E-03-1.76652E-09 5.99302E-03-8.01417E-04-2.05066E-09
 -1       363 1.38503E-03-4.93341E-04-1.91882E-09 3.69635E-01-1.97689E-04-9.21423E-10
 -1       364-4.16586E-07 1.65935E-07-1.17703E-09-1.04131E-05-8.66640E-01-6.01345E-08
 -1       365-1.77019E-06 9.97585E-07-9.97262E-10-3.16960E-03-8.49012E-01-6.01326E-08
 -1       366-5.81888E-06 3.48209E-06-8.85638E-10-6.20554E-03-8.13757E-01-6.01246E-08
 -1       367-1.24468E-05 7.54777E-06-4.04843E-10-9.10509E-03-7.78507E-01-6.01078E-08
 -1       368-2.15390E-05 1.31336E-05-8.12484E-10-1.18788E-02-7.43267E-01-6.00806E-08
 -1       369-3.29767E-05 2.01336E-05-9.18752E-10-1.45102E-02-7.08043E-01-6.00427E-08
 -1       370-4.66621E-05 2.85335E-05-6.80211E-12-1.70653E-02-6.72844E-01-5.99864E-08
 -1       371-6.24832E-05 3.82385E-05-5.34387E-10-1.94035E-02-6.37680E-01-5.99142E-08
 -1       372-8.02947E-05 4.91338E-05-7.82110E-10-2.16964E-02-6.02562E-01-5.98243E-08
 -1       373-1.00045E-04 6.12629E-05-6.09061E-11-2.38752E-02-5.67505E-01-5.97063E-08
 -1       374-1.21580E-04 7.44666E-05-4.61284E-11-2.58311E-02-5.32522E-01-5.95626E-08
 -1       375-1.44801E-04 8.87029E-05-7.41662E-10-2.77079E-02-4.97629E-01-5.93916E-08
 -1       376-1.69594E-04 1.03903E-04-6.25493E-10-2.94229E-02-4.62844E-01-5.91895E-08
 -1       377-1.95838E-04 1.19970E-04-1.00540E-11-3.10859E-02-4.28185E-01-5.89550E-08
 -1       378-2.23468E-04 1.36934E-04-2.07822E-10-3.26321E-02-3.93672E-01-5.86862E-08
 -1       379-2.52332E-04 1.54628E-04-3.43223E-10-3.38972E-02-3.59325E-01-5.83814E-08
 -1       380-2.82307E-04 1.72981E-04-3.81923E-10-3.52050E-02-3.25165E-01-5.80393E-08
 -1       381-3.13354E-04 1.92039E-04-5.76477E-10-3.63258E-02-2.91215E-01-5.76570E-08
 -1       382-3.45272E-04 2.11568E-04-5.64903E-10-3.73295E-02-2.57498E-01-5.72353E-08
 -1       383-3.78073E-04 2.31723E-04-1.59188E-10-3.82872E-02-2.24036E-01-5.67756E-08
 -1       384-4.11517E-04 2.52191E-04-2.03841E-10-3.88618E-02-1.90856E-01-5.62750E-08
 -1       385-4.45605E-04 2.73104E-04-1.41969E-10-3.96984E-02-1.57981E-01-5.57281E-08
 -1       386-4.80171E-04 2.94277E-04-3.21304E-10-3.99993E-02-1.25437E-01-5.51380E-08
 -1       387-5.15159E-04 3.15752E-04-6.79726E-10-4.06233E-02-9.32490E-02-5.45046E-08
 -1       388-5.50436E-04 3.37377E-04-2.10051E-10-4.05316E-02-6.14435E-02-5.38270E-08
 -1       389-5.85806E-04 3.58951E-04-2.13218E-10-4.11035E-02-3.00465E-02-5.31036E-08
 -1       390-6.21497E-04 3.80995E-04 2.35620E-10-4.11410E-02 9.15740E-04-5.23320E-08
 -1       391-6.56963E-04 4.02630E-04-7.58486E-11-4.07981E-02 3.14168E-02-5.15148E-08
 -1       392-6.92463E-04 4.24433E-04-5.20542E-10-4.09331E-02 6.14303E-02-5.06579E-08
 -1       393-7.27689E-04 4.45994E-04 3.99206E-11-4.03313E-02 9.09300E-02-4.97553E-08
 -1       394-7.62711E-04 4.67526E-04-1.15461E-10-4.02786E-02 1.19890E-01-4.88051E-08
 -1       395-7.97255E-04 4.88626E-04-3.99208E-10-3.92534E-02 1.48284E-01-4.78122E-08
 -1       396-8.31353E-04 5.09508E-04-3.44345E-10-3.94298E-02 1.76086E-01-4.67754E-08
 -1       397-8.65054E-04 5.30319E-04-7.79318E-11-3.81124E-02 2.03271E-01-4.56958E-08
 -1       398-8.97793E-04 5.50169E-04 1.37772E-10-3.75699E-02 2.29815E-01-4.45734E-08
 -1       399-9.30156E-04 5.70200E-04-1.18862E-10-3.68550E-02 2.55692E-01-4.34079E-08
 -1       400-9.61435E-04 5.89253E-04-2.75039E-10-3.54579E-02 2.80879E-01-4.22041E-08
 -1       401-9.92024E-04 6.08106E-04-3.73960E-10-3.48286E-02 3.05353E-01-4.09617E-08
 -1       402-1.02148E-03 6.26060E-04-4.95627E-10-3.29864E-02 3.29091E-01-3.96797E-08
 -1       403-1.04996E-03 6.43519E-04-2.19968E-10-3.26973E-02 3.52072E-01-3.83632E-08
 -1       404-1.07743E-03 6.60456E-04-3.23877E-10-3.06289E-02 3.74273E-01-3.70087E-08
 -1       405-1.10353E-03 6.76358E-04-7.46312E-10-2.97315E-02 3.95674E-01-3.56164E-08
 -1       406-1.12860E-03 6.91857E-04-4.00458E-10-2.77006E-02 4.16257E-01-3.41957E-08
 -1       407-1.15201E-03 7.05963E-04-1.48947E-10-2.64860E-02 4.36003E-01-3.27451E-08
 -1       408-1.17451E-03 7.20062E-04-1.63429E-10-2.50469E-02 4.54894E-01-3.12630E-08
 -1       409-1.19512E-03 7.32460E-04-2.05090E-11-2.25638E-02 4.72914E-01-2.97578E-08
 -1       410-1.21448E-03 7.44377E-04-1.91180E-10-2.19587E-02 4.90047E-01-2.82255E-08
 -1       411-1.23230E-03 7.55388E-04-3.79610E-10-1.92226E-02 5.06279E-01-2.66669E-08
 -1       412-1.24840E-03 7.65181E-04-2.88799E-10-1.79695E-02 5.21596E-01-2.50912E-08
 -1       413-1.26294E-03 7.74123E-04-1.05790E-10-1.54411E-02 5.35988E-01-2.34949E-08
 -1       414-1.27570E-03 7.81918E-04 3.31755E-11-1.40653E-02 5.49442E-01-2.18805E-08
 -1       415-1.28687E-03 7.88856E-04-1.33178E-10-1.13909E-02 5.61951E-01-2.02517E-08
 -1       416-1.29602E-03 7.94311E-04-1.80248E-10-9.69085E-03 5.73504E-01-1.86112E-08
 -1       417-1.30362E-03 7.99099E-04 1.28183E-11-7.52169E-03 5.84096E-01-1.69559E-08
 -1       418-1.30913E-03 8.02345E-04 2.99765E-10-5.43110E-03 5.93721E-01-1.52895E-08
 -1       419-1.31302E-03 8.04890E-04-2.77883E-10-3.48990E-03 6.02375E-01-1.36218E-08
 -1       420-1.31478E-03 8.05874E-04-9.97886E-10-7.02055E-04 6.10054E-01-1.19479E-08
 -1       421-1.31470E-03 8.05838E-04-9.49743E-10 9.27971E-04 6.16759E-01-1.02703E-08
 -1       422-1.31272E-03 8.04702E-04-9.99226E-10 3.82675E-03 6.22487E-01-8.59781E-09
 -1       423-1.30863E-03 8.02072E-04-8.17493E-10 5.76560E-03 6.27243E-01-6.93256E-09
 -1       424-1.30265E-03 7.98423E-04-5.29415E-10 8.04907E-03 6.31027E-01-5.27165E-09
 -1       425-1.29471E-03 7.93635E-04 2.02799E-10 1.00976E-02 6.33845E-01-3.61695E-09
 -1       426-1.28476E-03 7.87567E-04-1.24725E-10 1.30224E-02 6.35702E-01-1.97424E-09
 -1       427-1.27258E-03 7.79908E-04-6.12597E-10 1.49661E-02 6.36606E-01-3.49305E-10
 -1       428-1.25873E-03 7.71619E-04-8.57559E-11 1.70787E-02 6.36566E-01 1.25734E-09
 -1       429-1.24265E-03 7.61722E-04 4.33992E-10 1.99714E-02 6.35593E-01 2.84782E-09
 -1       430-1.22457E-03 7.50568E-04 4.46822E-10 2.19513E-02 6.33698E-01 4.41978E-09
 -1       431-1.20450E-03 7.38263E-04-4.10935E-10 2.42713E-02 6.30894E-01 5.96305E-09
 -1       432-1.18254E-03 7.24898E-04-9.82829E-11 2.63142E-02 6.27196E-01 7.47845E-09
 -1       433-1.15846E-03 7.10081E-04 1.14830E-09 2.91298E-02 6.22622E-01 8.96486E-09
 -1       434-1.13244E-03 6.94124E-04 1.17406E-09 3.08487E-02 6.17188E-01 1.04158E-08
 -1       435-1.10456E-03 6.77111E-04 7.95991E-10 3.36485E-02 6.10914E-01 1.18315E-08
 -1       436-1.07456E-03 6.58595E-04 9.72809E-10 3.55378E-02 6.03820E-01 1.32126E-08
 -1       437-1.04285E-03 6.39263E-04 1.42701E-09 3.77848E-02 5.95930E-01 1.45530E-08
 -1       438-1.00908E-03 6.18471E-04 1.60821E-09 3.98807E-02 5.87265E-01 1.58512E-08
 -1       439-9.73641E-04 5.96863E-04 1.11844E-09 4.18527E-02 5.77853E-01 1.71078E-08
 -1       440-9.36204E-04 5.73845E-04 1.14326E-09 4.43492E-02 5.67718E-01 1.83168E-08
 -1       441-8.97055E-04 5.49864E-04 1.56192E-09 4.59700E-02 5.56888E-01 1.94773E-08
 -1       442-8.56125E-04 5.24777E-04 1.54906E-09 4.83873E-02 5.45394E-01 2.05853E-08
 -1       443-8.13473E-04 4.98650E-04 1.30007E-09 4.99907E-02 5.33264E-01 2.16379E-08
 -1       444-7.69149E-04 4.71493E-04 1.64905E-09 5.24482E-02 5.20530E-01 2.26351E-08
 -1       445-7.23042E-04 4.43096E-04 2.00053E-09 5.37398E-02 5.07227E-01 2.35773E-08
 -1       446-6.75608E-04 4.14216E-04 1.66637E-09 5.56645E-02 4.93387E-01 2.44599E-08
 -1       447-6.26352E-04 3.83919E-04 1.24920E-09 5.76876E-02 4.79045E-01 2.52810E-08
 -1       448-5.75716E-04 3.52912E-04 1.10275E-09 5.91368E-02 4.64240E-01 2.60417E-08
 -1       449-5.23554E-04 3.20931E-04 1.45914E-09 6.10650E-02 4.49007E-01 2.67350E-08
 -1       450-4.70013E-04 2.88128E-04 1.49321E-09 6.24395E-02 4.33386E-01 2.73593E-08
 -1       451-4.15055E-04 2.54422E-04 1.14572E-09 6.42905E-02 4.17416E-01 2.79159E-08
 -1       452-3.58791E-04 2.19921E-04 8.23475E-10 6.54055E-02 4.01139E-01 2.84027E-08
 -1       453-3.01310E-04 1.84751E-04 5.74386E-10 6.71140E-02 3.84595E-01 2.88170E-08
 -1       454-2.42523E-04 1.48651E-04 1.22597E-09 6.83746E-02 3.67828E-01 2.91535E-08
 -1       455-1.82638E-04 1.11986E-04 1.60392E-09 6.96661E-02 3.50882E-01 2.94156E-08
 -1       456-1.21631E-04 7.45891E-05 1.21159E-09 7.09781E-02 3.33800E-01 2.96020E-08
 -1       457-5.95277E-05 3.65021E-05 1.36294E-09 7.21137E-02 3.16627E-01 2.97089E-08
 -1       458 3.50575E-06-2.10384E-06 1.56473E-09 7.32620E-02 2.99411E-01 2.97360E-08
 -1       459 6.75740E-05-4.14040E-05 1.71985E-09 7.43435E-02 2.82198E-01 2.96823E-08
 -1       460 1.32440E-04-8.11323E-05 2.12024E-09 7.52836E-02 2.65035E-01 2.95490E-08
 -1       461 1.98247E-04-1.21493E-04 2.10246E-09 7.62903E-02 2.47970E-01 2.93292E-08
 -1       462 2.64742E-04-1.62246E-04 1.87991E-09 7.70427E-02 2.31052E-01 2.90255E-08
 -1       463 3.32037E-04-2.03458E-04 1.79582E-09 7.79566E-02 2.14332E-01 2.86385E-08
 -1       464 3.99968E-04-2.45158E-04 1.75218E-09 7.87370E-02 1.97857E-01 2.81623E-08
 -1       465 4.68589E-04-2.87170E-04 1.69837E-09 7.91743E-02 1.81680E-01 2.76006E-08
 -1       466 5.37619E-04-3.29457E-04 1.63029E-09 8.02642E-02 1.65850E-01 2.69533E-08
 -1       467 6.07485E-04-3.72366E-04 1.65467E-09 8.04203E-02 1.50420E-01 2.62173E-08
 -1       468 6.77414E-04-4.15137E-04 1.59883E-09 8.12449E-02 1.35440E-01 2.53907E-08
 -1       469 7.48239E-04-4.58623E-04 1.75643E-09 8.14037E-02 1.20963E-01 2.44752E-08
 -1       470 8.18925E-04-5.01884E-04 1.74715E-09 8.21384E-02 1.07041E-01 2.34701E-08
 -1       471 8.90598E-04-5.45943E-04 1.66512E-09 8.19073E-02 9.37275E-02 2.23740E-08
 -1       472 9.61619E-04-5.89143E-04 1.66983E-09 8.29970E-02 8.10745E-02 2.11874E-08
 -1       473 1.03421E-03-6.34096E-04 1.52208E-09 8.30714E-02 6.91354E-02 1.99108E-08
 -1       474 1.10552E-03-6.77393E-04 1.54745E-09 8.29302E-02 5.79635E-02 1.85447E-08
 -1       475 1.17858E-03-7.22537E-04 1.66295E-09 8.36069E-02 4.76124E-02 1.70853E-08
 -1       476 1.25005E-03-7.65929E-04 1.65495E-09 8.32500E-02 3.81355E-02 1.55315E-08
 -1       477 1.32376E-03-8.11679E-04 1.59978E-09 8.38279E-02 2.95868E-02 1.38826E-08
 -1       478 1.39487E-03-8.54419E-04 1.61129E-09 8.32687E-02 2.20198E-02 1.21447E-08
 -1       479 1.46961E-03-9.01625E-04 1.65944E-09 8.39857E-02 1.54887E-02 1.03171E-08
 -1       480 1.53871E-03-9.40574E-04 1.64269E-09 8.51948E-02 1.00472E-02 8.39371E-09
 -1       481 1.62055E-03-1.00151E-03 1.61573E-09 7.75418E-02 5.74945E-03 6.37830E-09
 -1       482 1.66592E-03-9.92843E-04 1.62523E-09 1.06722E-01 2.64923E-03 4.27533E-09
 -1       483 1.82903E-03-1.21788E-03 1.76652E-09 5.99303E-03 8.01418E-04 2.06572E-09
 -1       484 1.38502E-03-4.93341E-04 1.91882E-09 3.69635E-01 1.97689E-04 9.28818E-10
 -1       485 9.91492E-03-3.84480E-03 2.07390E-09-1.09273E-05 8.66639E-01-1.51089E-03
 -1       486 4.41011E-02-2.48218E-02-2.51123E-09-3.17300E-03 8.49011E-01-1.51086E-03
 -1       487 1.45408E-01-8.70230E-02-1.50394E-08-6.20301E-03 8.13757E-01-1.51074E-03
 -1       488 3.11064E-01-1.88618E-01-3.00089E-08-9.10552E-03 7.78507E-01-1.51045E-03
 -1       489 5.38422E-01-3.28182E-01-4.02804E-08-1.18794E-02 7.43267E-01-1.50991E-03
 -1       490 8.24335E-01-5.03304E-01-4.49722E-08-1.45472E-02 7.08043E-01-1.50904E-03
 -1       491 1.16652E+00-7.13260E-01-4.87164E-08-1.70294E-02 6.72844E-01-1.50778E-03
 -1       492 1.56195E+00-9.55862E-01-5.30790E-08-1.94697E-02 6.37680E-01-1.50604E-03
 -1       493 2.00734E+00-1.22842E+00-5.88179E-08-2.17152E-02 6.02562E-01-1.50377E-03
 -1       494 2.50105E+00-1.53146E+00-6.13125E-08-2.37917E-02 5.67505E-01-1.50090E-03
 -1       495 3.03948E+00-1.86166E+00-5.79482E-08-2.58321E-02 5.32522E-01-1.49737E-03
 -1       496 3.61991E+00-2.21745E+00-5.55575E-08-2.77108E-02 4.97629E-01-1.49314E-03
 -1       497 4.23978E+00-2.59749E+00-5.35093E-08-2.95040E-02 4.62844E-01-1.48814E-03
 -1       498 4.89584E+00-2.99915E+00-4.73884E-08-3.11014E-02 4.28186E-01-1.48233E-03
 -1       499 5.58667E+00-3.42333E+00-4.08537E-08-3.25392E-02 3.93673E-01-1.47566E-03
 -1       500 6.30813E+00-3.86557E+00-3.78162E-08-3.40187E-02 3.59325E-01-1.46810E-03
 -1       501 7.05764E+00-4.32449E+00-3.60863E-08-3.52198E-02 3.25166E-01-1.45960E-03
 -1       502 7.83369E+00-4.80078E+00-3.33535E-08-3.63411E-02 2.91216E-01-1.45012E-03
 -1       503 8.63179E+00-5.28923E+00-2.94465E-08-3.73452E-02 2.57498E-01-1.43965E-03
 -1       504 9.45168E+00-5.79296E+00-2.54145E-08-3.81209E-02 2.24037E-01-1.42815E-03
 -1       505 1.02878E+01-6.30469E+00-2.02040E-08-3.90664E-02 1.90856E-01-1.41559E-03
 -1       506 1.11401E+01-6.82755E+00-1.43168E-08-3.94959E-02 1.57981E-01-1.40196E-03
 -1       507 1.20041E+01-7.35681E+00-8.87444E-09-4.02305E-02 1.25437E-01-1.38724E-03
 -1       508 1.28790E+01-7.89382E+00-4.11835E-09-4.03941E-02 9.32494E-02-1.37142E-03
 -1       509 1.37606E+01-8.43415E+00-1.02602E-09-4.10580E-02 6.14438E-02-1.35447E-03
 -1       510 1.46453E+01-8.97396E+00 1.28787E-09-4.08651E-02 3.00467E-02-1.33641E-03
 -1       511 1.55371E+01-9.52446E+00 2.18423E-09-4.08552E-02-9.15510E-04-1.31721E-03
 -1       512 1.64242E+01-1.00659E+01 4.06579E-09-4.11112E-02-3.14166E-02-1.29688E-03
 -1       513 1.73112E+01-1.06106E+01 5.82569E-09-4.06219E-02-6.14301E-02-1.27542E-03
 -1       514 1.81922E+01-1.11498E+01 6.33615E-09-4.06770E-02-9.09299E-02-1.25284E-03
 -1       515 1.90676E+01-1.16880E+01 7.73432E-09-3.99347E-02-1.19890E-01-1.22914E-03
 -1       516 1.99311E+01-1.22154E+01 1.03696E-08-4.00180E-02-1.48283E-01-1.20434E-03
 -1       517 2.07839E+01-1.27379E+01 1.22326E-08-3.86667E-02-1.76086E-01-1.17844E-03
 -1       518 2.16258E+01-1.32575E+01 1.01391E-08-3.85210E-02-2.03271E-01-1.15147E-03
 -1       519 2.24450E+01-1.37545E+01 7.38772E-09-3.75856E-02-2.29815E-01-1.12344E-03
 -1       520 2.32533E+01-1.42545E+01 5.81534E-09-3.64330E-02-2.55692E-01-1.09437E-03
 -1       521 2.40360E+01-1.47315E+01 4.86619E-09-3.59228E-02-2.80879E-01-1.06429E-03
 -1       522 2.48002E+01-1.52024E+01 7.55134E-09-3.43653E-02-3.05353E-01-1.03323E-03
 -1       523 2.55367E+01-1.56513E+01 1.32652E-08-3.39457E-02-3.29091E-01-1.00121E-03
 -1       524 2.62490E+01-1.60880E+01 1.84010E-08-3.17525E-02-3.52071E-01-9.68276E-04
 -1       525 2.69352E+01-1.65109E+01 2.29321E-08-3.11073E-02-3.74273E-01-9.34448E-04
 -1       526 2.75884E+01-1.69093E+01 2.59871E-08-2.92412E-02-3.95674E-01-8.99769E-04
 -1       527 2.82141E+01-1.72957E+01 2.46090E-08-2.82431E-02-4.16257E-01-8.64277E-04
 -1       528 2.88005E+01-1.76495E+01 2.01833E-08-2.64828E-02-4.36003E-01-8.28014E-04
 -1       529 2.93619E+01-1.80008E+01 1.52526E-08-2.44945E-02-4.54894E-01-7.91020E-04
 -1       530 2.98780E+01-1.83117E+01 8.71502E-09-2.37243E-02-4.72913E-01-7.53343E-04
 -1       531 3.03614E+01-1.86089E+01-1.52812E-10-2.07983E-02-4.90046E-01-7.15028E-04
 -1       532 3.08071E+01-1.88845E+01-8.82590E-09-1.98278E-02-5.06278E-01-6.76122E-04
 -1       533 3.12096E+01-1.91293E+01-1.38858E-08-1.73804E-02-5.21596E-01-6.36678E-04
 -1       534 3.15727E+01-1.93526E+01-1.73464E-08-1.60288E-02-5.35988E-01-5.96746E-04
 -1       535 3.18925E+01-1.95480E+01-2.30876E-08-1.34622E-02-5.49442E-01-5.56380E-04
 -1       536 3.21708E+01-1.97208E+01-2.60618E-08-1.20209E-02-5.61950E-01-5.15635E-04
 -1       537 3.24005E+01-1.98580E+01-2.32881E-08-9.67876E-03-5.73504E-01-4.74566E-04
 -1       538 3.25896E+01-1.99768E+01-1.95771E-08-7.54130E-03-5.84096E-01-4.33230E-04
 -1       539 3.27281E+01-2.00588E+01-1.56307E-08-5.41721E-03-5.93721E-01-3.91686E-04
 -1       540 3.28246E+01-2.01217E+01-1.13605E-08-2.88345E-03-6.02375E-01-3.49992E-04
 -1       541 3.28692E+01-2.01468E+01-6.31973E-09-1.31062E-03-6.10054E-01-3.08209E-04
 -1       542 3.28671E+01-2.01456E+01-4.82190E-09 1.53634E-03-6.16758E-01-2.66399E-04
 -1       543 3.28176E+01-2.01172E+01-1.11642E-08 3.22035E-03-6.22487E-01-2.24622E-04
 -1       544 3.27152E+01-2.00516E+01-1.97299E-08 5.75175E-03-6.27242E-01-1.82941E-04
 -1       545 3.25656E+01-1.99601E+01-2.56970E-08 8.06858E-03-6.31027E-01-1.41420E-04
 -1       546 3.23674E+01-1.98407E+01-2.94686E-08 1.06986E-02-6.33845E-01-1.00120E-04
 -1       547 3.21181E+01-1.96886E+01-2.94578E-08 1.24309E-02-6.35702E-01-5.91066E-05
 -1       548 3.18144E+01-1.94977E+01-2.49432E-08 1.49722E-02-6.36606E-01-1.84435E-05
 -1       549 3.14674E+01-1.92898E+01-1.50035E-08 1.76644E-02-6.36567E-01 2.18059E-05
 -1       550 3.10659E+01-1.90429E+01-4.12515E-10 1.93853E-02-6.35593E-01 6.15783E-05
 -1       551 3.06134E+01-1.87637E+01 1.33998E-08 2.19758E-02-6.33698E-01 1.00809E-04
 -1       552 3.01120E+01-1.84562E+01 2.38937E-08 2.42661E-02-6.30894E-01 1.39433E-04
 -1       553 2.95626E+01-1.81220E+01 2.60145E-08 2.68964E-02-6.27196E-01 1.77388E-04
 -1       554 2.89607E+01-1.77516E+01 1.86909E-08 2.85856E-02-6.22622E-01 2.14611E-04
 -1       555 2.83105E+01-1.73528E+01 1.28557E-08 3.13793E-02-6.17188E-01 2.51037E-04
 -1       556 2.76130E+01-1.69271E+01 1.19386E-08 3.31312E-02-6.10914E-01 2.86606E-04
 -1       557 2.68635E+01-1.64647E+01 9.30668E-09 3.55662E-02-6.03821E-01 3.21255E-04
 -1       558 2.60703E+01-1.59809E+01 5.27679E-09 3.77875E-02-5.95930E-01 3.54923E-04
 -1       559 2.52265E+01-1.54615E+01 7.15610E-09 3.99222E-02-5.87266E-01 3.87550E-04
 -1       560 2.43400E+01-1.49209E+01 1.39497E-08 4.22997E-02-5.77853E-01 4.19076E-04
 -1       561 2.34044E+01-1.43458E+01 1.66805E-08 4.39143E-02-5.67718E-01 4.49443E-04
 -1       562 2.24254E+01-1.37460E+01 1.69409E-08 4.64065E-02-5.56889E-01 4.78592E-04
 -1       563 2.14022E+01-1.31189E+01 1.84362E-08 4.80122E-02-5.45394E-01 5.06468E-04
 -1       564 2.03361E+01-1.24658E+01 1.92321E-08 5.03575E-02-5.33264E-01 5.33015E-04
 -1       565 1.92276E+01-1.17866E+01 1.82229E-08 5.17680E-02-5.20531E-01 5.58180E-04
 -1       566 1.80755E+01-1.10772E+01 1.70746E-08 5.40983E-02-5.07227E-01 5.81907E-04
 -1       567 1.68890E+01-1.03546E+01 1.50375E-08 5.59978E-02-4.93387E-01 6.04145E-04
 -1       568 1.56582E+01-9.59774E+00 1.07120E-08 5.74105E-02-4.79046E-01 6.24846E-04
 -1       569 1.43918E+01-8.82201E+00 8.45374E-09 5.94229E-02-4.64240E-01 6.43959E-04
 -1       570 1.30882E+01-8.02295E+00 9.51269E-09 6.08230E-02-4.49007E-01 6.61437E-04
 -1       571 1.17493E+01-7.20254E+00 1.09086E-08 6.26767E-02-4.33386E-01 6.77234E-04
 -1       572 1.03756E+01-6.36020E+00 8.69150E-09 6.39281E-02-4.17416E-01 6.91308E-04
 -1       573 8.96880E+00-5.49736E+00 5.72180E-09 6.57693E-02-4.01139E-01 7.03612E-04
 -1       574 7.53193E+00-4.61836E+00 5.25232E-09 6.69892E-02-3.84595E-01 7.14106E-04
 -1       575 6.06206E+00-3.71563E+00 4.02461E-09 6.84028E-02-3.67828E-01 7.22753E-04
 -1       576 4.56522E+00-2.79926E+00 3.07974E-09 6.97657E-02-3.50882E-01 7.29512E-04
 -1       577 3.03964E+00-1.86395E+00 1.49251E-09 7.09373E-02-3.33800E-01 7.34349E-04
 -1       578 1.48760E+00-9.12343E-01-2.07897E-09 7.21566E-02-3.16628E-01 7.37228E-04
 -1       579-8.89159E-02 5.34764E-02-7.16464E-09 7.32959E-02-2.99411E-01 7.38119E-04
 -1       580-1.68980E+00 1.03514E+00-1.12062E-08 7.43116E-02-2.82198E-01 7.36988E-04
 -1       581-3.31244E+00 2.02939E+00-1.13851E-08 7.53613E-02-2.65035E-01 7.33805E-04
 -1       582-4.95641E+00 3.03718E+00-1.10435E-08 7.62152E-02-2.47970E-01 7.28546E-04
 -1       583-6.62022E+00 4.05745E+00-1.22666E-08 7.71819E-02-2.31052E-01 7.21183E-04
 -1       584-8.30081E+00 5.08597E+00-1.44441E-08 7.79933E-02-2.14332E-01 7.11693E-04
 -1       585-1.00013E+01 6.13064E+00-1.59011E-08 7.85644E-02-1.97857E-01 7.00052E-04
 -1       586-1.17140E+01 7.17821E+00-1.62544E-08 7.96469E-02-1.81680E-01 6.86241E-04
 -1       587-1.34433E+01 8.23881E+00-1.60577E-08 7.97861E-02-1.65850E-01 6.70240E-04
 -1       588-1.51855E+01 9.30725E+00-1.51684E-08 8.07260E-02-1.50419E-01 6.52030E-04
 -1       589-1.69391E+01 1.03818E+01-1.44742E-08 8.09578E-02-1.35440E-01 6.31598E-04
 -1       590-1.87032E+01 1.14625E+01-1.45585E-08 8.17586E-02-1.20963E-01 6.08928E-04
 -1       591-2.04782E+01 1.25518E+01-1.41891E-08 8.17771E-02-1.07041E-01 5.84007E-04
 -1       592-2.22604E+01 1.36438E+01-1.29578E-08 8.27766E-02-9.37274E-02 5.56825E-04
 -1       593-2.40475E+01 1.47351E+01-1.07191E-08 8.25777E-02-8.10744E-02 5.27371E-04
 -1       594-2.58486E+01 1.58455E+01-7.77273E-09 8.26237E-02-6.91353E-02 4.95634E-04
 -1       595-2.76473E+01 1.69438E+01-5.15319E-09 8.34739E-02-5.79635E-02 4.61610E-04
 -1       596-2.94551E+01 1.80538E+01-3.16301E-09 8.30657E-02-4.76123E-02 4.25290E-04
 -1       597-3.12639E+01 1.91604E+01-1.80764E-09 8.38464E-02-3.81355E-02 3.86671E-04
 -1       598-3.30805E+01 2.02785E+01-4.45658E-10 8.32340E-02-2.95867E-02 3.45746E-04
 -1       599-3.48887E+01 2.13769E+01 1.03611E-09 8.45947E-02-2.20198E-02 3.02515E-04
 -1       600-3.67222E+01 2.25227E+01 2.40188E-09 8.26610E-02-1.54886E-02 2.56970E-04
 -1       601-3.84883E+01 2.35340E+01 3.83753E-09 8.59475E-02-1.00472E-02 2.09121E-04
 -1       602-4.04968E+01 2.50217E+01 5.23021E-09 7.75464E-02-5.74944E-03 1.58928E-04
 -1       603-4.16499E+01 2.48224E+01 6.33144E-09 1.05967E-01-2.64922E-03 1.06527E-04
 -1       604-4.57798E+01 3.04899E+01 8.82538E-09 6.35341E-03-8.01417E-04 5.14432E-05
 -1       605-3.44859E+01 1.22356E+01 1.08600E-08 3.68885E-01-1.97689E-04 2.30648E-05
 -1       606 9.91493E-03-3.84481E-03-2.07390E-09-1.09107E-05-8.66640E-01 1.51090E-03
 -1       607 4.41011E-02-2.48218E-02 2.51123E-09-3.17309E-03-8.49012E-01 1.51088E-03
 -1       608 1.45408E-01-8.70230E-02 1.50394E-08-6.20318E-03-8.13757E-01 1.51076E-03
 -1       609 3.11064E-01-1.88618E-01 3.00089E-08-9.10564E-03-7.78507E-01 1.51046E-03
 -1       610 5.38421E-01-3.28182E-01 4.02804E-08-1.18795E-02-7.43267E-01 1.50992E-03
 -1       611 8.24334E-01-5.03304E-01 4.49722E-08-1.45472E-02-7.08043E-01 1.50905E-03
 -1       612 1.16652E+00-7.13260E-01 4.87164E-08-1.70294E-02-6.72844E-01 1.50779E-03
 -1       613 1.56195E+00-9.55862E-01 5.30790E-08-1.94698E-02-6.37680E-01 1.50605E-03
 -1       614 2.00734E+00-1.22842E+00 5.88179E-08-2.17152E-02-6.02562E-01 1.50378E-03
 -1       615 2.50105E+00-1.53146E+00 6.13125E-08-2.37917E-02-5.67505E-01 1.50091E-03
 -1       616 3.03948E+00-1.86166E+00 5.79482E-08-2.58321E-02-5.32522E-01 1.49738E-03
 -1       617 3.61991E+00-2.21745E+00 5.55575E-08-2.77108E-02-4.97629E-01 1.49314E-03
 -1       618 4.23978E+00-2.59749E+00 5.35093E-08-2.95039E-02-4.62844E-01 1.48814E-03
 -1       619 4.89584E+00-2.99915E+00 4.73884E-08-3.11014E-02-4.28185E-01 1.48233E-03
 -1       620 5.58667E+00-3.42333E+00 4.08537E-08-3.25391E-02-3.93672E-01 1.47566E-03
 -1       621 6.30813E+00-3.86557E+00 3.78162E-08-3.40187E-02-3.59325E-01 1.46810E-03
 -1       622 7.05764E+00-4.32449E+00 3.60863E-08-3.52198E-02-3.25165E-01 1.45960E-03
 -1       623 7.83369E+00-4.80078E+00 3.33535E-08-3.63411E-02-2.91215E-01 1.45012E-03
 -1       624 8.63179E+00-5.28923E+00 2.94465E-08-3.73452E-02-2.57498E-01 1.43965E-03
 -1       625 9.45168E+00-5.79296E+00 2.54145E-08-3.81209E-02-2.24036E-01 1.42815E-03
 -1       626 1.02878E+01-6.30469E+00 2.02040E-08-3.90663E-02-1.90856E-01 1.41559E-03
 -1       627 1.11401E+01-6.82755E+00 1.43168E-08-3.94958E-02-1.57981E-01 1.40196E-03
 -1       628 1.20041E+01-7.35681E+00 8.87444E-09-4.02305E-02-1.25437E-01 1.38724E-03
 -1       629 1.28790E+01-7.89382E+00 4.11835E-09-4.03940E-02-9.32490E-02 1.37141E-03
 -1       630 1.37606E+01-8.43415E+00 1.02602E-09-4.10580E-02-6.14435E-02 1.35447E-03
 -1       631 1.46453E+01-8.97396E+00-1.28787E-09-4.08651E-02-3.00465E-02 1.33641E-03
 -1       632 1.55371E+01-9.52446E+00-2.18423E-09-4.08552E-02 9.15740E-04 1.31721E-03
 -1       633 1.64242E+01-1.00659E+01-4.06579E-09-4.11112E-02 3.14168E-02 1.29688E-03
 -1       634 1.73112E+01-1.06106E+01-5.82569E-09-4.06219E-02 6.14303E-02 1.27542E-03
 -1       635 1.81922E+01-1.11498E+01-6.33615E-09-4.06770E-02 9.09300E-02 1.25284E-03
 -1       636 1.90676E+01-1.16880E+01-7.73432E-09-3.99347E-02 1.19890E-01 1.22914E-03
 -1       637 1.99311E+01-1.22154E+01-1.03696E-08-4.00179E-02 1.48284E-01 1.20434E-03
 -1       638 2.07839E+01-1.27379E+01-1.22326E-08-3.86666E-02 1.76086E-01 1.17844E-03
 -1       639 2.16258E+01-1.32575E+01-1.01391E-08-3.85211E-02 2.03271E-01 1.15146E-03
 -1       640 2.24450E+01-1.37545E+01-7.38772E-09-3.75856E-02 2.29815E-01 1.12344E-03
 -1       641 2.32533E+01-1.42545E+01-5.81534E-09-3.64330E-02 2.55692E-01 1.09437E-03
 -1       642 2.40360E+01-1.47315E+01-4.86619E-09-3.59228E-02 2.80879E-01 1.06429E-03
 -1       643 2.48002E+01-1.52024E+01-7.55134E-09-3.43652E-02 3.05353E-01 1.03323E-03
 -1       644 2.55367E+01-1.56513E+01-1.32652E-08-3.39456E-02 3.29091E-01 1.00121E-03
 -1       645 2.62490E+01-1.60880E+01-1.84010E-08-3.17525E-02 3.52072E-01 9.68277E-04
 -1       646 2.69352E+01-1.65109E+01-2.29321E-08-3.11073E-02 3.74273E-01 9.34449E-04
 -1       647 2.75884E+01-1.69093E+01-2.59871E-08-2.92412E-02 3.95674E-01 8.99771E-04
 -1       648 2.82141E+01-1.72957E+01-2.46090E-08-2.82431E-02 4.16257E-01 8.64279E-04
 -1       649 2.88005E+01-1.76495E+01-2.01833E-08-2.64829E-02 4.36003E-01 8.28017E-04
 -1       650 2.93619E+01-1.80008E+01-1.52526E-08-2.44945E-02 4.54894E-01 7.91023E-04
 -1       651 2.98780E+01-1.83117E+01-8.71502E-09-2.37244E-02 4.72914E-01 7.53346E-04
 -1       652 3.03614E+01-1.86089E+01 1.52812E-10-2.07984E-02 4.90047E-01 7.15031E-04
 -1       653 3.08071E+01-1.88845E+01 8.82590E-09-1.98279E-02 5.06279E-01 6.76125E-04
 -1       654 3.12096E+01-1.91293E+01 1.38858E-08-1.73804E-02 5.21596E-01 6.36680E-04
 -1       655 3.15727E+01-1.93526E+01 1.73464E-08-1.60289E-02 5.35988E-01 5.96748E-04
 -1       656 3.18925E+01-1.95480E+01 2.30876E-08-1.34623E-02 5.49442E-01 5.56382E-04
 -1       657 3.21708E+01-1.97208E+01 2.60618E-08-1.20209E-02 5.61951E-01 5.15636E-04
 -1       658 3.24005E+01-1.98580E+01 2.32881E-08-9.67871E-03 5.73504E-01 4.74567E-04
 -1       659 3.25896E+01-1.99768E+01 1.95771E-08-7.54126E-03 5.84096E-01 4.33231E-04
 -1       660 3.27281E+01-2.00588E+01 1.56307E-08-5.41718E-03 5.93721E-01 3.91686E-04
 -1       661 3.28246E+01-2.01217E+01 1.13605E-08-2.88342E-03 6.02375E-01 3.49992E-04
 -1       662 3.28692E+01-2.01468E+01 6.31973E-09-1.31057E-03 6.10054E-01 3.08209E-04
 -1       663 3.28671E+01-2.01456E+01 4.82190E-09 1.53630E-03 6.16759E-01 2.66398E-04
 -1       664 3.28176E+01-2.01172E+01 1.11642E-08 3.22026E-03 6.22487E-01 2.24621E-04
 -1       665 3.27152E+01-2.00516E+01 1.97299E-08 5.75168E-03 6.27243E-01 1.82940E-04
 -1       666 3.25656E+01-1.99601E+01 2.56970E-08 8.06854E-03 6.31027E-01 1.41418E-04
 -1       667 3.23674E+01-1.98407E+01 2.94686E-08 1.06986E-02 6.33845E-01 1.00118E-04
 -1       668 3.21180E+01-1.96886E+01 2.94578E-08 1.24309E-02 6.35702E-01 5.91042E-05
 -1       669 3.18144E+01-1.94977E+01 2.49432E-08 1.49722E-02 6.36606E-01 1.84405E-05
 -1       670 3.14674E+01-1.92898E+01 1.50035E-08 1.76645E-02 6.36566E-01-2.18092E-05
 -1       671 3.10659E+01-1.90429E+01 4.12515E-10 1.93855E-02 6.35593E-01-6.15818E-05
 -1       672 3.06134E+01-1.87637E+01-1.33998E-08 2.19759E-02 6.33698E-01-1.00812E-04
 -1       673 3.01120E+01-1.84562E+01-2.38937E-08 2.42662E-02 6.30894E-01-1.39436E-04
 -1       674 2.95626E+01-1.81220E+01-2.60145E-08 2.68964E-02 6.27196E-01-1.77390E-04
 -1       675 2.89607E+01-1.77516E+01-1.86909E-08 2.85855E-02 6.22622E-01-2.14613E-04
 -1       676 2.83105E+01-1.73528E+01-1.28557E-08 3.13792E-02 6.17188E-01-2.51039E-04
 -1       677 2.76130E+01-1.69271E+01-1.19386E-08 3.31312E-02 6.10914E-01-2.86608E-04
 -1       678 2.68635E+01-1.64647E+01-9.30668E-09 3.55661E-02 6.03820E-01-3.21257E-04
 -1       679 2.60703E+01-1.59809E+01-5.27679E-09 3.77875E-02 5.95930E-01-3.54924E-04
 -1       680 2.52265E+01-1.54615E+01-7.15610E-09 3.99223E-02 5.87265E-01-3.87551E-04
 -1       681 2.43400E+01-1.49209E+01-1.39497E-08 4.22997E-02 5.77853E-01-4.19077E-04
 -1       682 2.34044E+01-1.43458E+01-1.66805E-08 4.39143E-02 5.67718E-01-4.49443E-04
 -1       683 2.24254E+01-1.37460E+01-1.69409E-08 4.64065E-02 5.56888E-01-4.78592E-04
 -1       684 2.14022E+01-1.31189E+01-1.84362E-08 4.80122E-02 5.45394E-01-5.06468E-04
 -1       685 2.03361E+01-1.24658E+01-1.92321E-08 5.03575E-02 5.33264E-01-5.33015E-04
 -1       686 1.92276E+01-1.17866E+01-1.82229E-08 5.17680E-02 5.20530E-01-5.58179E-04
 -1       687 1.80755E+01-1.10772E+01-1.70746E-08 5.40983E-02 5.07227E-01-5.81906E-04
 -1       688 1.68890E+01-1.03546E+01-1.50375E-08 5.59977E-02 4.93387E-01-6.04143E-04
 -1       689 1.56582E+01-9.59774E+00-1.07120E-08 5.74104E-02 4.79045E-01-6.24844E-04
 -1       690 1.43918E+01-8.82201E+00-8.45374E-09 5.94229E-02 4.64240E-01-6.43957E-04
 -1       691 1.30882E+01-8.02295E+00-9.51269E-09 6.08230E-02 4.49007E-01-6.61435E-04
 -1       692 1.17493E+01-7.20254E+00-1.09086E-08 6.26767E-02 4.33386E-01-6.77232E-04
 -1       693 1.03756E+01-6.36020E+00-8.69150E-09 6.39281E-02 4.17416E-01-6.91305E-04
 -1       694 8.96880E+00-5.49736E+00-5.72180E-09 6.57693E-02 4.01139E-01-7.03609E-04
 -1       695 7.53193E+00-4.61836E+00-5.25232E-09 6.69892E-02 3.84595E-01-7.14103E-04
 -1       696 6.06206E+00-3.71563E+00-4.02461E-09 6.84028E-02 3.67828E-01-7.22750E-04
 -1       697 4.56522E+00-2.79926E+00-3.07974E-09 6.97657E-02 3.50882E-01-7.29509E-04
 -1       698 3.03964E+00-1.86395E+00-1.49251E-09 7.09373E-02 3.33800E-01-7.34346E-04
 -1       699 1.48760E+00-9.12343E-01 2.07897E-09 7.21566E-02 3.16627E-01-7.37225E-04
 -1       700-8.89160E-02 5.34764E-02 7.16464E-09 7.32959E-02 2.99411E-01-7.38116E-04
 -1       701-1.68980E+00 1.03514E+00 1.12062E-08 7.43116E-02 2.82198E-01-7.36985E-04
 -1       702-3.31244E+00 2.02939E+00 1.13851E-08 7.53613E-02 2.65035E-01-7.33802E-04
 -1       703-4.95641E+00 3.03718E+00 1.10435E-08 7.62151E-02 2.47970E-01-7.28543E-04
 -1       704-6.62022E+00 4.05745E+00 1.22666E-08 7.71819E-02 2.31052E-01-7.21181E-04
 -1       705-8.30081E+00 5.08597E+00 1.44441E-08 7.79933E-02 2.14332E-01-7.11691E-04
 -1       706-1.00013E+01 6.13064E+00 1.59011E-08 7.85644E-02 1.97857E-01-7.00050E-04
 -1       707-1.17140E+01 7.17821E+00 1.62544E-08 7.96469E-02 1.81680E-01-6.86239E-04
 -1       708-1.34433E+01 8.23881E+00 1.60577E-08 7.97861E-02 1.65850E-01-6.70238E-04
 -1       709-1.51855E+01 9.30725E+00 1.51684E-08 8.07260E-02 1.50420E-01-6.52029E-04
 -1       710-1.69391E+01 1.03818E+01 1.44742E-08 8.09579E-02 1.35440E-01-6.31597E-04
 -1       711-1.87032E+01 1.14625E+01 1.45585E-08 8.17586E-02 1.20963E-01-6.08928E-04
 -1       712-2.04782E+01 1.25518E+01 1.41891E-08 8.17771E-02 1.07041E-01-5.84007E-04
 -1       713-2.22604E+01 1.36438E+01 1.29578E-08 8.27766E-02 9.37275E-02-5.56825E-04
 -1       714-2.40475E+01 1.47351E+01 1.07191E-08 8.25778E-02 8.10745E-02-5.27371E-04
 -1       715-2.58486E+01 1.58455E+01 7.77273E-09 8.26237E-02 6.91354E-02-4.95635E-04
 -1       716-2.76473E+01 1.69438E+01 5.15319E-09 8.34739E-02 5.79635E-02-4.61610E-04
 -1       717-2.94551E+01 1.80538E+01 3.16301E-09 8.30657E-02 4.76124E-02-4.25291E-04
 -1       718-3.12639E+01 1.91604E+01 1.80764E-09 8.38464E-02 3.81355E-02-3.86672E-04
 -1       719-3.30805E+01 2.02785E+01 4.45658E-10 8.32340E-02 2.95868E-02-3.45747E-04
 -1       720-3.48887E+01 2.13769E+01-1.03611E-09 8.45948E-02 2.20198E-02-3.02515E-04
 -1       721-3.67222E+01 2.25227E+01-2.40188E-09 8.26610E-02 1.54887E-02-2.56971E-04
 -1       722-3.84883E+01 2.35340E+01-3.83753E-09 8.59475E-02 1.00472E-02-2.09122E-04
 -1       723-4.04968E+01 2.50217E+01-5.23021E-09 7.75464E-02 5.74945E-03-1.58929E-04
 -1       724-4.16499E+01 2.48224E+01-6.33144E-09 1.05967E-01 2.64923E-03-1.06527E-04
 -1       725-4.57798E+01 3.04899E+01-8.82538E-09 6.35342E-03 8.01418E-04-5.14434E-05
 -1       726-3.44859E+01 1.22356E+01-1.08600E-08 3.68884E-01 1.97689E-04-2.30648E-05
 -1       727-9.91463E-03 3.84445E-03 2.80163E-10-1.08765E-05 8.66639E-01 1.51101E-03
 -3
    1PSTEP                         8           1           1          
    1PGM                1.000000E+00                                  
    1PGK                2.730098E+05                                  
    1PHID                         -1                                  
    1PSUBC                         0                                  
    1PMODE                         2                                  
  100CL  102 83.15900313         726                     2    2MODAL      1
 -4  ERROR       1    1
 -5  STR(%)      1    1    0    0
 -1         2 2.07072E+00
 -1         3 4.16499E+00
 -1         4 1.29433E+01
 -1         5 4.98584E+01
 -1         6 7.29662E+01
 -1         7 8.36999E+01
 -1         8 8.41021E+01
 -1         9 8.41316E+01
 -1        10 8.41316E+01
 -1        11 8.41277E+01
 -1        12 8.41277E+01
 -1        13 8.41236E+01
 -1        14 8.41286E+01
 -1        15 8.41286E+01
 -1        16 8.41260E+01
 -1        17 8.41260E+01
 -1        18 8.41176E+01
 -1        19 8.41281E+01
 -1        20 8.41281E+01
 -1        21 8.41359E+01
 -1        22 8.41359E+01
 -1        23 8.41372E+01
 -1        24 8.41372E+01
 -1        25 8.41349E+01
 -1        26 8.41349E+01
 -1        27 8.41162E+01
 -1        28 8.41339E+01
 -1        29 8.41339E+01
 -1        30 8.41375E+01
 -1        31 8.41375E+01
 -1        32 8.41471E+01
 -1        33 8.41471E+01
 -1        34 8.41241E+01
 -1        35 8.41241E+01
 -1        36 8.41227E+01
 -1        37 8.41366E+01
 -1        38 8.41366E+01
 -1        39 8.41472E+01
 -1        40 8.41472E+01
 -1        41 8.41351E+01
 -1        42 8.41351E+01
 -1        43 8.41214E+01
 -1        44 8.41253E+01
 -1        45 8.41253E+01
 -1        46 8.41477E+01
 -1        47 8.41477E+01
 -1        48 8.41373E+01
 -1        49 8.41373E+01
 -1        50 8.41340E+01
 -1        51 8.41340E+01
 -1        52 8.41251E+01
 -1        53 8.41251E+01
 -1        54 8.41137E+01
 -1        55 8.41241E+01
 -1        56 8.41241E+01
 -1        57 8.41324E+01
 -1        58 8.41324E+01
 -1        59 8.41249E+01
 -1        60 8.41249E+01
 -1        61 8.41239E+01
 -1        62 8.41239E+01
 -1        63 8.41212E+01
 -1        64 8.41212E+01
 -1        65 8.41209E+01
 -1        66 8.41244E+01
 -1        67 8.41244E+01
 -1        68 8.41251E+01
 -1        69 8.41251E+01
 -1        70 8.41320E+01
 -1        71 8.41320E+01
 -1        72 8.41240E+01
 -1        73 8.41240E+01
 -1        74 8.41127E+01
 -1        75 8.41217E+01
 -1        76 8.41217E+01
 -1        77 8.41312E+01
 -1        78 8.41312E+01
 -1        79 8.41319E+01
 -1        80 8.41319E+01
 -1        81 8.41316E+01
 -1        82 8.41316E+01
 -1        83 8.41073E+01
 -1        84 8.41256E+01
 -1        85 8.41256E+01
 -1        86 8.41262E+01
 -1        87 8.41262E+01
 -1        88 8.41299E+01
 -1        89 8.41299E+01
 -1        90 8.40947E+01
 -1        91 8.40947E+01
 -1        92 8.40600E+01
 -1        93 8.39997E+01
 -1        94 8.38576E+01
 -1        95 8.29877E+01
 -1        96 8.39179E+01
 -1        97 8.40660E+01
 -1        98 8.40700E+01
 -1        99 8.40975E+01
 -1       100 8.41174E+01
 -1       101 8.41174E+01
 -1       102 8.41426E+01
 -1       103 8.41426E+01
 -1       104 8.41343E+01
 -1       105 8.41343E+01
 -1       106 8.41354E+01
 -1       107 8.41354E+01
 -1       108 8.41348E+01
 -1       109 8.41348E+01
 -1       110 8.41155E+01
 -1       111 8.41348E+01
 -1       112 8.41348E+01
 -1       113 8.41407E+01
 -1       114 8.41407E+01
 -1       115 8.41733E+01
 -1       116 8.41733E+01
 -1       117 8.43981E+01
 -1       118 8.43981E+01
 -1       119 8.70354E+01
 -1       120 8.70354E+01
 -1       121 7.42559E+01
 -1       122 5.50927E-01
 -1       123 2.07072E+00
 -1       124 4.16499E+00
 -1       125 1.29433E+01
 -1       126 4.98584E+01
 -1       127 7.29662E+01
 -1       128 8.36999E+01
 -1       129 8.41021E+01
 -1       130 8.41316E+01
 -1       131 8.41316E+01
 -1       132 8.41277E+01
 -1       133 8.41277E+01
 -1       134 8.41236E+01
 -1       135 8.41286E+01
 -1       136 8.41286E+01
 -1       137 8.41260E+01
 -1       138 8.41260E+01
 -1       139 8.41176E+01
 -1       140 8.41281E+01
 -1       141 8.41281E+01
 -1       142 8.41359E+01
 -1       143 8.41359E+01
 -1       144 8.41372E+01
 -1       145 8.41372E+01
 -1       146 8.41349E+01
 -1       147 8.41349E+01
 -1       148 8.41162E+01
 -1       149 8.41339E+01
 -1       150 8.41339E+01
 -1       151 8.41375E+01
 -1       152 8.41375E+01
 -1       153 8.41471E+01
 -1       154 8.41471E+01
 -1       155 8.41241E+01
 -1       156 8.41241E+01
 -1       157 8.41227E+01
 -1       158 8.41366E+01
 -1       159 8.41366E+01
 -1       160 8.41472E+01
 -1       161 8.41472E+01
 -1       162 8.41351E+01
 -1       163 8.41351E+01
 -1       164 8.41214E+01
 -1       165 8.41253E+01
 -1       166 8.41253E+01
 -1       167 8.41477E+01
 -1       168 8.41477E+01
 -1       169 8.41373E+01
 -1       170 8.41373E+01
 -1       171 8.41340E+01
 -1       172 8.41340E+01
 -1       173 8.41251E+01
 -1       174 8.41251E+01
 -1       175 8.41137E+01
 -1       176 8.41241E+01
 -1       177 8.41241E+01
 -1       178 8.41324E+01
 -1       179 8.41324E+01
 -1       180 8.41249E+01
 -1       181 8.41249E+01
 -1       182 8.41239E+01
 -1       183 8.41239E+01
 -1       184 8.41212E+01
 -1       185 8.41212E+01
 -1       186 8.41209E+01
 -1       187 8.41244E+01
 -1       188 8.41244E+01
 -1       189 8.41251E+01
 -1       190 8.41251E+01
 -1       191 8.41320E+01
 -1       192 8.41320E+01
 -1       193 8.41240E+01
 -1       194 8.41240E+01
 -1       195 8.41127E+01
 -1       196 8.41217E+01
 -1       197 8.41217E+01
 -1       198 8.41312E+01
 -1       199 8.41312E+01
 -1       200 8.41319E+01
 -1       201 8.41319E+01
 -1       202 8.41316E+01
 -1       203 8.41316E+01
 -1       204 8.41073E+01
 -1       205 8.41256E+01
 -1       206 8.41256E+01
 -1       207 8.41262E+01
 -1       208 8.41262E+01
 -1       209 8.41299E+01
 -1       210 8.41299E+01
 -1       211 8.40947E+01
 -1       212 8.40947E+01
 -1       213 8.40600E+01
 -1       214 8.39997E+01
 -1       215 8.38576E+01
 -1       216 8.29877E+01
 -1       217 8.39179E+01
 -1       218 8.40660E+01
 -1       219 8.40700E+01
 -1       220 8.40975E+01
 -1       221 8.41174E+01
 -1       222 8.41174E+01
 -1       223 8.41426E+01
 -1       224 8.41426E+01
 -1       225 8.41343E+01
 -1       226 8.41343E+01
 -1       227 8.41354E+01
 -1       228 8.41354E+01
 -1       229 8.41348E+01
 -1       230 8.41348E+01
 -1       231 8.41155E+01
 -1       232 8.41348E+01
 -1       233 8.41348E+01
 -1       234 8.41407E+01
 -1       235 8.41407E+01
 -1       236 8.41733E+01
 -1       237 8.41733E+01
 -1       238 8.43981E+01
 -1       239 8.43981E+01
 -1       240 8.70354E+01
 -1       241 8.70354E+01
 -1       242 7.42559E+01
 -1       243 5.50927E-01
 -1       244 2.07072E+00
 -1       245 4.16504E+00
 -1       246 1.29442E+01
 -1       247 4.98590E+01
 -1       248 7.29675E+01
 -1       249 8.37086E+01
 -1       250 8.41124E+01
 -1       251 8.41419E+01
 -1       252 8.41419E+01
 -1       253 8.41380E+01
 -1       254 8.41380E+01
 -1       255 8.41339E+01
 -1       256 8.41389E+01
 -1       257 8.41389E+01
 -1       258 8.41364E+01
 -1       259 8.41364E+01
 -1       260 8.41280E+01
 -1       261 8.41385E+01
 -1       262 8.41385E+01
 -1       263 8.41463E+01
 -1       264 8.41463E+01
 -1       265 8.41476E+01
 -1       266 8.41476E+01
 -1       267 8.41453E+01
 -1       268 8.41453E+01
 -1       269 8.41266E+01
 -1       270 8.41442E+01
 -1       271 8.41442E+01
 -1       272 8.41478E+01
 -1       273 8.41478E+01
 -1       274 8.41574E+01
 -1       275 8.41574E+01
 -1       276 8.41345E+01
 -1       277 8.41345E+01
 -1       278 8.41330E+01
 -1       279 8.41469E+01
 -1       280 8.41469E+01
 -1       281 8.41576E+01
 -1       282 8.41576E+01
 -1       283 8.41455E+01
 -1       284 8.41455E+01
 -1       285 8.41318E+01
 -1       286 8.41356E+01
 -1       287 8.41356E+01
 -1       288 8.41581E+01
 -1       289 8.41581E+01
 -1       290 8.41477E+01
 -1       291 8.41477E+01
 -1       292 8.41444E+01
 -1       293 8.41444E+01
 -1       294 8.41355E+01
 -1       295 8.41355E+01
 -1       296 8.41241E+01
 -1       297 8.41345E+01
 -1       298 8.41345E+01
 -1       299 8.41428E+01
 -1       300 8.41428E+01
 -1       301 8.41353E+01
 -1       302 8.41353E+01
 -1       303 8.41343E+01
 -1       304 8.41343E+01
 -1       305 8.41315E+01
 -1       306 8.41315E+01
 -1       307 8.41313E+01
 -1       308 8.41348E+01
 -1       309 8.41348E+01
 -1       310 8.41355E+01
 -1       311 8.41355E+01
 -1       312 8.41424E+01
 -1       313 8.41424E+01
 -1       314 8.41344E+01
 -1       315 8.41344E+01
 -1       316 8.41230E+01
 -1       317 8.41321E+01
 -1       318 8.41321E+01
 -1       319 8.41416E+01
 -1       320 8.41416E+01
 -1       321 8.41423E+01
 -1       322 8.41423E+01
 -1       323 8.41420E+01
 -1       324 8.41420E+01
 -1       325 8.41177E+01
 -1       326 8.41360E+01
 -1       327 8.41360E+01
 -1       328 8.41366E+01
 -1       329 8.41366E+01
 -1       330 8.41403E+01
 -1       331 8.41403E+01
 -1       332 8.41051E+01
 -1       333 8.41051E+01
 -1       334 8.40704E+01
 -1       335 8.40100E+01
 -1       336 8.38679E+01
 -1       337 8.29974E+01
 -1       338 8.39282E+01
 -1       339 8.40763E+01
 -1       340 8.40803E+01
 -1       341 8.41079E+01
 -1       342 8.41278E+01
 -1       343 8.41278E+01
 -1       344 8.41529E+01
 -1       345 8.41529E+01
 -1       346 8.41447E+01
 -1       347 8.41447E+01
 -1       348 8.41458E+01
 -1       349 8.41458E+01
 -1       350 8.41451E+01
 -1       351 8.41451E+01
 -1       352 8.41258E+01
 -1       353 8.41451E+01
 -1       354 8.41451E+01
 -1       355 8.41511E+01
 -1       356 8.41511E+01
 -1       357 8.41837E+01
 -1       358 8.41837E+01
 -1       359 8.44084E+01
 -1       360 8.44084E+01
 -1       361 8.70459E+01
 -1       362 8.70459E+01
 -1       363 7.42658E+01
 -1       364 5.50927E-01
 -1       365 2.07072E+00
 -1       366 4.16504E+00
 -1       367 1.29442E+01
 -1       368 4.98590E+01
 -1       369 7.29675E+01
 -1       370 8.37086E+01
 -1       371 8.41124E+01
 -1       372 8.41419E+01
 -1       373 8.41419E+01
 -1       374 8.41380E+01
 -1       375 8.41380E+01
 -1       376 8.41339E+01
 -1       377 8.41389E+01
 -1       378 8.41389E+01
 -1       379 8.41364E+01
 -1       380 8.41364E+01
 -1       381 8.41280E+01
 -1       382 8.41385E+01
 -1       383 8.41385E+01
 -1       384 8.41463E+01
 -1       385 8.41463E+01
 -1       386 8.41476E+01
 -1       387 8.41476E+01
 -1       388 8.41453E+01
 -1       389 8.41453E+01
 -1       390 8.41266E+01
 -1       391 8.41442E+01
 -1       392 8.41442E+01
 -1       393 8.41478E+01
 -1       394 8.41478E+01
 -1       395 8.41574E+01
 -1       396 8.41574E+01
 -1       397 8.41345E+01
 -1       398 8.41345E+01
 -1       399 8.41330E+01
 -1       400 8.41469E+01
 -1       401 8.41469E+01
 -1       402 8.41576E+01
 -1       403 8.41576E+01
 -1       404 8.41455E+01
 -1       405 8.41455E+01
 -1       406 8.41318E+01
 -1       407 8.41356E+01
 -1       408 8.41356E+01
 -1       409 8.41581E+01
 -1       410 8.41581E+01
 -1       411 8.41477E+01
 -1       412 8.41477E+01
 -1       413 8.41444E+01
 -1       414 8.41444E+01
 -1       415 8.41355E+01
 -1       416 8.41355E+01
 -1       417 8.41241E+01
 -1       418 8.41345E+01
 -1       419 8.41345E+01
 -1       420 8.41428E+01
 -1       421 8.41428E+01
 -1       422 8.41353E+01
 -1       423 8.41353E+01
 -1       424 8.41343E+01
 -1       425 8.41343E+01
 -1       426 8.41315E+01
 -1       427 8.41315E+01
 -1       428 8.41313E+01
 -1       429 8.41348E+01
 -1       430 8.41348E+01
 -1       431 8.41355E+01
 -1       432 8.41355E+01
 -1       433 8.41424E+01
 -1       434 8.41424E+01
 -1       435 8.41344E+01
 -1       436 8.41344E+01
 -1       437 8.41230E+01
 -1       438 8.41321E+01
 -1       439 8.41321E+01
 -1       440 8.41416E+01
 -1       441 8.41416E+01
 -1       442 8.41423E+01
 -1       443 8.41423E+01
 -1       444 8.41420E+01
 -1       445 8.41420E+01
 -1       446 8.41177E+01
 -1       447 8.41360E+01
 -1       448 8.41360E+01
 -1       449 8.41366E+01
 -1       450 8.41366E+01
 -1       451 8.41403E+01
 -1       452 8.41403E+01
 -1       453 8.41051E+01
 -1       454 8.41051E+01
 -1       455 8.40704E+01
 -1       456 8.40100E+01
 -1       457 8.38679E+01
 -1       458 8.29974E+01
 -1       459 8.39282E+01
 -1       460 8.40763E+01
 -1       461 8.40803E+01
 -1       462 8.41079E+01
 -1       463 8.41278E+01
 -1       464 8.41278E+01
 -1       465 8.41529E+01
 -1       466 8.41529E+01
 -1       467 8.41447E+01
 -1       468 8.41447E+01
 -1       469 8.41458E+01
 -1       470 8.41458E+01
 -1       471 8.41451E+01
 -1       472 8.41451E+01
 -1       473 8.41258E+01
 -1       474 8.41451E+01
 -1       475 8.41451E+01
 -1       476 8.41511E+01
 -1       477 8.41511E+01
 -1       478 8.41837E+01
 -1       479 8.41837E+01
 -1       480 8.44084E+01
 -1       481 8.44084E+01
 -1       482 8.70459E+01
 -1       483 8.70459E+01
 -1       484 7.42658E+01
 -1       485 5.50907E-01
 -1       486 2.07070E+00
 -1       487 4.16504E+00
 -1       488 1.29442E+01
 -1       489 4.98590E+01
 -1       490 7.29675E+01
 -1       491 8.37086E+01
 -1       492 8.41124E+01
 -1       493 8.41419E+01
 -1       494 8.41419E+01
 -1       495 8.41380E+01
 -1       496 8.41380E+01
 -1       497 8.41339E+01
 -1       498 8.41389E+01
 -1       499 8.41389E+01
 -1       500 8.41364E+01
 -1       501 8.41364E+01
 -1       502 8.41280E+01
 -1       503 8.41385E+01
 -1       504 8.41385E+01
 -1       505 8.41463E+01
 -1       506 8.41463E+01
 -1       507 8.41476E+01
 -1       508 8.41476E+01
 -1       509 8.41453E+01
 -1       510 8.41453E+01
 -1       511 8.41266E+01
 -1       512 8.41442E+01
 -1       513 8.41442E+01
 -1       514 8.41478E+01
 -1       515 8.41478E+01
 -1       516 8.41574E+01
 -1       517 8.41574E+01
 -1       518 8.41345E+01
 -1       519 8.41345E+01
 -1       520 8.41330E+01
 -1       521 8.41469E+01
 -1       522 8.41469E+01
 -1       523 8.41576E+01
 -1       524 8.41576E+01
 -1       525 8.41455E+01
 -1       526 8.41455E+01
 -1       527 8.41318E+01
 -1       528 8.41356E+01
 -1       529 8.41356E+01
 -1       530 8.41581E+01
 -1       531 8.41581E+01
 -1       532 8.41477E+01
 -1       533 8.41477E+01
 -1       534 8.41444E+01
 -1       535 8.41444E+01
 -1       536 8.41355E+01
 -1       537 8.41355E+01
 -1       538 8.41241E+01
 -1       539 8.41345E+01
 -1       540 8.41345E+01
 -1       541 8.41428E+01
 -1       542 8.41428E+01
 -1       543 8.41353E+01
 -1       544 8.41353E+01
 -1       545 8.41343E+01
 -1       546 8.41343E+01
 -1       547 8.41315E+01
 -1       548 8.41315E+01
 -1       549 8.41313E+01
 -1       550 8.41348E+01
 -1       551 8.41348E+01
 -1       552 8.41355E+01
 -1       553 8.41355E+01
 -1       554 8.41424E+01
 -1       555 8.41424E+01
 -1       556 8.41344E+01
 -1       557 8.41344E+01
 -1       558 8.41230E+01
 -1       559 8.41321E+01
 -1       560 8.41321E+01
 -1       561 8.41416E+01
 -1       562 8.41416E+01
 -1       563 8.41423E+01
 -1       564 8.41423E+01
 -1       565 8.41420E+01
 -1       566 8.41420E+01
 -1       567 8.41177E+01
 -1       568 8.41360E+01
 -1       569 8.41360E+01
 -1       570 8.41366E+01
 -1       571 8.41366E+01
 -1       572 8.41403E+01
 -1       573 8.41403E+01
 -1       574 8.41051E+01
 -1       575 8.41051E+01
 -1       576 8.40704E+01
 -1       577 8.40100E+01
 -1       578 8.38679E+01
 -1       579 8.29974E+01
 -1       580 8.39282E+01
 -1       581 8.40763E+01
 -1       582 8.40803E+01
 -1       583 8.41079E+01
 -1       584 8.41278E+01
 -1       585 8.41278E+01
 -1       586 8.41529E+01
 -1       587 8.41529E+01
 -1       588 8.41447E+01
 -1       589 8.41447E+01
 -1       590 8.41458E+01
 -1       591 8.41458E+01
 -1       592 8.41451E+01
 -1       593 8.41451E+01
 -1       594 8.41258E+01
 -1       595 8.41451E+01
 -1       596 8.41451E+01
 -1       597 8.41511E+01
 -1       598 8.41511E+01
 -1       599 8.41837E+01
 -1       600 8.41837E+01
 -1       601 8.44084E+01
 -1       602 8.44084E+01
 -1       603 8.70459E+01
 -1       604 8.70459E+01
 -1       605 7.42658E+01
 -1       606 5.50907E-01
 -1       607 2.07070E+00
 -1       608 4.16504E+00
 -1       609 1.29442E+01
 -1       610 4.98590E+01
 -1       611 7.29675E+01
 -1       612 8.37086E+01
 -1       613 8.41124E+01
 -1       614 8.41419E+01
 -1       615 8.41419E+01
 -1       616 8.41380E+01
 -1       617 8.41380E+01
 -1       618 8.41339E+01
 -1       619 8.41389E+01
 -1       620 8.41389E+01
 -1       621 8.41364E+01
 -1       622 8.41364E+01
 -1       623 8.41280E+01
 -1       624 8.41385E+01
 -1       625 8.41385E+01
 -1       626 8.41463E+01
 -1       627 8.41463E+01
 -1       628 8.41476E+01
 -1       629 8.41476E+01
 -1       630 8.41453E+01
 -1       631 8.41453E+01
 -1       632 8.41266E+01
 -1       633 8.41442E+01
 -1       634 8.41442E+01
 -1       635 8.41478E+01
 -1       636 8.41478E+01
 -1       637 8.41574E+01
 -1       638 8.41574E+01
 -1       639 8.41345E+01
 -1       640 8.41345E+01
 -1       641 8.41330E+01
 -1       642 8.41469E+01
 -1       643 8.41469E+01
 -1       644 8.41576E+01
 -1       645 8.41576E+01
 -1       646 8.41455E+01
 -1       647 8.41455E+01
 -1       648 8.41318E+01
 -1       649 8.41356E+01
 -1       650 8.41356E+01
 -1       651 8.41581E+01
 -1       652 8.41581E+01
 -1       653 8.41477E+01
 -1       654 8.41477E+01
 -1       655 8.41444E+01
 -1       656 8.41444E+01
 -1       657 8.41355E+01
 -1       658 8.41355E+01
 -1       659 8.41241E+01
 -1       660 8.41345E+01
 -1       661 8.41345E+01
 -1       662 8.41428E+01
 -1       663 8.41428E+01
 -1       664 8.41353E+01
 -1       665 8.41353E+01
 -1       666 8.41343E+01
 -1       667 8.41343E+01
 -1       668 8.41315E+01
 -1       669 8.41315E+01
 -1       670 8.41313E+01
 -1       671 8.41348E+01
 -1       672 8.41348E+01
 -1       673 8.41355E+01
 -1       674 8.41355E+01
 -1       675 8.41424E+01
 -1       676 8.41424E+01
 -1       677 8.41344E+01
 -1       678 8.41344E+01
 -1       679 8.41230E+01
 -1       680 8.41321E+01
 -1       681 8.41321E+01
 -1       682 8.41416E+01
 -1       683 8.41416E+01
 -1       684 8.41423E+01
 -1       685 8.41423E+01
 -1       686 8.41420E+01
 -1       687 8.41420E+01
 -1       688 8.41177E+01
 -1       689 8.41360E+01
 -1       690 8.41360E+01
 -1       691 8.41366E+01
 -1       692 8.41366E+01
 -1       693 8.41403E+01
 -1       694 8.41403E+01
 -1       695 8.41051E+01
 -1       696 8.41051E+01
 -1       697 8.40704E+01
 -1       698 8.40100E+01
 -1       699 8.38679E+01
 -1       700 8.29974E+01
 -1       701 8.39282E+01
 -1       702 8.40763E+01
 -1       703 8.40803E+01
 -1       704 8.41079E+01
 -1       705 8.41278E+01
 -1       706 8.41278E+01
 -1       707 8.41529E+01
 -1       708 8.41529E+01
 -1       709 8.41447E+01
 -1       710 8.41447E+01
 -1       711 8.41458E+01
 -1       712 8.41458E+01
 -1       713 8.41451E+01
 -1       714 8.41451E+01
 -1       715 8.41258E+01
 -1       716 8.41451E+01
 -1       717 8.41451E+01
 -1       718 8.41511E+01
 -1       719 8.41511E+01
 -1       720 8.41837E+01
 -1       721 8.41837E+01
 -1       722 8.44084E+01
 -1       723 8.44084E+01
 -1       724 8.70459E+01
 -1       725 8.70459E+01
 -1       726 7.42658E+01
 -1       727 5.50927E-01
 -3
    1PSTEP                         9           1           1          
    1PGM                1.000000E+00                                  
    1PGK                2.134216E+06                                  
    1PHID                         -1                                  
    1PSUBC                         0                                  
    1PMODE                         3                                  
  100CL  103 232.5087849         726                     2    3MODAL      1
 -4  DISP        4    1
 -5  D1          1    2    1    0
 -5  D2          1    2    2    0
 -5  D3          1    2    3    0
 -5  ALL         1    2    0    0    1ALL
 -1         2-5.67026E-01-9.44409E+01 0.00000E+00
 -1         3-5.66843E-01-8.78265E+01 0.00000E+00
 -1         4-5.66363E-01-8.12159E+01 0.00000E+00
 -1         5-5.65452E-01-7.46135E+01 0.00000E+00
 -1         6-5.63989E-01-6.80249E+01 0.00000E+00
 -1         7-5.61858E-01-6.14572E+01 0.00000E+00
 -1         8-5.58960E-01-5.49189E+01 0.00000E+00
 -1         9-5.55201E-01-4.84192E+01 0.00000E+00
 -1        10-5.50500E-01-4.19691E+01 0.00000E+00
 -1        11-5.44788E-01-3.55796E+01 0.00000E+00
 -1        12-5.38000E-01-2.92631E+01 0.00000E+00
 -1        13-5.30087E-01-2.30324E+01 0.00000E+00
 -1        14-5.21008E-01-1.69008E+01 0.00000E+00
 -1        15-5.10729E-01-1.08821E+01 0.00000E+00
 -1        16-4.99232E-01-4.99038E+00 0.00000E+00
 -1        17-4.86500E-01 7.59962E-01 0.00000E+00
 -1        18-4.72534E-01 6.35456E+00 0.00000E+00
 -1        19-4.57337E-01 1.17791E+01 0.00000E+00
 -1        20-4.40921E-01 1.70192E+01 0.00000E+00
 -1        21-4.23318E-01 2.20608E+01 0.00000E+00
 -1        22-4.04544E-01 2.68902E+01 0.00000E+00
 -1        23-3.84655E-01 3.14940E+01 0.00000E+00
 -1        24-3.63679E-01 3.58595E+01 0.00000E+00
 -1        25-3.41689E-01 3.99743E+01 0.00000E+00
 -1        26-3.18723E-01 4.38270E+01 0.00000E+00
 -1        27-2.94864E-01 4.74064E+01 0.00000E+00
 -1        28-2.70181E-01 5.07026E+01 0.00000E+00
 -1        29-2.44741E-01 5.37065E+01 0.00000E+00
 -1        30-2.18644E-01 5.64096E+01 0.00000E+00
 -1        31-1.91955E-01 5.88049E+01 0.00000E+00
 -1        32-1.64792E-01 6.08860E+01 0.00000E+00
 -1        33-1.37216E-01 6.26478E+01 0.00000E+00
 -1        34-1.09360E-01 6.40862E+01 0.00000E+00
 -1        35-8.12970E-02 6.51984E+01 0.00000E+00
 -1        36-5.31396E-02 6.59827E+01 0.00000E+00
 -1        37-2.49979E-02 6.64385E+01 0.00000E+00
 -1        38 3.04266E-03 6.65666E+01 0.00000E+00
 -1        39 3.08499E-02 6.63688E+01 0.00000E+00
 -1        40 5.83533E-02 6.58484E+01 0.00000E+00
 -1        41 8.54109E-02 6.50097E+01 0.00000E+00
 -1        42 1.11952E-01 6.38584E+01 0.00000E+00
 -1        43 1.37851E-01 6.24011E+01 0.00000E+00
 -1        44 1.63024E-01 6.06459E+01 0.00000E+00
 -1        45 1.87369E-01 5.86018E+01 0.00000E+00
 -1        46 2.10782E-01 5.62791E+01 0.00000E+00
 -1        47 2.33196E-01 5.36891E+01 0.00000E+00
 -1        48 2.54494E-01 5.08441E+01 0.00000E+00
 -1        49 2.74621E-01 4.77574E+01 0.00000E+00
 -1        50 2.93478E-01 4.44433E+01 0.00000E+00
 -1        51 3.11009E-01 4.09169E+01 0.00000E+00
 -1        52 3.27133E-01 3.71942E+01 0.00000E+00
 -1        53 3.41798E-01 3.32919E+01 0.00000E+00
 -1        54 3.54944E-01 2.92273E+01 0.00000E+00
 -1        55 3.66522E-01 2.50186E+01 0.00000E+00
 -1        56 3.76490E-01 2.06841E+01 0.00000E+00
 -1        57 3.84810E-01 1.62429E+01 0.00000E+00
 -1        58 3.91457E-01 1.17145E+01 0.00000E+00
 -1        59 3.96404E-01 7.11836E+00 0.00000E+00
 -1        60 3.99640E-01 2.47452E+00 0.00000E+00
 -1        61 4.01155E-01-2.19709E+00 0.00000E+00
 -1        62 4.00950E-01-6.87629E+00 0.00000E+00
 -1        63 3.99032E-01-1.15431E+01 0.00000E+00
 -1        64 3.95415E-01-1.61776E+01 0.00000E+00
 -1        65 3.90121E-01-2.07602E+01 0.00000E+00
 -1        66 3.83181E-01-2.52713E+01 0.00000E+00
 -1        67 3.74627E-01-2.96921E+01 0.00000E+00
 -1        68 3.64507E-01-3.40040E+01 0.00000E+00
 -1        69 3.52868E-01-3.81889E+01 0.00000E+00
 -1        70 3.39772E-01-4.22295E+01 0.00000E+00
 -1        71 3.25273E-01-4.61091E+01 0.00000E+00
 -1        72 3.09452E-01-4.98119E+01 0.00000E+00
 -1        73 2.92376E-01-5.33227E+01 0.00000E+00
 -1        74 2.74131E-01-5.66275E+01 0.00000E+00
 -1        75 2.54802E-01-5.97132E+01 0.00000E+00
 -1        76 2.34479E-01-6.25674E+01 0.00000E+00
 -1        77 2.13267E-01-6.51794E+01 0.00000E+00
 -1        78 1.91252E-01-6.75392E+01 0.00000E+00
 -1        79 1.68557E-01-6.96382E+01 0.00000E+00
 -1        80 1.45270E-01-7.14690E+01 0.00000E+00
 -1        81 1.21524E-01-7.30253E+01 0.00000E+00
 -1        82 9.74112E-02-7.43025E+01 0.00000E+00
 -1        83 7.30643E-02-7.52970E+01 0.00000E+00
 -1        84 4.85990E-02-7.60067E+01 0.00000E+00
 -1        85 2.41227E-02-7.64309E+01 0.00000E+00
 -1        86-2.25013E-04-7.65703E+01 0.00000E+00
 -1        87-2.43454E-02-7.64270E+01 0.00000E+00
 -1        88-4.80927E-02-7.60044E+01 0.00000E+00
 -1        89-7.13765E-02-7.53074E+01 0.00000E+00
 -1        90-9.40457E-02-7.43424E+01 0.00000E+00
 -1        91-1.16006E-01-7.31170E+01 0.00000E+00
 -1        92-1.37132E-01-7.16402E+01 0.00000E+00
 -1        93-1.57305E-01-6.99225E+01 0.00000E+00
 -1        94-1.76426E-01-6.79756E+01 0.00000E+00
 -1        95-1.94369E-01-6.58125E+01 0.00000E+00
 -1        96-2.11049E-01-6.34474E+01 0.00000E+00
 -1        97-2.26342E-01-6.08958E+01 0.00000E+00
 -1        98-2.40169E-01-5.81743E+01 0.00000E+00
 -1        99-2.52421E-01-5.53006E+01 0.00000E+00
 -1       100-2.63020E-01-5.22937E+01 0.00000E+00
 -1       101-2.71875E-01-4.91732E+01 0.00000E+00
 -1       102-2.78905E-01-4.59601E+01 0.00000E+00
 -1       103-2.84040E-01-4.26760E+01 0.00000E+00
 -1       104-2.87205E-01-3.93435E+01 0.00000E+00
 -1       105-2.88338E-01-3.59859E+01 0.00000E+00
 -1       106-2.87379E-01-3.26273E+01 0.00000E+00
 -1       107-2.84273E-01-2.92925E+01 0.00000E+00
 -1       108-2.78974E-01-2.60066E+01 0.00000E+00
 -1       109-2.71433E-01-2.27956E+01 0.00000E+00
 -1       110-2.61616E-01-1.96859E+01 0.00000E+00
 -1       111-2.49491E-01-1.67042E+01 0.00000E+00
 -1       112-2.35021E-01-1.38776E+01 0.00000E+00
 -1       113-2.18194E-01-1.12336E+01 0.00000E+00
 -1       114-1.98974E-01-8.79987E+00 0.00000E+00
 -1       115-1.77370E-01-6.60429E+00 0.00000E+00
 -1       116-1.53327E-01-4.67496E+00 0.00000E+00
 -1       117-1.26918E-01-3.03996E+00 0.00000E+00
 -1       118-9.79418E-02-1.72808E+00 0.00000E+00
 -1       119-6.69849E-02-7.65721E-01 0.00000E+00
 -1       120-3.20569E-02-1.88008E-01 0.00000E+00
 -1       121 0.00000E+00 0.00000E+00 0.00000E+00
 -1       122-5.67055E-01-1.01057E+02 0.00000E+00
 -1       123-5.67026E-01-9.44409E+01 0.00000E+00
 -1       124-5.66843E-01-8.78265E+01 0.00000E+00
 -1       125-5.66363E-01-8.12159E+01 0.00000E+00
 -1       126-5.65452E-01-7.46135E+01 0.00000E+00
 -1       127-5.63989E-01-6.80249E+01 0.00000E+00
 -1       128-5.61858E-01-6.14572E+01 0.00000E+00
 -1       129-5.58960E-01-5.49189E+01 0.00000E+00
 -1       130-5.55201E-01-4.84192E+01 0.00000E+00
 -1       131-5.50500E-01-4.19691E+01 0.00000E+00
 -1       132-5.44788E-01-3.55796E+01 0.00000E+00
 -1       133-5.38000E-01-2.92631E+01 0.00000E+00
 -1       134-5.30087E-01-2.30324E+01 0.00000E+00
 -1       135-5.21008E-01-1.69008E+01 0.00000E+00
 -1       136-5.10729E-01-1.08821E+01 0.00000E+00
 -1       137-4.99232E-01-4.99038E+00 0.00000E+00
 -1       138-4.86500E-01 7.59962E-01 0.00000E+00
 -1       139-4.72534E-01 6.35456E+00 0.00000E+00
 -1       140-4.57337E-01 1.17791E+01 0.00000E+00
 -1       141-4.40921E-01 1.70192E+01 0.00000E+00
 -1       142-4.23318E-01 2.20608E+01 0.00000E+00
 -1       143-4.04544E-01 2.68902E+01 0.00000E+00
 -1       144-3.84655E-01 3.14940E+01 0.00000E+00
 -1       145-3.63679E-01 3.58595E+01 0.00000E+00
 -1       146-3.41689E-01 3.99743E+01 0.00000E+00
 -1       147-3.18723E-01 4.38270E+01 0.00000E+00
 -1       148-2.94864E-01 4.74064E+01 0.00000E+00
 -1       149-2.70181E-01 5.07026E+01 0.00000E+00
 -1       150-2.44741E-01 5.37065E+01 0.00000E+00
 -1       151-2.18644E-01 5.64096E+01 0.00000E+00
 -1       152-1.91955E-01 5.88049E+01 0.00000E+00
 -1       153-1.64792E-01 6.08860E+01 0.00000E+00
 -1       154-1.37216E-01 6.26478E+01 0.00000E+00
 -1       155-1.09360E-01 6.40862E+01 0.00000E+00
 -1       156-8.12970E-02 6.51984E+01 0.00000E+00
 -1       157-5.31396E-02 6.59827E+01 0.00000E+00
 -1       158-2.49979E-02 6.64385E+01 0.00000E+00
 -1       159 3.04266E-03 6.65666E+01 0.00000E+00
 -1       160 3.08499E-02 6.63688E+01 0.00000E+00
 -1       161 5.83533E-02 6.58484E+01 0.00000E+00
 -1       162 8.54109E-02 6.50097E+01 0.00000E+00
 -1       163 1.11952E-01 6.38584E+01 0.00000E+00
 -1       164 1.37851E-01 6.24011E+01 0.00000E+00
 -1       165 1.63024E-01 6.06459E+01 0.00000E+00
 -1       166 1.87369E-01 5.86018E+01 0.00000E+00
 -1       167 2.10782E-01 5.62791E+01 0.00000E+00
 -1       168 2.33196E-01 5.36891E+01 0.00000E+00
 -1       169 2.54494E-01 5.08441E+01 0.00000E+00
 -1       170 2.74621E-01 4.77574E+01 0.00000E+00
 -1       171 2.93478E-01 4.44433E+01 0.00000E+00
 -1       172 3.11009E-01 4.09169E+01 0.00000E+00
 -1       173 3.27133E-01 3.71942E+01 0.00000E+00
 -1       174 3.41798E-01 3.32919E+01 0.00000E+00
 -1       175 3.54944E-01 2.92273E+01 0.00000E+00
 -1       176 3.66522E-01 2.50186E+01 0.00000E+00
 -1       177 3.76490E-01 2.06841E+01 0.00000E+00
 -1       178 3.84810E-01 1.62429E+01 0.00000E+00
 -1       179 3.91457E-01 1.17145E+01 0.00000E+00
 -1       180 3.96404E-01 7.11836E+00 0.00000E+00
 -1       181 3.99640E-01 2.47452E+00 0.00000E+00
 -1       182 4.01155E-01-2.19709E+00 0.00000E+00
 -1       183 4.00950E-01-6.87629E+00 0.00000E+00
 -1       184 3.99032E-01-1.15431E+01 0.00000E+00
 -1       185 3.95415E-01-1.61776E+01 0.00000E+00
 -1       186 3.90121E-01-2.07602E+01 0.00000E+00
 -1       187 3.83181E-01-2.52713E+01 0.00000E+00
 -1       188 3.74627E-01-2.96921E+01 0.00000E+00
 -1       189 3.64507E-01-3.40040E+01 0.00000E+00
 -1       190 3.52868E-01-3.81889E+01 0.00000E+00
 -1       191 3.39772E-01-4.22295E+01 0.00000E+00
 -1       192 3.25273E-01-4.61091E+01 0.00000E+00
 -1       193 3.09452E-01-4.98119E+01 0.00000E+00
 -1       194 2.92376E-01-5.33227E+01 0.00000E+00
 -1       195 2.74131E-01-5.66275E+01 0.00000E+00
 -1       196 2.54802E-01-5.97132E+01 0.00000E+00
 -1       197 2.34479E-01-6.25674E+01 0.00000E+00
 -1       198 2.13267E-01-6.51794E+01 0.00000E+00
 -1       199 1.91252E-01-6.75392E+01 0.00000E+00
 -1       200 1.68557E-01-6.96382E+01 0.00000E+00
 -1       201 1.45270E-01-7.14690E+01 0.00000E+00
 -1       202 1.21524E-01-7.30253E+01 0.00000E+00
 -1       203 9.74112E-02-7.43025E+01 0.00000E+00
 -1       204 7.30643E-02-7.52970E+01 0.00000E+00
 -1       205 4.85990E-02-7.60067E+01 0.00000E+00
 -1       206 2.41227E-02-7.64309E+01 0.00000E+00
 -1       207-2.25013E-04-7.65703E+01 0.00000E+00
 -1       208-2.43454E-02-7.64270E+01 0.00000E+00
 -1       209-4.80928E-02-7.60044E+01 0.00000E+00
 -1       210-7.13765E-02-7.53074E+01 0.00000E+00
 -1       211-9.40457E-02-7.43424E+01 0.00000E+00
 -1       212-1.16006E-01-7.31170E+01 0.00000E+00
 -1       213-1.37132E-01-7.16402E+01 0.00000E+00
 -1       214-1.57305E-01-6.99225E+01 0.00000E+00
 -1       215-1.76426E-01-6.79756E+01 0.00000E+00
 -1       216-1.94369E-01-6.58125E+01 0.00000E+00
 -1       217-2.11049E-01-6.34474E+01 0.00000E+00
 -1       218-2.26342E-01-6.08958E+01 0.00000E+00
 -1       219-2.40169E-01-5.81743E+01 0.00000E+00
 -1       220-2.52421E-01-5.53006E+01 0.00000E+00
 -1       221-2.63020E-01-5.22937E+01 0.00000E+00
 -1       222-2.71875E-01-4.91732E+01 0.00000E+00
 -1       223-2.78905E-01-4.59601E+01 0.00000E+00
 -1       224-2.84040E-01-4.26760E+01 0.00000E+00
 -1       225-2.87205E-01-3.93435E+01 0.00000E+00
 -1       226-2.88338E-01-3.59859E+01 0.00000E+00
 -1       227-2.87379E-01-3.26273E+01 0.00000E+00
 -1       228-2.84273E-01-2.92925E+01 0.00000E+00
 -1       229-2.78974E-01-2.60066E+01 0.00000E+00
 -1       230-2.71433E-01-2.27956E+01 0.00000E+00
 -1       231-2.61616E-01-1.96859E+01 0.00000E+00
 -1       232-2.49491E-01-1.67042E+01 0.00000E+00
 -1       233-2.35021E-01-1.38776E+01 0.00000E+00
 -1       234-2.18194E-01-1.12336E+01 0.00000E+00
 -1       235-1.98974E-01-8.79987E+00 0.00000E+00
 -1       236-1.77370E-01-6.60429E+00 0.00000E+00
 -1       237-1.53327E-01-4.67496E+00 0.00000E+00
 -1       238-1.26918E-01-3.03996E+00 0.00000E+00
 -1       239-9.79418E-02-1.72808E+00 0.00000E+00
 -1       240-6.69849E-02-7.65721E-01 0.00000E+00
 -1       241-3.20569E-02-1.88008E-01 0.00000E+00
 -1       242 0.00000E+00 0.00000E+00 0.00000E+00
 -1       243-2.26826E-05-1.01057E+02 0.00000E+00
 -1       244-2.26813E-05-9.44409E+01 0.00000E+00
 -1       245-2.26740E-05-8.78266E+01 0.00000E+00
 -1       246-2.26548E-05-8.12161E+01 0.00000E+00
 -1       247-2.26184E-05-7.46136E+01 0.00000E+00
 -1       248-2.25598E-05-6.80250E+01 0.00000E+00
 -1       249-2.24746E-05-6.14575E+01 0.00000E+00
 -1       250-2.23586E-05-5.49191E+01 0.00000E+00
 -1       251-2.22083E-05-4.84196E+01 0.00000E+00
 -1       252-2.20202E-05-4.19696E+01 0.00000E+00
 -1       253-2.17917E-05-3.55801E+01 0.00000E+00
 -1       254-2.15202E-05-2.92636E+01 0.00000E+00
 -1       255-2.12037E-05-2.30328E+01 0.00000E+00
 -1       256-2.08405E-05-1.69012E+01 0.00000E+00
 -1       257-2.04293E-05-1.08825E+01 0.00000E+00
 -1       258-1.99695E-05-4.99081E+00 0.00000E+00
 -1       259-1.94602E-05 7.59514E-01 0.00000E+00
 -1       260-1.89015E-05 6.35410E+00 0.00000E+00
 -1       261-1.82936E-05 1.17786E+01 0.00000E+00
 -1       262-1.76371E-05 1.70187E+01 0.00000E+00
 -1       263-1.69329E-05 2.20604E+01 0.00000E+00
 -1       264-1.61820E-05 2.68898E+01 0.00000E+00
 -1       265-1.53864E-05 3.14937E+01 0.00000E+00
 -1       266-1.45474E-05 3.58592E+01 0.00000E+00
 -1       267-1.36677E-05 3.99741E+01 0.00000E+00
 -1       268-1.27491E-05 4.38267E+01 0.00000E+00
 -1       269-1.17947E-05 4.74062E+01 0.00000E+00
 -1       270-1.08074E-05 5.07025E+01 0.00000E+00
 -1       271-9.78983E-06 5.37064E+01 0.00000E+00
 -1       272-8.74589E-06 5.64097E+01 0.00000E+00
 -1       273-7.67840E-06 5.88050E+01 0.00000E+00
 -1       274-6.59180E-06 6.08862E+01 0.00000E+00
 -1       275-5.48882E-06 6.26481E+01 0.00000E+00
 -1       276-4.37454E-06 6.40866E+01 0.00000E+00
 -1       277-3.25203E-06 6.51989E+01 0.00000E+00
 -1       278-2.12574E-06 6.59832E+01 0.00000E+00
 -1       279-1.00002E-06 6.64391E+01 0.00000E+00
 -1       280 1.21547E-07 6.65673E+01 0.00000E+00
 -1       281 1.23392E-06 6.63697E+01 0.00000E+00
 -1       282 2.33398E-06 6.58494E+01 0.00000E+00
 -1       283 3.41637E-06 6.50108E+01 0.00000E+00
 -1       284 4.47798E-06 6.38595E+01 0.00000E+00
 -1       285 5.51397E-06 6.24024E+01 0.00000E+00
 -1       286 6.52091E-06 6.06473E+01 0.00000E+00
 -1       287 7.49469E-06 5.86033E+01 0.00000E+00
 -1       288 8.43126E-06 5.62807E+01 0.00000E+00
 -1       289 9.32777E-06 5.36908E+01 0.00000E+00
 -1       290 1.01798E-05 5.08459E+01 0.00000E+00
 -1       291 1.09848E-05 4.77593E+01 0.00000E+00
 -1       292 1.17392E-05 4.44453E+01 0.00000E+00
 -1       293 1.24404E-05 4.09190E+01 0.00000E+00
 -1       294 1.30854E-05 3.71964E+01 0.00000E+00
 -1       295 1.36720E-05 3.32941E+01 0.00000E+00
 -1       296 1.41979E-05 2.92296E+01 0.00000E+00
 -1       297 1.46610E-05 2.50209E+01 0.00000E+00
 -1       298 1.50598E-05 2.06865E+01 0.00000E+00
 -1       299 1.53926E-05 1.62454E+01 0.00000E+00
 -1       300 1.56585E-05 1.17169E+01 0.00000E+00
 -1       301 1.58564E-05 7.12083E+00 0.00000E+00
 -1       302 1.59859E-05 2.47702E+00 0.00000E+00
 -1       303 1.60465E-05-2.19457E+00 0.00000E+00
 -1       304 1.60383E-05-6.87375E+00 0.00000E+00
 -1       305 1.59616E-05-1.15406E+01 0.00000E+00
 -1       306 1.58170E-05-1.61751E+01 0.00000E+00
 -1       307 1.56052E-05-2.07577E+01 0.00000E+00
 -1       308 1.53276E-05-2.52689E+01 0.00000E+00
 -1       309 1.49855E-05-2.96898E+01 0.00000E+00
 -1       310 1.45808E-05-3.40017E+01 0.00000E+00
 -1       311 1.41152E-05-3.81867E+01 0.00000E+00
 -1       312 1.35914E-05-4.22274E+01 0.00000E+00
 -1       313 1.30115E-05-4.61072E+01 0.00000E+00
 -1       314 1.23786E-05-4.98101E+01 0.00000E+00
 -1       315 1.16956E-05-5.33210E+01 0.00000E+00
 -1       316 1.09658E-05-5.66259E+01 0.00000E+00
 -1       317 1.01927E-05-5.97117E+01 0.00000E+00
 -1       318 9.37980E-06-6.25661E+01 0.00000E+00
 -1       319 8.53128E-06-6.51783E+01 0.00000E+00
 -1       320 7.65073E-06-6.75383E+01 0.00000E+00
 -1       321 6.74289E-06-6.96375E+01 0.00000E+00
 -1       322 5.81146E-06-7.14684E+01 0.00000E+00
 -1       323 4.86163E-06-7.30250E+01 0.00000E+00
 -1       324 3.89712E-06-7.43023E+01 0.00000E+00
 -1       325 2.92327E-06-7.52970E+01 0.00000E+00
 -1       326 1.94460E-06-7.60069E+01 0.00000E+00
 -1       327 9.65616E-07-7.64314E+01 0.00000E+00
 -1       328-8.38300E-09-7.65710E+01 0.00000E+00
 -1       329-9.73116E-07-7.64278E+01 0.00000E+00
 -1       330-1.92312E-06-7.60054E+01 0.00000E+00
 -1       331-2.85438E-06-7.53087E+01 0.00000E+00
 -1       332-3.76125E-06-7.43438E+01 0.00000E+00
 -1       333-4.63963E-06-7.31186E+01 0.00000E+00
 -1       334-5.48473E-06-7.16421E+01 0.00000E+00
 -1       335-6.29163E-06-6.99246E+01 0.00000E+00
 -1       336-7.05654E-06-6.79778E+01 0.00000E+00
 -1       337-7.77423E-06-6.58149E+01 0.00000E+00
 -1       338-8.44152E-06-6.34499E+01 0.00000E+00
 -1       339-9.05318E-06-6.08984E+01 0.00000E+00
 -1       340-9.60641E-06-5.81770E+01 0.00000E+00
 -1       341-1.00964E-05-5.53035E+01 0.00000E+00
 -1       342-1.05206E-05-5.22966E+01 0.00000E+00
 -1       343-1.08745E-05-4.91763E+01 0.00000E+00
 -1       344-1.11561E-05-4.59632E+01 0.00000E+00
 -1       345-1.13612E-05-4.26792E+01 0.00000E+00
 -1       346-1.14883E-05-3.93467E+01 0.00000E+00
 -1       347-1.15331E-05-3.59891E+01 0.00000E+00
 -1       348-1.14955E-05-3.26304E+01 0.00000E+00
 -1       349-1.13704E-05-2.92955E+01 0.00000E+00
 -1       350-1.11595E-05-2.60095E+01 0.00000E+00
 -1       351-1.08567E-05-2.27984E+01 0.00000E+00
 -1       352-1.04656E-05-1.96886E+01 0.00000E+00
 -1       353-9.97884E-06-1.67067E+01 0.00000E+00
 -1       354-9.40217E-06-1.38799E+01 0.00000E+00
 -1       355-8.72666E-06-1.12357E+01 0.00000E+00
 -1       356-7.96088E-06-8.80168E+00 0.00000E+00
 -1       357-7.09323E-06-6.60578E+00 0.00000E+00
 -1       358-6.13578E-06-4.67615E+00 0.00000E+00
 -1       359-5.07448E-06-3.04078E+00 0.00000E+00
 -1       360-3.92133E-06-1.72846E+00 0.00000E+00
 -1       361-2.67643E-06-7.65780E-01 0.00000E+00
 -1       362-1.28625E-06-1.87202E-01 0.00000E+00
 -1       363 0.00000E+00 0.00000E+00 0.00000E+00
 -1       364-2.26824E-05-1.01057E+02 0.00000E+00
 -1       365-2.26811E-05-9.44409E+01 0.00000E+00
 -1       366-2.26738E-05-8.78266E+01 0.00000E+00
 -1       367-2.26546E-05-8.12161E+01 0.00000E+00
 -1       368-2.26182E-05-7.46136E+01 0.00000E+00
 -1       369-2.25596E-05-6.80250E+01 0.00000E+00
 -1       370-2.24744E-05-6.14575E+01 0.00000E+00
 -1       371-2.23585E-05-5.49191E+01 0.00000E+00
 -1       372-2.22081E-05-4.84196E+01 0.00000E+00
 -1       373-2.20201E-05-4.19696E+01 0.00000E+00
 -1       374-2.17915E-05-3.55801E+01 0.00000E+00
 -1       375-2.15200E-05-2.92636E+01 0.00000E+00
 -1       376-2.12035E-05-2.30328E+01 0.00000E+00
 -1       377-2.08403E-05-1.69012E+01 0.00000E+00
 -1       378-2.04292E-05-1.08825E+01 0.00000E+00
 -1       379-1.99693E-05-4.99081E+00 0.00000E+00
 -1       380-1.94600E-05 7.59514E-01 0.00000E+00
 -1       381-1.89014E-05 6.35409E+00 0.00000E+00
 -1       382-1.82935E-05 1.17786E+01 0.00000E+00
 -1       383-1.76369E-05 1.70187E+01 0.00000E+00
 -1       384-1.69327E-05 2.20604E+01 0.00000E+00
 -1       385-1.61818E-05 2.68898E+01 0.00000E+00
 -1       386-1.53862E-05 3.14937E+01 0.00000E+00
 -1       387-1.45472E-05 3.58592E+01 0.00000E+00
 -1       388-1.36676E-05 3.99741E+01 0.00000E+00
 -1       389-1.27489E-05 4.38267E+01 0.00000E+00
 -1       390-1.17946E-05 4.74062E+01 0.00000E+00
 -1       391-1.08072E-05 5.07025E+01 0.00000E+00
 -1       392-9.78966E-06 5.37064E+01 0.00000E+00
 -1       393-8.74572E-06 5.64097E+01 0.00000E+00
 -1       394-7.67823E-06 5.88050E+01 0.00000E+00
 -1       395-6.59164E-06 6.08862E+01 0.00000E+00
 -1       396-5.48865E-06 6.26481E+01 0.00000E+00
 -1       397-4.37438E-06 6.40866E+01 0.00000E+00
 -1       398-3.25187E-06 6.51989E+01 0.00000E+00
 -1       399-2.12558E-06 6.59832E+01 0.00000E+00
 -1       400-9.99863E-07 6.64391E+01 0.00000E+00
 -1       401 1.21707E-07 6.65673E+01 0.00000E+00
 -1       402 1.23408E-06 6.63697E+01 0.00000E+00
 -1       403 2.33414E-06 6.58494E+01 0.00000E+00
 -1       404 3.41652E-06 6.50108E+01 0.00000E+00
 -1       405 4.47814E-06 6.38595E+01 0.00000E+00
 -1       406 5.51412E-06 6.24024E+01 0.00000E+00
 -1       407 6.52106E-06 6.06473E+01 0.00000E+00
 -1       408 7.49484E-06 5.86033E+01 0.00000E+00
 -1       409 8.43142E-06 5.62807E+01 0.00000E+00
 -1       410 9.32792E-06 5.36908E+01 0.00000E+00
 -1       411 1.01799E-05 5.08459E+01 0.00000E+00
 -1       412 1.09850E-05 4.77593E+01 0.00000E+00
 -1       413 1.17393E-05 4.44453E+01 0.00000E+00
 -1       414 1.24405E-05 4.09190E+01 0.00000E+00
 -1       415 1.30856E-05 3.71964E+01 0.00000E+00
 -1       416 1.36722E-05 3.32941E+01 0.00000E+00
 -1       417 1.41980E-05 2.92296E+01 0.00000E+00
 -1       418 1.46612E-05 2.50209E+01 0.00000E+00
 -1       419 1.50599E-05 2.06865E+01 0.00000E+00
 -1       420 1.53927E-05 1.62454E+01 0.00000E+00
 -1       421 1.56586E-05 1.17169E+01 0.00000E+00
 -1       422 1.58565E-05 7.12083E+00 0.00000E+00
 -1       423 1.59860E-05 2.47702E+00 0.00000E+00
 -1       424 1.60466E-05-2.19457E+00 0.00000E+00
 -1       425 1.60384E-05-6.87375E+00 0.00000E+00
 -1       426 1.59618E-05-1.15406E+01 0.00000E+00
 -1       427 1.58171E-05-1.61751E+01 0.00000E+00
 -1       428 1.56054E-05-2.07577E+01 0.00000E+00
 -1       429 1.53278E-05-2.52689E+01 0.00000E+00
 -1       430 1.49857E-05-2.96898E+01 0.00000E+00
 -1       431 1.45809E-05-3.40017E+01 0.00000E+00
 -1       432 1.41153E-05-3.81867E+01 0.00000E+00
 -1       433 1.35915E-05-4.22274E+01 0.00000E+00
 -1       434 1.30116E-05-4.61072E+01 0.00000E+00
 -1       435 1.23788E-05-4.98101E+01 0.00000E+00
 -1       436 1.16957E-05-5.33210E+01 0.00000E+00
 -1       437 1.09659E-05-5.66259E+01 0.00000E+00
 -1       438 1.01928E-05-5.97117E+01 0.00000E+00
 -1       439 9.37992E-06-6.25661E+01 0.00000E+00
 -1       440 8.53140E-06-6.51783E+01 0.00000E+00
 -1       441 7.65085E-06-6.75383E+01 0.00000E+00
 -1       442 6.74300E-06-6.96375E+01 0.00000E+00
 -1       443 5.81157E-06-7.14684E+01 0.00000E+00
 -1       444 4.86174E-06-7.30250E+01 0.00000E+00
 -1       445 3.89723E-06-7.43023E+01 0.00000E+00
 -1       446 2.92337E-06-7.52970E+01 0.00000E+00
 -1       447 1.94470E-06-7.60069E+01 0.00000E+00
 -1       448 9.65716E-07-7.64314E+01 0.00000E+00
 -1       449-8.28545E-09-7.65710E+01 0.00000E+00
 -1       450-9.73020E-07-7.64278E+01 0.00000E+00
 -1       451-1.92303E-06-7.60054E+01 0.00000E+00
 -1       452-2.85428E-06-7.53087E+01 0.00000E+00
 -1       453-3.76116E-06-7.43438E+01 0.00000E+00
 -1       454-4.63954E-06-7.31186E+01 0.00000E+00
 -1       455-5.48465E-06-7.16421E+01 0.00000E+00
 -1       456-6.29155E-06-6.99246E+01 0.00000E+00
 -1       457-7.05646E-06-6.79778E+01 0.00000E+00
 -1       458-7.77415E-06-6.58149E+01 0.00000E+00
 -1       459-8.44145E-06-6.34499E+01 0.00000E+00
 -1       460-9.05311E-06-6.08984E+01 0.00000E+00
 -1       461-9.60634E-06-5.81770E+01 0.00000E+00
 -1       462-1.00963E-05-5.53035E+01 0.00000E+00
 -1       463-1.05205E-05-5.22966E+01 0.00000E+00
 -1       464-1.08745E-05-4.91763E+01 0.00000E+00
 -1       465-1.11561E-05-4.59632E+01 0.00000E+00
 -1       466-1.13611E-05-4.26792E+01 0.00000E+00
 -1       467-1.14882E-05-3.93467E+01 0.00000E+00
 -1       468-1.15330E-05-3.59891E+01 0.00000E+00
 -1       469-1.14954E-05-3.26304E+01 0.00000E+00
 -1       470-1.13704E-05-2.92955E+01 0.00000E+00
 -1       471-1.11595E-05-2.60095E+01 0.00000E+00
 -1       472-1.08567E-05-2.27984E+01 0.00000E+00
 -1       473-1.04655E-05-1.96886E+01 0.00000E+00
 -1       474-9.97881E-06-1.67067E+01 0.00000E+00
 -1       475-9.40214E-06-1.38799E+01 0.00000E+00
 -1       476-8.72664E-06-1.12357E+01 0.00000E+00
 -1       477-7.96086E-06-8.80168E+00 0.00000E+00
 -1       478-7.09321E-06-6.60578E+00 0.00000E+00
 -1       479-6.13576E-06-4.67615E+00 0.00000E+00
 -1       480-5.07447E-06-3.04078E+00 0.00000E+00
 -1       481-3.92133E-06-1.72846E+00 0.00000E+00
 -1       482-2.67642E-06-7.65780E-01 0.00000E+00
 -1       483-1.28624E-06-1.87202E-01 0.00000E+00
 -1       484 0.00000E+00 0.00000E+00 0.00000E+00
 -1       485 5.67055E-01-1.01057E+02 0.00000E+00
 -1       486 5.67026E-01-9.44409E+01 0.00000E+00
 -1       487 5.66843E-01-8.78265E+01 0.00000E+00
 -1       488 5.66363E-01-8.12159E+01 0.00000E+00
 -1       489 5.65452E-01-7.46135E+01 0.00000E+00
 -1       490 5.63989E-01-6.80249E+01 0.00000E+00
 -1       491 5.61858E-01-6.14572E+01 0.00000E+00
 -1       492 5.58960E-01-5.49189E+01 0.00000E+00
 -1       493 5.55201E-01-4.84192E+01 0.00000E+00
 -1       494 5.50500E-01-4.19691E+01 0.00000E+00
 -1       495 5.44788E-01-3.55796E+01 0.00000E+00
 -1       496 5.38000E-01-2.92631E+01 0.00000E+00
 -1       497 5.30087E-01-2.30324E+01 0.00000E+00
 -1       498 5.21008E-01-1.69008E+01 0.00000E+00
 -1       499 5.10729E-01-1.08821E+01 0.00000E+00
 -1       500 4.99232E-01-4.99038E+00 0.00000E+00
 -1       501 4.86500E-01 7.59962E-01 0.00000E+00
 -1       502 4.72534E-01 6.35456E+00 0.00000E+00
 -1       503 4.57337E-01 1.17791E+01 0.00000E+00
 -1       504 4.40921E-01 1.70192E+01 0.00000E+00
 -1       505 4.23318E-01 2.20608E+01 0.00000E+00
 -1       506 4.04544E-01 2.68902E+01 0.00000E+00
 -1       507 3.84655E-01 3.14940E+01 0.00000E+00
 -1       508 3.63679E-01 3.58595E+01 0.00000E+00
 -1       509 3.41689E-01 3.99743E+01 0.00000E+00
 -1       510 3.18723E-01 4.38270E+01 0.00000E+00
 -1       511 2.94864E-01 4.74064E+01 0.00000E+00
 -1       512 2.70181E-01 5.07026E+01 0.00000E+00
 -1       513 2.44741E-01 5.37065E+01 0.00000E+00
 -1       514 2.18644E-01 5.64096E+01 0.00000E+00
 -1       515 1.91955E-01 5.88049E+01 0.00000E+00
 -1       516 1.64792E-01 6.08860E+01 0.00000E+00
 -1       517 1.37216E-01 6.26478E+01 0.00000E+00
 -1       518 1.09360E-01 6.40862E+01 0.00000E+00
 -1       519 8.12970E-02 6.51984E+01 0.00000E+00
 -1       520 5.31396E-02 6.59827E+01 0.00000E+00
 -1       521 2.49979E-02 6.64385E+01 0.00000E+00
 -1       522-3.04266E-03 6.65666E+01 0.00000E+00
 -1       523-3.08499E-02 6.63688E+01 0.00000E+00
 -1       524-5.83533E-02 6.58484E+01 0.00000E+00
 -1       525-8.54109E-02 6.50097E+01 0.00000E+00
 -1       526-1.11952E-01 6.38584E+01 0.00000E+00
 -1       527-1.37851E-01 6.24011E+01 0.00000E+00
 -1       528-1.63024E-01 6.06459E+01 0.00000E+00
 -1       529-1.87369E-01 5.86018E+01 0.00000E+00
 -1       530-2.10782E-01 5.62791E+01 0.00000E+00
 -1       531-2.33196E-01 5.36891E+01 0.00000E+00
 -1       532-2.54494E-01 5.08441E+01 0.00000E+00
 -1       533-2.74621E-01 4.77574E+01 0.00000E+00
 -1       534-2.93478E-01 4.44433E+01 0.00000E+00
 -1       535-3.11009E-01 4.09169E+01 0.00000E+00
 -1       536-3.27133E-01 3.71942E+01 0.00000E+00
 -1       537-3.41798E-01 3.32919E+01 0.00000E+00
 -1       538-3.54944E-01 2.92273E+01 0.00000E+00
 -1       539-3.66522E-01 2.50186E+01 0.00000E+00
 -1       540-3.76490E-01 2.06841E+01 0.00000E+00
 -1       541-3.84810E-01 1.62429E+01 0.00000E+00
 -1       542-3.91457E-01 1.17145E+01 0.00000E+00
 -1       543-3.96404E-01 7.11836E+00 0.00000E+00
 -1       544-3.99640E-01 2.47452E+00 0.00000E+00
 -1       545-4.01155E-01-2.19709E+00 0.00000E+00
 -1       546-4.00950E-01-6.87629E+00 0.00000E+00
 -1       547-3.99032E-01-1.15431E+01 0.00000E+00
 -1       548-3.95415E-01-1.61776E+01 0.00000E+00
 -1       549-3.90121E-01-2.07602E+01 0.00000E+00
 -1       550-3.83181E-01-2.52713E+01 0.00000E+00
 -1       551-3.74627E-01-2.96921E+01 0.00000E+00
 -1       552-3.64507E-01-3.40040E+01 0.00000E+00
 -1       553-3.52868E-01-3.81889E+01 0.00000E+00
 -1       554-3.39772E-01-4.22295E+01 0.00000E+00
 -1       555-3.25273E-01-4.61091E+01 0.00000E+00
 -1       556-3.09452E-01-4.98119E+01 0.00000E+00
 -1       557-2.92376E-01-5.33227E+01 0.00000E+00
 -1       558-2.74131E-01-5.66275E+01 0.00000E+00
 -1       559-2.54802E-01-5.97132E+01 0.00000E+00
 -1       560-2.34479E-01-6.25674E+01 0.00000E+00
 -1       561-2.13267E-01-6.51794E+01 0.00000E+00
 -1       562-1.91252E-01-6.75392E+01 0.00000E+00
 -1       563-1.68557E-01-6.96382E+01 0.00000E+00
 -1       564-1.45270E-01-7.14690E+01 0.00000E+00
 -1       565-1.21524E-01-7.30253E+01 0.00000E+00
 -1       566-9.74112E-02-7.43025E+01 0.00000E+00
 -1       567-7.30643E-02-7.52970E+01 0.00000E+00
 -1       568-4.85990E-02-7.60067E+01 0.00000E+00
 -1       569-2.41227E-02-7.64309E+01 0.00000E+00
 -1       570 2.25012E-04-7.65703E+01 0.00000E+00
 -1       571 2.43454E-02-7.64270E+01 0.00000E+00
 -1       572 4.80927E-02-7.60044E+01 0.00000E+00
 -1       573 7.13765E-02-7.53074E+01 0.00000E+00
 -1       574 9.40457E-02-7.43424E+01 0.00000E+00
 -1       575 1.16006E-01-7.31170E+01 0.00000E+00
 -1       576 1.37132E-01-7.16402E+01 0.00000E+00
 -1       577 1.57305E-01-6.99225E+01 0.00000E+00
 -1       578 1.76426E-01-6.79756E+01 0.00000E+00
 -1       579 1.94369E-01-6.58125E+01 0.00000E+00
 -1       580 2.11049E-01-6.34474E+01 0.00000E+00
 -1       581 2.26342E-01-6.08958E+01 0.00000E+00
 -1       582 2.40169E-01-5.81743E+01 0.00000E+00
 -1       583 2.52421E-01-5.53006E+01 0.00000E+00
 -1       584 2.63020E-01-5.22937E+01 0.00000E+00
 -1       585 2.71875E-01-4.91732E+01 0.00000E+00
 -1       586 2.78905E-01-4.59601E+01 0.00000E+00
 -1       587 2.84040E-01-4.26760E+01 0.00000E+00
 -1       588 2.87205E-01-3.93435E+01 0.00000E+00
 -1       589 2.88338E-01-3.59859E+01 0.00000E+00
 -1       590 2.87379E-01-3.26273E+01 0.00000E+00
 -1       591 2.84273E-01-2.92925E+01 0.00000E+00
 -1       592 2.78974E-01-2.60066E+01 0.00000E+00
 -1       593 2.71433E-01-2.27956E+01 0.00000E+00
 -1       594 2.61616E-01-1.96859E+01 0.00000E+00
 -1       595 2.49491E-01-1.67042E+01 0.00000E+00
 -1       596 2.35021E-01-1.38776E+01 0.00000E+00
 -1       597 2.18194E-01-1.12336E+01 0.00000E+00
 -1       598 1.98974E-01-8.79987E+00 0.00000E+00
 -1       599 1.77370E-01-6.60429E+00 0.00000E+00
 -1       600 1.53327E-01-4.67496E+00 0.00000E+00
 -1       601 1.26918E-01-3.03996E+00 0.00000E+00
 -1       602 9.79418E-02-1.72808E+00 0.00000E+00
 -1       603 6.69849E-02-7.65721E-01 0.00000E+00
 -1       604 3.20569E-02-1.88008E-01 0.00000E+00
 -1       605 0.00000E+00 0.00000E+00 0.00000E+00
 -1       606 5.67055E-01-1.01057E+02 0.00000E+00
 -1       607 5.67026E-01-9.44409E+01 0.00000E+00
 -1       608 5.66843E-01-8.78265E+01 0.00000E+00
 -1       609 5.66363E-01-8.12159E+01 0.00000E+00
 -1       610 5.65452E-01-7.46135E+01 0.00000E+00
 -1       611 5.63989E-01-6.80249E+01 0.00000E+00
 -1       612 5.61858E-01-6.14572E+01 0.00000E+00
 -1       613 5.58960E-01-5.49189E+01 0.00000E+00
 -1       614 5.55201E-01-4.84192E+01 0.00000E+00
 -1       615 5.50500E-01-4.19691E+01 0.00000E+00
 -1       616 5.44788E-01-3.55796E+01 0.00000E+00
 -1       617 5.38000E-01-2.92631E+01 0.00000E+00
 -1       618 5.30087E-01-2.30324E+01 0.00000E+00
 -1       619 5.21008E-01-1.69008E+01 0.00000E+00
 -1       620 5.10729E-01-1.08821E+01 0.00000E+00
 -1       621 4.99232E-01-4.99038E+00 0.00000E+00
 -1       622 4.86500E-01 7.59962E-01 0.00000E+00
 -1       623 4.72534E-01 6.35456E+00 0.00000E+00
 -1       624 4.57337E-01 1.17791E+01 0.00000E+00
 -1       625 4.40921E-01 1.70192E+01 0.00000E+00
 -1       626 4.23318E-01 2.20608E+01 0.00000E+00
 -1       627 4.04544E-01 2.68902E+01 0.00000E+00
 -1       628 3.84655E-01 3.14940E+01 0.00000E+00
 -1       629 3.63679E-01 3.58595E+01 0.00000E+00
 -1       630 3.41689E-01 3.99743E+01 0.00000E+00
 -1       631 3.18723E-01 4.38270E+01 0.00000E+00
 -1       632 2.94864E-01 4.74064E+01 0.00000E+00
 -1       633 2.70181E-01 5.07026E+01 0.00000E+00
 -1       634 2.44741E-01 5.37065E+01 0.00000E+00
 -1       635 2.18644E-01 5.64096E+01 0.00000E+00
 -1       636 1.91955E-01 5.88049E+01 0.00000E+00
 -1       637 1.64792E-01 6.08860E+01 0.00000E+00
 -1       638 1.37216E-01 6.26478E+01 0.00000E+00
 -1       639 1.09360E-01 6.40862E+01 0.00000E+00
 -1       640 8.12970E-02 6.51984E+01 0.00000E+00
 -1       641 5.31396E-02 6.59827E+01 0.00000E+00
 -1       642 2.49979E-02 6.64385E+01 0.00000E+00
 -1       643-3.04266E-03 6.65666E+01 0.00000E+00
 -1       644-3.08499E-02 6.63688E+01 0.00000E+00
 -1       645-5.83533E-02 6.58484E+01 0.00000E+00
 -1       646-8.54109E-02 6.50097E+01 0.00000E+00
 -1       647-1.11952E-01 6.38584E+01 0.00000E+00
 -1       648-1.37851E-01 6.24011E+01 0.00000E+00
 -1       649-1.63024E-01 6.06459E+01 0.00000E+00
 -1       650-1.87369E-01 5.86018E+01 0.00000E+00
 -1       651-2.10782E-01 5.62791E+01 0.00000E+00
 -1       652-2.33196E-01 5.36891E+01 0.00000E+00
 -1       653-2.54494E-01 5.08441E+01 0.00000E+00
 -1       654-2.74621E-01 4.77574E+01 0.00000E+00
 -1       655-2.93478E-01 4.44433E+01 0.00000E+00
 -1       656-3.11009E-01 4.09169E+01 0.00000E+00
 -1       657-3.27133E-01 3.71942E+01 0.00000E+00
 -1       658-3.41798E-01 3.32919E+01 0.00000E+00
 -1       659-3.54944E-01 2.92273E+01 0.00000E+00
 -1       660-3.66522E-01 2.50186E+01 0.00000E+00
 -1       661-3.76490E-01 2.06841E+01 0.00000E+00
 -1       662-3.84810E-01 1.62429E+01 0.00000E+00
 -1       663-3.91457E-01 1.17145E+01 0.00000E+00
 -1       664-3.96404E-01 7.11836E+00 0.00000E+00
 -1       665-3.99640E-01 2.47452E+00 0.00000E+00
 -1       666-4.01155E-01-2.19709E+00 0.00000E+00
 -1       667-4.00950E-01-6.87629E+00 0.00000E+00
 -1       668-3.99032E-01-1.15431E+01 0.00000E+00
 -1       669-3.95415E-01-1.61776E+01 0.00000E+00
 -1       670-3.90121E-01-2.07602E+01 0.00000E+00
 -1       671-3.83181E-01-2.52713E+01 0.00000E+00
 -1       672-3.74627E-01-2.96921E+01 0.00000E+00
 -1       673-3.64507E-01-3.40040E+01 0.00000E+00
 -1       674-3.52868E-01-3.81889E+01 0.00000E+00
 -1       675-3.39772E-01-4.22295E+01 0.00000E+00
 -1       676-3.25273E-01-4.61091E+01 0.00000E+00
 -1       677-3.09452E-01-4.98119E+01 0.00000E+00
 -1       678-2.92376E-01-5.33227E+01 0.00000E+00
 -1       679-2.74131E-01-5.66275E+01 0.00000E+00
 -1       680-2.54802E-01-5.97132E+01 0.00000E+00
 -1       681-2.34479E-01-6.25674E+01 0.00000E+00
 -1       682-2.13267E-01-6.51794E+01 0.00000E+00
 -1       683-1.91252E-01-6.75392E+01 0.00000E+00
 -1       684-1.68557E-01-6.96382E+01 0.00000E+00
 -1       685-1.45270E-01-7.14690E+01 0.00000E+00
 -1       686-1.21524E-01-7.30253E+01 0.00000E+00
 -1       687-9.74112E-02-7.43025E+01 0.00000E+00
 -1       688-7.30643E-02-7.52970E+01 0.00000E+00
 -1       689-4.85990E-02-7.60067E+01 0.00000E+00
 -1       690-2.41227E-02-7.64309E+01 0.00000E+00
 -1       691 2.25013E-04-7.65703E+01 0.00000E+00
 -1       692 2.43454E-02-7.64270E+01 0.00000E+00
 -1       693 4.80928E-02-7.60044E+01 0.00000E+00
 -1       694 7.13765E-02-7.53074E+01 0.00000E+00
 -1       695 9.40457E-02-7.43424E+01 0.00000E+00
 -1       696 1.16006E-01-7.31170E+01 0.00000E+00
 -1       697 1.37132E-01-7.16402E+01 0.00000E+00
 -1       698 1.57305E-01-6.99225E+01 0.00000E+00
 -1       699 1.76426E-01-6.79756E+01 0.00000E+00
 -1       700 1.94369E-01-6.58125E+01 0.00000E+00
 -1       701 2.11049E-01-6.34474E+01 0.00000E+00
 -1       702 2.26342E-01-6.08958E+01 0.00000E+00
 -1       703 2.40169E-01-5.81743E+01 0.00000E+00
 -1       704 2.52421E-01-5.53006E+01 0.00000E+00
 -1       705 2.63020E-01-5.22937E+01 0.00000E+00
 -1       706 2.71875E-01-4.91732E+01 0.00000E+00
 -1       707 2.78905E-01-4.59601E+01 0.00000E+00
 -1       708 2.84040E-01-4.26760E+01 0.00000E+00
 -1       709 2.87205E-01-3.93435E+01 0.00000E+00
 -1       710 2.88338E-01-3.59859E+01 0.00000E+00
 -1       711 2.87379E-01-3.26273E+01 0.00000E+00
 -1       712 2.84273E-01-2.92925E+01 0.00000E+00
 -1       713 2.78974E-01-2.60066E+01 0.00000E+00
 -1       714 2.71433E-01-2.27956E+01 0.00000E+00
 -1       715 2.61616E-01-1.96859E+01 0.00000E+00
 -1       716 2.49491E-01-1.67042E+01 0.00000E+00
 -1       717 2.35021E-01-1.38776E+01 0.00000E+00
 -1       718 2.18194E-01-1.12336E+01 0.00000E+00
 -1       719 1.98974E-01-8.79987E+00 0.00000E+00
 -1       720 1.77370E-01-6.60429E+00 0.00000E+00
 -1       721 1.53327E-01-4.67496E+00 0.00000E+00
 -1       722 1.26918E-01-3.03996E+00 0.00000E+00
 -1       723 9.79418E-02-1.72808E+00 0.00000E+00
 -1       724 6.69849E-02-7.65721E-01 0.00000E+00
 -1       725 3.20569E-02-1.88008E-01 0.00000E+00
 -1       726 0.00000E+00 0.00000E+00 0.00000E+00
 -1       727-5.67055E-01-1.01057E+02 0.00000E+00
 -3
    1PSTEP                        10           1           1          
    1PGM                1.000000E+00                                  
    1PGK                2.134216E+06                                  
    1PHID                         -1                                  
    1PSUBC                         0                                  
    1PMODE                         3                                  
  100CL  103 232.5087849         726                     2    3MODAL      1
 -4  STRESS      6    1
 -5  SXX         1    4    1    1
 -5  SYY         1    4    2    2
 -5  SZZ         1    4    3    3
 -5  SXY         1    4    1    2
 -5  SYZ         1    4    2    3
 -5  SZX         1    4    3    1
 -1         2-2.00472E+09-1.51311E+08-8.19290E+08-8.54354E+07 2.24949E+10 6.75285E+07
 -1         3-6.34249E+09-1.39304E+08-2.46308E+09-1.64542E+08 2.09195E+10 6.75030E+07
 -1         4-1.33503E+10-1.30647E+08-5.12277E+09-2.37934E+08 1.93451E+10 6.74422E+07
 -1         5-2.28251E+10-1.11796E+08-8.71601E+09-3.05586E+08 1.77727E+10 6.73306E+07
 -1         6-3.45710E+10-1.15060E+08-1.31807E+10-3.68083E+08 1.62036E+10 6.71534E+07
 -1         7-4.83813E+10-9.56029E+07-1.84212E+10-4.23387E+08 1.46396E+10 6.68971E+07
 -1         8-6.40597E+10-7.53594E+07-2.43713E+10-4.75214E+08 1.30827E+10 6.65495E+07
 -1         9-8.14143E+10-9.86780E+07-3.09749E+10-5.19656E+08 1.15349E+10 6.60999E+07
 -1        10-1.00233E+11-6.53831E+07-3.81132E+10-5.57485E+08 9.99904E+09 6.55381E+07
 -1        11-1.20329E+11-4.79235E+07-4.57433E+10-5.92031E+08 8.47763E+09 6.48560E+07
 -1        12-1.41509E+11-4.15138E+07-5.37893E+10-6.20192E+08 6.97362E+09 6.40462E+07
 -1        13-1.63578E+11-2.97734E+07-6.21711E+10-6.43879E+08 5.49005E+09 6.31028E+07
 -1        14-1.86354E+11-5.25164E+07-7.08344E+10-6.60529E+08 4.03011E+09 6.20207E+07
 -1        15-2.09633E+11-2.26047E+06-7.96612E+10-6.71170E+08 2.59708E+09 6.07960E+07
 -1        16-2.33250E+11 5.01753E+06-8.86329E+10-6.80502E+08 1.19431E+09 5.94262E+07
 -1        17-2.57024E+11-1.77415E+07-9.76758E+10-6.81206E+08-1.74792E+08 5.79100E+07
 -1        18-2.80767E+11 2.33684E+07-1.06682E+11-6.78022E+08-1.50680E+09 5.62467E+07
 -1        19-3.04329E+11-1.19496E+07-1.15650E+11-6.70184E+08-2.79829E+09 5.44371E+07
 -1        20-3.27519E+11 5.80700E+07-1.24435E+11-6.55478E+08-4.04587E+09 5.24828E+07
 -1        21-3.50209E+11 2.14964E+07-1.33071E+11-6.42492E+08-5.24618E+09 5.03866E+07
 -1        22-3.72221E+11 5.09107E+07-1.41425E+11-6.16885E+08-6.39597E+09 4.81522E+07
 -1        23-3.93423E+11 3.97030E+07-1.49485E+11-5.95959E+08-7.49206E+09 4.57841E+07
 -1        24-4.13661E+11 8.06733E+07-1.57161E+11-5.61950E+08-8.53139E+09 4.32878E+07
 -1        25-4.32817E+11 8.44178E+07-1.64438E+11-5.36410E+08-9.51104E+09 4.06697E+07
 -1        26-4.50778E+11-3.36056E+07-1.71309E+11-4.92921E+08-1.04283E+10 3.79369E+07
 -1        27-4.67363E+11 1.60089E+08-1.77537E+11-4.52251E+08-1.12804E+10 3.50971E+07
 -1        28-4.82554E+11 5.33843E+07-1.83350E+11-4.15412E+08-1.20652E+10 3.21589E+07
 -1        29-4.96183E+11 9.83318E+07-1.88512E+11-3.64282E+08-1.27804E+10 2.91318E+07
 -1        30-5.08192E+11 7.32200E+07-1.93085E+11-3.22241E+08-1.34240E+10 2.60252E+07
 -1        31-5.18476E+11 1.36825E+08-1.96969E+11-2.66076E+08-1.39943E+10 2.28497E+07
 -1        32-5.26995E+11 6.71856E+07-2.00233E+11-2.23395E+08-1.44898E+10 1.96161E+07
 -1        33-5.33658E+11 5.08100E+07-2.02771E+11-1.57428E+08-1.49093E+10 1.63356E+07
 -1        34-5.38394E+11 2.02515E+08-2.04513E+11-1.11051E+08-1.52518E+10 1.30196E+07
 -1        35-5.41238E+11-1.01359E+06-2.05671E+11-5.24890E+07-1.55166E+10 9.68033E+06
 -1        36-5.42046E+11 1.71473E+08-2.05912E+11 8.28372E+06-1.57034E+10 6.32975E+06
 -1        37-5.40892E+11 7.53447E+07-2.05510E+11 5.91994E+07-1.58120E+10 2.98017E+06
 -1        38-5.37695E+11 1.49477E+08-2.04267E+11 1.23647E+08-1.58426E+10-3.55921E+05
 -1        39-5.32499E+11 7.66084E+07-2.02320E+11 1.71933E+08-1.57957E+10-3.66608E+06
 -1        40-5.25278E+11 6.77355E+07-1.99580E+11 2.41416E+08-1.56719E+10-6.93775E+06
 -1        41-5.16046E+11 1.50849E+08-1.96040E+11 2.89864E+08-1.54724E+10-1.01586E+07
 -1        42-5.04863E+11 7.39157E+07-1.91820E+11 3.51166E+08-1.51984E+10-1.33163E+07
 -1        43-4.91718E+11 1.57319E+08-1.86793E+11 4.00705E+08-1.48516E+10-1.63988E+07
 -1        44-4.76714E+11 3.54593E+06-1.81150E+11 4.56590E+08-1.44339E+10-1.93942E+07
 -1        45-4.59819E+11 1.79616E+08-1.74663E+11 5.11750E+08-1.39475E+10-2.22909E+07
 -1        46-4.41191E+11 5.06036E+07-1.67633E+11 5.53266E+08-1.33947E+10-2.50778E+07
 -1        47-4.20834E+11 5.79866E+07-1.59895E+11 6.11384E+08-1.27783E+10-2.77440E+07
 -1        48-3.98838E+11 1.20414E+08-1.51513E+11 6.49569E+08-1.21012E+10-3.02793E+07
 -1        49-3.75319E+11 5.83402E+07-1.42599E+11 6.96744E+08-1.13665E+10-3.26738E+07
 -1        50-3.50336E+11 8.16118E+07-1.33097E+11 7.32720E+08-1.05777E+10-3.49183E+07
 -1        51-3.24012E+11 5.23378E+07-1.23105E+11 7.73586E+08-9.73844E+09-3.70041E+07
 -1        52-2.96436E+11 8.72412E+07-1.12612E+11 8.04030E+08-8.85241E+09-3.89232E+07
 -1        53-2.67745E+11 2.43392E+07-1.01734E+11 8.36369E+08-7.92361E+09-4.06683E+07
 -1        54-2.38030E+11 5.83522E+07-9.04290E+10 8.63664E+08-6.95620E+09-4.22327E+07
 -1        55-2.07437E+11 2.38232E+07-7.88170E+10 8.87130E+08-5.95445E+09-4.36105E+07
 -1        56-1.76076E+11 4.57182E+07-6.68917E+10 9.07895E+08-4.92279E+09-4.47967E+07
 -1        57-1.44094E+11 2.76892E+07-5.47452E+10 9.22010E+08-3.86572E+09-4.57871E+07
 -1        58-1.11618E+11 1.19080E+07-4.24105E+10 9.35538E+08-2.78787E+09-4.65780E+07
 -1        59-7.87833E+10 2.08593E+07-2.99297E+10 9.42691E+08-1.69392E+09-4.71670E+07
 -1        60-4.57375E+10-5.31329E+06-1.73823E+10 9.47374E+08-5.88600E+08-4.75522E+07
 -1        61-1.26116E+10 1.50567E+06-4.79182E+09 9.47550E+08 5.23323E+08-4.77327E+07
 -1        62 2.04442E+10-1.28781E+07 7.76391E+09 9.43178E+08 1.63707E+09-4.77084E+07
 -1        63 5.32915E+10-2.34503E+07 2.02419E+10 9.35532E+08 2.74787E+09-4.74804E+07
 -1        64 8.57915E+10-1.22908E+07 3.25961E+10 9.23466E+08 3.85098E+09-4.70503E+07
 -1        65 1.17794E+11-4.26558E+07 4.47455E+10 9.06327E+08 4.94173E+09-4.64206E+07
 -1        66 1.49170E+11-4.56396E+07 5.66673E+10 8.87864E+08 6.01549E+09-4.55948E+07
 -1        67 1.79780E+11-4.34944E+07 6.82997E+10 8.63283E+08 7.06775E+09-4.45774E+07
 -1        68 2.09489E+11-3.49019E+07 7.95924E+10 8.35713E+08 8.09409E+09-4.33735E+07
 -1        69 2.38157E+11-8.16185E+07 9.04685E+10 8.02339E+08 9.09021E+09-4.19888E+07
 -1        70 2.65675E+11-5.96380E+07 1.00934E+11 7.70547E+08 1.00520E+10-4.04305E+07
 -1        71 2.91906E+11-7.16260E+07 1.10897E+11 7.28836E+08 1.09755E+10-3.87059E+07
 -1        72 3.16734E+11-1.03286E+08 1.20320E+11 6.90461E+08 1.18568E+10-3.68233E+07
 -1        73 3.40061E+11-5.68815E+07 1.29202E+11 6.44208E+08 1.26925E+10-3.47919E+07
 -1        74 3.61755E+11-1.06663E+08 1.37426E+11 5.96140E+08 1.34792E+10-3.26212E+07
 -1        75 3.81744E+11-5.74638E+07 1.45041E+11 5.45760E+08 1.42137E+10-3.03215E+07
 -1        76 3.99901E+11-1.37445E+08 1.51910E+11 4.89748E+08 1.48931E+10-2.79038E+07
 -1        77 4.16176E+11-8.88505E+07 1.58113E+11 4.39299E+08 1.55149E+10-2.53796E+07
 -1        78 4.30462E+11-1.13121E+08 1.63533E+11 3.76439E+08 1.60767E+10-2.27610E+07
 -1        79 4.42702E+11-1.03700E+08 1.68187E+11 3.21897E+08 1.65764E+10-2.00602E+07
 -1        80 4.52821E+11-1.36219E+08 1.72020E+11 2.55382E+08 1.70122E+10-1.72903E+07
 -1        81 4.60774E+11-1.37250E+08 1.75042E+11 2.00279E+08 1.73827E+10-1.44645E+07
 -1        82 4.66529E+11-1.20703E+07 1.77277E+11 1.29502E+08 1.76868E+10-1.15964E+07
 -1        83 4.69980E+11-2.05621E+08 1.78514E+11 6.25908E+07 1.79237E+10-8.69966E+06
 -1        84 4.71190E+11-9.47149E+07 1.79016E+11 3.26021E+06 1.80927E+10-5.78849E+06
 -1        85 4.70070E+11-1.32301E+08 1.78576E+11-6.87868E+07 1.81938E+10-2.87712E+06
 -1        86 4.66638E+11-1.10735E+08 1.77280E+11-1.29504E+08 1.82271E+10 2.02024E+04
 -1        87 4.60871E+11-1.52964E+08 1.75073E+11-2.01908E+08 1.81931E+10 2.88909E+06
 -1        88 4.52797E+11-1.00288E+08 1.72025E+11-2.59779E+08 1.80927E+10 5.71518E+06
 -1        89 4.42411E+11-7.60009E+07 1.68087E+11-3.35730E+08 1.79269E+10 8.48409E+06
 -1        90 4.29716E+11-2.00743E+08 1.63216E+11-3.94246E+08 1.76974E+10 1.11817E+07
 -1        91 4.14807E+11-3.56037E+07 1.57613E+11-4.59365E+08 1.74059E+10 1.37939E+07
 -1        92 3.97633E+11-1.60852E+08 1.51039E+11-5.25636E+08 1.70546E+10 1.63069E+07
 -1        93 3.78313E+11-9.50245E+07 1.43723E+11-5.82080E+08 1.66460E+10 1.87070E+07
 -1        94 3.56854E+11-1.30924E+08 1.35555E+11-6.46518E+08 1.61828E+10 2.09810E+07
 -1        95 3.33341E+11-8.95709E+07 1.26636E+11-6.98665E+08 1.56681E+10 2.31160E+07
 -1        96 3.07826E+11-7.56658E+07 1.16945E+11-7.62007E+08 1.51054E+10 2.50992E+07
 -1        97 2.80374E+11-1.29528E+08 1.06493E+11-8.11274E+08 1.44983E+10 2.69186E+07
 -1        98 2.51089E+11-7.27537E+07 9.53862E+10-8.65494E+08 1.38508E+10 2.85626E+07
 -1        99 2.20022E+11-1.15508E+08 8.35644E+10-9.12534E+08 1.31671E+10 3.00199E+07
 -1       100 1.87292E+11-4.85554E+07 7.11523E+10-9.60063E+08 1.24516E+10 3.12799E+07
 -1       101 1.52954E+11-1.01120E+08 5.80843E+10-1.00541E+09 1.17092E+10 3.23324E+07
 -1       102 1.17136E+11-6.88846E+07 4.44856E+10-1.04439E+09 1.09448E+10 3.31680E+07
 -1       103 7.99187E+10-5.46249E+07 3.03483E+10-1.08505E+09 1.01634E+10 3.37776E+07
 -1       104 4.13988E+10-7.92252E+07 1.57014E+10-1.11951E+09 9.37059E+09 3.41530E+07
 -1       105 1.69216E+09-4.49301E+07 6.25948E+08-1.15213E+09 8.57180E+09 3.42865E+07
 -1       106-3.91162E+10-6.37341E+07-1.48884E+10-1.18235E+09 7.77279E+09 3.41709E+07
 -1       107-8.09087E+10-3.12436E+07-3.07572E+10-1.20819E+09 6.97945E+09 3.37999E+07
 -1       108-1.23598E+11-3.80759E+07-4.69816E+10-1.23447E+09 6.19780E+09 3.31676E+07
 -1       109-1.67083E+11-7.35297E+07-6.35193E+10-1.25390E+09 5.43401E+09 3.22688E+07
 -1       110-2.11244E+11 6.07305E+06-8.02702E+10-1.27068E+09 4.69436E+09 3.10988E+07
 -1       111-2.56024E+11-4.71239E+07-9.73069E+10-1.28978E+09 3.98520E+09 2.96537E+07
 -1       112-3.01298E+11-3.49625E+06-1.14495E+11-1.29926E+09 3.31300E+09 2.79302E+07
 -1       113-3.47009E+11-4.94185E+07-1.31882E+11-1.31443E+09 2.68430E+09 2.59252E+07
 -1       114-3.93038E+11 6.81473E+07-1.49329E+11-1.31747E+09 2.10568E+09 2.36365E+07
 -1       115-4.39390E+11-1.70898E+08-1.67033E+11-1.33454E+09 1.58379E+09 2.10621E+07
 -1       116-4.85823E+11 3.95179E+08-1.84463E+11-1.32204E+09 1.12532E+09 1.82005E+07
 -1       117-5.32764E+11-1.41983E+09-2.02990E+11-1.35565E+09 7.36980E+08 1.50513E+07
 -1       118-5.78532E+11 5.06830E+09-2.17916E+11-1.27575E+09 4.25501E+08 1.16108E+07
 -1       119-6.28845E+11-1.77468E+10-2.45705E+11-1.55378E+09 1.97617E+08 7.88902E+06
 -1       120-6.63605E+11 6.11892E+10-2.28918E+11-5.83320E+08 6.01530E+07 3.84955E+06
 -1       121-6.70069E+11-2.21217E+11-3.38689E+11-4.08092E+09 1.48947E+07 1.73769E+06
 -1       122-5.28004E+08-1.55411E+08-2.59698E+08-4.85416E+05-2.32827E+10-6.75345E+07
 -1       123-2.00472E+09-1.51311E+08-8.19290E+08-8.54357E+07-2.24949E+10-6.75286E+07
 -1       124-6.34249E+09-1.39303E+08-2.46308E+09-1.64543E+08-2.09195E+10-6.75031E+07
 -1       125-1.33503E+10-1.30646E+08-5.12277E+09-2.37935E+08-1.93451E+10-6.74423E+07
 -1       126-2.28251E+10-1.11795E+08-8.71601E+09-3.05586E+08-1.77727E+10-6.73306E+07
 -1       127-3.45710E+10-1.15059E+08-1.31807E+10-3.68083E+08-1.62036E+10-6.71535E+07
 -1       128-4.83813E+10-9.56016E+07-1.84212E+10-4.23387E+08-1.46396E+10-6.68971E+07
 -1       129-6.40597E+10-7.53581E+07-2.43713E+10-4.75215E+08-1.30827E+10-6.65496E+07
 -1       130-8.14143E+10-9.86766E+07-3.09749E+10-5.19656E+08-1.15349E+10-6.60999E+07
 -1       131-1.00233E+11-6.53817E+07-3.81132E+10-5.57485E+08-9.99904E+09-6.55382E+07
 -1       132-1.20329E+11-4.79221E+07-4.57433E+10-5.92031E+08-8.47763E+09-6.48560E+07
 -1       133-1.41509E+11-4.15126E+07-5.37893E+10-6.20191E+08-6.97362E+09-6.40463E+07
 -1       134-1.63578E+11-2.97722E+07-6.21711E+10-6.43879E+08-5.49004E+09-6.31028E+07
 -1       135-1.86354E+11-5.25154E+07-7.08344E+10-6.60529E+08-4.03011E+09-6.20207E+07
 -1       136-2.09633E+11-2.25960E+06-7.96612E+10-6.71170E+08-2.59707E+09-6.07960E+07
 -1       137-2.33250E+11 5.01823E+06-8.86329E+10-6.80502E+08-1.19431E+09-5.94262E+07
 -1       138-2.57024E+11-1.77410E+07-9.76758E+10-6.81206E+08 1.74793E+08-5.79100E+07
 -1       139-2.80767E+11 2.33688E+07-1.06682E+11-6.78021E+08 1.50680E+09-5.62467E+07
 -1       140-3.04329E+11-1.19493E+07-1.15650E+11-6.70184E+08 2.79829E+09-5.44371E+07
 -1       141-3.27519E+11 5.80703E+07-1.24435E+11-6.55478E+08 4.04587E+09-5.24828E+07
 -1       142-3.50209E+11 2.14967E+07-1.33071E+11-6.42492E+08 5.24618E+09-5.03866E+07
 -1       143-3.72221E+11 5.09110E+07-1.41425E+11-6.16885E+08 6.39597E+09-4.81522E+07
 -1       144-3.93423E+11 3.97034E+07-1.49485E+11-5.95959E+08 7.49206E+09-4.57841E+07
 -1       145-4.13661E+11 8.06737E+07-1.57161E+11-5.61950E+08 8.53139E+09-4.32879E+07
 -1       146-4.32817E+11 8.44182E+07-1.64438E+11-5.36410E+08 9.51104E+09-4.06697E+07
 -1       147-4.50778E+11-3.36052E+07-1.71309E+11-4.92921E+08 1.04283E+10-3.79369E+07
 -1       148-4.67363E+11 1.60089E+08-1.77537E+11-4.52251E+08 1.12805E+10-3.50971E+07
 -1       149-4.82554E+11 5.33847E+07-1.83350E+11-4.15412E+08 1.20652E+10-3.21589E+07
 -1       150-4.96183E+11 9.83322E+07-1.88512E+11-3.64282E+08 1.27804E+10-2.91318E+07
 -1       151-5.08192E+11 7.32203E+07-1.93085E+11-3.22241E+08 1.34240E+10-2.60252E+07
 -1       152-5.18476E+11 1.36825E+08-1.96969E+11-2.66076E+08 1.39943E+10-2.28497E+07
 -1       153-5.26995E+11 6.71856E+07-2.00233E+11-2.23395E+08 1.44898E+10-1.96161E+07
 -1       154-5.33658E+11 5.08099E+07-2.02771E+11-1.57428E+08 1.49093E+10-1.63356E+07
 -1       155-5.38394E+11 2.02515E+08-2.04513E+11-1.11052E+08 1.52518E+10-1.30196E+07
 -1       156-5.41238E+11-1.01347E+06-2.05671E+11-5.24892E+07 1.55166E+10-9.68033E+06
 -1       157-5.42046E+11 1.71473E+08-2.05912E+11 8.28357E+06 1.57034E+10-6.32975E+06
 -1       158-5.40892E+11 7.53450E+07-2.05510E+11 5.91994E+07 1.58120E+10-2.98017E+06
 -1       159-5.37695E+11 1.49477E+08-2.04267E+11 1.23647E+08 1.58426E+10 3.55925E+05
 -1       160-5.32499E+11 7.66083E+07-2.02320E+11 1.71933E+08 1.57957E+10 3.66608E+06
 -1       161-5.25278E+11 6.77351E+07-1.99580E+11 2.41416E+08 1.56719E+10 6.93775E+06
 -1       162-5.16046E+11 1.50848E+08-1.96040E+11 2.89864E+08 1.54724E+10 1.01586E+07
 -1       163-5.04863E+11 7.39149E+07-1.91820E+11 3.51166E+08 1.51984E+10 1.33163E+07
 -1       164-4.91718E+11 1.57318E+08-1.86793E+11 4.00705E+08 1.48516E+10 1.63988E+07
 -1       165-4.76714E+11 3.54519E+06-1.81150E+11 4.56590E+08 1.44339E+10 1.93942E+07
 -1       166-4.59819E+11 1.79616E+08-1.74663E+11 5.11750E+08 1.39475E+10 2.22909E+07
 -1       167-4.41191E+11 5.06031E+07-1.67633E+11 5.53266E+08 1.33947E+10 2.50778E+07
 -1       168-4.20834E+11 5.79863E+07-1.59895E+11 6.11384E+08 1.27783E+10 2.77440E+07
 -1       169-3.98838E+11 1.20414E+08-1.51513E+11 6.49569E+08 1.21012E+10 3.02793E+07
 -1       170-3.75319E+11 5.83403E+07-1.42599E+11 6.96744E+08 1.13665E+10 3.26738E+07
 -1       171-3.50336E+11 8.16119E+07-1.33097E+11 7.32720E+08 1.05777E+10 3.49183E+07
 -1       172-3.24012E+11 5.23380E+07-1.23105E+11 7.73586E+08 9.73844E+09 3.70041E+07
 -1       173-2.96436E+11 8.72414E+07-1.12612E+11 8.04030E+08 8.85241E+09 3.89232E+07
 -1       174-2.67745E+11 2.43394E+07-1.01734E+11 8.36369E+08 7.92361E+09 4.06683E+07
 -1       175-2.38030E+11 5.83523E+07-9.04290E+10 8.63664E+08 6.95620E+09 4.22327E+07
 -1       176-2.07437E+11 2.38233E+07-7.88170E+10 8.87131E+08 5.95445E+09 4.36105E+07
 -1       177-1.76076E+11 4.57181E+07-6.68917E+10 9.07895E+08 4.92279E+09 4.47967E+07
 -1       178-1.44094E+11 2.76890E+07-5.47452E+10 9.22010E+08 3.86572E+09 4.57871E+07
 -1       179-1.11618E+11 1.19077E+07-4.24105E+10 9.35538E+08 2.78787E+09 4.65780E+07
 -1       180-7.87833E+10 2.08591E+07-2.99297E+10 9.42691E+08 1.69392E+09 4.71670E+07
 -1       181-4.57375E+10-5.31357E+06-1.73823E+10 9.47374E+08 5.88600E+08 4.75522E+07
 -1       182-1.26116E+10 1.50536E+06-4.79182E+09 9.47551E+08-5.23323E+08 4.77327E+07
 -1       183 2.04442E+10-1.28784E+07 7.76391E+09 9.43178E+08-1.63707E+09 4.77084E+07
 -1       184 5.32915E+10-2.34506E+07 2.02419E+10 9.35532E+08-2.74787E+09 4.74804E+07
 -1       185 8.57915E+10-1.22910E+07 3.25961E+10 9.23466E+08-3.85098E+09 4.70503E+07
 -1       186 1.17794E+11-4.26559E+07 4.47455E+10 9.06327E+08-4.94173E+09 4.64205E+07
 -1       187 1.49170E+11-4.56396E+07 5.66673E+10 8.87864E+08-6.01549E+09 4.55948E+07
 -1       188 1.79780E+11-4.34943E+07 6.82997E+10 8.63283E+08-7.06775E+09 4.45774E+07
 -1       189 2.09489E+11-3.49017E+07 7.95924E+10 8.35713E+08-8.09409E+09 4.33735E+07
 -1       190 2.38157E+11-8.16183E+07 9.04685E+10 8.02339E+08-9.09021E+09 4.19888E+07
 -1       191 2.65675E+11-5.96379E+07 1.00934E+11 7.70547E+08-1.00520E+10 4.04305E+07
 -1       192 2.91906E+11-7.16260E+07 1.10897E+11 7.28836E+08-1.09755E+10 3.87059E+07
 -1       193 3.16734E+11-1.03286E+08 1.20320E+11 6.90461E+08-1.18568E+10 3.68233E+07
 -1       194 3.40061E+11-5.68815E+07 1.29202E+11 6.44208E+08-1.26925E+10 3.47919E+07
 -1       195 3.61755E+11-1.06663E+08 1.37426E+11 5.96140E+08-1.34792E+10 3.26212E+07
 -1       196 3.81744E+11-5.74638E+07 1.45041E+11 5.45760E+08-1.42137E+10 3.03215E+07
 -1       197 3.99901E+11-1.37445E+08 1.51910E+11 4.89747E+08-1.48931E+10 2.79038E+07
 -1       198 4.16176E+11-8.88501E+07 1.58113E+11 4.39299E+08-1.55149E+10 2.53796E+07
 -1       199 4.30462E+11-1.13120E+08 1.63533E+11 3.76439E+08-1.60767E+10 2.27609E+07
 -1       200 4.42702E+11-1.03699E+08 1.68187E+11 3.21897E+08-1.65764E+10 2.00602E+07
 -1       201 4.52821E+11-1.36218E+08 1.72020E+11 2.55382E+08-1.70122E+10 1.72903E+07
 -1       202 4.60774E+11-1.37249E+08 1.75042E+11 2.00279E+08-1.73827E+10 1.44645E+07
 -1       203 4.66529E+11-1.20697E+07 1.77277E+11 1.29502E+08-1.76868E+10 1.15964E+07
 -1       204 4.69980E+11-2.05620E+08 1.78514E+11 6.25909E+07-1.79237E+10 8.69966E+06
 -1       205 4.71190E+11-9.47144E+07 1.79016E+11 3.26037E+06-1.80927E+10 5.78849E+06
 -1       206 4.70070E+11-1.32300E+08 1.78576E+11-6.87869E+07-1.81938E+10 2.87712E+06
 -1       207 4.66638E+11-1.10734E+08 1.77280E+11-1.29504E+08-1.82271E+10-2.01981E+04
 -1       208 4.60871E+11-1.52963E+08 1.75073E+11-2.01908E+08-1.81931E+10-2.88908E+06
 -1       209 4.52797E+11-1.00287E+08 1.72025E+11-2.59779E+08-1.80927E+10-5.71517E+06
 -1       210 4.42411E+11-7.60005E+07 1.68087E+11-3.35730E+08-1.79269E+10-8.48408E+06
 -1       211 4.29716E+11-2.00742E+08 1.63216E+11-3.94246E+08-1.76974E+10-1.11817E+07
 -1       212 4.14807E+11-3.56033E+07 1.57613E+11-4.59365E+08-1.74059E+10-1.37939E+07
 -1       213 3.97633E+11-1.60852E+08 1.51039E+11-5.25636E+08-1.70546E+10-1.63069E+07
 -1       214 3.78313E+11-9.50242E+07 1.43723E+11-5.82080E+08-1.66460E+10-1.87070E+07
 -1       215 3.56854E+11-1.30924E+08 1.35555E+11-6.46518E+08-1.61828E+10-2.09810E+07
 -1       216 3.33341E+11-8.95711E+07 1.26636E+11-6.98665E+08-1.56681E+10-2.31159E+07
 -1       217 3.07826E+11-7.56661E+07 1.16945E+11-7.62007E+08-1.51054E+10-2.50992E+07
 -1       218 2.80374E+11-1.29528E+08 1.06493E+11-8.11274E+08-1.44983E+10-2.69186E+07
 -1       219 2.51089E+11-7.27541E+07 9.53862E+10-8.65494E+08-1.38508E+10-2.85626E+07
 -1       220 2.20022E+11-1.15508E+08 8.35644E+10-9.12534E+08-1.31671E+10-3.00199E+07
 -1       221 1.87292E+11-4.85560E+07 7.11523E+10-9.60063E+08-1.24517E+10-3.12799E+07
 -1       222 1.52954E+11-1.01121E+08 5.80843E+10-1.00541E+09-1.17092E+10-3.23324E+07
 -1       223 1.17136E+11-6.88854E+07 4.44856E+10-1.04439E+09-1.09448E+10-3.31680E+07
 -1       224 7.99187E+10-5.46257E+07 3.03483E+10-1.08505E+09-1.01634E+10-3.37776E+07
 -1       225 4.13987E+10-7.92259E+07 1.57014E+10-1.11951E+09-9.37059E+09-3.41530E+07
 -1       226 1.69216E+09-4.49308E+07 6.25947E+08-1.15213E+09-8.57180E+09-3.42865E+07
 -1       227-3.91162E+10-6.37348E+07-1.48884E+10-1.18235E+09-7.77279E+09-3.41709E+07
 -1       228-8.09087E+10-3.12443E+07-3.07572E+10-1.20819E+09-6.97945E+09-3.37999E+07
 -1       229-1.23598E+11-3.80766E+07-4.69816E+10-1.23447E+09-6.19780E+09-3.31676E+07
 -1       230-1.67083E+11-7.35302E+07-6.35193E+10-1.25390E+09-5.43402E+09-3.22688E+07
 -1       231-2.11244E+11 6.07275E+06-8.02702E+10-1.27068E+09-4.69436E+09-3.10988E+07
 -1       232-2.56024E+11-4.71240E+07-9.73069E+10-1.28978E+09-3.98520E+09-2.96537E+07
 -1       233-3.01298E+11-3.49630E+06-1.14495E+11-1.29926E+09-3.31300E+09-2.79302E+07
 -1       234-3.47009E+11-4.94185E+07-1.31882E+11-1.31443E+09-2.68430E+09-2.59252E+07
 -1       235-3.93038E+11 6.81474E+07-1.49329E+11-1.31747E+09-2.10568E+09-2.36365E+07
 -1       236-4.39390E+11-1.70898E+08-1.67033E+11-1.33454E+09-1.58379E+09-2.10622E+07
 -1       237-4.85823E+11 3.95179E+08-1.84463E+11-1.32204E+09-1.12532E+09-1.82005E+07
 -1       238-5.32764E+11-1.41983E+09-2.02990E+11-1.35565E+09-7.36980E+08-1.50513E+07
 -1       239-5.78532E+11 5.06831E+09-2.17916E+11-1.27575E+09-4.25501E+08-1.16108E+07
 -1       240-6.28845E+11-1.77468E+10-2.45705E+11-1.55378E+09-1.97617E+08-7.88902E+06
 -1       241-6.63605E+11 6.11892E+10-2.28918E+11-5.83320E+08-6.01530E+07-3.84955E+06
 -1       242-6.70069E+11-2.21217E+11-3.38689E+11-4.08092E+09-1.48947E+07-1.73769E+06
 -1       243-2.19910E+04-6.17171E+03-1.06966E+04-4.65058E+05 2.32827E+10 2.69922E+03
 -1       244-8.04574E+04-5.93715E+03-3.28244E+04-8.53367E+07 2.24949E+10 2.69897E+03
 -1       245-2.53867E+05-5.53315E+03-9.85665E+04-1.64604E+08 2.09195E+10 2.69794E+03
 -1       246-5.34252E+05-5.13121E+03-2.04964E+05-2.37921E+08 1.93451E+10 2.69550E+03
 -1       247-9.13178E+05-4.44769E+03-3.48694E+05-3.05571E+08 1.77727E+10 2.69103E+03
 -1       248-1.38306E+06-4.52501E+03-5.27278E+05-3.67133E+08 1.62036E+10 2.68397E+03
 -1       249-1.93540E+06-3.81837E+03-7.36904E+05-4.24321E+08 1.46396E+10 2.67370E+03
 -1       250-2.56257E+06-2.93477E+03-9.74889E+05-4.73549E+08 1.30827E+10 2.65980E+03
 -1       251-3.25667E+06-3.93680E+03-1.23903E+06-5.19215E+08 1.15349E+10 2.64185E+03
 -1       252-4.00947E+06-2.55579E+03-1.52457E+06-5.59587E+08 9.99904E+09 2.61940E+03
 -1       253-4.81327E+06-1.92318E+03-1.82977E+06-5.92023E+08 8.47763E+09 2.59214E+03
 -1       254-5.66050E+06-1.61618E+03-2.15160E+06-6.20137E+08 6.97362E+09 2.55977E+03
 -1       255-6.54324E+06-1.18244E+03-2.48688E+06-6.41972E+08 5.49005E+09 2.52203E+03
 -1       256-7.45429E+06-2.07998E+03-2.83342E+06-6.60212E+08 4.03011E+09 2.47875E+03
 -1       257-8.38540E+06-1.19598E+02-3.18650E+06-6.73370E+08 2.59708E+09 2.42977E+03
 -1       258-9.33015E+06 2.47458E+02-3.54536E+06-6.77758E+08 1.19431E+09 2.37497E+03
 -1       259-1.02810E+07-7.62342E+02-3.90707E+06-6.80938E+08-1.74792E+08 2.31430E+03
 -1       260-1.12309E+07 9.89064E+02-4.26735E+06-6.77754E+08-1.50680E+09 2.24776E+03
 -1       261-1.21732E+07-5.49066E+02-4.62602E+06-6.69919E+08-2.79829E+09 2.17536E+03
 -1       262-1.31009E+07 2.35649E+03-4.97746E+06-6.59104E+08-4.04587E+09 2.09723E+03
 -1       263-1.40085E+07 8.25926E+02-5.32290E+06-6.38235E+08-5.24618E+09 2.01344E+03
 -1       264-1.48889E+07 2.01099E+03-5.65703E+06-6.21144E+08-6.39597E+09 1.92406E+03
 -1       265-1.57371E+07 1.60988E+03-5.97948E+06-5.91327E+08-7.49206E+09 1.82934E+03
 -1       266-1.65465E+07 3.12088E+03-6.28647E+06-5.66584E+08-8.53139E+09 1.72950E+03
 -1       267-1.73130E+07 3.47452E+03-6.57761E+06-5.26271E+08-9.51104E+09 1.62480E+03
 -1       268-1.80311E+07-1.54462E+03-6.85239E+06-4.97661E+08-1.04283E+10 1.51550E+03
 -1       269-1.86949E+07 6.53180E+03-7.10157E+06-4.57664E+08-1.12804E+10 1.40188E+03
 -1       270-1.93022E+07 1.94193E+03-7.33408E+06-4.09794E+08-1.20652E+10 1.28433E+03
 -1       271-1.98476E+07 4.01026E+03-7.54057E+06-3.69901E+08-1.27804E+10 1.16329E+03
 -1       272-2.03278E+07 2.81671E+03-7.72350E+06-3.16347E+08-1.34240E+10 1.03907E+03
 -1       273-2.07393E+07 5.43809E+03-7.87885E+06-2.71970E+08-1.39943E+10 9.12059E+02
 -1       274-2.10801E+07 2.70267E+03-8.00941E+06-2.11051E+08-1.44898E+10 7.82748E+02
 -1       275-2.13464E+07 1.84503E+03-8.11092E+06-1.69774E+08-1.49093E+10 6.51548E+02
 -1       276-2.15362E+07 8.25394E+03-8.18064E+06-1.04852E+08-1.52518E+10 5.18933E+02
 -1       277-2.16495E+07-3.08997E+02-8.22693E+06-5.24669E+07-1.55166E+10 3.85371E+02
 -1       278-2.16824E+07 7.02421E+03-8.23663E+06 2.06705E+06-1.57034E+10 2.51329E+02
 -1       279-2.16358E+07 2.78440E+03-8.22053E+06 6.55622E+07-1.58120E+10 1.17366E+02
 -1       280-2.15082E+07 6.05601E+03-8.17081E+06 1.17290E+08-1.58426E+10-1.60359E+01
 -1       281-2.13002E+07 2.95953E+03-8.09296E+06 1.84086E+08-1.57957E+10-1.48426E+02
 -1       282-2.10114E+07 2.63281E+03-7.98333E+06 2.29435E+08-1.56719E+10-2.79235E+02
 -1       283-2.06423E+07 6.09031E+03-7.84176E+06 2.95410E+08-1.54724E+10-4.08045E+02
 -1       284-2.01947E+07 2.74189E+03-7.67294E+06 3.45468E+08-1.51984E+10-5.34393E+02
 -1       285-1.96693E+07 6.43470E+03-7.47190E+06 4.06421E+08-1.48516E+10-6.57677E+02
 -1       286-1.90687E+07-1.14473E+02-7.24615E+06 4.56266E+08-1.44339E+10-7.77462E+02
 -1       287-1.83934E+07 7.33640E+03-6.98670E+06 5.06240E+08-1.39475E+10-8.93350E+02
 -1       288-1.76479E+07 1.82671E+03-6.70551E+06 5.63584E+08-1.33947E+10-1.00479E+03
 -1       289-1.68339E+07 2.37398E+03-6.39596E+06 6.01100E+08-1.27783E+10-1.11143E+03
 -1       290-1.59540E+07 4.73324E+03-6.06071E+06 6.54269E+08-1.21012E+10-1.21289E+03
 -1       291-1.50132E+07 2.28297E+03-5.70414E+06 6.92187E+08-1.13665E+10-1.30865E+03
 -1       292-1.40139E+07 3.27352E+03-5.32405E+06 7.36601E+08-1.05777E+10-1.39842E+03
 -1       293-1.29609E+07 2.00412E+03-4.92437E+06 7.69627E+08-9.73844E+09-1.48185E+03
 -1       294-1.18580E+07 3.54357E+03-4.50469E+06 8.07462E+08-8.85241E+09-1.55858E+03
 -1       295-1.07102E+07 8.55623E+02-4.06955E+06 8.35960E+08-7.92361E+09-1.62832E+03
 -1       296-9.52178E+06 2.40385E+03-3.61736E+06 8.63402E+08-6.95620E+09-1.69090E+03
 -1       297-8.29790E+06 8.57728E+02-3.15287E+06 8.86721E+08-5.95445E+09-1.74605E+03
 -1       298-7.04365E+06 1.86666E+03-2.67588E+06 9.05703E+08-4.92279E+09-1.79346E+03
 -1       299-5.76421E+06 1.05120E+03-2.19000E+06 9.23488E+08-3.86572E+09-1.83306E+03
 -1       300-4.46527E+06 5.14026E+02-1.69660E+06 9.34080E+08-2.78787E+09-1.86472E+03
 -1       301-3.15182E+06 7.85293E+02-1.19739E+06 9.43416E+08-1.69392E+09-1.88824E+03
 -1       302-1.83001E+06-1.93118E+02-6.95474E+05 9.47019E+08-5.88600E+08-1.90357E+03
 -1       303-5.04926E+05 4.77595E+01-1.91850E+05 9.47178E+08 5.23323E+08-1.91077E+03
 -1       304 8.17255E+05-4.92335E+02 3.10372E+05 9.43234E+08 1.63707E+09-1.90984E+03
 -1       305 2.13123E+06-9.47318E+02 8.09511E+05 9.34743E+08 2.74787E+09-1.90075E+03
 -1       306 3.43118E+06-4.54045E+02 1.30368E+06 9.23111E+08 3.85098E+09-1.88350E+03
 -1       307 4.71134E+06-1.73073E+03 1.78965E+06 9.07506E+08 4.94173E+09-1.85826E+03
 -1       308 5.96637E+06-1.77610E+03 2.26655E+06 8.85933E+08 6.01549E+09-1.82523E+03
 -1       309 7.19080E+06-1.73307E+03 2.73185E+06 8.63003E+08 7.06775E+09-1.78459E+03
 -1       310 8.37915E+06-1.36191E+03 3.18356E+06 8.35322E+08 8.09409E+09-1.73642E+03
 -1       311 9.52589E+06-3.22991E+03 3.61861E+06 8.05065E+08 9.09021E+09-1.68101E+03
 -1       312 1.06267E+07-2.38136E+03 4.03725E+06 7.67274E+08 1.00520E+10-1.61867E+03
 -1       313 1.16759E+07-2.78027E+03 4.43579E+06 7.32045E+08 1.09755E+10-1.54965E+03
 -1       314 1.26692E+07-4.16033E+03 4.81271E+06 6.86594E+08 1.18568E+10-1.47431E+03
 -1       315 1.36021E+07-2.14110E+03 5.16799E+06 6.44062E+08 1.26925E+10-1.39304E+03
 -1       316 1.44701E+07-4.32032E+03 5.49700E+06 5.95795E+08 1.34792E+10-1.30618E+03
 -1       317 1.52695E+07-2.17017E+03 5.80159E+06 5.45786E+08 1.42137E+10-1.21415E+03
 -1       318 1.59959E+07-5.53315E+03 6.07636E+06 4.94119E+08 1.48931E+10-1.11744E+03
 -1       319 1.66469E+07-3.44260E+03 6.32453E+06 4.34309E+08 1.55149E+10-1.01646E+03
 -1       320 1.72184E+07-4.48923E+03 6.54129E+06 3.81436E+08 1.60767E+10-9.11714E+02
 -1       321 1.77081E+07-4.13879E+03 6.72751E+06 3.16895E+08 1.65764E+10-8.03675E+02
 -1       322 1.81127E+07-5.29884E+03 6.88083E+06 2.60246E+08 1.70122E+10-6.92837E+02
 -1       323 1.84312E+07-5.56578E+03 7.00175E+06 1.89771E+08 1.73827E+10-5.79751E+02
 -1       324 1.86610E+07-2.82112E+02 7.09109E+06 1.34632E+08 1.76868E+10-4.65008E+02
 -1       325 1.87996E+07-8.36205E+03 7.14067E+06 6.81126E+07 1.79237E+10-3.49124E+02
 -1       326 1.88476E+07-3.54112E+03 7.16075E+06-2.14727E+06 1.80927E+10-2.32652E+02
 -1       327 1.88032E+07-5.39084E+03 7.14316E+06-6.32382E+07 1.81938E+10-1.16214E+02
 -1       328 1.86657E+07-4.25350E+03 7.09135E+06-1.35124E+08 1.82271E+10-3.08288E-01
 -1       329 1.84352E+07-6.13185E+03 7.00305E+06-1.96441E+08 1.81931E+10 1.14487E+02
 -1       330 1.81123E+07-3.94481E+03 6.88116E+06-2.70210E+08 1.80927E+10 2.27549E+02
 -1       331 1.76968E+07-2.93849E+03 6.72365E+06-3.25314E+08 1.79269E+10 3.38308E+02
 -1       332 1.71892E+07-8.04483E+03 6.52884E+06-3.99103E+08 1.76974E+10 4.46212E+02
 -1       333 1.65926E+07-1.27367E+03 6.30472E+06-4.59191E+08 1.74059E+10 5.50756E+02
 -1       334 1.59059E+07-6.44566E+03 6.04181E+06-5.20979E+08 1.70546E+10 6.51319E+02
 -1       335 1.51331E+07-3.71523E+03 5.74916E+06-5.86313E+08 1.66460E+10 7.47347E+02
 -1       336 1.42747E+07-5.13139E+03 5.42244E+06-6.42413E+08 1.61828E+10 8.38339E+02
 -1       337 1.33344E+07-3.65629E+03 5.06570E+06-7.05942E+08 1.56681E+10 9.23769E+02
 -1       338 1.23135E+07-2.79650E+03 4.67807E+06-7.54656E+08 1.51054E+10 1.00313E+03
 -1       339 1.12160E+07-5.40773E+03 4.26004E+06-8.14341E+08 1.44983E+10 1.07590E+03
 -1       340 1.00439E+07-2.50955E+03 3.81574E+06-8.62454E+08 1.38508E+10 1.14170E+03
 -1       341 8.80211E+06-5.00986E+03 3.34291E+06-9.14889E+08 1.31671E+10 1.20003E+03
 -1       342 7.49191E+06-1.39438E+03 2.84641E+06-9.59753E+08 1.24516E+10 1.25043E+03
 -1       343 6.11962E+06-4.59258E+03 2.32372E+06-1.00342E+09 1.17092E+10 1.29260E+03
 -1       344 4.68558E+06-2.04243E+03 1.77975E+06-1.04671E+09 1.09448E+10 1.32607E+03
 -1       345 3.19844E+06-2.92087E+03 1.21430E+06-1.08276E+09 1.01634E+10 1.35046E+03
 -1       346 1.65588E+06-2.23208E+03 6.28394E+05-1.11980E+09 9.37059E+09 1.36550E+03
 -1       347 6.97288E+04-2.83585E+03 2.54275E+04-1.15190E+09 8.57180E+09 1.37088E+03
 -1       348-1.56511E+06-1.22998E+03-5.95199E+05-1.18169E+09 7.77279E+09 1.36630E+03
 -1       349-3.23380E+06-2.78517E+03-1.22989E+06-1.20890E+09 6.97945E+09 1.35148E+03
 -1       350-4.94497E+06 3.61737E+02-1.87894E+06-1.23112E+09 6.19780E+09 1.32622E+03
 -1       351-6.68001E+06-5.14486E+03-2.54035E+06-1.25521E+09 5.43401E+09 1.29030E+03
 -1       352-8.45159E+06 2.92374E+03-3.21049E+06-1.27282E+09 4.69436E+09 1.24352E+03
 -1       353-1.02367E+07-5.04176E+03-3.89186E+06-1.28652E+09 3.98520E+09 1.18570E+03
 -1       354-1.20549E+07 3.62200E+03-4.57948E+06-1.30256E+09 3.31300E+09 1.11677E+03
 -1       355-1.38748E+07-6.39117E+03-5.27485E+06-1.31021E+09 2.68430E+09 1.03662E+03
 -1       356-1.57261E+07 7.94626E+03-5.97289E+06-1.32175E+09 2.10568E+09 9.45159E+02
 -1       357-1.75684E+07-1.28939E+04-6.68086E+06-1.32395E+09 1.58379E+09 8.42223E+02
 -1       358-1.94394E+07 2.26145E+04-7.37839E+06-1.33270E+09 1.12532E+09 7.27749E+02
 -1       359-2.13016E+07-6.38037E+04-8.11884E+06-1.34910E+09 7.36980E+08 6.01832E+02
 -1       360-2.31478E+07 2.08253E+05-8.71702E+06-1.27553E+09 4.25501E+08 4.64244E+02
 -1       361-2.51524E+07-7.09919E+05-9.82769E+06-1.56064E+09 1.97617E+08 3.15350E+02
 -1       362-2.65156E+07 2.43737E+06-9.14971E+06-5.79914E+08 6.01530E+07 1.53900E+02
 -1       363-2.68795E+07-8.83602E+06-1.35719E+07-4.08752E+09 1.48947E+07 6.95655E+01
 -1       364-2.19845E+04-6.18107E+03-1.07081E+04-4.64997E+05-2.32827E+10-2.70341E+03
 -1       365-8.04619E+04-5.94768E+03-3.28412E+04-8.53370E+07-2.24949E+10-2.70316E+03
 -1       366-2.53883E+05-5.56761E+03-9.85967E+04-1.64605E+08-2.09195E+10-2.70211E+03
 -1       367-5.34222E+05-5.12649E+03-2.04954E+05-2.37921E+08-1.93451E+10-2.69965E+03
 -1       368-9.13149E+05-4.43935E+03-3.48687E+05-3.05571E+08-1.77727E+10-2.69515E+03
 -1       369-1.38304E+06-4.52441E+03-5.27276E+05-3.67133E+08-1.62036E+10-2.68806E+03
 -1       370-1.93535E+06-3.78334E+03-7.36871E+05-4.24321E+08-1.46396E+10-2.67777E+03
 -1       371-2.56259E+06-2.96758E+03-9.74918E+05-4.73549E+08-1.30827E+10-2.66385E+03
 -1       372-3.25668E+06-3.96394E+03-1.23905E+06-5.19215E+08-1.15349E+10-2.64589E+03
 -1       373-4.00943E+06-2.53033E+03-1.52454E+06-5.59587E+08-9.99904E+09-2.62342E+03
 -1       374-4.81325E+06-1.90731E+03-1.82976E+06-5.92023E+08-8.47763E+09-2.59614E+03
 -1       375-5.66051E+06-1.63440E+03-2.15162E+06-6.20137E+08-6.97362E+09-2.56376E+03
 -1       376-6.54325E+06-1.19665E+03-2.48689E+06-6.41972E+08-5.49004E+09-2.52600E+03
 -1       377-7.45426E+06-2.05651E+03-2.83340E+06-6.60212E+08-4.03011E+09-2.48270E+03
 -1       378-8.38537E+06-9.66044E+01-3.18648E+06-6.73370E+08-2.59707E+09-2.43371E+03
 -1       379-9.33014E+06 2.44270E+02-3.54536E+06-6.77758E+08-1.19431E+09-2.37890E+03
 -1       380-1.02810E+07-7.61160E+02-3.90707E+06-6.80937E+08 1.74793E+08-2.31822E+03
 -1       381-1.12308E+07 9.96094E+02-4.26734E+06-6.77754E+08 1.50680E+09-2.25166E+03
 -1       382-1.21732E+07-5.52445E+02-4.62603E+06-6.69919E+08 2.79829E+09-2.17926E+03
 -1       383-1.31009E+07 2.36367E+03-4.97745E+06-6.59104E+08 4.04587E+09-2.10112E+03
 -1       384-1.40085E+07 8.16372E+02-5.32290E+06-6.38235E+08 5.24618E+09-2.01731E+03
 -1       385-1.48889E+07 2.00589E+03-5.65704E+06-6.21144E+08 6.39597E+09-1.92791E+03
 -1       386-1.57371E+07 1.59425E+03-5.97949E+06-5.91328E+08 7.49206E+09-1.83317E+03
 -1       387-1.65465E+07 3.10787E+03-6.28648E+06-5.66584E+08 8.53139E+09-1.73332E+03
 -1       388-1.73130E+07 3.47383E+03-6.57761E+06-5.26271E+08 9.51104E+09-1.62861E+03
 -1       389-1.80311E+07-1.54725E+03-6.85240E+06-4.97661E+08 1.04283E+10-1.51929E+03
 -1       390-1.86948E+07 6.56118E+03-7.10155E+06-4.57664E+08 1.12805E+10-1.40566E+03
 -1       391-1.93021E+07 1.94203E+03-7.33408E+06-4.09794E+08 1.20652E+10-1.28808E+03
 -1       392-1.98476E+07 4.00444E+03-7.54057E+06-3.69901E+08 1.27804E+10-1.16702E+03
 -1       393-2.03278E+07 2.81084E+03-7.72350E+06-3.16347E+08 1.34240E+10-1.04277E+03
 -1       394-2.07392E+07 5.43362E+03-7.87885E+06-2.71970E+08 1.39943E+10-9.15728E+02
 -1       395-2.10801E+07 2.69631E+03-8.00942E+06-2.11051E+08 1.44898E+10-7.86379E+02
 -1       396-2.13464E+07 1.84864E+03-8.11092E+06-1.69774E+08 1.49093E+10-6.55146E+02
 -1       397-2.15362E+07 8.24442E+03-8.18064E+06-1.04853E+08 1.52518E+10-5.22505E+02
 -1       398-2.16495E+07-3.29622E+02-8.22694E+06-5.24671E+07 1.55166E+10-3.88921E+02
 -1       399-2.16823E+07 7.03488E+03-8.23662E+06 2.06691E+06 1.57034E+10-2.54860E+02
 -1       400-2.16358E+07 2.77653E+03-8.22054E+06 6.55622E+07 1.58120E+10-1.20875E+02
 -1       401-2.15082E+07 6.04711E+03-8.17082E+06 1.17290E+08 1.58426E+10 1.25524E+01
 -1       402-2.13002E+07 2.96662E+03-8.09296E+06 1.84086E+08 1.57957E+10 1.44968E+02
 -1       403-2.10114E+07 2.62792E+03-7.98334E+06 2.29435E+08 1.56719E+10 2.75804E+02
 -1       404-2.06423E+07 6.10038E+03-7.84176E+06 2.95410E+08 1.54724E+10 4.04642E+02
 -1       405-2.01947E+07 2.73867E+03-7.67295E+06 3.45468E+08 1.51984E+10 5.31017E+02
 -1       406-1.96693E+07 6.44994E+03-7.47190E+06 4.06421E+08 1.48516E+10 6.54324E+02
 -1       407-1.90687E+07-1.23549E+02-7.24615E+06 4.56265E+08 1.44339E+10 7.74128E+02
 -1       408-1.83934E+07 7.35654E+03-6.98669E+06 5.06239E+08 1.39475E+10 8.90034E+02
 -1       409-1.76479E+07 1.83401E+03-6.70550E+06 5.63584E+08 1.33947E+10 1.00149E+03
 -1       410-1.68339E+07 2.37302E+03-6.39597E+06 6.01100E+08 1.27783E+10 1.10814E+03
 -1       411-1.59540E+07 4.74586E+03-6.06070E+06 6.54269E+08 1.21012E+10 1.20961E+03
 -1       412-1.50132E+07 2.30068E+03-5.70413E+06 6.92187E+08 1.13665E+10 1.30537E+03
 -1       413-1.40140E+07 3.26163E+03-5.32407E+06 7.36601E+08 1.05777E+10 1.39515E+03
 -1       414-1.29609E+07 2.00147E+03-4.92437E+06 7.69627E+08 9.73844E+09 1.47859E+03
 -1       415-1.18580E+07 3.53361E+03-4.50470E+06 8.07462E+08 8.85241E+09 1.55534E+03
 -1       416-1.07102E+07 8.65982E+02-4.06955E+06 8.35960E+08 7.92361E+09 1.62509E+03
 -1       417-9.52177E+06 2.40047E+03-3.61736E+06 8.63402E+08 6.95620E+09 1.68768E+03
 -1       418-8.29789E+06 8.52712E+02-3.15287E+06 8.86721E+08 5.95445E+09 1.74285E+03
 -1       419-7.04362E+06 1.88857E+03-2.67586E+06 9.05703E+08 4.92279E+09 1.79028E+03
 -1       420-5.76421E+06 1.03715E+03-2.19001E+06 9.23488E+08 3.86572E+09 1.82991E+03
 -1       421-4.46527E+06 4.94436E+02-1.69662E+06 9.34080E+08 2.78787E+09 1.86158E+03
 -1       422-3.15177E+06 8.16807E+02-1.19736E+06 9.43416E+08 1.69392E+09 1.88513E+03
 -1       423-1.83000E+06-1.99138E+02-6.95480E+05 9.47019E+08 5.88600E+08 1.90048E+03
 -1       424-5.04921E+05 3.40763E+01-1.91861E+05 9.47178E+08-5.23323E+08 1.90770E+03
 -1       425 8.17278E+05-4.87271E+02 3.10378E+05 9.43234E+08-1.63707E+09 1.90679E+03
 -1       426 2.13124E+06-9.55952E+02 8.09503E+05 9.34743E+08-2.74787E+09 1.89772E+03
 -1       427 3.43120E+06-4.52342E+02 1.30368E+06 9.23111E+08-3.85098E+09 1.88050E+03
 -1       428 4.71136E+06-1.72246E+03 1.78966E+06 9.07506E+08-4.94173E+09 1.85528E+03
 -1       429 5.96638E+06-1.78282E+03 2.26654E+06 8.85933E+08-6.01549E+09 1.82228E+03
 -1       430 7.19082E+06-1.72995E+03 2.73185E+06 8.63003E+08-7.06775E+09 1.78166E+03
 -1       431 8.37917E+06-1.35793E+03 3.18357E+06 8.35322E+08-8.09409E+09 1.73351E+03
 -1       432 9.52591E+06-3.24520E+03 3.61861E+06 8.05065E+08-9.09021E+09 1.67812E+03
 -1       433 1.06267E+07-2.36794E+03 4.03725E+06 7.67274E+08-1.00520E+10 1.61582E+03
 -1       434 1.16759E+07-2.79391E+03 4.43578E+06 7.32045E+08-1.09755E+10 1.54684E+03
 -1       435 1.26692E+07-4.15806E+03 4.81272E+06 6.86594E+08-1.18568E+10 1.47154E+03
 -1       436 1.36021E+07-2.14955E+03 5.16799E+06 6.44062E+08-1.26925E+10 1.39031E+03
 -1       437 1.44701E+07-4.30692E+03 5.49701E+06 5.95795E+08-1.34792E+10 1.30348E+03
 -1       438 1.52695E+07-2.17388E+03 5.80158E+06 5.45786E+08-1.42137E+10 1.21150E+03
 -1       439 1.59960E+07-5.52609E+03 6.07636E+06 4.94119E+08-1.48931E+10 1.11483E+03
 -1       440 1.66469E+07-3.46440E+03 6.32452E+06 4.34309E+08-1.55149E+10 1.01389E+03
 -1       441 1.72184E+07-4.48459E+03 6.54130E+06 3.81436E+08-1.60767E+10 9.09198E+02
 -1       442 1.77081E+07-4.12147E+03 6.72752E+06 3.16895E+08-1.65764E+10 8.01216E+02
 -1       443 1.81128E+07-5.32557E+03 6.88082E+06 2.60246E+08-1.70122E+10 6.90435E+02
 -1       444 1.84312E+07-5.54620E+03 7.00176E+06 1.89771E+08-1.73827E+10 5.77402E+02
 -1       445 1.86611E+07-2.34561E+02 7.09111E+06 1.34632E+08-1.76868E+10 4.62709E+02
 -1       446 1.87996E+07-8.37437E+03 7.14065E+06 6.81127E+07-1.79237E+10 3.46873E+02
 -1       447 1.88476E+07-3.54142E+03 7.16076E+06-2.14710E+06-1.80927E+10 2.30445E+02
 -1       448 1.88032E+07-5.39296E+03 7.14316E+06-6.32383E+07-1.81938E+10 1.14047E+02
 -1       449 1.86657E+07-4.25506E+03 7.09135E+06-1.35124E+08-1.82271E+10-1.81554E+00
 -1       450 1.84352E+07-6.13045E+03 7.00305E+06-1.96441E+08-1.81931E+10-1.16568E+02
 -1       451 1.81123E+07-3.91175E+03 6.88118E+06-2.70210E+08-1.80927E+10-2.29589E+02
 -1       452 1.76968E+07-2.96257E+03 6.72365E+06-3.25314E+08-1.79269E+10-3.40308E+02
 -1       453 1.71892E+07-8.05437E+03 6.52885E+06-3.99103E+08-1.76974E+10-4.48164E+02
 -1       454 1.65927E+07-1.27704E+03 6.30473E+06-4.59191E+08-1.74059E+10-5.52657E+02
 -1       455 1.59060E+07-6.45589E+03 6.04181E+06-5.20979E+08-1.70546E+10-6.53170E+02
 -1       456 1.51331E+07-3.72429E+03 5.74916E+06-5.86313E+08-1.66460E+10-7.49143E+02
 -1       457 1.42747E+07-5.14220E+03 5.42244E+06-6.42412E+08-1.61828E+10-8.40076E+02
 -1       458 1.33345E+07-3.63221E+03 5.06572E+06-7.05942E+08-1.56681E+10-9.25443E+02
 -1       459 1.23136E+07-2.77765E+03 4.67808E+06-7.54656E+08-1.51054E+10-1.00473E+03
 -1       460 1.12160E+07-5.42748E+03 4.26002E+06-8.14341E+08-1.44983E+10-1.07743E+03
 -1       461 1.00440E+07-2.51036E+03 3.81574E+06-8.62454E+08-1.38508E+10-1.14316E+03
 -1       462 8.80218E+06-4.99896E+03 3.34292E+06-9.14889E+08-1.31671E+10-1.20141E+03
 -1       463 7.49197E+06-1.38951E+03 2.84641E+06-9.59753E+08-1.24517E+10-1.25174E+03
 -1       464 6.11967E+06-4.59369E+03 2.32372E+06-1.00342E+09-1.17092E+10-1.29383E+03
 -1       465 4.68563E+06-2.04118E+03 1.77976E+06-1.04671E+09-1.09448E+10-1.32723E+03
 -1       466 3.19848E+06-2.93257E+03 1.21430E+06-1.08276E+09-1.01634E+10-1.35156E+03
 -1       467 1.65593E+06-2.22224E+03 6.28402E+05-1.11980E+09-9.37059E+09-1.36653E+03
 -1       468 6.97712E+04-2.85378E+03 2.54204E+04-1.15190E+09-8.57180E+09-1.37185E+03
 -1       469-1.56505E+06-1.22944E+03-5.95198E+05-1.18169E+09-7.77279E+09-1.36719E+03
 -1       470-3.23374E+06-2.77740E+03-1.22989E+06-1.20890E+09-6.97945E+09-1.35231E+03
 -1       471-4.94493E+06 3.59015E+02-1.87895E+06-1.23112E+09-6.19780E+09-1.32698E+03
 -1       472-6.67997E+06-5.14621E+03-2.54035E+06-1.25521E+09-5.43402E+09-1.29101E+03
 -1       473-8.45155E+06 2.92238E+03-3.21049E+06-1.27282E+09-4.69436E+09-1.24417E+03
 -1       474-1.02367E+07-5.02853E+03-3.89185E+06-1.28652E+09-3.98520E+09-1.18629E+03
 -1       475-1.20549E+07 3.61392E+03-4.57948E+06-1.30256E+09-3.31300E+09-1.11730E+03
 -1       476-1.38748E+07-6.39907E+03-5.27486E+06-1.31021E+09-2.68430E+09-1.03710E+03
 -1       477-1.57260E+07 7.94955E+03-5.97289E+06-1.32175E+09-2.10568E+09-9.45579E+02
 -1       478-1.75683E+07-1.28915E+04-6.68086E+06-1.32395E+09-1.58379E+09-8.42583E+02
 -1       479-1.94394E+07 2.26117E+04-7.37839E+06-1.33270E+09-1.12532E+09-7.28049E+02
 -1       480-2.13015E+07-6.38029E+04-8.11884E+06-1.34910E+09-7.36980E+08-6.02072E+02
 -1       481-2.31478E+07 2.08257E+05-8.71702E+06-1.27553E+09-4.25501E+08-4.64423E+02
 -1       482-2.51524E+07-7.09918E+05-9.82769E+06-1.56064E+09-1.97617E+08-3.15467E+02
 -1       483-2.65156E+07 2.43737E+06-9.14972E+06-5.79914E+08-6.01530E+07-1.53958E+02
 -1       484-2.68795E+07-8.83599E+06-1.35719E+07-4.08752E+09-1.48947E+07-6.95938E+01
 -1       485 5.28010E+08 1.55399E+08 2.59695E+08-4.86844E+05 2.32827E+10-6.75291E+07
 -1       486 2.00472E+09 1.51299E+08 8.19287E+08-8.54387E+07 2.24949E+10-6.75232E+07
 -1       487 6.34250E+09 1.39293E+08 2.46308E+09-1.64549E+08 2.09195E+10-6.74976E+07
 -1       488 1.33503E+10 1.30637E+08 5.12277E+09-2.37944E+08 1.93451E+10-6.74368E+07
 -1       489 2.28251E+10 1.11787E+08 8.71600E+09-3.05598E+08 1.77727E+10-6.73252E+07
 -1       490 3.45710E+10 1.15052E+08 1.31807E+10-3.68097E+08 1.62036E+10-6.71481E+07
 -1       491 4.83813E+10 9.55957E+07 1.84212E+10-4.23404E+08 1.46396E+10-6.68918E+07
 -1       492 6.40597E+10 7.53539E+07 2.43713E+10-4.75233E+08 1.30827E+10-6.65442E+07
 -1       493 8.14143E+10 9.86704E+07 3.09749E+10-5.19677E+08 1.15349E+10-6.60946E+07
 -1       494 1.00233E+11 6.53782E+07 3.81132E+10-5.57508E+08 9.99904E+09-6.55329E+07
 -1       495 1.20329E+11 4.79199E+07 4.57433E+10-5.92055E+08 8.47763E+09-6.48508E+07
 -1       496 1.41509E+11 4.15108E+07 5.37893E+10-6.20216E+08 6.97362E+09-6.40411E+07
 -1       497 1.63578E+11 2.97711E+07 6.21711E+10-6.43904E+08 5.49005E+09-6.30977E+07
 -1       498 1.86354E+11 5.25123E+07 7.08344E+10-6.60555E+08 4.03011E+09-6.20157E+07
 -1       499 2.09633E+11 2.26028E+06 7.96612E+10-6.71197E+08 2.59708E+09-6.07911E+07
 -1       500 2.33250E+11-5.01700E+06 8.86329E+10-6.80529E+08 1.19431E+09-5.94215E+07
 -1       501 2.57024E+11 1.77400E+07 9.76758E+10-6.81233E+08-1.74792E+08-5.79053E+07
 -1       502 2.80767E+11-2.33664E+07 1.06682E+11-6.78049E+08-1.50680E+09-5.62422E+07
 -1       503 3.04329E+11 1.19485E+07 1.15650E+11-6.70210E+08-2.79829E+09-5.44327E+07
 -1       504 3.27519E+11-5.80654E+07 1.24435E+11-6.55504E+08-4.04587E+09-5.24786E+07
 -1       505 3.50209E+11-2.14949E+07 1.33071E+11-6.42517E+08-5.24618E+09-5.03826E+07
 -1       506 3.72221E+11-5.09069E+07 1.41425E+11-6.16909E+08-6.39597E+09-4.81484E+07
 -1       507 3.93423E+11-3.97000E+07 1.49485E+11-5.95983E+08-7.49206E+09-4.57805E+07
 -1       508 4.13661E+11-8.06673E+07 1.57161E+11-5.61972E+08-8.53139E+09-4.32844E+07
 -1       509 4.32817E+11-8.44111E+07 1.64438E+11-5.36432E+08-9.51104E+09-4.06665E+07
 -1       510 4.50778E+11 3.36022E+07 1.71309E+11-4.92941E+08-1.04283E+10-3.79339E+07
 -1       511 4.67363E+11-1.60076E+08 1.77537E+11-4.52269E+08-1.12804E+10-3.50943E+07
 -1       512 4.82554E+11-5.33807E+07 1.83350E+11-4.15429E+08-1.20652E+10-3.21564E+07
 -1       513 4.96183E+11-9.83241E+07 1.88512E+11-3.64297E+08-1.27804E+10-2.91294E+07
 -1       514 5.08192E+11-7.32147E+07 1.93085E+11-3.22254E+08-1.34240E+10-2.60232E+07
 -1       515 5.18476E+11-1.36814E+08 1.96969E+11-2.66086E+08-1.39943E+10-2.28479E+07
 -1       516 5.26995E+11-6.71805E+07 2.00233E+11-2.23404E+08-1.44898E+10-1.96145E+07
 -1       517 5.33658E+11-5.08067E+07 2.02771E+11-1.57435E+08-1.49093E+10-1.63343E+07
 -1       518 5.38394E+11-2.02499E+08 2.04513E+11-1.11056E+08-1.52518E+10-1.30186E+07
 -1       519 5.41238E+11 1.01258E+06 2.05671E+11-5.24911E+07-1.55166E+10-9.67956E+06
 -1       520 5.42046E+11-1.71459E+08 2.05912E+11 8.28394E+06-1.57034E+10-6.32925E+06
 -1       521 5.40892E+11-7.53395E+07 2.05510E+11 5.92016E+07-1.58120E+10-2.97994E+06
 -1       522 5.37695E+11-1.49465E+08 2.04267E+11 1.23652E+08-1.58426E+10 3.55889E+05
 -1       523 5.32499E+11-7.66028E+07 2.02320E+11 1.71940E+08-1.57957E+10 3.66578E+06
 -1       524 5.25278E+11-6.77306E+07 1.99580E+11 2.41426E+08-1.56719E+10 6.93719E+06
 -1       525 5.16046E+11-1.50837E+08 1.96040E+11 2.89875E+08-1.54724E+10 1.01578E+07
 -1       526 5.04863E+11-7.39106E+07 1.91820E+11 3.51180E+08-1.51984E+10 1.33152E+07
 -1       527 4.91718E+11-1.57306E+08 1.86793E+11 4.00721E+08-1.48516E+10 1.63975E+07
 -1       528 4.76714E+11-3.54652E+06 1.81150E+11 4.56608E+08-1.44339E+10 1.93926E+07
 -1       529 4.59819E+11-1.79602E+08 1.74663E+11 5.11770E+08-1.39475E+10 2.22891E+07
 -1       530 4.41191E+11-5.06003E+07 1.67633E+11 5.53288E+08-1.33947E+10 2.50758E+07
 -1       531 4.20834E+11-5.79822E+07 1.59895E+11 6.11409E+08-1.27783E+10 2.77418E+07
 -1       532 3.98838E+11-1.20405E+08 1.51513E+11 6.49594E+08-1.21012E+10 3.02769E+07
 -1       533 3.75319E+11-5.83359E+07 1.42599E+11 6.96772E+08-1.13665E+10 3.26712E+07
 -1       534 3.50336E+11-8.16055E+07 1.33097E+11 7.32749E+08-1.05777E+10 3.49155E+07
 -1       535 3.24012E+11-5.23341E+07 1.23105E+11 7.73617E+08-9.73844E+09 3.70011E+07
 -1       536 2.96436E+11-8.72344E+07 1.12612E+11 8.04062E+08-8.85241E+09 3.89201E+07
 -1       537 2.67745E+11-2.43377E+07 1.01734E+11 8.36402E+08-7.92361E+09 4.06650E+07
 -1       538 2.38030E+11-5.83475E+07 9.04290E+10 8.63698E+08-6.95620E+09 4.22293E+07
 -1       539 2.07437E+11-2.38217E+07 7.88170E+10 8.87166E+08-5.95445E+09 4.36071E+07
 -1       540 1.76076E+11-4.57146E+07 6.68917E+10 9.07931E+08-4.92279E+09 4.47931E+07
 -1       541 1.44094E+11-2.76872E+07 5.47452E+10 9.22047E+08-3.86572E+09 4.57834E+07
 -1       542 1.11618E+11-1.19070E+07 4.24105E+10 9.35576E+08-2.78787E+09 4.65743E+07
 -1       543 7.87833E+10-2.08578E+07 2.99297E+10 9.42729E+08-1.69392E+09 4.71632E+07
 -1       544 4.57375E+10 5.31289E+06 1.73823E+10 9.47412E+08-5.88600E+08 4.75484E+07
 -1       545 1.26116E+10-1.50556E+06 4.79182E+09 9.47588E+08 5.23323E+08 4.77289E+07
 -1       546-2.04442E+10 1.28772E+07-7.76391E+09 9.43216E+08 1.63707E+09 4.77046E+07
 -1       547-5.32915E+10 2.34485E+07-2.02419E+10 9.35570E+08 2.74787E+09 4.74766E+07
 -1       548-8.57915E+10 1.22899E+07-3.25961E+10 9.23503E+08 3.85098E+09 4.70465E+07
 -1       549-1.17794E+11 4.26525E+07-4.47455E+10 9.06364E+08 4.94173E+09 4.64168E+07
 -1       550-1.49170E+11 4.56362E+07-5.66673E+10 8.87900E+08 6.01549E+09 4.55912E+07
 -1       551-1.79780E+11 4.34911E+07-6.82997E+10 8.63318E+08 7.06775E+09 4.45739E+07
 -1       552-2.09489E+11 3.48994E+07-7.95924E+10 8.35746E+08 8.09409E+09 4.33700E+07
 -1       553-2.38157E+11 8.16122E+07-9.04685E+10 8.02371E+08 9.09021E+09 4.19855E+07
 -1       554-2.65675E+11 5.96335E+07-1.00934E+11 7.70577E+08 1.00520E+10 4.04272E+07
 -1       555-2.91906E+11 7.16207E+07-1.10897E+11 7.28865E+08 1.09755E+10 3.87028E+07
 -1       556-3.16734E+11 1.03278E+08-1.20320E+11 6.90488E+08 1.18568E+10 3.68204E+07
 -1       557-3.40061E+11 5.68775E+07-1.29202E+11 6.44234E+08 1.26925E+10 3.47891E+07
 -1       558-3.61755E+11 1.06655E+08-1.37426E+11 5.96164E+08 1.34792E+10 3.26186E+07
 -1       559-3.81744E+11 5.74598E+07-1.45041E+11 5.45782E+08 1.42137E+10 3.03191E+07
 -1       560-3.99901E+11 1.37435E+08-1.51910E+11 4.89767E+08 1.48931E+10 2.79016E+07
 -1       561-4.16176E+11 8.88440E+07-1.58113E+11 4.39317E+08 1.55149E+10 2.53776E+07
 -1       562-4.30462E+11 1.13112E+08-1.63533E+11 3.76454E+08 1.60767E+10 2.27591E+07
 -1       563-4.42702E+11 1.03692E+08-1.68187E+11 3.21910E+08 1.65764E+10 2.00586E+07
 -1       564-4.52821E+11 1.36208E+08-1.72020E+11 2.55392E+08 1.70122E+10 1.72889E+07
 -1       565-4.60774E+11 1.37239E+08-1.75042E+11 2.00287E+08 1.73827E+10 1.44633E+07
 -1       566-4.66529E+11 1.20703E+07-1.77277E+11 1.29507E+08 1.76868E+10 1.15954E+07
 -1       567-4.69980E+11 2.05605E+08-1.78514E+11 6.25937E+07 1.79237E+10 8.69896E+06
 -1       568-4.71190E+11 9.47082E+07-1.79016E+11 3.26051E+06 1.80927E+10 5.78803E+06
 -1       569-4.70070E+11 1.32291E+08-1.78576E+11-6.87894E+07 1.81938E+10 2.87688E+06
 -1       570-4.66638E+11 1.10727E+08-1.77280E+11-1.29509E+08 1.82271E+10-2.02030E+04
 -1       571-4.60871E+11 1.52952E+08-1.75073E+11-2.01916E+08 1.81931E+10-2.88886E+06
 -1       572-4.52797E+11 1.00281E+08-1.72025E+11-2.59789E+08 1.80927E+10-5.71472E+06
 -1       573-4.42411E+11 7.59955E+07-1.68087E+11-3.35743E+08 1.79269E+10-8.48342E+06
 -1       574-4.29716E+11 2.00727E+08-1.63216E+11-3.94261E+08 1.76974E+10-1.11808E+07
 -1       575-4.14807E+11 3.56016E+07-1.57613E+11-4.59383E+08 1.74059E+10-1.37928E+07
 -1       576-3.97633E+11 1.60839E+08-1.51039E+11-5.25657E+08 1.70546E+10-1.63056E+07
 -1       577-3.78313E+11 9.50174E+07-1.43723E+11-5.82103E+08 1.66460E+10-1.87055E+07
 -1       578-3.56854E+11 1.30914E+08-1.35555E+11-6.46544E+08 1.61828E+10-2.09793E+07
 -1       579-3.33341E+11 8.95640E+07-1.26636E+11-6.98693E+08 1.56681E+10-2.31141E+07
 -1       580-3.07826E+11 7.56606E+07-1.16945E+11-7.62037E+08 1.51054E+10-2.50972E+07
 -1       581-2.80374E+11 1.29517E+08-1.06493E+11-8.11306E+08 1.44983E+10-2.69165E+07
 -1       582-2.51089E+11 7.27490E+07-9.53862E+10-8.65528E+08 1.38508E+10-2.85603E+07
 -1       583-2.20022E+11 1.15498E+08-8.35644E+10-9.12570E+08 1.31671E+10-3.00175E+07
 -1       584-1.87292E+11 4.85529E+07-7.11523E+10-9.60102E+08 1.24516E+10-3.12774E+07
 -1       585-1.52954E+11 1.01111E+08-5.80843E+10-1.00545E+09 1.17092E+10-3.23298E+07
 -1       586-1.17136E+11 6.88808E+07-4.44856E+10-1.04443E+09 1.09448E+10-3.31654E+07
 -1       587-7.99187E+10 5.46194E+07-3.03483E+10-1.08510E+09 1.01634E+10-3.37749E+07
 -1       588-4.13987E+10 7.92210E+07-1.57014E+10-1.11956E+09 9.37059E+09-3.41503E+07
 -1       589-1.69216E+09 4.49246E+07-6.25950E+08-1.15218E+09 8.57180E+09-3.42838E+07
 -1       590 3.91162E+10 6.37318E+07 1.48884E+10-1.18239E+09 7.77279E+09-3.41682E+07
 -1       591 8.09087E+10 3.12382E+07 3.07572E+10-1.20824E+09 6.97945E+09-3.37972E+07
 -1       592 1.23598E+11 3.80769E+07 4.69816E+10-1.23452E+09 6.19780E+09-3.31649E+07
 -1       593 1.67083E+11 7.35195E+07 6.35193E+10-1.25395E+09 5.43401E+09-3.22662E+07
 -1       594 2.11244E+11-6.06711E+06 8.02702E+10-1.27073E+09 4.69436E+09-3.10963E+07
 -1       595 2.56024E+11 4.71139E+07 9.73069E+10-1.28983E+09 3.98520E+09-2.96514E+07
 -1       596 3.01298E+11 3.50355E+06 1.14495E+11-1.29931E+09 3.31300E+09-2.79280E+07
 -1       597 3.47009E+11 4.94059E+07 1.31882E+11-1.31448E+09 2.68430E+09-2.59232E+07
 -1       598 3.93038E+11-6.81313E+07 1.49329E+11-1.31753E+09 2.10568E+09-2.36346E+07
 -1       599 4.39390E+11 1.70873E+08 1.67033E+11-1.33459E+09 1.58379E+09-2.10605E+07
 -1       600 4.85823E+11-3.95134E+08 1.84463E+11-1.32209E+09 1.12532E+09-1.81990E+07
 -1       601 5.32764E+11 1.41971E+09 2.02990E+11-1.35570E+09 7.36980E+08-1.50501E+07
 -1       602 5.78532E+11-5.06789E+09 2.17916E+11-1.27581E+09 4.25501E+08-1.16099E+07
 -1       603 6.28846E+11 1.77454E+10 2.45705E+11-1.55382E+09 1.97617E+08-7.88839E+06
 -1       604 6.63603E+11-6.11844E+10 2.28919E+11-5.83384E+08 6.01530E+07-3.84924E+06
 -1       605 6.70065E+11 2.21199E+11 3.38680E+11-4.08032E+09 1.48947E+07-1.73755E+06
 -1       606 5.28010E+08 1.55399E+08 2.59695E+08-4.86785E+05-2.32827E+10 6.75291E+07
 -1       607 2.00472E+09 1.51299E+08 8.19287E+08-8.54390E+07-2.24949E+10 6.75232E+07
 -1       608 6.34250E+09 1.39293E+08 2.46308E+09-1.64550E+08-2.09195E+10 6.74977E+07
 -1       609 1.33503E+10 1.30637E+08 5.12277E+09-2.37944E+08-1.93451E+10 6.74369E+07
 -1       610 2.28251E+10 1.11786E+08 8.71600E+09-3.05598E+08-1.77727E+10 6.73252E+07
 -1       611 3.45710E+10 1.15050E+08 1.31807E+10-3.68097E+08-1.62036E+10 6.71481E+07
 -1       612 4.83813E+10 9.55944E+07 1.84212E+10-4.23404E+08-1.46396E+10 6.68918E+07
 -1       613 6.40597E+10 7.53525E+07 2.43713E+10-4.75233E+08-1.30827E+10 6.65442E+07
 -1       614 8.14143E+10 9.86689E+07 3.09749E+10-5.19677E+08-1.15349E+10 6.60946E+07
 -1       615 1.00233E+11 6.53769E+07 3.81132E+10-5.57507E+08-9.99904E+09 6.55329E+07
 -1       616 1.20329E+11 4.79185E+07 4.57433E+10-5.92055E+08-8.47763E+09 6.48508E+07
 -1       617 1.41509E+11 4.15095E+07 5.37893E+10-6.20216E+08-6.97362E+09 6.40411E+07
 -1       618 1.63578E+11 2.97700E+07 6.21711E+10-6.43904E+08-5.49004E+09 6.30978E+07
 -1       619 1.86354E+11 5.25114E+07 7.08344E+10-6.60555E+08-4.03011E+09 6.20157E+07
 -1       620 2.09633E+11 2.25946E+06 7.96612E+10-6.71197E+08-2.59707E+09 6.07911E+07
 -1       621 2.33250E+11-5.01771E+06 8.86329E+10-6.80529E+08-1.19431E+09 5.94215E+07
 -1       622 2.57024E+11 1.77394E+07 9.76758E+10-6.81233E+08 1.74793E+08 5.79053E+07
 -1       623 2.80767E+11-2.33668E+07 1.06682E+11-6.78048E+08 1.50680E+09 5.62422E+07
 -1       624 3.04329E+11 1.19481E+07 1.15650E+11-6.70210E+08 2.79829E+09 5.44327E+07
 -1       625 3.27519E+11-5.80657E+07 1.24435E+11-6.55504E+08 4.04587E+09 5.24786E+07
 -1       626 3.50209E+11-2.14952E+07 1.33071E+11-6.42517E+08 5.24618E+09 5.03826E+07
 -1       627 3.72221E+11-5.09072E+07 1.41425E+11-6.16910E+08 6.39597E+09 4.81484E+07
 -1       628 3.93423E+11-3.97004E+07 1.49485E+11-5.95983E+08 7.49206E+09 4.57805E+07
 -1       629 4.13661E+11-8.06677E+07 1.57161E+11-5.61972E+08 8.53139E+09 4.32844E+07
 -1       630 4.32817E+11-8.44114E+07 1.64438E+11-5.36432E+08 9.51104E+09 4.06665E+07
 -1       631 4.50778E+11 3.36019E+07 1.71309E+11-4.92941E+08 1.04283E+10 3.79339E+07
 -1       632 4.67363E+11-1.60076E+08 1.77537E+11-4.52269E+08 1.12805E+10 3.50943E+07
 -1       633 4.82554E+11-5.33812E+07 1.83350E+11-4.15429E+08 1.20652E+10 3.21564E+07
 -1       634 4.96183E+11-9.83245E+07 1.88512E+11-3.64297E+08 1.27804E+10 2.91294E+07
 -1       635 5.08192E+11-7.32150E+07 1.93085E+11-3.22254E+08 1.34240E+10 2.60231E+07
 -1       636 5.18476E+11-1.36815E+08 1.96969E+11-2.66086E+08 1.39943E+10 2.28479E+07
 -1       637 5.26995E+11-6.71806E+07 2.00233E+11-2.23404E+08 1.44898E+10 1.96145E+07
 -1       638 5.33658E+11-5.08066E+07 2.02771E+11-1.57434E+08 1.49093E+10 1.63342E+07
 -1       639 5.38394E+11-2.02499E+08 2.04513E+11-1.11056E+08 1.52518E+10 1.30186E+07
 -1       640 5.41238E+11 1.01244E+06 2.05671E+11-5.24912E+07 1.55166E+10 9.67955E+06
 -1       641 5.42046E+11-1.71459E+08 2.05912E+11 8.28379E+06 1.57034E+10 6.32924E+06
 -1       642 5.40892E+11-7.53398E+07 2.05510E+11 5.92016E+07 1.58120E+10 2.97993E+06
 -1       643 5.37695E+11-1.49465E+08 2.04267E+11 1.23652E+08 1.58426E+10-3.55900E+05
 -1       644 5.32499E+11-7.66027E+07 2.02320E+11 1.71940E+08 1.57957E+10-3.66579E+06
 -1       645 5.25278E+11-6.77303E+07 1.99580E+11 2.41426E+08 1.56719E+10-6.93720E+06
 -1       646 5.16046E+11-1.50836E+08 1.96040E+11 2.89875E+08 1.54724E+10-1.01578E+07
 -1       647 5.04863E+11-7.39098E+07 1.91820E+11 3.51180E+08 1.51984E+10-1.33153E+07
 -1       648 4.91718E+11-1.57306E+08 1.86793E+11 4.00721E+08 1.48516E+10-1.63975E+07
 -1       649 4.76714E+11-3.54580E+06 1.81150E+11 4.56608E+08 1.44339E+10-1.93926E+07
 -1       650 4.59819E+11-1.79601E+08 1.74663E+11 5.11770E+08 1.39475E+10-2.22891E+07
 -1       651 4.41191E+11-5.05998E+07 1.67633E+11 5.53288E+08 1.33947E+10-2.50758E+07
 -1       652 4.20834E+11-5.79819E+07 1.59895E+11 6.11408E+08 1.27783E+10-2.77418E+07
 -1       653 3.98838E+11-1.20405E+08 1.51513E+11 6.49594E+08 1.21012E+10-3.02769E+07
 -1       654 3.75319E+11-5.83360E+07 1.42599E+11 6.96772E+08 1.13665E+10-3.26712E+07
 -1       655 3.50336E+11-8.16056E+07 1.33097E+11 7.32749E+08 1.05777E+10-3.49155E+07
 -1       656 3.24012E+11-5.23343E+07 1.23105E+11 7.73617E+08 9.73844E+09-3.70011E+07
 -1       657 2.96436E+11-8.72346E+07 1.12612E+11 8.04062E+08 8.85241E+09-3.89201E+07
 -1       658 2.67745E+11-2.43379E+07 1.01734E+11 8.36402E+08 7.92361E+09-4.06650E+07
 -1       659 2.38030E+11-5.83476E+07 9.04290E+10 8.63698E+08 6.95620E+09-4.22293E+07
 -1       660 2.07437E+11-2.38217E+07 7.88170E+10 8.87166E+08 5.95445E+09-4.36071E+07
 -1       661 1.76076E+11-4.57145E+07 6.68917E+10 9.07931E+08 4.92279E+09-4.47931E+07
 -1       662 1.44094E+11-2.76870E+07 5.47452E+10 9.22047E+08 3.86572E+09-4.57834E+07
 -1       663 1.11618E+11-1.19068E+07 4.24105E+10 9.35576E+08 2.78787E+09-4.65743E+07
 -1       664 7.87833E+10-2.08575E+07 2.99297E+10 9.42729E+08 1.69392E+09-4.71632E+07
 -1       665 4.57375E+10 5.31316E+06 1.73823E+10 9.47412E+08 5.88600E+08-4.75484E+07
 -1       666 1.26116E+10-1.50528E+06 4.79182E+09 9.47588E+08-5.23323E+08-4.77289E+07
 -1       667-2.04442E+10 1.28775E+07-7.76391E+09 9.43216E+08-1.63707E+09-4.77046E+07
 -1       668-5.32915E+10 2.34488E+07-2.02419E+10 9.35570E+08-2.74787E+09-4.74766E+07
 -1       669-8.57915E+10 1.22902E+07-3.25961E+10 9.23503E+08-3.85098E+09-4.70465E+07
 -1       670-1.17794E+11 4.26526E+07-4.47455E+10 9.06363E+08-4.94173E+09-4.64168E+07
 -1       671-1.49170E+11 4.56362E+07-5.66673E+10 8.87899E+08-6.01549E+09-4.55912E+07
 -1       672-1.79780E+11 4.34910E+07-6.82997E+10 8.63318E+08-7.06775E+09-4.45739E+07
 -1       673-2.09489E+11 3.48992E+07-7.95924E+10 8.35746E+08-8.09409E+09-4.33700E+07
 -1       674-2.38157E+11 8.16120E+07-9.04685E+10 8.02371E+08-9.09021E+09-4.19855E+07
 -1       675-2.65675E+11 5.96334E+07-1.00934E+11 7.70578E+08-1.00520E+10-4.04272E+07
 -1       676-2.91906E+11 7.16207E+07-1.10897E+11 7.28865E+08-1.09755E+10-3.87028E+07
 -1       677-3.16734E+11 1.03278E+08-1.20320E+11 6.90488E+08-1.18568E+10-3.68204E+07
 -1       678-3.40061E+11 5.68775E+07-1.29202E+11 6.44234E+08-1.26925E+10-3.47891E+07
 -1       679-3.61755E+11 1.06655E+08-1.37426E+11 5.96164E+08-1.34792E+10-3.26185E+07
 -1       680-3.81744E+11 5.74598E+07-1.45041E+11 5.45782E+08-1.42137E+10-3.03191E+07
 -1       681-3.99901E+11 1.37434E+08-1.51910E+11 4.89767E+08-1.48931E+10-2.79016E+07
 -1       682-4.16176E+11 8.88436E+07-1.58113E+11 4.39316E+08-1.55149E+10-2.53776E+07
 -1       683-4.30462E+11 1.13112E+08-1.63533E+11 3.76454E+08-1.60767E+10-2.27591E+07
 -1       684-4.42702E+11 1.03691E+08-1.68187E+11 3.21910E+08-1.65764E+10-2.00586E+07
 -1       685-4.52821E+11 1.36208E+08-1.72020E+11 2.55392E+08-1.70122E+10-1.72889E+07
 -1       686-4.60774E+11 1.37239E+08-1.75042E+11 2.00287E+08-1.73827E+10-1.44633E+07
 -1       687-4.66529E+11 1.20696E+07-1.77277E+11 1.29507E+08-1.76868E+10-1.15954E+07
 -1       688-4.69980E+11 2.05604E+08-1.78514E+11 6.25938E+07-1.79237E+10-8.69897E+06
 -1       689-4.71190E+11 9.47078E+07-1.79016E+11 3.26068E+06-1.80927E+10-5.78803E+06
 -1       690-4.70070E+11 1.32290E+08-1.78576E+11-6.87894E+07-1.81938E+10-2.87689E+06
 -1       691-4.66638E+11 1.10726E+08-1.77280E+11-1.29509E+08-1.82271E+10 2.01945E+04
 -1       692-4.60871E+11 1.52952E+08-1.75073E+11-2.01916E+08-1.81931E+10 2.88885E+06
 -1       693-4.52797E+11 1.00280E+08-1.72025E+11-2.59789E+08-1.80927E+10 5.71471E+06
 -1       694-4.42411E+11 7.59950E+07-1.68087E+11-3.35743E+08-1.79269E+10 8.48340E+06
 -1       695-4.29716E+11 2.00726E+08-1.63216E+11-3.94261E+08-1.76974E+10 1.11808E+07
 -1       696-4.14807E+11 3.56012E+07-1.57613E+11-4.59383E+08-1.74059E+10 1.37928E+07
 -1       697-3.97633E+11 1.60839E+08-1.51039E+11-5.25657E+08-1.70546E+10 1.63056E+07
 -1       698-3.78313E+11 9.50171E+07-1.43723E+11-5.82103E+08-1.66460E+10 1.87055E+07
 -1       699-3.56854E+11 1.30914E+08-1.35555E+11-6.46544E+08-1.61828E+10 2.09793E+07
 -1       700-3.33341E+11 8.95642E+07-1.26636E+11-6.98693E+08-1.56681E+10 2.31141E+07
 -1       701-3.07826E+11 7.56610E+07-1.16945E+11-7.62037E+08-1.51054E+10 2.50972E+07
 -1       702-2.80374E+11 1.29517E+08-1.06493E+11-8.11306E+08-1.44983E+10 2.69165E+07
 -1       703-2.51089E+11 7.27494E+07-9.53862E+10-8.65528E+08-1.38508E+10 2.85603E+07
 -1       704-2.20022E+11 1.15498E+08-8.35644E+10-9.12570E+08-1.31671E+10 3.00175E+07
 -1       705-1.87292E+11 4.85535E+07-7.11523E+10-9.60102E+08-1.24517E+10 3.12774E+07
 -1       706-1.52954E+11 1.01112E+08-5.80843E+10-1.00545E+09-1.17092E+10 3.23298E+07
 -1       707-1.17136E+11 6.88816E+07-4.44856E+10-1.04443E+09-1.09448E+10 3.31653E+07
 -1       708-7.99187E+10 5.46201E+07-3.03483E+10-1.08510E+09-1.01634E+10 3.37749E+07
 -1       709-4.13987E+10 7.92217E+07-1.57014E+10-1.11956E+09-9.37059E+09 3.41503E+07
 -1       710-1.69216E+09 4.49253E+07-6.25950E+08-1.15218E+09-8.57180E+09 3.42838E+07
 -1       711 3.91162E+10 6.37326E+07 1.48884E+10-1.18239E+09-7.77279E+09 3.41682E+07
 -1       712 8.09087E+10 3.12389E+07 3.07572E+10-1.20824E+09-6.97945E+09 3.37972E+07
 -1       713 1.23598E+11 3.80775E+07 4.69816E+10-1.23452E+09-6.19780E+09 3.31649E+07
 -1       714 1.67083E+11 7.35200E+07 6.35193E+10-1.25395E+09-5.43402E+09 3.22662E+07
 -1       715 2.11244E+11-6.06680E+06 8.02703E+10-1.27073E+09-4.69436E+09 3.10963E+07
 -1       716 2.56024E+11 4.71141E+07 9.73069E+10-1.28983E+09-3.98520E+09 2.96514E+07
 -1       717 3.01298E+11 3.50359E+06 1.14495E+11-1.29931E+09-3.31300E+09 2.79280E+07
 -1       718 3.47009E+11 4.94058E+07 1.31882E+11-1.31448E+09-2.68430E+09 2.59232E+07
 -1       719 3.93038E+11-6.81315E+07 1.49329E+11-1.31753E+09-2.10568E+09 2.36346E+07
 -1       720 4.39390E+11 1.70872E+08 1.67033E+11-1.33459E+09-1.58379E+09 2.10605E+07
 -1       721 4.85823E+11-3.95134E+08 1.84463E+11-1.32209E+09-1.12532E+09 1.81990E+07
 -1       722 5.32764E+11 1.41970E+09 2.02990E+11-1.35570E+09-7.36980E+08 1.50501E+07
 -1       723 5.78532E+11-5.06789E+09 2.17916E+11-1.27581E+09-4.25501E+08 1.16099E+07
 -1       724 6.28846E+11 1.77454E+10 2.45705E+11-1.55382E+09-1.97617E+08 7.88839E+06
 -1       725 6.63603E+11-6.11844E+10 2.28919E+11-5.83384E+08-6.01530E+07 3.84925E+06
 -1       726 6.70065E+11 2.21199E+11 3.38680E+11-4.08031E+09-1.48947E+07 1.73755E+06
 -1       727-5.28004E+08-1.55411E+08-2.59698E+08-4.85479E+05 2.32827E+10 6.75345E+07
 -3
    1PSTEP                        11           1           1          
    1PGM                1.000000E+00                                  
    1PGK                2.134216E+06                                  
    1PHID                         -1                                  
    1PSUBC                         0                                  
    1PMODE                         3                                  
  100CL  103 232.5087849         726                     2    3MODAL      1
 -4  TOSTRAIN    6    1
 -5  EXX         1    4    1    1
 -5  EYY         1    4    2    2
 -5  EZZ         1    4    3    3
 -5  EXY         1    4    1    2
 -5  EYZ         1    4    2    3
 -5  EZX         1    4    3    1
 -1         2-3.40455E-01 1.91844E-01 4.61195E-09-2.45371E-02 6.46054E+00 1.93943E-02
 -1         3-1.11417E+00 6.67391E-01 1.58612E-08-4.72567E-02 6.00809E+00 1.93869E-02
 -1         4-2.36296E+00 1.43374E+00 2.83162E-08-6.83349E-02 5.55593E+00 1.93695E-02
 -1         5-4.05213E+00 2.47114E+00 3.90717E-08-8.77644E-02 5.10433E+00 1.93374E-02
 -1         6-6.14331E+00 3.75246E+00 4.30181E-08-1.05714E-01 4.65370E+00 1.92865E-02
 -1         7-8.60456E+00 5.26313E+00 4.36585E-08-1.21597E-01 4.20452E+00 1.92129E-02
 -1         8-1.13985E+01 6.97782E+00 4.79090E-08-1.36482E-01 3.75735E+00 1.91131E-02
 -1         9-1.44862E+01 8.86769E+00 5.17195E-08-1.49246E-01 3.31285E+00 1.89839E-02
 -1        10-1.78407E+01 1.09274E+01 5.04979E-08-1.60110E-01 2.87173E+00 1.88226E-02
 -1        11-2.14211E+01 1.31237E+01 4.61882E-08-1.70032E-01 2.43478E+00 1.86267E-02
 -1        12-2.51932E+01 1.54364E+01 4.42830E-08-1.78120E-01 2.00283E+00 1.83941E-02
 -1        13-2.91243E+01 1.78470E+01 4.11318E-08-1.84923E-01 1.57675E+00 1.81232E-02
 -1        14-3.31772E+01 2.03286E+01 3.42202E-08-1.89704E-01 1.15745E+00 1.78124E-02
 -1        15-3.73279E+01 2.28781E+01 2.84476E-08-1.92761E-01 7.45882E-01 1.74606E-02
 -1        16-4.15340E+01 2.54569E+01 2.39721E-08-1.95441E-01 3.43006E-01 1.70673E-02
 -1        17-4.57649E+01 2.80475E+01 1.97041E-08-1.95643E-01-5.02005E-02 1.66318E-02
 -1        18-4.99971E+01 3.06460E+01 1.61856E-08-1.94728E-01-4.32754E-01 1.61541E-02
 -1        19-5.41889E+01 3.32112E+01 1.31023E-08-1.92477E-01-8.03671E-01 1.56344E-02
 -1        20-5.83259E+01 3.57546E+01 1.05122E-08-1.88254E-01-1.16198E+00 1.50731E-02
 -1        21-6.23622E+01 3.82244E+01 9.39535E-09-1.84524E-01-1.50671E+00 1.44711E-02
 -1        22-6.62849E+01 4.06319E+01 9.63840E-09-1.77170E-01-1.83693E+00 1.38294E-02
 -1        23-7.00589E+01 4.29438E+01 1.19404E-08-1.71160E-01-2.15173E+00 1.31492E-02
 -1        24-7.36671E+01 4.51598E+01 1.42644E-08-1.61393E-01-2.45022E+00 1.24323E-02
 -1        25-7.70785E+01 4.72511E+01 1.35766E-08-1.54058E-01-2.73158E+00 1.16804E-02
 -1        26-8.02640E+01 4.91903E+01 1.26395E-08-1.41567E-01-2.99501E+00 1.08955E-02
 -1        27-8.32382E+01 5.10348E+01 1.27262E-08-1.29887E-01-3.23975E+00 1.00799E-02
 -1        28-8.59315E+01 5.26737E+01 1.46361E-08-1.19307E-01-3.46514E+00 9.23608E-03
 -1        29-8.83633E+01 5.41691E+01 1.60637E-08-1.04622E-01-3.67054E+00 8.36666E-03
 -1        30-9.04990E+01 5.54753E+01 1.43423E-08-9.25480E-02-3.85538E+00 7.47447E-03
 -1        31-9.23372E+01 5.66090E+01 1.05764E-08-7.64172E-02-4.01917E+00 6.56246E-03
 -1        32-9.38465E+01 5.75263E+01 3.24645E-09-6.41593E-02-4.16147E+00 5.63376E-03
 -1        33-9.50311E+01 5.82505E+01-3.59629E-09-4.52135E-02-4.28195E+00 4.69159E-03
 -1        34-9.58910E+01 5.87944E+01-1.54508E-09-3.18941E-02-4.38032E+00 3.73925E-03
 -1        35-9.63752E+01 5.90686E+01 4.65355E-09-1.50749E-02-4.45639E+00 2.78020E-03
 -1        36-9.65379E+01 5.91875E+01 9.63999E-09 2.37909E-03-4.51004E+00 1.81791E-03
 -1        37-9.63219E+01 5.90443E+01 1.24712E-08 1.70021E-02-4.54123E+00 8.55908E-04
 -1        38-9.57606E+01 5.87086E+01 8.25712E-09 3.55115E-02-4.55001E+00-1.02221E-04
 -1        39-9.48275E+01 5.81286E+01-2.42806E-09 4.93793E-02-4.53653E+00-1.05290E-03
 -1        40-9.35408E+01 5.73390E+01-1.22887E-08 6.93348E-02-4.50098E+00-1.99253E-03
 -1        41-9.19059E+01 5.63462E+01-2.02820E-08 8.32491E-02-4.44368E+00-2.91756E-03
 -1        42-8.99063E+01 5.51121E+01-2.66668E-08 1.00855E-01-4.36499E+00-3.82446E-03
 -1        43-8.75746E+01 5.36923E+01-2.79509E-08 1.15083E-01-4.26540E+00-4.70975E-03
 -1        44-8.48862E+01 5.20274E+01-2.50001E-08 1.31133E-01-4.14543E+00-5.57002E-03
 -1        45-8.18970E+01 5.02149E+01-2.16134E-08 1.46975E-01-4.00572E+00-6.40196E-03
 -1        46-7.85659E+01 4.81589E+01-1.67736E-08 1.58898E-01-3.84696E+00-7.20237E-03
 -1        47-7.49419E+01 4.59386E+01-8.53720E-09 1.75590E-01-3.66993E+00-7.96811E-03
 -1        48-7.10321E+01 4.35492E+01-1.73719E-09 1.86557E-01-3.47546E+00-8.69624E-03
 -1        49-6.68373E+01 4.09713E+01 1.60630E-09 2.00105E-01-3.26447E+00-9.38395E-03
 -1        50-6.23913E+01 3.82489E+01 4.35566E-09 2.10438E-01-3.03794E+00-1.00286E-02
 -1        51-5.77007E+01 3.53708E+01 7.15320E-09 2.22175E-01-2.79689E+00-1.06276E-02
 -1        52-5.27942E+01 3.23674E+01 8.75272E-09 2.30918E-01-2.54242E+00-1.11788E-02
 -1        53-4.76786E+01 2.92251E+01 6.90875E-09 2.40206E-01-2.27567E+00-1.16800E-02
 -1        54-4.23910E+01 2.59881E+01 3.91401E-09 2.48045E-01-1.99783E+00-1.21293E-02
 -1        55-3.69398E+01 2.26431E+01 8.35349E-10 2.54785E-01-1.71012E+00-1.25250E-02
 -1        56-3.13580E+01 1.92245E+01-2.21992E-09 2.60748E-01-1.41383E+00-1.28657E-02
 -1        57-2.56611E+01 1.57308E+01-4.26759E-09 2.64802E-01-1.11024E+00-1.31501E-02
 -1        58-1.98766E+01 1.21837E+01-6.81360E-09 2.68687E-01-8.00680E-01-1.33772E-02
 -1        59-1.40308E+01 8.60184E+00-9.02258E-09 2.70742E-01-4.86495E-01-1.35464E-02
 -1        60-8.14365E+00 4.99068E+00-8.56276E-09 2.72087E-01-1.69046E-01-1.36570E-02
 -1        61-2.24584E+00 1.37665E+00-8.53374E-09 2.72137E-01 1.50299E-01-1.37089E-02
 -1        62 3.64180E+00-2.23350E+00-9.53238E-09 2.70882E-01 4.70167E-01-1.37019E-02
 -1        63 9.49189E+00-5.82021E+00-8.98145E-09 2.68686E-01 7.89189E-01-1.36364E-02
 -1        64 1.52778E+01-9.36516E+00-7.61947E-09 2.65220E-01 1.10601E+00-1.35129E-02
 -1        65 2.09796E+01-1.28632E+01-4.64635E-09 2.60298E-01 1.41927E+00-1.33320E-02
 -1        66 2.65669E+01-1.62880E+01 4.63265E-10 2.54995E-01 1.72765E+00-1.30949E-02
 -1        67 3.20171E+01-1.96282E+01 4.93720E-09 2.47936E-01 2.02986E+00-1.28027E-02
 -1        68 3.73063E+01-2.28690E+01 7.56377E-09 2.40018E-01 2.32463E+00-1.24569E-02
 -1        69 4.24161E+01-2.60061E+01 7.64411E-09 2.30432E-01 2.61072E+00-1.20592E-02
 -1        70 4.73138E+01-2.90054E+01 4.18587E-09 2.21302E-01 2.88694E+00-1.16117E-02
 -1        71 5.19860E+01-3.18703E+01 1.15560E-09 2.09322E-01 3.15216E+00-1.11164E-02
 -1        72 5.64104E+01-3.45856E+01 9.52488E-10 1.98301E-01 3.40529E+00-1.05757E-02
 -1        73 6.05591E+01-3.71232E+01 2.35102E-10 1.85017E-01 3.64531E+00-9.99226E-03
 -1        74 6.44274E+01-3.94996E+01-1.05398E-09 1.71212E-01 3.87124E+00-9.36882E-03
 -1        75 6.79814E+01-4.16724E+01 3.09103E-09 1.56743E-01 4.08219E+00-8.70836E-03
 -1        76 7.12231E+01-4.36682E+01 1.01924E-08 1.40656E-01 4.27732E+00-8.01400E-03
 -1        77 7.41159E+01-4.54358E+01 1.39994E-08 1.26167E-01 4.45590E+00-7.28905E-03
 -1        78 7.66624E+01-4.69992E+01 1.66290E-08 1.08114E-01 4.61724E+00-6.53697E-03
 -1        79 7.88408E+01-4.83333E+01 2.03674E-08 9.24490E-02 4.76074E+00-5.76131E-03
 -1        80 8.06462E+01-4.94435E+01 2.24375E-08 7.33460E-02 4.88592E+00-4.96579E-03
 -1        81 8.20625E+01-5.03116E+01 2.33134E-08 5.75202E-02 4.99234E+00-4.15421E-03
 -1        82 8.30736E+01-5.09174E+01 2.49921E-08 3.71931E-02 5.07968E+00-3.33048E-03
 -1        83 8.37092E+01-5.13285E+01 2.28675E-08 1.79761E-02 5.14769E+00-2.49855E-03
 -1        84 8.39126E+01-5.14408E+01 1.71507E-08 9.36334E-04 5.19624E+00-1.66246E-03
 -1        85 8.37172E+01-5.13253E+01 1.54374E-08-1.97556E-02 5.22527E+00-8.26310E-04
 -1        86 8.31037E+01-5.09468E+01 1.95855E-08-3.71937E-02 5.23484E+00 5.80214E-06
 -1        87 8.20814E+01-5.03250E+01 2.33192E-08-5.79882E-02 5.22508E+00 8.29748E-04
 -1        88 8.06380E+01-4.94344E+01 1.98196E-08-7.46088E-02 5.19623E+00 1.64140E-03
 -1        89 7.87860E+01-4.82966E+01 1.50392E-08-9.64219E-02 5.14863E+00 2.43664E-03
 -1        90 7.65390E+01-4.69333E+01 1.44200E-08-1.13228E-01 5.08271E+00 3.21140E-03
 -1        91 7.38662E+01-4.52768E+01 1.49404E-08-1.31930E-01 4.99899E+00 3.96163E-03
 -1        92 7.08219E+01-4.34249E+01 1.47491E-08-1.50963E-01 4.89810E+00 4.68335E-03
 -1        93 6.73745E+01-4.13046E+01 1.08885E-08-1.67174E-01 4.78073E+00 5.37267E-03
 -1        94 6.35573E+01-3.89690E+01 4.84332E-09-1.85681E-01 4.64770E+00 6.02577E-03
 -1        95 5.93660E+01-3.63956E+01-3.90073E-09-2.00657E-01 4.49990E+00 6.63892E-03
 -1        96 5.48212E+01-3.36085E+01-1.07934E-08-2.18849E-01 4.33828E+00 7.20851E-03
 -1        97 4.99388E+01-3.06221E+01-9.99050E-09-2.32999E-01 4.16393E+00 7.73105E-03
 -1        98 4.47180E+01-2.74159E+01-9.59462E-09-2.48571E-01 3.97796E+00 8.20320E-03
 -1        99 3.91907E+01-2.40329E+01-1.32867E-08-2.62081E-01 3.78160E+00 8.62174E-03
 -1       100 3.33553E+01-2.04490E+01-1.86208E-08-2.75731E-01 3.57612E+00 8.98361E-03
 -1       101 2.72468E+01-1.67109E+01-2.24027E-08-2.88754E-01 3.36290E+00 9.28589E-03
 -1       102 2.08653E+01-1.27961E+01-2.39451E-08-2.99949E-01 3.14335E+00 9.52588E-03
 -1       103 1.42366E+01-8.73176E+00-2.42428E-08-3.11628E-01 2.91894E+00 9.70097E-03
 -1       104 7.38029E+00-4.53221E+00-2.27903E-08-3.21524E-01 2.69124E+00 9.80878E-03
 -1       105 3.06217E-01-1.92677E-01-2.21181E-08-3.30893E-01 2.46183E+00 9.84711E-03
 -1       106-6.95825E+00 4.25765E+00-2.23381E-08-3.39571E-01 2.23235E+00 9.81392E-03
 -1       107-1.44036E+01 8.82452E+00-2.22762E-08-3.46994E-01 2.00450E+00 9.70736E-03
 -1       108-2.20042E+01 1.34822E+01-2.04063E-08-3.54540E-01 1.78001E+00 9.52576E-03
 -1       109-2.97435E+01 1.82217E+01-1.56845E-08-3.60122E-01 1.56065E+00 9.26762E-03
 -1       110-3.76156E+01 2.30554E+01-9.91824E-09-3.64941E-01 1.34822E+00 8.93160E-03
 -1       111-4.55836E+01 2.79331E+01-4.11254E-09-3.70426E-01 1.14455E+00 8.51658E-03
 -1       112-5.36501E+01 3.28819E+01 5.67937E-10-3.73147E-01 9.51496E-01 8.02157E-03
 -1       113-6.17846E+01 3.78625E+01 3.10464E-09-3.77504E-01 7.70932E-01 7.44575E-03
 -1       114-6.99936E+01 4.29069E+01 5.45903E-09-3.78380E-01 6.04753E-01 6.78842E-03
 -1       115-7.82212E+01 4.79230E+01 8.48768E-09-3.83281E-01 4.54867E-01 6.04907E-03
 -1       116-8.65510E+01 5.30913E+01 1.14526E-08-3.79690E-01 3.23194E-01 5.22720E-03
 -1       117-9.47114E+01 5.78911E+01 1.42643E-08-3.89343E-01 2.11661E-01 4.32273E-03
 -1       118-1.03569E+02 6.40413E+01 1.68924E-08-3.66397E-01 1.22204E-01 3.33463E-03
 -1       119-1.10038E+02 6.54698E+01 1.91155E-08-4.46246E-01 5.67559E-02 2.26573E-03
 -1       120-1.24842E+02 8.33190E+01 2.46782E-08-1.67530E-01 1.72760E-02 1.10559E-03
 -1       121-9.51726E+01 3.37379E+01 2.93619E-08-1.17204E+00 4.27777E-03 4.99065E-04
 -1       122-7.70579E-02 2.99513E-02-4.41677E-10-1.39412E-04-6.68681E+00-1.93960E-02
 -1       123-3.40455E-01 1.91844E-01-4.61195E-09-2.45372E-02-6.46054E+00-1.93943E-02
 -1       124-1.11417E+00 6.67391E-01-1.58612E-08-4.72569E-02-6.00810E+00-1.93869E-02
 -1       125-2.36296E+00 1.43374E+00-2.83162E-08-6.83350E-02-5.55593E+00-1.93695E-02
 -1       126-4.05213E+00 2.47114E+00-3.90717E-08-8.77645E-02-5.10433E+00-1.93374E-02
 -1       127-6.14330E+00 3.75246E+00-4.30181E-08-1.05714E-01-4.65370E+00-1.92865E-02
 -1       128-8.60456E+00 5.26313E+00-4.36585E-08-1.21597E-01-4.20452E+00-1.92129E-02
 -1       129-1.13985E+01 6.97782E+00-4.79090E-08-1.36482E-01-3.75735E+00-1.91131E-02
 -1       130-1.44862E+01 8.86769E+00-5.17195E-08-1.49246E-01-3.31285E+00-1.89840E-02
 -1       131-1.78407E+01 1.09274E+01-5.04979E-08-1.60110E-01-2.87173E+00-1.88226E-02
 -1       132-2.14211E+01 1.31237E+01-4.61882E-08-1.70032E-01-2.43478E+00-1.86267E-02
 -1       133-2.51932E+01 1.54364E+01-4.42830E-08-1.78120E-01-2.00283E+00-1.83941E-02
 -1       134-2.91243E+01 1.78470E+01-4.11318E-08-1.84922E-01-1.57675E+00-1.81232E-02
 -1       135-3.31772E+01 2.03286E+01-3.42202E-08-1.89704E-01-1.15745E+00-1.78124E-02
 -1       136-3.73279E+01 2.28781E+01-2.84476E-08-1.92761E-01-7.45882E-01-1.74607E-02
 -1       137-4.15340E+01 2.54569E+01-2.39721E-08-1.95441E-01-3.43006E-01-1.70673E-02
 -1       138-4.57649E+01 2.80475E+01-1.97041E-08-1.95643E-01 5.02006E-02-1.66318E-02
 -1       139-4.99971E+01 3.06460E+01-1.61856E-08-1.94728E-01 4.32754E-01-1.61541E-02
 -1       140-5.41889E+01 3.32112E+01-1.31023E-08-1.92477E-01 8.03671E-01-1.56344E-02
 -1       141-5.83259E+01 3.57546E+01-1.05122E-08-1.88254E-01 1.16198E+00-1.50731E-02
 -1       142-6.23622E+01 3.82244E+01-9.39535E-09-1.84524E-01 1.50671E+00-1.44711E-02
 -1       143-6.62849E+01 4.06319E+01-9.63840E-09-1.77170E-01 1.83693E+00-1.38294E-02
 -1       144-7.00589E+01 4.29438E+01-1.19404E-08-1.71160E-01 2.15173E+00-1.31492E-02
 -1       145-7.36671E+01 4.51598E+01-1.42644E-08-1.61393E-01 2.45022E+00-1.24323E-02
 -1       146-7.70785E+01 4.72511E+01-1.35766E-08-1.54058E-01 2.73158E+00-1.16804E-02
 -1       147-8.02640E+01 4.91903E+01-1.26395E-08-1.41567E-01 2.99501E+00-1.08955E-02
 -1       148-8.32382E+01 5.10348E+01-1.27262E-08-1.29887E-01 3.23975E+00-1.00799E-02
 -1       149-8.59315E+01 5.26737E+01-1.46361E-08-1.19307E-01 3.46514E+00-9.23608E-03
 -1       150-8.83633E+01 5.41691E+01-1.60637E-08-1.04622E-01 3.67054E+00-8.36666E-03
 -1       151-9.04990E+01 5.54753E+01-1.43423E-08-9.25480E-02 3.85538E+00-7.47447E-03
 -1       152-9.23372E+01 5.66090E+01-1.05764E-08-7.64171E-02 4.01917E+00-6.56246E-03
 -1       153-9.38465E+01 5.75263E+01-3.24645E-09-6.41592E-02 4.16147E+00-5.63376E-03
 -1       154-9.50311E+01 5.82505E+01 3.59629E-09-4.52135E-02 4.28195E+00-4.69159E-03
 -1       155-9.58910E+01 5.87944E+01 1.54508E-09-3.18941E-02 4.38032E+00-3.73924E-03
 -1       156-9.63752E+01 5.90686E+01-4.65355E-09-1.50749E-02 4.45639E+00-2.78020E-03
 -1       157-9.65379E+01 5.91875E+01-9.63999E-09 2.37905E-03 4.51004E+00-1.81791E-03
 -1       158-9.63219E+01 5.90443E+01-1.24712E-08 1.70021E-02 4.54123E+00-8.55907E-04
 -1       159-9.57606E+01 5.87086E+01-8.25712E-09 3.55116E-02 4.55001E+00 1.02222E-04
 -1       160-9.48275E+01 5.81286E+01 2.42806E-09 4.93794E-02 4.53653E+00 1.05290E-03
 -1       161-9.35408E+01 5.73390E+01 1.22887E-08 6.93349E-02 4.50098E+00 1.99253E-03
 -1       162-9.19059E+01 5.63462E+01 2.02820E-08 8.32492E-02 4.44368E+00 2.91756E-03
 -1       163-8.99063E+01 5.51121E+01 2.66668E-08 1.00855E-01 4.36499E+00 3.82446E-03
 -1       164-8.75746E+01 5.36923E+01 2.79509E-08 1.15083E-01 4.26540E+00 4.70975E-03
 -1       165-8.48862E+01 5.20274E+01 2.50001E-08 1.31133E-01 4.14543E+00 5.57002E-03
 -1       166-8.18970E+01 5.02149E+01 2.16134E-08 1.46975E-01 4.00572E+00 6.40196E-03
 -1       167-7.85659E+01 4.81589E+01 1.67736E-08 1.58898E-01 3.84696E+00 7.20237E-03
 -1       168-7.49419E+01 4.59386E+01 8.53720E-09 1.75590E-01 3.66993E+00 7.96811E-03
 -1       169-7.10321E+01 4.35492E+01 1.73719E-09 1.86557E-01 3.47546E+00 8.69624E-03
 -1       170-6.68373E+01 4.09713E+01-1.60630E-09 2.00105E-01 3.26447E+00 9.38395E-03
 -1       171-6.23913E+01 3.82489E+01-4.35566E-09 2.10438E-01 3.03794E+00 1.00286E-02
 -1       172-5.77007E+01 3.53708E+01-7.15320E-09 2.22175E-01 2.79689E+00 1.06276E-02
 -1       173-5.27942E+01 3.23674E+01-8.75272E-09 2.30918E-01 2.54242E+00 1.11788E-02
 -1       174-4.76786E+01 2.92251E+01-6.90875E-09 2.40206E-01 2.27567E+00 1.16800E-02
 -1       175-4.23910E+01 2.59881E+01-3.91401E-09 2.48045E-01 1.99783E+00 1.21293E-02
 -1       176-3.69398E+01 2.26431E+01-8.35349E-10 2.54785E-01 1.71012E+00 1.25250E-02
 -1       177-3.13580E+01 1.92245E+01 2.21992E-09 2.60748E-01 1.41383E+00 1.28657E-02
 -1       178-2.56611E+01 1.57308E+01 4.26759E-09 2.64802E-01 1.11024E+00 1.31501E-02
 -1       179-1.98766E+01 1.21837E+01 6.81360E-09 2.68687E-01 8.00680E-01 1.33772E-02
 -1       180-1.40308E+01 8.60184E+00 9.02258E-09 2.70742E-01 4.86496E-01 1.35464E-02
 -1       181-8.14365E+00 4.99068E+00 8.56276E-09 2.72087E-01 1.69047E-01 1.36570E-02
 -1       182-2.24584E+00 1.37665E+00 8.53374E-09 2.72137E-01-1.50299E-01 1.37089E-02
 -1       183 3.64180E+00-2.23350E+00 9.53238E-09 2.70882E-01-4.70167E-01 1.37019E-02
 -1       184 9.49189E+00-5.82021E+00 8.98145E-09 2.68686E-01-7.89189E-01 1.36364E-02
 -1       185 1.52778E+01-9.36516E+00 7.61947E-09 2.65220E-01-1.10600E+00 1.35129E-02
 -1       186 2.09796E+01-1.28632E+01 4.64635E-09 2.60298E-01-1.41927E+00 1.33320E-02
 -1       187 2.65669E+01-1.62880E+01-4.63265E-10 2.54995E-01-1.72765E+00 1.30949E-02
 -1       188 3.20171E+01-1.96282E+01-4.93720E-09 2.47936E-01-2.02986E+00 1.28027E-02
 -1       189 3.73063E+01-2.28690E+01-7.56377E-09 2.40017E-01-2.32463E+00 1.24569E-02
 -1       190 4.24161E+01-2.60061E+01-7.64411E-09 2.30432E-01-2.61072E+00 1.20592E-02
 -1       191 4.73138E+01-2.90054E+01-4.18587E-09 2.21302E-01-2.88694E+00 1.16117E-02
 -1       192 5.19860E+01-3.18703E+01-1.15560E-09 2.09322E-01-3.15216E+00 1.11164E-02
 -1       193 5.64104E+01-3.45856E+01-9.52488E-10 1.98301E-01-3.40529E+00 1.05757E-02
 -1       194 6.05591E+01-3.71232E+01-2.35102E-10 1.85017E-01-3.64531E+00 9.99226E-03
 -1       195 6.44274E+01-3.94996E+01 1.05398E-09 1.71212E-01-3.87124E+00 9.36882E-03
 -1       196 6.79814E+01-4.16724E+01-3.09103E-09 1.56743E-01-4.08219E+00 8.70836E-03
 -1       197 7.12231E+01-4.36682E+01-1.01924E-08 1.40656E-01-4.27732E+00 8.01400E-03
 -1       198 7.41159E+01-4.54358E+01-1.39994E-08 1.26167E-01-4.45590E+00 7.28905E-03
 -1       199 7.66624E+01-4.69992E+01-1.66290E-08 1.08114E-01-4.61723E+00 6.53696E-03
 -1       200 7.88408E+01-4.83333E+01-2.03674E-08 9.24490E-02-4.76074E+00 5.76131E-03
 -1       201 8.06462E+01-4.94435E+01-2.24375E-08 7.33459E-02-4.88592E+00 4.96579E-03
 -1       202 8.20625E+01-5.03116E+01-2.33134E-08 5.75202E-02-4.99234E+00 4.15421E-03
 -1       203 8.30736E+01-5.09174E+01-2.49921E-08 3.71930E-02-5.07968E+00 3.33048E-03
 -1       204 8.37092E+01-5.13285E+01-2.28675E-08 1.79762E-02-5.14769E+00 2.49855E-03
 -1       205 8.39126E+01-5.14408E+01-1.71507E-08 9.36381E-04-5.19624E+00 1.66246E-03
 -1       206 8.37172E+01-5.13253E+01-1.54374E-08-1.97556E-02-5.22527E+00 8.26311E-04
 -1       207 8.31037E+01-5.09468E+01-1.95855E-08-3.71937E-02-5.23484E+00-5.80092E-06
 -1       208 8.20814E+01-5.03250E+01-2.33192E-08-5.79882E-02-5.22508E+00-8.29747E-04
 -1       209 8.06380E+01-4.94344E+01-1.98196E-08-7.46088E-02-5.19623E+00-1.64140E-03
 -1       210 7.87860E+01-4.82966E+01-1.50392E-08-9.64219E-02-5.14863E+00-2.43664E-03
 -1       211 7.65390E+01-4.69333E+01-1.44200E-08-1.13228E-01-5.08271E+00-3.21140E-03
 -1       212 7.38662E+01-4.52768E+01-1.49404E-08-1.31930E-01-4.99899E+00-3.96163E-03
 -1       213 7.08219E+01-4.34249E+01-1.47491E-08-1.50963E-01-4.89810E+00-4.68335E-03
 -1       214 6.73745E+01-4.13046E+01-1.08885E-08-1.67174E-01-4.78073E+00-5.37267E-03
 -1       215 6.35573E+01-3.89690E+01-4.84332E-09-1.85680E-01-4.64770E+00-6.02576E-03
 -1       216 5.93660E+01-3.63956E+01 3.90073E-09-2.00657E-01-4.49990E+00-6.63892E-03
 -1       217 5.48212E+01-3.36085E+01 1.07934E-08-2.18849E-01-4.33828E+00-7.20850E-03
 -1       218 4.99388E+01-3.06221E+01 9.99050E-09-2.32999E-01-4.16393E+00-7.73105E-03
 -1       219 4.47180E+01-2.74159E+01 9.59462E-09-2.48570E-01-3.97796E+00-8.20320E-03
 -1       220 3.91907E+01-2.40329E+01 1.32867E-08-2.62081E-01-3.78160E+00-8.62174E-03
 -1       221 3.33553E+01-2.04490E+01 1.86208E-08-2.75731E-01-3.57612E+00-8.98361E-03
 -1       222 2.72468E+01-1.67109E+01 2.24027E-08-2.88754E-01-3.36290E+00-9.28589E-03
 -1       223 2.08653E+01-1.27961E+01 2.39451E-08-2.99949E-01-3.14335E+00-9.52588E-03
 -1       224 1.42366E+01-8.73176E+00 2.42428E-08-3.11628E-01-2.91894E+00-9.70097E-03
 -1       225 7.38029E+00-4.53221E+00 2.27903E-08-3.21524E-01-2.69124E+00-9.80878E-03
 -1       226 3.06217E-01-1.92677E-01 2.21181E-08-3.30893E-01-2.46183E+00-9.84711E-03
 -1       227-6.95825E+00 4.25765E+00 2.23381E-08-3.39571E-01-2.23235E+00-9.81392E-03
 -1       228-1.44036E+01 8.82452E+00 2.22762E-08-3.46994E-01-2.00450E+00-9.70736E-03
 -1       229-2.20042E+01 1.34822E+01 2.04063E-08-3.54540E-01-1.78001E+00-9.52576E-03
 -1       230-2.97435E+01 1.82217E+01 1.56845E-08-3.60122E-01-1.56065E+00-9.26763E-03
 -1       231-3.76156E+01 2.30554E+01 9.91824E-09-3.64941E-01-1.34822E+00-8.93160E-03
 -1       232-4.55836E+01 2.79331E+01 4.11254E-09-3.70427E-01-1.14455E+00-8.51658E-03
 -1       233-5.36501E+01 3.28819E+01-5.67937E-10-3.73147E-01-9.51496E-01-8.02158E-03
 -1       234-6.17846E+01 3.78625E+01-3.10464E-09-3.77505E-01-7.70932E-01-7.44575E-03
 -1       235-6.99936E+01 4.29069E+01-5.45903E-09-3.78380E-01-6.04753E-01-6.78842E-03
 -1       236-7.82212E+01 4.79230E+01-8.48768E-09-3.83281E-01-4.54867E-01-6.04907E-03
 -1       237-8.65510E+01 5.30913E+01-1.14526E-08-3.79690E-01-3.23194E-01-5.22720E-03
 -1       238-9.47114E+01 5.78911E+01-1.42643E-08-3.89343E-01-2.11661E-01-4.32274E-03
 -1       239-1.03569E+02 6.40413E+01-1.68924E-08-3.66397E-01-1.22204E-01-3.33463E-03
 -1       240-1.10038E+02 6.54698E+01-1.91155E-08-4.46246E-01-5.67559E-02-2.26573E-03
 -1       241-1.24842E+02 8.33190E+01-2.46782E-08-1.67530E-01-1.72760E-02-1.10560E-03
 -1       242-9.51726E+01 3.37379E+01-2.93619E-08-1.17204E+00-4.27777E-03-4.99066E-04
 -1       243-3.24266E-06 1.30064E-06 1.07623E-09-1.33565E-04 6.68681E+00 7.75218E-07
 -1       244-1.36791E-05 7.72319E-06 1.16012E-09-2.45088E-02 6.46054E+00 7.75148E-07
 -1       245-4.46012E-05 2.67204E-05 1.12299E-09-4.72745E-02 6.00809E+00 7.74850E-07
 -1       246-9.45714E-05 5.73925E-05 2.61848E-10-6.83311E-02 5.55593E+00 7.74149E-07
 -1       247-1.62119E-04 9.88686E-05 7.42191E-10-8.77601E-02 5.10433E+00 7.72867E-07
 -1       248-2.45780E-04 1.50136E-04 7.53876E-10-1.05441E-01 4.65370E+00 7.70839E-07
 -1       249-3.44209E-04 2.10542E-04-2.43512E-10-1.21865E-01 4.20452E+00 7.67890E-07
 -1       250-4.55983E-04 2.79147E-04 8.94333E-10-1.36004E-01 3.75735E+00 7.63897E-07
 -1       251-5.79468E-04 3.54720E-04 1.01451E-09-1.49119E-01 3.31285E+00 7.58741E-07
 -1       252-7.13665E-04 4.37124E-04-1.45820E-10-1.60714E-01 2.87173E+00 7.52293E-07
 -1       253-8.56864E-04 5.24961E-04 5.39496E-11-1.70029E-01 2.43478E+00 7.44466E-07
 -1       254-1.00776E-03 6.17478E-04 8.20382E-10-1.78104E-01 2.00283E+00 7.35169E-07
 -1       255-1.16499E-03 7.13894E-04 7.55932E-10-1.84375E-01 1.57675E+00 7.24329E-07
 -1       256-1.32712E-03 8.13164E-04-1.75734E-10-1.89613E-01 1.15745E+00 7.11898E-07
 -1       257-1.49313E-03 9.15130E-04 7.25811E-11-1.93393E-01 7.45882E-01 6.97831E-07
 -1       258-1.66140E-03 1.01830E-03 4.86352E-10-1.94653E-01 3.43006E-01 6.82092E-07
 -1       259-1.83060E-03 1.12190E-03 1.93947E-10-1.95566E-01-5.02005E-02 6.64670E-07
 -1       260-1.99992E-03 1.22587E-03 1.14847E-10-1.94652E-01-4.32754E-01 6.45557E-07
 -1       261-2.16756E-03 1.32844E-03 5.31749E-10-1.92401E-01-8.03671E-01 6.24766E-07
 -1       262-2.33307E-03 1.43021E-03 3.00799E-10-1.89295E-01-1.16198E+00 6.02327E-07
 -1       263-2.49450E-03 1.52898E-03 1.26393E-10-1.83302E-01-1.50671E+00 5.78261E-07
 -1       264-2.65141E-03 1.62528E-03 3.64638E-10-1.78393E-01-1.83693E+00 5.52592E-07
 -1       265-2.80239E-03 1.71777E-03 5.61160E-10-1.69830E-01-2.15173E+00 5.25389E-07
 -1       266-2.94668E-03 1.80638E-03 7.58794E-10-1.62723E-01-2.45022E+00 4.96715E-07
 -1       267-3.08321E-03 1.89009E-03 4.14272E-10-1.51145E-01-2.73158E+00 4.66643E-07
 -1       268-3.21053E-03 1.96757E-03 5.49802E-10-1.42929E-01-2.99501E+00 4.35253E-07
 -1       269-3.32961E-03 2.04145E-03 7.73415E-11-1.31442E-01-3.23975E+00 4.02622E-07
 -1       270-3.43724E-03 2.10691E-03 5.12363E-10-1.17693E-01-3.46514E+00 3.68861E-07
 -1       271-3.53459E-03 2.16681E-03 1.03187E-09-1.06236E-01-3.67054E+00 3.34098E-07
 -1       272-3.61997E-03 2.21901E-03 5.43417E-10-9.08552E-02-3.85538E+00 2.98422E-07
 -1       273-3.69352E-03 2.26438E-03 7.30333E-10-7.81101E-02-4.01917E+00 2.61944E-07
 -1       274-3.75392E-03 2.30109E-03 9.73484E-10-6.06140E-02-4.16147E+00 2.24806E-07
 -1       275-3.80124E-03 2.32999E-03 8.80281E-10-4.87592E-02-4.28195E+00 1.87125E-07
 -1       276-3.83574E-03 2.35186E-03 4.78770E-10-3.01137E-02-4.38032E+00 1.49038E-07
 -1       277-3.85498E-03 2.36269E-03 1.14334E-10-1.50685E-02-4.45639E+00 1.10679E-07
 -1       278-3.86163E-03 2.36758E-03 4.07259E-10 5.93659E-04-4.51004E+00 7.21818E-08
 -1       279-3.85287E-03 2.36174E-03 7.58335E-10 1.88295E-02-4.54123E+00 3.37076E-08
 -1       280-3.83051E-03 2.34840E-03 7.37850E-10 3.36857E-02-4.55001E+00-4.60553E-09
 -1       281-3.79314E-03 2.32516E-03 6.65246E-10 5.28697E-02-4.53653E+00-4.26280E-08
 -1       282-3.74167E-03 2.29358E-03 8.95017E-10 6.58938E-02-4.50098E+00-8.01967E-08
 -1       283-3.67633E-03 2.25391E-03 1.21998E-09 8.48420E-02-4.44368E+00-1.17191E-07
 -1       284-3.59626E-03 2.20446E-03 1.33714E-09 9.92186E-02-4.36499E+00-1.53478E-07
 -1       285-3.50311E-03 2.14778E-03 1.08710E-09 1.16724E-01-4.26540E+00-1.88885E-07
 -1       286-3.39545E-03 2.08107E-03 7.74461E-10 1.31040E-01-4.14543E+00-2.23288E-07
 -1       287-3.27601E-03 2.00869E-03 3.31734E-10 1.45392E-01-4.00572E+00-2.56571E-07
 -1       288-3.14266E-03 1.92635E-03 2.75475E-10 1.61862E-01-3.84696E+00-2.88576E-07
 -1       289-2.99777E-03 1.83761E-03 7.73792E-10 1.72637E-01-3.66993E+00-3.19204E-07
 -1       290-2.84135E-03 1.74200E-03 5.11359E-10 1.87907E-01-3.47546E+00-3.48342E-07
 -1       291-2.67357E-03 1.63889E-03 5.19496E-10 1.98797E-01-3.26447E+00-3.75845E-07
 -1       292-2.49574E-03 1.53001E-03 6.52287E-10 2.11552E-01-3.03794E+00-4.01627E-07
 -1       293-2.30809E-03 1.41486E-03 4.31744E-10 2.21037E-01-2.79689E+00-4.25587E-07
 -1       294-2.11188E-03 1.29477E-03 4.92675E-10 2.31904E-01-2.54242E+00-4.47626E-07
 -1       295-1.90720E-03 1.16902E-03 4.59043E-10 2.40088E-01-2.27567E+00-4.67655E-07
 -1       296-1.69575E-03 1.03960E-03 5.75224E-10 2.47970E-01-1.99783E+00-4.85627E-07
 -1       297-1.47765E-03 9.05755E-04 2.88329E-10 2.54667E-01-1.71012E+00-5.01467E-07
 -1       298-1.25443E-03 7.69051E-04 1.29226E-10 2.60119E-01-1.41383E+00-5.15083E-07
 -1       299-1.02652E-03 6.29271E-04 1.04380E-09 2.65226E-01-1.11024E+00-5.26456E-07
 -1       300-7.95163E-04 4.87414E-04 1.04534E-09 2.68269E-01-8.00680E-01-5.35548E-07
 -1       301-5.61313E-04 3.44118E-04 2.02545E-10 2.70950E-01-4.86495E-01-5.42304E-07
 -1       302-3.25839E-04 1.99686E-04 7.77862E-10 2.71985E-01-1.69046E-01-5.46708E-07
 -1       303-8.99149E-05 5.51140E-05 8.12972E-10 2.72030E-01 1.50299E-01-5.48774E-07
 -1       304 1.45578E-04-8.92801E-05 4.85951E-10 2.70897E-01 4.70167E-01-5.48506E-07
 -1       305 3.79599E-04-2.32763E-04 8.24970E-10 2.68459E-01 7.89189E-01-5.45896E-07
 -1       306 6.11020E-04-3.74547E-04 4.23575E-10 2.65118E-01 1.10601E+00-5.40943E-07
 -1       307 8.39110E-04-5.14486E-04 4.79311E-10 2.60636E-01 1.41927E+00-5.33693E-07
 -1       308 1.06259E-03-6.51464E-04 1.01163E-09 2.54441E-01 1.72765E+00-5.24208E-07
 -1       309 1.28061E-03-7.85086E-04 7.10711E-10 2.47855E-01 2.02986E+00-5.12536E-07
 -1       310 1.49218E-03-9.14712E-04 3.09674E-10 2.39905E-01 2.32463E+00-4.98701E-07
 -1       311 1.69658E-03-1.04020E-03 4.44145E-10 2.31215E-01 2.61072E+00-4.82787E-07
 -1       312 1.89250E-03-1.16018E-03 1.07850E-09 2.20362E-01 2.88694E+00-4.64882E-07
 -1       313 2.07936E-03-1.27476E-03 1.35580E-09 2.10244E-01 3.15216E+00-4.45060E-07
 -1       314 2.25638E-03-1.38341E-03 1.03616E-09 1.97190E-01 3.40529E+00-4.23423E-07
 -1       315 2.42229E-03-1.48487E-03 1.09713E-09 1.84975E-01 3.64531E+00-4.00082E-07
 -1       316 2.57708E-03-1.57998E-03 1.28117E-09 1.71113E-01 3.87124E+00-3.75135E-07
 -1       317 2.71919E-03-1.66684E-03 1.50591E-09 1.56750E-01 4.08219E+00-3.48704E-07
 -1       318 2.84891E-03-1.74672E-03 1.36712E-09 1.41911E-01 4.27732E+00-3.20930E-07
 -1       319 2.96460E-03-1.81740E-03 1.11750E-09 1.24734E-01 4.45590E+00-2.91928E-07
 -1       320 3.06647E-03-1.87995E-03 1.44061E-09 1.09549E-01 4.61724E+00-2.61845E-07
 -1       321 3.15363E-03-1.93333E-03 1.81273E-09 9.10125E-02 4.76074E+00-2.30816E-07
 -1       322 3.22581E-03-1.97770E-03 1.41020E-09 7.47428E-02 4.88592E+00-1.98983E-07
 -1       323 3.28255E-03-2.01250E-03 1.48705E-09 5.45025E-02 4.99234E+00-1.66505E-07
 -1       324 3.32290E-03-2.03665E-03 2.28978E-09 3.86664E-02 5.07968E+00-1.33551E-07
 -1       325 3.34845E-03-2.05320E-03 1.89838E-09 1.95620E-02 5.14769E+00-1.00269E-07
 -1       326 3.35648E-03-2.05759E-03 9.70662E-10-6.16697E-04 5.19624E+00-6.68180E-08
 -1       327 3.34877E-03-2.05307E-03 8.69205E-10-1.81621E-02 5.22527E+00-3.33767E-08
 -1       328 3.32416E-03-2.03786E-03 1.26887E-09-3.88077E-02 5.23484E+00-8.85406E-11
 -1       329 3.28332E-03-2.01304E-03 1.48200E-09-5.64181E-02 5.22508E+00 3.28807E-08
 -1       330 3.22558E-03-1.97741E-03 1.08955E-09-7.76045E-02 5.19623E+00 6.53521E-08
 -1       331 3.15149E-03-1.93188E-03 4.65863E-10-9.34305E-02 5.14863E+00 9.71625E-08
 -1       332 3.06166E-03-1.87740E-03 2.63211E-10-1.14623E-01 5.08271E+00 1.28152E-07
 -1       333 2.95470E-03-1.81109E-03 1.04588E-09-1.31880E-01 4.99899E+00 1.58178E-07
 -1       334 2.83298E-03-1.73706E-03 1.47505E-09-1.49626E-01 4.89810E+00 1.87059E-07
 -1       335 2.69507E-03-1.65223E-03 1.07822E-09-1.68390E-01 4.78073E+00 2.14639E-07
 -1       336 2.54238E-03-1.55880E-03 1.38888E-09-1.84501E-01 4.64770E+00 2.40772E-07
 -1       337 2.37479E-03-1.45592E-03 1.81317E-09-2.02747E-01 4.49990E+00 2.65307E-07
 -1       338 2.19290E-03-1.34435E-03 2.13108E-09-2.16738E-01 4.33828E+00 2.88099E-07
 -1       339 1.99776E-03-1.22504E-03 2.66495E-09-2.33879E-01 4.16393E+00 3.08999E-07
 -1       340 1.78874E-03-1.09660E-03 2.68983E-09-2.47697E-01 3.97796E+00 3.27897E-07
 -1       341 1.56789E-03-9.61523E-04 2.37118E-09-2.62757E-01 3.78160E+00 3.44649E-07
 -1       342 1.33419E-03-8.17888E-04 2.11901E-09-2.75642E-01 3.57612E+00 3.59125E-07
 -1       343 1.09019E-03-6.68691E-04 2.03387E-09-2.88182E-01 3.36290E+00 3.71236E-07
 -1       344 8.34558E-04-5.11732E-04 1.91596E-09-3.00616E-01 3.14335E+00 3.80847E-07
 -1       345 5.69846E-04-3.49586E-04 1.79301E-09-3.10970E-01 2.91894E+00 3.87854E-07
 -1       346 2.95096E-04-1.81115E-04 1.81775E-09-3.21607E-01 2.69124E+00 3.92173E-07
 -1       347 1.27251E-05-8.11556E-06 1.70760E-09-3.30825E-01 2.46183E+00 3.93719E-07
 -1       348-2.78557E-04 1.70590E-04 2.07092E-09-3.39381E-01 2.23235E+00 3.92401E-07
 -1       349-5.75522E-04 3.52428E-04 2.04681E-09-3.47197E-01 2.00450E+00 3.88147E-07
 -1       350-8.80565E-04 5.39740E-04 1.85537E-09-3.53579E-01 1.78001E+00 3.80892E-07
 -1       351-1.18891E-03 7.28115E-04 1.84359E-09-3.60497E-01 1.56065E+00 3.70576E-07
 -1       352-1.50525E-03 9.22896E-04 1.50156E-09-3.65554E-01 1.34822E+00 3.57141E-07
 -1       353-1.82225E-03 1.11630E-03 1.56562E-09-3.69491E-01 1.14455E+00 3.40535E-07
 -1       354-2.14695E-03 1.31627E-03 1.84031E-09-3.74098E-01 9.51496E-01 3.20737E-07
 -1       355-2.46992E-03 1.51311E-03 1.82682E-09-3.76293E-01 7.70932E-01 2.97718E-07
 -1       356-2.80113E-03 1.71770E-03 1.70196E-09-3.79607E-01 6.04753E-01 2.71450E-07
 -1       357-3.12689E-03 1.91505E-03 1.72935E-09-3.80241E-01 4.54867E-01 2.41887E-07
 -1       358-3.46394E-03 2.12558E-03 1.85996E-09-3.82751E-01 3.23194E-01 2.09010E-07
 -1       359-3.78609E-03 2.31342E-03 1.80949E-09-3.87464E-01 2.11661E-01 1.72847E-07
 -1       360-4.14453E-03 2.56335E-03 1.72195E-09-3.66334E-01 1.22204E-01 1.33331E-07
 -1       361-4.40128E-03 2.61863E-03 1.77661E-09-4.48218E-01 5.67559E-02 9.05687E-08
 -1       362-4.98749E-03 3.32782E-03 1.94180E-09-1.66552E-01 1.72760E-02 4.42001E-08
 -1       363-3.82196E-03 1.36015E-03 2.10417E-09-1.17394E+00 4.27777E-03 1.99793E-08
 -1       364-3.23967E-06 1.29908E-06-1.07623E-09-1.33548E-04-6.68681E+00-7.76420E-07
 -1       365-1.36779E-05 7.72269E-06-1.16012E-09-2.45089E-02-6.46054E+00-7.76349E-07
 -1       366-4.45995E-05 2.67169E-05-1.12299E-09-4.72746E-02-6.00810E+00-7.76048E-07
 -1       367-9.45665E-05 5.73903E-05-2.61848E-10-6.83312E-02-5.55593E+00-7.75341E-07
 -1       368-1.62115E-04 9.88675E-05-7.42191E-10-8.77602E-02-5.10433E+00-7.74050E-07
 -1       369-2.45775E-04 1.50134E-04-7.53876E-10-1.05441E-01-4.65370E+00-7.72014E-07
 -1       370-3.44205E-04 2.10544E-04 2.43512E-10-1.21865E-01-4.20452E+00-7.69057E-07
 -1       371-4.55983E-04 2.79144E-04-8.94333E-10-1.36004E-01-3.75735E+00-7.65060E-07
 -1       372-5.79467E-04 3.54717E-04-1.01451E-09-1.49119E-01-3.31285E+00-7.59902E-07
 -1       373-7.13661E-04 4.37124E-04 1.45820E-10-1.60714E-01-2.87173E+00-7.53449E-07
 -1       374-8.56860E-04 5.24960E-04-5.39496E-11-1.70029E-01-2.43478E+00-7.45614E-07
 -1       375-1.00776E-03 6.17476E-04-8.20382E-10-1.78104E-01-2.00283E+00-7.36313E-07
 -1       376-1.16499E-03 7.13893E-04-7.55932E-10-1.84375E-01-1.57675E+00-7.25469E-07
 -1       377-1.32712E-03 8.13164E-04 1.75734E-10-1.89613E-01-1.15745E+00-7.13035E-07
 -1       378-1.49313E-03 9.15131E-04-7.25811E-11-1.93393E-01-7.45882E-01-6.98963E-07
 -1       379-1.66139E-03 1.01830E-03-4.86352E-10-1.94653E-01-3.43006E-01-6.83221E-07
 -1       380-1.83060E-03 1.12189E-03-1.93947E-10-1.95566E-01 5.02006E-02-6.65796E-07
 -1       381-1.99992E-03 1.22587E-03-1.14847E-10-1.94652E-01 4.32754E-01-6.46680E-07
 -1       382-2.16756E-03 1.32844E-03-5.31749E-10-1.92401E-01 8.03671E-01-6.25885E-07
 -1       383-2.33307E-03 1.43021E-03-3.00799E-10-1.89295E-01 1.16198E+00-6.03443E-07
 -1       384-2.49450E-03 1.52898E-03-1.26393E-10-1.83302E-01 1.50671E+00-5.79372E-07
 -1       385-2.65141E-03 1.62528E-03-3.64638E-10-1.78393E-01 1.83693E+00-5.53697E-07
 -1       386-2.80239E-03 1.71777E-03-5.61160E-10-1.69830E-01 2.15173E+00-5.26489E-07
 -1       387-2.94668E-03 1.80637E-03-7.58794E-10-1.62723E-01 2.45022E+00-4.97812E-07
 -1       388-3.08321E-03 1.89009E-03-4.14272E-10-1.51145E-01 2.73158E+00-4.67738E-07
 -1       389-3.21052E-03 1.96757E-03-5.49802E-10-1.42929E-01 2.99501E+00-4.36343E-07
 -1       390-3.32961E-03 2.04146E-03-7.73415E-11-1.31442E-01 3.23975E+00-4.03706E-07
 -1       391-3.43724E-03 2.10691E-03-5.12363E-10-1.17693E-01 3.46514E+00-3.69938E-07
 -1       392-3.53459E-03 2.16681E-03-1.03187E-09-1.06236E-01 3.67054E+00-3.35168E-07
 -1       393-3.61997E-03 2.21900E-03-5.43417E-10-9.08552E-02 3.85538E+00-2.99485E-07
 -1       394-3.69352E-03 2.26437E-03-7.30333E-10-7.81100E-02 4.01917E+00-2.62998E-07
 -1       395-3.75391E-03 2.30108E-03-9.73484E-10-6.06139E-02 4.16147E+00-2.25849E-07
 -1       396-3.80123E-03 2.32999E-03-8.80281E-10-4.87591E-02 4.28195E+00-1.88158E-07
 -1       397-3.83574E-03 2.35185E-03-4.78770E-10-3.01138E-02 4.38032E+00-1.50064E-07
 -1       398-3.85497E-03 2.36269E-03-1.14334E-10-1.50686E-02 4.45639E+00-1.11699E-07
 -1       399-3.86162E-03 2.36758E-03-4.07259E-10 5.93618E-04 4.51004E+00-7.31960E-08
 -1       400-3.85286E-03 2.36174E-03-7.58335E-10 1.88295E-02 4.54123E+00-3.47155E-08
 -1       401-3.83050E-03 2.34840E-03-7.37850E-10 3.36858E-02 4.55001E+00 3.60505E-09
 -1       402-3.79314E-03 2.32516E-03-6.65246E-10 5.28698E-02 4.53653E+00 4.16349E-08
 -1       403-3.74167E-03 2.29357E-03-8.95017E-10 6.58939E-02 4.50098E+00 7.92112E-08
 -1       404-3.67633E-03 2.25391E-03-1.21998E-09 8.48421E-02 4.44368E+00 1.16213E-07
 -1       405-3.59626E-03 2.20446E-03-1.33714E-09 9.92186E-02 4.36499E+00 1.52509E-07
 -1       406-3.50311E-03 2.14779E-03-1.08710E-09 1.16724E-01 4.26540E+00 1.87922E-07
 -1       407-3.39544E-03 2.08107E-03-7.74461E-10 1.31040E-01 4.14543E+00 2.22330E-07
 -1       408-3.27601E-03 2.00869E-03-3.31734E-10 1.45392E-01 4.00572E+00 2.55619E-07
 -1       409-3.14266E-03 1.92635E-03-2.75475E-10 1.61862E-01 3.84696E+00 2.87628E-07
 -1       410-2.99777E-03 1.83761E-03-7.73792E-10 1.72636E-01 3.66993E+00 3.18259E-07
 -1       411-2.84135E-03 1.74200E-03-5.11359E-10 1.87906E-01 3.47546E+00 3.47400E-07
 -1       412-2.67356E-03 1.63889E-03-5.19496E-10 1.98797E-01 3.26447E+00 3.74904E-07
 -1       413-2.49574E-03 1.53001E-03-6.52287E-10 2.11552E-01 3.03794E+00 4.00689E-07
 -1       414-2.30809E-03 1.41486E-03-4.31744E-10 2.21037E-01 2.79689E+00 4.24652E-07
 -1       415-2.11187E-03 1.29477E-03-4.92675E-10 2.31904E-01 2.54242E+00 4.46694E-07
 -1       416-1.90720E-03 1.16903E-03-4.59043E-10 2.40088E-01 2.27567E+00 4.66727E-07
 -1       417-1.69575E-03 1.03960E-03-5.75224E-10 2.47970E-01 1.99783E+00 4.84704E-07
 -1       418-1.47765E-03 9.05753E-04-2.88329E-10 2.54667E-01 1.71012E+00 5.00549E-07
 -1       419-1.25442E-03 7.69051E-04-1.29226E-10 2.60119E-01 1.41383E+00 5.14171E-07
 -1       420-1.02651E-03 6.29269E-04-1.04380E-09 2.65227E-01 1.11024E+00 5.25550E-07
 -1       421-7.95160E-04 4.87412E-04-1.04534E-09 2.68269E-01 8.00680E-01 5.34647E-07
 -1       422-5.61308E-04 3.44119E-04-2.02545E-10 2.70950E-01 4.86496E-01 5.41410E-07
 -1       423-3.25836E-04 1.99684E-04-7.77862E-10 2.71985E-01 1.69047E-01 5.45821E-07
 -1       424-8.99119E-05 5.51116E-05-8.12972E-10 2.72030E-01-1.50299E-01 5.47893E-07
 -1       425 1.45581E-04-8.92812E-05-4.85951E-10 2.70897E-01-4.70167E-01 5.47631E-07
 -1       426 3.79602E-04-2.32765E-04-8.24970E-10 2.68459E-01-7.89189E-01 5.45027E-07
 -1       427 6.11024E-04-3.74548E-04-4.23575E-10 2.65118E-01-1.10600E+00 5.40080E-07
 -1       428 8.39114E-04-5.14487E-04-4.79311E-10 2.60636E-01-1.41927E+00 5.32837E-07
 -1       429 1.06260E-03-6.51466E-04-1.01163E-09 2.54441E-01-1.72765E+00 5.23359E-07
 -1       430 1.28062E-03-7.85087E-04-7.10711E-10 2.47855E-01-2.02986E+00 5.11693E-07
 -1       431 1.49218E-03-9.14713E-04-3.09674E-10 2.39905E-01-2.32463E+00 4.97865E-07
 -1       432 1.69658E-03-1.04020E-03-4.44145E-10 2.31215E-01-2.61072E+00 4.81959E-07
 -1       433 1.89250E-03-1.16018E-03-1.07850E-09 2.20362E-01-2.88694E+00 4.64064E-07
 -1       434 2.07937E-03-1.27476E-03-1.35580E-09 2.10244E-01-3.15216E+00 4.44253E-07
 -1       435 2.25639E-03-1.38341E-03-1.03616E-09 1.97190E-01-3.40529E+00 4.22627E-07
 -1       436 2.42229E-03-1.48487E-03-1.09713E-09 1.84975E-01-3.64531E+00 3.99298E-07
 -1       437 2.57709E-03-1.57998E-03-1.28117E-09 1.71113E-01-3.87124E+00 3.74361E-07
 -1       438 2.71920E-03-1.66684E-03-1.50591E-09 1.56750E-01-4.08219E+00 3.47943E-07
 -1       439 2.84892E-03-1.74673E-03-1.36712E-09 1.41911E-01-4.27732E+00 3.20180E-07
 -1       440 2.96461E-03-1.81740E-03-1.11750E-09 1.24734E-01-4.45590E+00 2.91190E-07
 -1       441 3.06648E-03-1.87996E-03-1.44061E-09 1.09549E-01-4.61723E+00 2.61122E-07
 -1       442 3.15364E-03-1.93334E-03-1.81273E-09 9.10125E-02-4.76074E+00 2.30110E-07
 -1       443 3.22582E-03-1.97771E-03-1.41020E-09 7.47428E-02-4.88592E+00 1.98293E-07
 -1       444 3.28256E-03-2.01251E-03-1.48705E-09 5.45025E-02-4.99234E+00 1.65830E-07
 -1       445 3.32290E-03-2.03664E-03-2.28978E-09 3.86664E-02-5.07968E+00 1.32890E-07
 -1       446 3.34845E-03-2.05321E-03-1.89838E-09 1.95620E-02-5.14769E+00 9.96223E-08
 -1       447 3.35648E-03-2.05759E-03-9.70662E-10-6.16649E-04-5.19624E+00 6.61840E-08
 -1       448 3.34877E-03-2.05307E-03-8.69205E-10-1.81621E-02-5.22527E+00 3.27543E-08
 -1       449 3.32417E-03-2.03787E-03-1.26887E-09-3.88078E-02-5.23484E+00-5.21425E-10
 -1       450 3.28333E-03-2.01304E-03-1.48200E-09-5.64181E-02-5.22508E+00-3.34783E-08
 -1       451 3.22559E-03-1.97741E-03-1.08955E-09-7.76044E-02-5.19623E+00-6.59383E-08
 -1       452 3.15149E-03-1.93189E-03-4.65863E-10-9.34305E-02-5.14863E+00-9.77368E-08
 -1       453 3.06167E-03-1.87740E-03-2.63211E-10-1.14623E-01-5.08271E+00-1.28713E-07
 -1       454 2.95471E-03-1.81109E-03-1.04588E-09-1.31880E-01-4.99899E+00-1.58724E-07
 -1       455 2.83299E-03-1.73707E-03-1.47505E-09-1.49626E-01-4.89810E+00-1.87591E-07
 -1       456 2.69508E-03-1.65223E-03-1.07822E-09-1.68389E-01-4.78073E+00-2.15155E-07
 -1       457 2.54239E-03-1.55881E-03-1.38888E-09-1.84501E-01-4.64770E+00-2.41270E-07
 -1       458 2.37480E-03-1.45592E-03-1.81317E-09-2.02747E-01-4.49990E+00-2.65788E-07
 -1       459 2.19291E-03-1.34435E-03-2.13108E-09-2.16738E-01-4.33828E+00-2.88560E-07
 -1       460 1.99777E-03-1.22504E-03-2.66495E-09-2.33879E-01-4.16393E+00-3.09438E-07
 -1       461 1.78875E-03-1.09661E-03-2.68983E-09-2.47697E-01-3.97796E+00-3.28316E-07
 -1       462 1.56790E-03-9.61526E-04-2.37118E-09-2.62757E-01-3.78160E+00-3.45045E-07
 -1       463 1.33421E-03-8.17892E-04-2.11901E-09-2.75642E-01-3.57612E+00-3.59500E-07
 -1       464 1.09020E-03-6.68695E-04-2.03387E-09-2.88182E-01-3.36290E+00-3.71590E-07
 -1       465 8.34569E-04-5.11736E-04-1.91596E-09-3.00616E-01-3.14335E+00-3.81182E-07
 -1       466 5.69857E-04-3.49592E-04-1.79301E-09-3.10970E-01-2.91894E+00-3.88170E-07
 -1       467 2.95106E-04-1.81118E-04-1.81775E-09-3.21607E-01-2.69124E+00-3.92469E-07
 -1       468 1.27359E-05-8.12208E-06-1.70760E-09-3.30825E-01-2.46183E+00-3.93996E-07
 -1       469-2.78546E-04 1.70586E-04-2.07092E-09-3.39381E-01-2.23235E+00-3.92658E-07
 -1       470-5.75511E-04 3.52425E-04-2.04681E-09-3.47197E-01-2.00450E+00-3.88384E-07
 -1       471-8.80555E-04 5.39736E-04-1.85537E-09-3.53579E-01-1.78001E+00-3.81111E-07
 -1       472-1.18890E-03 7.28112E-04-1.84359E-09-3.60497E-01-1.56065E+00-3.70778E-07
 -1       473-1.50524E-03 9.22892E-04-1.50156E-09-3.65554E-01-1.34822E+00-3.57326E-07
 -1       474-1.82224E-03 1.11630E-03-1.56562E-09-3.69491E-01-1.14455E+00-3.40704E-07
 -1       475-2.14694E-03 1.31627E-03-1.84031E-09-3.74098E-01-9.51496E-01-3.20890E-07
 -1       476-2.46991E-03 1.51310E-03-1.82682E-09-3.76293E-01-7.70932E-01-2.97855E-07
 -1       477-2.80112E-03 1.71770E-03-1.70196E-09-3.79607E-01-6.04753E-01-2.71571E-07
 -1       478-3.12688E-03 1.91504E-03-1.72935E-09-3.80241E-01-4.54867E-01-2.41990E-07
 -1       479-3.46394E-03 2.12557E-03-1.85996E-09-3.82751E-01-3.23194E-01-2.09096E-07
 -1       480-3.78609E-03 2.31341E-03-1.80949E-09-3.87464E-01-2.11661E-01-1.72916E-07
 -1       481-4.14452E-03 2.56334E-03-1.72195E-09-3.66334E-01-1.22204E-01-1.33383E-07
 -1       482-4.40127E-03 2.61863E-03-1.77661E-09-4.48218E-01-5.67559E-02-9.06024E-08
 -1       483-4.98748E-03 3.32782E-03-1.94180E-09-1.66552E-01-1.72760E-02-4.42167E-08
 -1       484-3.82196E-03 1.36015E-03-2.10417E-09-1.17394E+00-4.27777E-03-1.99874E-08
 -1       485 7.70601E-02-2.99540E-02 1.71078E-09-1.39822E-04 6.68681E+00-1.93944E-02
 -1       486 3.40457E-01-1.91847E-01-2.29172E-09-2.45381E-02 6.46054E+00-1.93927E-02
 -1       487 1.11417E+00-6.67394E-01-1.36152E-08-4.72586E-02 6.00809E+00-1.93854E-02
 -1       488 2.36296E+00-1.43374E+00-2.77925E-08-6.83376E-02 5.55593E+00-1.93679E-02
 -1       489 4.05213E+00-2.47114E+00-3.75873E-08-8.77679E-02 5.10433E+00-1.93359E-02
 -1       490 6.14331E+00-3.75246E+00-4.15104E-08-1.05718E-01 4.65370E+00-1.92850E-02
 -1       491 8.60456E+00-5.26313E+00-4.41455E-08-1.21602E-01 4.20452E+00-1.92114E-02
 -1       492 1.13985E+01-6.97782E+00-4.61204E-08-1.36487E-01 3.75735E+00-1.91115E-02
 -1       493 1.44862E+01-8.86769E+00-4.96905E-08-1.49252E-01 3.31285E+00-1.89824E-02
 -1       494 1.78407E+01-1.09274E+01-5.07895E-08-1.60117E-01 2.87173E+00-1.88211E-02
 -1       495 2.14211E+01-1.31237E+01-4.60803E-08-1.70039E-01 2.43478E+00-1.86252E-02
 -1       496 2.51932E+01-1.54364E+01-4.26423E-08-1.78127E-01 2.00283E+00-1.83927E-02
 -1       497 2.91243E+01-1.78470E+01-3.96199E-08-1.84930E-01 1.57675E+00-1.81217E-02
 -1       498 3.31772E+01-2.03286E+01-3.45716E-08-1.89712E-01 1.15745E+00-1.78110E-02
 -1       499 3.73279E+01-2.28781E+01-2.83024E-08-1.92768E-01 7.45882E-01-1.74593E-02
 -1       500 4.15340E+01-2.54569E+01-2.29994E-08-1.95448E-01 3.43006E-01-1.70659E-02
 -1       501 4.57649E+01-2.80475E+01-1.93162E-08-1.95651E-01-5.02005E-02-1.66305E-02
 -1       502 4.99971E+01-3.06460E+01-1.59559E-08-1.94736E-01-4.32754E-01-1.61528E-02
 -1       503 5.41889E+01-3.32112E+01-1.20388E-08-1.92485E-01-8.03671E-01-1.56331E-02
 -1       504 5.83259E+01-3.57546E+01-9.91056E-09-1.88261E-01-1.16198E+00-1.50719E-02
 -1       505 6.23622E+01-3.82244E+01-9.14257E-09-1.84532E-01-1.50671E+00-1.44699E-02
 -1       506 6.62849E+01-4.06319E+01-8.90913E-09-1.77177E-01-1.83693E+00-1.38282E-02
 -1       507 7.00589E+01-4.29438E+01-1.08181E-08-1.71167E-01-2.15173E+00-1.31482E-02
 -1       508 7.36671E+01-4.51598E+01-1.27468E-08-1.61399E-01-2.45022E+00-1.24313E-02
 -1       509 7.70785E+01-4.72511E+01-1.27481E-08-1.54064E-01-2.73158E+00-1.16794E-02
 -1       510 8.02640E+01-4.91903E+01-1.15399E-08-1.41573E-01-2.99501E+00-1.08946E-02
 -1       511 8.32382E+01-5.10348E+01-1.25715E-08-1.29892E-01-3.23975E+00-1.00791E-02
 -1       512 8.59315E+01-5.26737E+01-1.36113E-08-1.19312E-01-3.46514E+00-9.23534E-03
 -1       513 8.83633E+01-5.41691E+01-1.39999E-08-1.04626E-01-3.67054E+00-8.36600E-03
 -1       514 9.04990E+01-5.54753E+01-1.32555E-08-9.25517E-02-3.85538E+00-7.47387E-03
 -1       515 9.23372E+01-5.66090E+01-9.11576E-09-7.64202E-02-4.01917E+00-6.56194E-03
 -1       516 9.38465E+01-5.75263E+01-1.29948E-09-6.41619E-02-4.16147E+00-5.63331E-03
 -1       517 9.50311E+01-5.82505E+01 5.35685E-09-4.52153E-02-4.28195E+00-4.69121E-03
 -1       518 9.58910E+01-5.87944E+01 2.50262E-09-3.18954E-02-4.38032E+00-3.73895E-03
 -1       519 9.63752E+01-5.90686E+01-4.42488E-09-1.50755E-02-4.45639E+00-2.77998E-03
 -1       520 9.65379E+01-5.91875E+01-8.82547E-09 2.37915E-03-4.51004E+00-1.81777E-03
 -1       521 9.63219E+01-5.90443E+01-1.09545E-08 1.70028E-02-4.54123E+00-8.55841E-04
 -1       522 9.57606E+01-5.87086E+01-6.78142E-09 3.55129E-02-4.55001E+00 1.02212E-04
 -1       523 9.48275E+01-5.81286E+01 3.75855E-09 4.93812E-02-4.53653E+00 1.05282E-03
 -1       524 9.35408E+01-5.73390E+01 1.40787E-08 6.93376E-02-4.50098E+00 1.99237E-03
 -1       525 9.19059E+01-5.63462E+01 2.27219E-08 8.32524E-02-4.44368E+00 2.91732E-03
 -1       526 8.99063E+01-5.51121E+01 2.93411E-08 1.00859E-01-4.36499E+00 3.82415E-03
 -1       527 8.75746E+01-5.36923E+01 3.01251E-08 1.15087E-01-4.26540E+00 4.70937E-03
 -1       528 8.48862E+01-5.20274E+01 2.65490E-08 1.31138E-01-4.14543E+00 5.56958E-03
 -1       529 8.18970E+01-5.02149E+01 2.22769E-08 1.46981E-01-4.00572E+00 6.40144E-03
 -1       530 7.85659E+01-4.81589E+01 1.73246E-08 1.58905E-01-3.84696E+00 7.20179E-03
 -1       531 7.49419E+01-4.59386E+01 1.00848E-08 1.75597E-01-3.66993E+00 7.96747E-03
 -1       532 7.10321E+01-4.35492E+01 2.75991E-09 1.86564E-01-3.47546E+00 8.69555E-03
 -1       533 6.68373E+01-4.09713E+01-5.67304E-10 2.00113E-01-3.26447E+00 9.38320E-03
 -1       534 6.23913E+01-3.82489E+01-3.05108E-09 2.10446E-01-3.03794E+00 1.00278E-02
 -1       535 5.77007E+01-3.53708E+01-6.28971E-09 2.22183E-01-2.79689E+00 1.06268E-02
 -1       536 5.27942E+01-3.23674E+01-7.76737E-09 2.30927E-01-2.54242E+00 1.11779E-02
 -1       537 4.76786E+01-2.92251E+01-5.99066E-09 2.40215E-01-2.27567E+00 1.16790E-02
 -1       538 4.23910E+01-2.59881E+01-2.76357E-09 2.48055E-01-1.99783E+00 1.21283E-02
 -1       539 3.69398E+01-2.26431E+01-2.58691E-10 2.54795E-01-1.71012E+00 1.25240E-02
 -1       540 3.13580E+01-1.92245E+01 2.47837E-09 2.60758E-01-1.41383E+00 1.28646E-02
 -1       541 2.56611E+01-1.57308E+01 6.35518E-09 2.64813E-01-1.11024E+00 1.31490E-02
 -1       542 1.98766E+01-1.21837E+01 8.90429E-09 2.68698E-01-8.00680E-01 1.33762E-02
 -1       543 1.40308E+01-8.60184E+00 9.42767E-09 2.70752E-01-4.86495E-01 1.35453E-02
 -1       544 8.14365E+00-4.99068E+00 1.01185E-08 2.72098E-01-1.69046E-01 1.36559E-02
 -1       545 2.24584E+00-1.37665E+00 1.01597E-08 2.72148E-01 1.50299E-01 1.37078E-02
 -1       546-3.64180E+00 2.23350E+00 1.05043E-08 2.70892E-01 4.70167E-01 1.37008E-02
 -1       547-9.49189E+00 5.82021E+00 1.06314E-08 2.68696E-01 7.89189E-01 1.36353E-02
 -1       548-1.52778E+01 9.36516E+00 8.46662E-09 2.65231E-01 1.10601E+00 1.35118E-02
 -1       549-2.09796E+01 1.28632E+01 5.60498E-09 2.60308E-01 1.41927E+00 1.33310E-02
 -1       550-2.65669E+01 1.62880E+01 1.56000E-09 2.55006E-01 1.72765E+00 1.30938E-02
 -1       551-3.20171E+01 1.96282E+01-3.51578E-09 2.47946E-01 2.02986E+00 1.28017E-02
 -1       552-3.73063E+01 2.28690E+01-6.94443E-09 2.40027E-01 2.32463E+00 1.24559E-02
 -1       553-4.24161E+01 2.60061E+01-6.75582E-09 2.30442E-01 2.61072E+00 1.20583E-02
 -1       554-4.73138E+01 2.90054E+01-2.02887E-09 2.21310E-01 2.88694E+00 1.16107E-02
 -1       555-5.19860E+01 3.18703E+01 1.55600E-09 2.09331E-01 3.15216E+00 1.11155E-02
 -1       556-5.64104E+01 3.45856E+01 1.11983E-09 1.98309E-01 3.40529E+00 1.05748E-02
 -1       557-6.05591E+01 3.71232E+01 1.95915E-09 1.85024E-01 3.64531E+00 9.99146E-03
 -1       558-6.44274E+01 3.94996E+01 3.61631E-09 1.71219E-01 3.87124E+00 9.36807E-03
 -1       559-6.79814E+01 4.16724E+01-7.92195E-11 1.56749E-01 4.08219E+00 8.70766E-03
 -1       560-7.12231E+01 4.36682E+01-7.45815E-09 1.40662E-01 4.27732E+00 8.01336E-03
 -1       561-7.41159E+01 4.54358E+01-1.17644E-08 1.26172E-01 4.45590E+00 7.28847E-03
 -1       562-7.66624E+01 4.69992E+01-1.37478E-08 1.08118E-01 4.61724E+00 6.53644E-03
 -1       563-7.88408E+01 4.83333E+01-1.67420E-08 9.24528E-02 4.76074E+00 5.76085E-03
 -1       564-8.06462E+01 4.94434E+01-1.96171E-08 7.33489E-02 4.88592E+00 4.96539E-03
 -1       565-8.20625E+01 5.03116E+01-2.03393E-08 5.75225E-02 4.99234E+00 4.15387E-03
 -1       566-8.30736E+01 5.09174E+01-2.04125E-08 3.71945E-02 5.07968E+00 3.33021E-03
 -1       567-8.37092E+01 5.13285E+01-1.90707E-08 1.79770E-02 5.14769E+00 2.49835E-03
 -1       568-8.39126E+01 5.14408E+01-1.52094E-08 9.36422E-04 5.19624E+00 1.66233E-03
 -1       569-8.37172E+01 5.13253E+01-1.36990E-08-1.97564E-02 5.22527E+00 8.26243E-04
 -1       570-8.31037E+01 5.09468E+01-1.70477E-08-3.71951E-02 5.23484E+00-5.80232E-06
 -1       571-8.20814E+01 5.03250E+01-2.03552E-08-5.79905E-02 5.22508E+00-8.29682E-04
 -1       572-8.06380E+01 4.94344E+01-1.76405E-08-7.46117E-02 5.19623E+00-1.64127E-03
 -1       573-7.87860E+01 4.82966E+01-1.41075E-08-9.64257E-02 5.14863E+00-2.43644E-03
 -1       574-7.65390E+01 4.69333E+01-1.38936E-08-1.13232E-01 5.08271E+00-3.21114E-03
 -1       575-7.38662E+01 4.52768E+01-1.28486E-08-1.31935E-01 4.99899E+00-3.96131E-03
 -1       576-7.08219E+01 4.34249E+01-1.17990E-08-1.50969E-01 4.89810E+00-4.68297E-03
 -1       577-6.73745E+01 4.13046E+01-8.73203E-09-1.67181E-01 4.78073E+00-5.37224E-03
 -1       578-6.35573E+01 3.89690E+01-2.06557E-09-1.85688E-01 4.64770E+00-6.02529E-03
 -1       579-5.93660E+01 3.63956E+01 7.52708E-09-2.00665E-01 4.49990E+00-6.63839E-03
 -1       580-5.48212E+01 3.36085E+01 1.50556E-08-2.18858E-01 4.33828E+00-7.20793E-03
 -1       581-4.99388E+01 3.06221E+01 1.53204E-08-2.33008E-01 4.16393E+00-7.73043E-03
 -1       582-4.47180E+01 2.74159E+01 1.49743E-08-2.48580E-01 3.97796E+00-8.20254E-03
 -1       583-3.91907E+01 2.40329E+01 1.80291E-08-2.62091E-01 3.78160E+00-8.62105E-03
 -1       584-3.33553E+01 2.04490E+01 2.28588E-08-2.75742E-01 3.57612E+00-8.98289E-03
 -1       585-2.72468E+01 1.67109E+01 2.64705E-08-2.88766E-01 3.36290E+00-9.28515E-03
 -1       586-2.08653E+01 1.27961E+01 2.77770E-08-2.99961E-01 3.14335E+00-9.52512E-03
 -1       587-1.42366E+01 8.73176E+00 2.78288E-08-3.11641E-01 2.91894E+00-9.70019E-03
 -1       588-7.38029E+00 4.53221E+00 2.64258E-08-3.21537E-01 2.69124E+00-9.80799E-03
 -1       589-3.06217E-01 1.92676E-01 2.55333E-08-3.30906E-01 2.46183E+00-9.84633E-03
 -1       590 6.95825E+00-4.25765E+00 2.64799E-08-3.39584E-01 2.23235E+00-9.81314E-03
 -1       591 1.44036E+01-8.82452E+00 2.63698E-08-3.47008E-01 2.00450E+00-9.70658E-03
 -1       592 2.20042E+01-1.34822E+01 2.41171E-08-3.54555E-01 1.78001E+00-9.52500E-03
 -1       593 2.97435E+01-1.82217E+01 1.93717E-08-3.60136E-01 1.56065E+00-9.26688E-03
 -1       594 3.76156E+01-2.30554E+01 1.29214E-08-3.64956E-01 1.34822E+00-8.93088E-03
 -1       595 4.55836E+01-2.79331E+01 7.24378E-09-3.70441E-01 1.14455E+00-8.51590E-03
 -1       596 5.36501E+01-3.28819E+01 3.11269E-09-3.73163E-01 9.51496E-01-8.02093E-03
 -1       597 6.17846E+01-3.78625E+01 5.48988E-10-3.77519E-01 7.70932E-01-7.44515E-03
 -1       598 6.99936E+01-4.29069E+01-2.05511E-09-3.78396E-01 6.04753E-01-6.78788E-03
 -1       599 7.82212E+01-4.79230E+01-5.02899E-09-3.83295E-01 4.54867E-01-6.04858E-03
 -1       600 8.65510E+01-5.30913E+01-7.73272E-09-3.79707E-01 3.23194E-01-5.22678E-03
 -1       601 9.47114E+01-5.78911E+01-1.06454E-08-3.89357E-01 2.11661E-01-4.32239E-03
 -1       602 1.03569E+02-6.40413E+01-1.34485E-08-3.66414E-01 1.22204E-01-3.33436E-03
 -1       603 1.10038E+02-6.54701E+01-1.55622E-08-4.46259E-01 5.67559E-02-2.26555E-03
 -1       604 1.24842E+02-8.33180E+01-2.07946E-08-1.67548E-01 1.72760E-02-1.10551E-03
 -1       605 9.51738E+01-3.37406E+01-2.51536E-08-1.17187E+00 4.27777E-03-4.99026E-04
 -1       606 7.70601E-02-2.99540E-02-1.71078E-09-1.39805E-04-6.68681E+00 1.93944E-02
 -1       607 3.40457E-01-1.91847E-01 2.29172E-09-2.45382E-02-6.46054E+00 1.93927E-02
 -1       608 1.11417E+00-6.67394E-01 1.36152E-08-4.72588E-02-6.00810E+00 1.93854E-02
 -1       609 2.36296E+00-1.43374E+00 2.77925E-08-6.83377E-02-5.55593E+00 1.93679E-02
 -1       610 4.05213E+00-2.47114E+00 3.75873E-08-8.77680E-02-5.10433E+00 1.93359E-02
 -1       611 6.14331E+00-3.75246E+00 4.15104E-08-1.05718E-01-4.65370E+00 1.92850E-02
 -1       612 8.60456E+00-5.26313E+00 4.41455E-08-1.21602E-01-4.20452E+00 1.92114E-02
 -1       613 1.13985E+01-6.97782E+00 4.61204E-08-1.36487E-01-3.75735E+00 1.91116E-02
 -1       614 1.44862E+01-8.86769E+00 4.96905E-08-1.49252E-01-3.31285E+00 1.89824E-02
 -1       615 1.78407E+01-1.09274E+01 5.07895E-08-1.60117E-01-2.87173E+00 1.88211E-02
 -1       616 2.14211E+01-1.31237E+01 4.60803E-08-1.70039E-01-2.43478E+00 1.86252E-02
 -1       617 2.51932E+01-1.54364E+01 4.26423E-08-1.78127E-01-2.00283E+00 1.83927E-02
 -1       618 2.91243E+01-1.78470E+01 3.96199E-08-1.84930E-01-1.57675E+00 1.81217E-02
 -1       619 3.31772E+01-2.03286E+01 3.45716E-08-1.89712E-01-1.15745E+00 1.78110E-02
 -1       620 3.73279E+01-2.28781E+01 2.83024E-08-1.92768E-01-7.45882E-01 1.74593E-02
 -1       621 4.15340E+01-2.54569E+01 2.29994E-08-1.95448E-01-3.43006E-01 1.70659E-02
 -1       622 4.57649E+01-2.80475E+01 1.93162E-08-1.95651E-01 5.02006E-02 1.66305E-02
 -1       623 4.99971E+01-3.06460E+01 1.59559E-08-1.94736E-01 4.32754E-01 1.61528E-02
 -1       624 5.41889E+01-3.32112E+01 1.20388E-08-1.92485E-01 8.03671E-01 1.56331E-02
 -1       625 5.83259E+01-3.57546E+01 9.91056E-09-1.88261E-01 1.16198E+00 1.50719E-02
 -1       626 6.23622E+01-3.82244E+01 9.14257E-09-1.84532E-01 1.50671E+00 1.44699E-02
 -1       627 6.62849E+01-4.06319E+01 8.90913E-09-1.77177E-01 1.83693E+00 1.38282E-02
 -1       628 7.00589E+01-4.29438E+01 1.08181E-08-1.71167E-01 2.15173E+00 1.31482E-02
 -1       629 7.36671E+01-4.51598E+01 1.27468E-08-1.61399E-01 2.45022E+00 1.24313E-02
 -1       630 7.70785E+01-4.72511E+01 1.27481E-08-1.54064E-01 2.73158E+00 1.16794E-02
 -1       631 8.02640E+01-4.91903E+01 1.15399E-08-1.41573E-01 2.99501E+00 1.08946E-02
 -1       632 8.32382E+01-5.10348E+01 1.25715E-08-1.29892E-01 3.23975E+00 1.00791E-02
 -1       633 8.59315E+01-5.26737E+01 1.36113E-08-1.19312E-01 3.46514E+00 9.23534E-03
 -1       634 8.83633E+01-5.41691E+01 1.39999E-08-1.04626E-01 3.67054E+00 8.36599E-03
 -1       635 9.04990E+01-5.54753E+01 1.32555E-08-9.25517E-02 3.85538E+00 7.47387E-03
 -1       636 9.23372E+01-5.66090E+01 9.11576E-09-7.64202E-02 4.01917E+00 6.56194E-03
 -1       637 9.38465E+01-5.75263E+01 1.29948E-09-6.41618E-02 4.16147E+00 5.63330E-03
 -1       638 9.50311E+01-5.82505E+01-5.35685E-09-4.52153E-02 4.28195E+00 4.69121E-03
 -1       639 9.58910E+01-5.87944E+01-2.50262E-09-3.18955E-02 4.38032E+00 3.73894E-03
 -1       640 9.63752E+01-5.90686E+01 4.42488E-09-1.50755E-02 4.45639E+00 2.77997E-03
 -1       641 9.65379E+01-5.91875E+01 8.82547E-09 2.37911E-03 4.51004E+00 1.81776E-03
 -1       642 9.63219E+01-5.90443E+01 1.09545E-08 1.70028E-02 4.54123E+00 8.55838E-04
 -1       643 9.57606E+01-5.87086E+01 6.78142E-09 3.55130E-02 4.55001E+00-1.02215E-04
 -1       644 9.48275E+01-5.81286E+01-3.75855E-09 4.93813E-02 4.53653E+00-1.05282E-03
 -1       645 9.35408E+01-5.73390E+01-1.40787E-08 6.93377E-02 4.50098E+00-1.99237E-03
 -1       646 9.19059E+01-5.63462E+01-2.27219E-08 8.32524E-02 4.44368E+00-2.91733E-03
 -1       647 8.99063E+01-5.51121E+01-2.93411E-08 1.00859E-01 4.36499E+00-3.82415E-03
 -1       648 8.75746E+01-5.36923E+01-3.01251E-08 1.15087E-01 4.26540E+00-4.70938E-03
 -1       649 8.48862E+01-5.20274E+01-2.65490E-08 1.31138E-01 4.14543E+00-5.56958E-03
 -1       650 8.18970E+01-5.02149E+01-2.22769E-08 1.46981E-01 4.00572E+00-6.40145E-03
 -1       651 7.85659E+01-4.81589E+01-1.73246E-08 1.58905E-01 3.84696E+00-7.20179E-03
 -1       652 7.49419E+01-4.59386E+01-1.00848E-08 1.75597E-01 3.66993E+00-7.96747E-03
 -1       653 7.10321E+01-4.35492E+01-2.75991E-09 1.86564E-01 3.47546E+00-8.69555E-03
 -1       654 6.68373E+01-4.09713E+01 5.67304E-10 2.00113E-01 3.26447E+00-9.38320E-03
 -1       655 6.23913E+01-3.82489E+01 3.05108E-09 2.10446E-01 3.03794E+00-1.00278E-02
 -1       656 5.77007E+01-3.53708E+01 6.28971E-09 2.22183E-01 2.79689E+00-1.06268E-02
 -1       657 5.27942E+01-3.23674E+01 7.76737E-09 2.30927E-01 2.54242E+00-1.11779E-02
 -1       658 4.76786E+01-2.92251E+01 5.99066E-09 2.40215E-01 2.27567E+00-1.16790E-02
 -1       659 4.23910E+01-2.59881E+01 2.76357E-09 2.48055E-01 1.99783E+00-1.21283E-02
 -1       660 3.69398E+01-2.26431E+01 2.58691E-10 2.54795E-01 1.71012E+00-1.25240E-02
 -1       661 3.13580E+01-1.92245E+01-2.47837E-09 2.60758E-01 1.41383E+00-1.28646E-02
 -1       662 2.56611E+01-1.57308E+01-6.35518E-09 2.64813E-01 1.11024E+00-1.31490E-02
 -1       663 1.98766E+01-1.21837E+01-8.90429E-09 2.68698E-01 8.00680E-01-1.33762E-02
 -1       664 1.40308E+01-8.60184E+00-9.42767E-09 2.70752E-01 4.86496E-01-1.35453E-02
 -1       665 8.14365E+00-4.99068E+00-1.01185E-08 2.72098E-01 1.69047E-01-1.36559E-02
 -1       666 2.24584E+00-1.37665E+00-1.01597E-08 2.72148E-01-1.50299E-01-1.37078E-02
 -1       667-3.64179E+00 2.23350E+00-1.05043E-08 2.70892E-01-4.70167E-01-1.37008E-02
 -1       668-9.49189E+00 5.82021E+00-1.06314E-08 2.68696E-01-7.89189E-01-1.36353E-02
 -1       669-1.52778E+01 9.36516E+00-8.46662E-09 2.65231E-01-1.10600E+00-1.35118E-02
 -1       670-2.09796E+01 1.28632E+01-5.60498E-09 2.60308E-01-1.41927E+00-1.33310E-02
 -1       671-2.65669E+01 1.62880E+01-1.56000E-09 2.55005E-01-1.72765E+00-1.30938E-02
 -1       672-3.20171E+01 1.96282E+01 3.51578E-09 2.47946E-01-2.02986E+00-1.28017E-02
 -1       673-3.73063E+01 2.28690E+01 6.94443E-09 2.40027E-01-2.32463E+00-1.24559E-02
 -1       674-4.24161E+01 2.60061E+01 6.75582E-09 2.30442E-01-2.61072E+00-1.20583E-02
 -1       675-4.73138E+01 2.90054E+01 2.02887E-09 2.21311E-01-2.88694E+00-1.16107E-02
 -1       676-5.19860E+01 3.18703E+01-1.55600E-09 2.09331E-01-3.15216E+00-1.11155E-02
 -1       677-5.64104E+01 3.45856E+01-1.11983E-09 1.98309E-01-3.40529E+00-1.05748E-02
 -1       678-6.05591E+01 3.71232E+01-1.95915E-09 1.85024E-01-3.64531E+00-9.99146E-03
 -1       679-6.44274E+01 3.94996E+01-3.61631E-09 1.71219E-01-3.87124E+00-9.36807E-03
 -1       680-6.79814E+01 4.16724E+01 7.92195E-11 1.56749E-01-4.08219E+00-8.70766E-03
 -1       681-7.12231E+01 4.36682E+01 7.45815E-09 1.40662E-01-4.27732E+00-8.01336E-03
 -1       682-7.41159E+01 4.54358E+01 1.17644E-08 1.26172E-01-4.45590E+00-7.28847E-03
 -1       683-7.66624E+01 4.69992E+01 1.37478E-08 1.08118E-01-4.61723E+00-6.53644E-03
 -1       684-7.88408E+01 4.83333E+01 1.67420E-08 9.24528E-02-4.76074E+00-5.76085E-03
 -1       685-8.06462E+01 4.94434E+01 1.96171E-08 7.33489E-02-4.88592E+00-4.96539E-03
 -1       686-8.20625E+01 5.03116E+01 2.03393E-08 5.75225E-02-4.99234E+00-4.15387E-03
 -1       687-8.30736E+01 5.09174E+01 2.04125E-08 3.71945E-02-5.07968E+00-3.33022E-03
 -1       688-8.37092E+01 5.13285E+01 1.90707E-08 1.79770E-02-5.14769E+00-2.49835E-03
 -1       689-8.39126E+01 5.14408E+01 1.52094E-08 9.36470E-04-5.19624E+00-1.66233E-03
 -1       690-8.37172E+01 5.13253E+01 1.36990E-08-1.97564E-02-5.22527E+00-8.26246E-04
 -1       691-8.31037E+01 5.09468E+01 1.70477E-08-3.71951E-02-5.23484E+00 5.79988E-06
 -1       692-8.20814E+01 5.03250E+01 2.03552E-08-5.79905E-02-5.22508E+00 8.29680E-04
 -1       693-8.06380E+01 4.94344E+01 1.76405E-08-7.46117E-02-5.19623E+00 1.64127E-03
 -1       694-7.87860E+01 4.82966E+01 1.41075E-08-9.64257E-02-5.14863E+00 2.43644E-03
 -1       695-7.65390E+01 4.69333E+01 1.38936E-08-1.13232E-01-5.08271E+00 3.21114E-03
 -1       696-7.38662E+01 4.52768E+01 1.28486E-08-1.31935E-01-4.99899E+00 3.96131E-03
 -1       697-7.08219E+01 4.34249E+01 1.17990E-08-1.50969E-01-4.89810E+00 4.68297E-03
 -1       698-6.73745E+01 4.13046E+01 8.73203E-09-1.67180E-01-4.78073E+00 5.37224E-03
 -1       699-6.35573E+01 3.89690E+01 2.06557E-09-1.85688E-01-4.64770E+00 6.02528E-03
 -1       700-5.93660E+01 3.63956E+01-7.52708E-09-2.00665E-01-4.49990E+00 6.63839E-03
 -1       701-5.48212E+01 3.36085E+01-1.50556E-08-2.18858E-01-4.33828E+00 7.20793E-03
 -1       702-4.99388E+01 3.06221E+01-1.53204E-08-2.33008E-01-4.16393E+00 7.73043E-03
 -1       703-4.47180E+01 2.74159E+01-1.49743E-08-2.48580E-01-3.97796E+00 8.20254E-03
 -1       704-3.91907E+01 2.40329E+01-1.80291E-08-2.62091E-01-3.78160E+00 8.62105E-03
 -1       705-3.33553E+01 2.04490E+01-2.28588E-08-2.75742E-01-3.57612E+00 8.98289E-03
 -1       706-2.72468E+01 1.67109E+01-2.64705E-08-2.88766E-01-3.36290E+00 9.28514E-03
 -1       707-2.08653E+01 1.27961E+01-2.77770E-08-2.99961E-01-3.14335E+00 9.52511E-03
 -1       708-1.42366E+01 8.73176E+00-2.78288E-08-3.11641E-01-2.91894E+00 9.70019E-03
 -1       709-7.38029E+00 4.53221E+00-2.64258E-08-3.21537E-01-2.69124E+00 9.80799E-03
 -1       710-3.06217E-01 1.92676E-01-2.55333E-08-3.30906E-01-2.46183E+00 9.84632E-03
 -1       711 6.95825E+00-4.25765E+00-2.64799E-08-3.39584E-01-2.23235E+00 9.81314E-03
 -1       712 1.44036E+01-8.82452E+00-2.63698E-08-3.47008E-01-2.00450E+00 9.70658E-03
 -1       713 2.20042E+01-1.34822E+01-2.41171E-08-3.54555E-01-1.78001E+00 9.52500E-03
 -1       714 2.97435E+01-1.82217E+01-1.93717E-08-3.60136E-01-1.56065E+00 9.26688E-03
 -1       715 3.76156E+01-2.30554E+01-1.29214E-08-3.64956E-01-1.34822E+00 8.93088E-03
 -1       716 4.55836E+01-2.79331E+01-7.24378E-09-3.70441E-01-1.14455E+00 8.51590E-03
 -1       717 5.36501E+01-3.28819E+01-3.11269E-09-3.73163E-01-9.51496E-01 8.02093E-03
 -1       718 6.17846E+01-3.78625E+01-5.48988E-10-3.77519E-01-7.70932E-01 7.44516E-03
 -1       719 6.99936E+01-4.29069E+01 2.05511E-09-3.78396E-01-6.04753E-01 6.78788E-03
 -1       720 7.82212E+01-4.79230E+01 5.02899E-09-3.83295E-01-4.54867E-01 6.04858E-03
 -1       721 8.65510E+01-5.30913E+01 7.73272E-09-3.79707E-01-3.23194E-01 5.22678E-03
 -1       722 9.47114E+01-5.78911E+01 1.06454E-08-3.89357E-01-2.11661E-01 4.32239E-03
 -1       723 1.03569E+02-6.40413E+01 1.34485E-08-3.66414E-01-1.22204E-01 3.33436E-03
 -1       724 1.10038E+02-6.54701E+01 1.55622E-08-4.46259E-01-5.67559E-02 2.26555E-03
 -1       725 1.24842E+02-8.33180E+01 2.07946E-08-1.67548E-01-1.72760E-02 1.10551E-03
 -1       726 9.51738E+01-3.37406E+01 2.51536E-08-1.17187E+00-4.27777E-03 4.99026E-04
 -1       727-7.70578E-02 2.99513E-02 4.41677E-10-1.39430E-04 6.68681E+00 1.93960E-02
 -3
    1PSTEP                        12           1           1          
    1PGM                1.000000E+00                                  
    1PGK                2.134216E+06                                  
    1PHID                         -1                                  
    1PSUBC                         0                                  
    1PMODE                         3                                  
  100CL  103 232.5087849         726                     2    3MODAL      1
 -4  ERROR       1    1
 -5  STR(%)      1    1    0    0
 -1         2 2.11713E+00
 -1         3 4.33464E+00
 -1         4 1.51780E+01
 -1         5 5.67163E+01
 -1         6 7.85960E+01
 -1         7 8.40068E+01
 -1         8 8.41151E+01
 -1         9 8.41296E+01
 -1        10 8.41296E+01
 -1        11 8.41218E+01
 -1        12 8.41218E+01
 -1        13 8.41175E+01
 -1        14 8.41223E+01
 -1        15 8.41223E+01
 -1        16 8.41202E+01
 -1        17 8.41202E+01
 -1        18 8.41117E+01
 -1        19 8.41223E+01
 -1        20 8.41223E+01
 -1        21 8.41304E+01
 -1        22 8.41304E+01
 -1        23 8.41318E+01
 -1        24 8.41318E+01
 -1        25 8.41301E+01
 -1        26 8.41301E+01
 -1        27 8.41105E+01
 -1        28 8.41285E+01
 -1        29 8.41285E+01
 -1        30 8.41321E+01
 -1        31 8.41321E+01
 -1        32 8.41420E+01
 -1        33 8.41420E+01
 -1        34 8.41196E+01
 -1        35 8.41196E+01
 -1        36 8.41167E+01
 -1        37 8.41308E+01
 -1        38 8.41308E+01
 -1        39 8.41417E+01
 -1        40 8.41417E+01
 -1        41 8.41297E+01
 -1        42 8.41297E+01
 -1        43 8.41164E+01
 -1        44 8.41177E+01
 -1        45 8.41177E+01
 -1        46 8.41406E+01
 -1        47 8.41406E+01
 -1        48 8.41300E+01
 -1        49 8.41300E+01
 -1        50 8.41252E+01
 -1        51 8.41252E+01
 -1        52 8.41149E+01
 -1        53 8.41149E+01
 -1        54 8.40986E+01
 -1        55 8.41012E+01
 -1        56 8.41012E+01
 -1        57 8.40905E+01
 -1        58 8.40905E+01
 -1        59 8.40273E+01
 -1        60 8.39798E+01
 -1        61 8.53715E+01
 -1        62 8.53715E+01
 -1        63 8.39972E+01
 -1        64 8.40658E+01
 -1        65 8.40658E+01
 -1        66 8.40973E+01
 -1        67 8.40973E+01
 -1        68 8.41107E+01
 -1        69 8.41107E+01
 -1        70 8.41208E+01
 -1        71 8.41208E+01
 -1        72 8.41142E+01
 -1        73 8.41142E+01
 -1        74 8.41049E+01
 -1        75 8.41163E+01
 -1        76 8.41163E+01
 -1        77 8.41261E+01
 -1        78 8.41261E+01
 -1        79 8.41277E+01
 -1        80 8.41277E+01
 -1        81 8.41271E+01
 -1        82 8.41271E+01
 -1        83 8.41068E+01
 -1        84 8.41256E+01
 -1        85 8.41256E+01
 -1        86 8.41293E+01
 -1        87 8.41293E+01
 -1        88 8.41385E+01
 -1        89 8.41385E+01
 -1        90 8.41162E+01
 -1        91 8.41162E+01
 -1        92 8.41109E+01
 -1        93 8.41235E+01
 -1        94 8.41235E+01
 -1        95 8.41327E+01
 -1        96 8.41327E+01
 -1        97 8.41173E+01
 -1        98 8.41173E+01
 -1        99 8.40942E+01
 -1       100 8.40942E+01
 -1       101 8.40785E+01
 -1       102 8.40321E+01
 -1       103 8.40306E+01
 -1       104 8.37858E+01
 -1       105 8.05661E+01
 -1       106 8.39231E+01
 -1       107 8.40212E+01
 -1       108 8.40974E+01
 -1       109 8.41005E+01
 -1       110 8.41005E+01
 -1       111 8.41268E+01
 -1       112 8.41268E+01
 -1       113 8.41370E+01
 -1       114 8.41370E+01
 -1       115 8.41754E+01
 -1       116 8.41754E+01
 -1       117 8.44263E+01
 -1       118 8.44263E+01
 -1       119 8.71574E+01
 -1       120 8.71574E+01
 -1       121 7.41239E+01
 -1       122 5.52902E-01
 -1       123 2.11713E+00
 -1       124 4.33464E+00
 -1       125 1.51780E+01
 -1       126 5.67163E+01
 -1       127 7.85960E+01
 -1       128 8.40068E+01
 -1       129 8.41151E+01
 -1       130 8.41296E+01
 -1       131 8.41296E+01
 -1       132 8.41218E+01
 -1       133 8.41218E+01
 -1       134 8.41175E+01
 -1       135 8.41223E+01
 -1       136 8.41223E+01
 -1       137 8.41202E+01
 -1       138 8.41202E+01
 -1       139 8.41117E+01
 -1       140 8.41223E+01
 -1       141 8.41223E+01
 -1       142 8.41304E+01
 -1       143 8.41304E+01
 -1       144 8.41318E+01
 -1       145 8.41318E+01
 -1       146 8.41301E+01
 -1       147 8.41301E+01
 -1       148 8.41105E+01
 -1       149 8.41285E+01
 -1       150 8.41285E+01
 -1       151 8.41321E+01
 -1       152 8.41321E+01
 -1       153 8.41420E+01
 -1       154 8.41420E+01
 -1       155 8.41196E+01
 -1       156 8.41196E+01
 -1       157 8.41167E+01
 -1       158 8.41308E+01
 -1       159 8.41308E+01
 -1       160 8.41417E+01
 -1       161 8.41417E+01
 -1       162 8.41297E+01
 -1       163 8.41297E+01
 -1       164 8.41164E+01
 -1       165 8.41177E+01
 -1       166 8.41177E+01
 -1       167 8.41406E+01
 -1       168 8.41406E+01
 -1       169 8.41300E+01
 -1       170 8.41300E+01
 -1       171 8.41252E+01
 -1       172 8.41252E+01
 -1       173 8.41149E+01
 -1       174 8.41149E+01
 -1       175 8.40986E+01
 -1       176 8.41012E+01
 -1       177 8.41012E+01
 -1       178 8.40905E+01
 -1       179 8.40905E+01
 -1       180 8.40273E+01
 -1       181 8.39798E+01
 -1       182 8.53715E+01
 -1       183 8.53715E+01
 -1       184 8.39972E+01
 -1       185 8.40658E+01
 -1       186 8.40658E+01
 -1       187 8.40973E+01
 -1       188 8.40973E+01
 -1       189 8.41107E+01
 -1       190 8.41107E+01
 -1       191 8.41208E+01
 -1       192 8.41208E+01
 -1       193 8.41142E+01
 -1       194 8.41142E+01
 -1       195 8.41049E+01
 -1       196 8.41163E+01
 -1       197 8.41163E+01
 -1       198 8.41261E+01
 -1       199 8.41261E+01
 -1       200 8.41277E+01
 -1       201 8.41277E+01
 -1       202 8.41271E+01
 -1       203 8.41271E+01
 -1       204 8.41068E+01
 -1       205 8.41256E+01
 -1       206 8.41256E+01
 -1       207 8.41293E+01
 -1       208 8.41293E+01
 -1       209 8.41385E+01
 -1       210 8.41385E+01
 -1       211 8.41162E+01
 -1       212 8.41162E+01
 -1       213 8.41109E+01
 -1       214 8.41235E+01
 -1       215 8.41235E+01
 -1       216 8.41327E+01
 -1       217 8.41327E+01
 -1       218 8.41173E+01
 -1       219 8.41173E+01
 -1       220 8.40942E+01
 -1       221 8.40942E+01
 -1       222 8.40785E+01
 -1       223 8.40321E+01
 -1       224 8.40306E+01
 -1       225 8.37858E+01
 -1       226 8.05661E+01
 -1       227 8.39231E+01
 -1       228 8.40212E+01
 -1       229 8.40974E+01
 -1       230 8.41005E+01
 -1       231 8.41005E+01
 -1       232 8.41268E+01
 -1       233 8.41268E+01
 -1       234 8.41370E+01
 -1       235 8.41370E+01
 -1       236 8.41754E+01
 -1       237 8.41754E+01
 -1       238 8.44263E+01
 -1       239 8.44263E+01
 -1       240 8.71574E+01
 -1       241 8.71574E+01
 -1       242 7.41239E+01
 -1       243 5.52902E-01
 -1       244 2.11713E+00
 -1       245 4.33470E+00
 -1       246 1.51788E+01
 -1       247 5.67170E+01
 -1       248 7.85978E+01
 -1       249 8.40170E+01
 -1       250 8.41254E+01
 -1       251 8.41399E+01
 -1       252 8.41399E+01
 -1       253 8.41321E+01
 -1       254 8.41321E+01
 -1       255 8.41279E+01
 -1       256 8.41326E+01
 -1       257 8.41326E+01
 -1       258 8.41306E+01
 -1       259 8.41306E+01
 -1       260 8.41220E+01
 -1       261 8.41326E+01
 -1       262 8.41326E+01
 -1       263 8.41407E+01
 -1       264 8.41407E+01
 -1       265 8.41422E+01
 -1       266 8.41422E+01
 -1       267 8.41404E+01
 -1       268 8.41404E+01
 -1       269 8.41208E+01
 -1       270 8.41389E+01
 -1       271 8.41389E+01
 -1       272 8.41425E+01
 -1       273 8.41425E+01
 -1       274 8.41523E+01
 -1       275 8.41523E+01
 -1       276 8.41300E+01
 -1       277 8.41300E+01
 -1       278 8.41271E+01
 -1       279 8.41412E+01
 -1       280 8.41412E+01
 -1       281 8.41520E+01
 -1       282 8.41520E+01
 -1       283 8.41401E+01
 -1       284 8.41401E+01
 -1       285 8.41268E+01
 -1       286 8.41281E+01
 -1       287 8.41281E+01
 -1       288 8.41510E+01
 -1       289 8.41510E+01
 -1       290 8.41404E+01
 -1       291 8.41404E+01
 -1       292 8.41356E+01
 -1       293 8.41356E+01
 -1       294 8.41253E+01
 -1       295 8.41253E+01
 -1       296 8.41089E+01
 -1       297 8.41116E+01
 -1       298 8.41116E+01
 -1       299 8.41009E+01
 -1       300 8.41009E+01
 -1       301 8.40377E+01
 -1       302 8.39901E+01
 -1       303 8.53774E+01
 -1       304 8.53774E+01
 -1       305 8.40076E+01
 -1       306 8.40761E+01
 -1       307 8.40761E+01
 -1       308 8.41077E+01
 -1       309 8.41077E+01
 -1       310 8.41211E+01
 -1       311 8.41211E+01
 -1       312 8.41312E+01
 -1       313 8.41312E+01
 -1       314 8.41245E+01
 -1       315 8.41245E+01
 -1       316 8.41153E+01
 -1       317 8.41267E+01
 -1       318 8.41267E+01
 -1       319 8.41364E+01
 -1       320 8.41364E+01
 -1       321 8.41380E+01
 -1       322 8.41380E+01
 -1       323 8.41375E+01
 -1       324 8.41375E+01
 -1       325 8.41171E+01
 -1       326 8.41359E+01
 -1       327 8.41359E+01
 -1       328 8.41396E+01
 -1       329 8.41396E+01
 -1       330 8.41489E+01
 -1       331 8.41489E+01
 -1       332 8.41266E+01
 -1       333 8.41266E+01
 -1       334 8.41213E+01
 -1       335 8.41339E+01
 -1       336 8.41339E+01
 -1       337 8.41431E+01
 -1       338 8.41431E+01
 -1       339 8.41276E+01
 -1       340 8.41276E+01
 -1       341 8.41045E+01
 -1       342 8.41045E+01
 -1       343 8.40888E+01
 -1       344 8.40424E+01
 -1       345 8.40409E+01
 -1       346 8.37961E+01
 -1       347 8.05733E+01
 -1       348 8.39334E+01
 -1       349 8.40314E+01
 -1       350 8.41078E+01
 -1       351 8.41108E+01
 -1       352 8.41108E+01
 -1       353 8.41371E+01
 -1       354 8.41371E+01
 -1       355 8.41473E+01
 -1       356 8.41473E+01
 -1       357 8.41857E+01
 -1       358 8.41857E+01
 -1       359 8.44366E+01
 -1       360 8.44366E+01
 -1       361 8.71678E+01
 -1       362 8.71678E+01
 -1       363 7.41338E+01
 -1       364 5.52902E-01
 -1       365 2.11713E+00
 -1       366 4.33470E+00
 -1       367 1.51788E+01
 -1       368 5.67170E+01
 -1       369 7.85978E+01
 -1       370 8.40170E+01
 -1       371 8.41254E+01
 -1       372 8.41399E+01
 -1       373 8.41399E+01
 -1       374 8.41321E+01
 -1       375 8.41321E+01
 -1       376 8.41279E+01
 -1       377 8.41326E+01
 -1       378 8.41326E+01
 -1       379 8.41306E+01
 -1       380 8.41306E+01
 -1       381 8.41220E+01
 -1       382 8.41326E+01
 -1       383 8.41326E+01
 -1       384 8.41407E+01
 -1       385 8.41407E+01
 -1       386 8.41422E+01
 -1       387 8.41422E+01
 -1       388 8.41404E+01
 -1       389 8.41404E+01
 -1       390 8.41208E+01
 -1       391 8.41389E+01
 -1       392 8.41389E+01
 -1       393 8.41425E+01
 -1       394 8.41425E+01
 -1       395 8.41523E+01
 -1       396 8.41523E+01
 -1       397 8.41300E+01
 -1       398 8.41300E+01
 -1       399 8.41271E+01
 -1       400 8.41412E+01
 -1       401 8.41412E+01
 -1       402 8.41520E+01
 -1       403 8.41520E+01
 -1       404 8.41401E+01
 -1       405 8.41401E+01
 -1       406 8.41268E+01
 -1       407 8.41281E+01
 -1       408 8.41281E+01
 -1       409 8.41510E+01
 -1       410 8.41510E+01
 -1       411 8.41404E+01
 -1       412 8.41404E+01
 -1       413 8.41356E+01
 -1       414 8.41356E+01
 -1       415 8.41253E+01
 -1       416 8.41253E+01
 -1       417 8.41089E+01
 -1       418 8.41116E+01
 -1       419 8.41116E+01
 -1       420 8.41009E+01
 -1       421 8.41009E+01
 -1       422 8.40377E+01
 -1       423 8.39901E+01
 -1       424 8.53774E+01
 -1       425 8.53774E+01
 -1       426 8.40076E+01
 -1       427 8.40761E+01
 -1       428 8.40761E+01
 -1       429 8.41077E+01
 -1       430 8.41077E+01
 -1       431 8.41211E+01
 -1       432 8.41211E+01
 -1       433 8.41312E+01
 -1       434 8.41312E+01
 -1       435 8.41245E+01
 -1       436 8.41245E+01
 -1       437 8.41153E+01
 -1       438 8.41267E+01
 -1       439 8.41267E+01
 -1       440 8.41364E+01
 -1       441 8.41364E+01
 -1       442 8.41380E+01
 -1       443 8.41380E+01
 -1       444 8.41375E+01
 -1       445 8.41375E+01
 -1       446 8.41171E+01
 -1       447 8.41359E+01
 -1       448 8.41359E+01
 -1       449 8.41396E+01
 -1       450 8.41396E+01
 -1       451 8.41489E+01
 -1       452 8.41489E+01
 -1       453 8.41266E+01
 -1       454 8.41266E+01
 -1       455 8.41213E+01
 -1       456 8.41339E+01
 -1       457 8.41339E+01
 -1       458 8.41431E+01
 -1       459 8.41431E+01
 -1       460 8.41276E+01
 -1       461 8.41276E+01
 -1       462 8.41045E+01
 -1       463 8.41045E+01
 -1       464 8.40888E+01
 -1       465 8.40424E+01
 -1       466 8.40409E+01
 -1       467 8.37961E+01
 -1       468 8.05733E+01
 -1       469 8.39334E+01
 -1       470 8.40314E+01
 -1       471 8.41078E+01
 -1       472 8.41108E+01
 -1       473 8.41108E+01
 -1       474 8.41371E+01
 -1       475 8.41371E+01
 -1       476 8.41473E+01
 -1       477 8.41473E+01
 -1       478 8.41857E+01
 -1       479 8.41857E+01
 -1       480 8.44366E+01
 -1       481 8.44366E+01
 -1       482 8.71678E+01
 -1       483 8.71678E+01
 -1       484 7.41338E+01
 -1       485 5.52883E-01
 -1       486 2.11712E+00
 -1       487 4.33470E+00
 -1       488 1.51788E+01
 -1       489 5.67170E+01
 -1       490 7.85978E+01
 -1       491 8.40170E+01
 -1       492 8.41254E+01
 -1       493 8.41399E+01
 -1       494 8.41399E+01
 -1       495 8.41321E+01
 -1       496 8.41321E+01
 -1       497 8.41279E+01
 -1       498 8.41326E+01
 -1       499 8.41326E+01
 -1       500 8.41306E+01
 -1       501 8.41306E+01
 -1       502 8.41220E+01
 -1       503 8.41326E+01
 -1       504 8.41326E+01
 -1       505 8.41407E+01
 -1       506 8.41407E+01
 -1       507 8.41422E+01
 -1       508 8.41422E+01
 -1       509 8.41404E+01
 -1       510 8.41404E+01
 -1       511 8.41208E+01
 -1       512 8.41389E+01
 -1       513 8.41389E+01
 -1       514 8.41425E+01
 -1       515 8.41425E+01
 -1       516 8.41523E+01
 -1       517 8.41523E+01
 -1       518 8.41300E+01
 -1       519 8.41300E+01
 -1       520 8.41271E+01
 -1       521 8.41412E+01
 -1       522 8.41412E+01
 -1       523 8.41520E+01
 -1       524 8.41520E+01
 -1       525 8.41401E+01
 -1       526 8.41401E+01
 -1       527 8.41268E+01
 -1       528 8.41281E+01
 -1       529 8.41281E+01
 -1       530 8.41510E+01
 -1       531 8.41510E+01
 -1       532 8.41404E+01
 -1       533 8.41404E+01
 -1       534 8.41356E+01
 -1       535 8.41356E+01
 -1       536 8.41253E+01
 -1       537 8.41253E+01
 -1       538 8.41089E+01
 -1       539 8.41116E+01
 -1       540 8.41116E+01
 -1       541 8.41009E+01
 -1       542 8.41009E+01
 -1       543 8.40377E+01
 -1       544 8.39901E+01
 -1       545 8.53774E+01
 -1       546 8.53774E+01
 -1       547 8.40076E+01
 -1       548 8.40761E+01
 -1       549 8.40761E+01
 -1       550 8.41077E+01
 -1       551 8.41077E+01
 -1       552 8.41211E+01
 -1       553 8.41211E+01
 -1       554 8.41312E+01
 -1       555 8.41312E+01
 -1       556 8.41245E+01
 -1       557 8.41245E+01
 -1       558 8.41153E+01
 -1       559 8.41267E+01
 -1       560 8.41267E+01
 -1       561 8.41364E+01
 -1       562 8.41364E+01
 -1       563 8.41380E+01
 -1       564 8.41380E+01
 -1       565 8.41375E+01
 -1       566 8.41375E+01
 -1       567 8.41171E+01
 -1       568 8.41359E+01
 -1       569 8.41359E+01
 -1       570 8.41396E+01
 -1       571 8.41396E+01
 -1       572 8.41489E+01
 -1       573 8.41489E+01
 -1       574 8.41266E+01
 -1       575 8.41266E+01
 -1       576 8.41213E+01
 -1       577 8.41339E+01
 -1       578 8.41339E+01
 -1       579 8.41431E+01
 -1       580 8.41431E+01
 -1       581 8.41276E+01
 -1       582 8.41276E+01
 -1       583 8.41045E+01
 -1       584 8.41045E+01
 -1       585 8.40888E+01
 -1       586 8.40424E+01
 -1       587 8.40409E+01
 -1       588 8.37961E+01
 -1       589 8.05733E+01
 -1       590 8.39334E+01
 -1       591 8.40314E+01
 -1       592 8.41078E+01
 -1       593 8.41108E+01
 -1       594 8.41108E+01
 -1       595 8.41371E+01
 -1       596 8.41371E+01
 -1       597 8.41473E+01
 -1       598 8.41473E+01
 -1       599 8.41857E+01
 -1       600 8.41857E+01
 -1       601 8.44366E+01
 -1       602 8.44366E+01
 -1       603 8.71678E+01
 -1       604 8.71678E+01
 -1       605 7.41338E+01
 -1       606 5.52883E-01
 -1       607 2.11712E+00
 -1       608 4.33470E+00
 -1       609 1.51788E+01
 -1       610 5.67170E+01
 -1       611 7.85978E+01
 -1       612 8.40170E+01
 -1       613 8.41254E+01
 -1       614 8.41399E+01
 -1       615 8.41399E+01
 -1       616 8.41321E+01
 -1       617 8.41321E+01
 -1       618 8.41279E+01
 -1       619 8.41326E+01
 -1       620 8.41326E+01
 -1       621 8.41306E+01
 -1       622 8.41306E+01
 -1       623 8.41220E+01
 -1       624 8.41326E+01
 -1       625 8.41326E+01
 -1       626 8.41407E+01
 -1       627 8.41407E+01
 -1       628 8.41422E+01
 -1       629 8.41422E+01
 -1       630 8.41404E+01
 -1       631 8.41404E+01
 -1       632 8.41208E+01
 -1       633 8.41389E+01
 -1       634 8.41389E+01
 -1       635 8.41425E+01
 -1       636 8.41425E+01
 -1       637 8.41523E+01
 -1       638 8.41523E+01
 -1       639 8.41300E+01
 -1       640 8.41300E+01
 -1       641 8.41271E+01
 -1       642 8.41412E+01
 -1       643 8.41412E+01
 -1       644 8.41520E+01
 -1       645 8.41520E+01
 -1       646 8.41401E+01
 -1       647 8.41401E+01
 -1       648 8.41268E+01
 -1       649 8.41281E+01
 -1       650 8.41281E+01
 -1       651 8.41510E+01
 -1       652 8.41510E+01
 -1       653 8.41404E+01
 -1       654 8.41404E+01
 -1       655 8.41356E+01
 -1       656 8.41356E+01
 -1       657 8.41253E+01
 -1       658 8.41253E+01
 -1       659 8.41089E+01
 -1       660 8.41116E+01
 -1       661 8.41116E+01
 -1       662 8.41009E+01
 -1       663 8.41009E+01
 -1       664 8.40377E+01
 -1       665 8.39901E+01
 -1       666 8.53774E+01
 -1       667 8.53774E+01
 -1       668 8.40076E+01
 -1       669 8.40761E+01
 -1       670 8.40761E+01
 -1       671 8.41077E+01
 -1       672 8.41077E+01
 -1       673 8.41211E+01
 -1       674 8.41211E+01
 -1       675 8.41312E+01
 -1       676 8.41312E+01
 -1       677 8.41245E+01
 -1       678 8.41245E+01
 -1       679 8.41153E+01
 -1       680 8.41267E+01
 -1       681 8.41267E+01
 -1       682 8.41364E+01
 -1       683 8.41364E+01
 -1       684 8.41380E+01
 -1       685 8.41380E+01
 -1       686 8.41375E+01
 -1       687 8.41375E+01
 -1       688 8.41171E+01
 -1       689 8.41359E+01
 -1       690 8.41359E+01
 -1       691 8.41396E+01
 -1       692 8.41396E+01
 -1       693 8.41489E+01
 -1       694 8.41489E+01
 -1       695 8.41266E+01
 -1       696 8.41266E+01
 -1       697 8.41213E+01
 -1       698 8.41339E+01
 -1       699 8.41339E+01
 -1       700 8.41431E+01
 -1       701 8.41431E+01
 -1       702 8.41276E+01
 -1       703 8.41276E+01
 -1       704 8.41045E+01
 -1       705 8.41045E+01
 -1       706 8.40888E+01
 -1       707 8.40424E+01
 -1       708 8.40409E+01
 -1       709 8.37961E+01
 -1       710 8.05733E+01
 -1       711 8.39334E+01
 -1       712 8.40314E+01
 -1       713 8.41078E+01
 -1       714 8.41108E+01
 -1       715 8.41108E+01
 -1       716 8.41371E+01
 -1       717 8.41371E+01
 -1       718 8.41473E+01
 -1       719 8.41473E+01
 -1       720 8.41857E+01
 -1       721 8.41857E+01
 -1       722 8.44366E+01
 -1       723 8.44366E+01
 -1       724 8.71678E+01
 -1       725 8.71678E+01
 -1       726 7.41338E+01
 -1       727 5.52902E-01
 -3
    1PSTEP                        13           1           1          
    1PGM                1.000000E+00                                  
    1PGK                8.115021E+06                                  
    1PHID                         -1                                  
    1PSUBC                         0                                  
    1PMODE                         4                                  
  100CL  104 453.3827060         726                     2    4MODAL      1
 -4  DISP        4    1
 -5  D1          1    2    1    0
 -5  D2          1    2    2    0
 -5  D3          1    2    3    0
 -5  ALL         1    2    0    0    1ALL
 -1         2-7.86449E-01-9.08579E+01 0.00000E+00
 -1         3-7.85764E-01-8.16864E+01 0.00000E+00
 -1         4-7.83983E-01-7.25292E+01 0.00000E+00
 -1         5-7.80638E-01-6.34019E+01 0.00000E+00
 -1         6-7.75318E-01-5.43251E+01 0.00000E+00
 -1         7-7.67662E-01-4.53239E+01 0.00000E+00
 -1         8-7.57376E-01-3.64274E+01 0.00000E+00
 -1         9-7.44202E-01-2.76676E+01 0.00000E+00
 -1        10-7.27951E-01-1.90795E+01 0.00000E+00
 -1        11-7.08485E-01-1.06999E+01 0.00000E+00
 -1        12-6.85706E-01-2.56663E+00 0.00000E+00
 -1        13-6.59580E-01 5.28133E+00 0.00000E+00
 -1        14-6.30111E-01 1.28050E+01 0.00000E+00
 -1        15-5.97352E-01 1.99656E+01 0.00000E+00
 -1        16-5.61414E-01 2.67255E+01 0.00000E+00
 -1        17-5.22422E-01 3.30482E+01 0.00000E+00
 -1        18-4.80569E-01 3.88994E+01 0.00000E+00
 -1        19-4.36070E-01 4.42468E+01 0.00000E+00
 -1        20-3.89170E-01 4.90610E+01 0.00000E+00
 -1        21-3.40173E-01 5.33158E+01 0.00000E+00
 -1        22-2.89354E-01 5.69882E+01 0.00000E+00
 -1        23-2.37091E-01 6.00594E+01 0.00000E+00
 -1        24-1.83692E-01 6.25141E+01 0.00000E+00
 -1        25-1.29580E-01 6.43416E+01 0.00000E+00
 -1        26-7.50842E-02 6.55355E+01 0.00000E+00
 -1        27-2.06401E-02 6.60939E+01 0.00000E+00
 -1        28 3.33603E-02 6.60196E+01 0.00000E+00
 -1        29 8.65418E-02 6.53201E+01 0.00000E+00
 -1        30 1.38466E-01 6.40074E+01 0.00000E+00
 -1        31 1.88786E-01 6.20983E+01 0.00000E+00
 -1        32 2.37069E-01 5.96139E+01 0.00000E+00
 -1        33 2.83005E-01 5.65798E+01 0.00000E+00
 -1        34 3.26181E-01 5.30259E+01 0.00000E+00
 -1        35 3.66310E-01 4.89860E+01 0.00000E+00
 -1        36 4.03064E-01 4.44976E+01 0.00000E+00
 -1        37 4.36154E-01 3.96017E+01 0.00000E+00
 -1        38 4.65345E-01 3.43426E+01 0.00000E+00
 -1        39 4.90388E-01 2.87670E+01 0.00000E+00
 -1        40 5.11118E-01 2.29243E+01 0.00000E+00
 -1        41 5.27353E-01 1.68660E+01 0.00000E+00
 -1        42 5.38992E-01 1.06452E+01 0.00000E+00
 -1        43 5.45938E-01 4.31590E+00 0.00000E+00
 -1        44 5.48156E-01-2.06685E+00 0.00000E+00
 -1        45 5.45631E-01-8.44779E+00 0.00000E+00
 -1        46 5.38403E-01-1.47718E+01 0.00000E+00
 -1        47 5.26530E-01-2.09845E+01 0.00000E+00
 -1        48 5.10138E-01-2.70323E+01 0.00000E+00
 -1        49 4.89353E-01-3.28631E+01 0.00000E+00
 -1        50 4.64377E-01-3.84270E+01 0.00000E+00
 -1        51 4.35404E-01-4.36762E+01 0.00000E+00
 -1        52 4.02706E-01-4.85655E+01 0.00000E+00
 -1        53 3.66542E-01-5.30532E+01 0.00000E+00
 -1        54 3.27233E-01-5.71006E+01 0.00000E+00
 -1        55 2.85109E-01-6.06729E+01 0.00000E+00
 -1        56 2.40522E-01-6.37393E+01 0.00000E+00
 -1        57 1.93868E-01-6.62735E+01 0.00000E+00
 -1        58 1.45509E-01-6.82533E+01 0.00000E+00
 -1        59 9.58896E-02-6.96616E+01 0.00000E+00
 -1        60 4.53953E-02-7.04858E+01 0.00000E+00
 -1        61-5.52687E-03-7.07184E+01 0.00000E+00
 -1        62-5.64641E-02-7.03568E+01 0.00000E+00
 -1        63-1.06969E-01-6.94034E+01 0.00000E+00
 -1        64-1.56640E-01-6.78655E+01 0.00000E+00
 -1        65-2.05052E-01-6.57555E+01 0.00000E+00
 -1        66-2.51788E-01-6.30904E+01 0.00000E+00
 -1        67-2.96481E-01-5.98919E+01 0.00000E+00
 -1        68-3.38738E-01-5.61861E+01 0.00000E+00
 -1        69-3.78221E-01-5.20035E+01 0.00000E+00
 -1        70-4.14584E-01-4.73784E+01 0.00000E+00
 -1        71-4.47552E-01-4.23489E+01 0.00000E+00
 -1        72-4.76825E-01-3.69563E+01 0.00000E+00
 -1        73-5.02185E-01-3.12449E+01 0.00000E+00
 -1        74-5.23412E-01-2.52618E+01 0.00000E+00
 -1        75-5.40340E-01-1.90560E+01 0.00000E+00
 -1        76-5.52834E-01-1.26786E+01 0.00000E+00
 -1        77-5.60796E-01-6.18194E+00 0.00000E+00
 -1        78-5.64171E-01 3.80883E-01 0.00000E+00
 -1        79-5.62940E-01 6.95622E+00 0.00000E+00
 -1        80-5.57125E-01 1.34905E+01 0.00000E+00
 -1        81-5.46792E-01 1.99305E+01 0.00000E+00
 -1        82-5.32034E-01 2.62242E+01 0.00000E+00
 -1        83-5.12998E-01 3.23207E+01 0.00000E+00
 -1        84-4.89864E-01 3.81712E+01 0.00000E+00
 -1        85-4.62832E-01 4.37290E+01 0.00000E+00
 -1        86-4.32171E-01 4.89503E+01 0.00000E+00
 -1        87-3.98136E-01 5.37941E+01 0.00000E+00
 -1        88-3.61073E-01 5.82232E+01 0.00000E+00
 -1        89-3.21275E-01 6.22039E+01 0.00000E+00
 -1        90-2.79160E-01 6.57067E+01 0.00000E+00
 -1        91-2.35073E-01 6.87066E+01 0.00000E+00
 -1        92-1.89439E-01 7.11831E+01 0.00000E+00
 -1        93-1.42694E-01 7.31206E+01 0.00000E+00
 -1        94-9.52420E-02 7.45086E+01 0.00000E+00
 -1        95-4.75769E-02 7.53418E+01 0.00000E+00
 -1        96-9.48340E-05 7.56198E+01 0.00000E+00
 -1        97 4.66818E-02 7.53480E+01 0.00000E+00
 -1        98 9.23529E-02 7.45368E+01 0.00000E+00
 -1        99 1.36420E-01 7.32022E+01 0.00000E+00
 -1       100 1.78466E-01 7.13651E+01 0.00000E+00
 -1       101 2.18040E-01 6.90519E+01 0.00000E+00
 -1       102 2.54704E-01 6.62939E+01 0.00000E+00
 -1       103 2.88083E-01 6.31272E+01 0.00000E+00
 -1       104 3.17740E-01 5.95929E+01 0.00000E+00
 -1       105 3.43341E-01 5.57361E+01 0.00000E+00
 -1       106 3.64509E-01 5.16066E+01 0.00000E+00
 -1       107 3.80939E-01 4.72576E+01 0.00000E+00
 -1       108 3.92316E-01 4.27464E+01 0.00000E+00
 -1       109 3.98378E-01 3.81335E+01 0.00000E+00
 -1       110 3.98871E-01 3.34823E+01 0.00000E+00
 -1       111 3.93586E-01 2.88590E+01 0.00000E+00
 -1       112 3.82325E-01 2.43323E+01 0.00000E+00
 -1       113 3.64940E-01 1.99726E+01 0.00000E+00
 -1       114 3.41275E-01 1.58525E+01 0.00000E+00
 -1       115 3.11258E-01 1.20454E+01 0.00000E+00
 -1       116 2.74735E-01 8.62649E+00 0.00000E+00
 -1       117 2.31788E-01 5.67117E+00 0.00000E+00
 -1       118 1.82006E-01 3.25683E+00 0.00000E+00
 -1       119 1.26504E-01 1.45649E+00 0.00000E+00
 -1       120 6.14012E-02 3.60285E-01 0.00000E+00
 -1       121 0.00000E+00 0.00000E+00 0.00000E+00
 -1       122-7.86562E-01-1.00034E+02 0.00000E+00
 -1       123-7.86449E-01-9.08579E+01 0.00000E+00
 -1       124-7.85764E-01-8.16864E+01 0.00000E+00
 -1       125-7.83983E-01-7.25292E+01 0.00000E+00
 -1       126-7.80638E-01-6.34019E+01 0.00000E+00
 -1       127-7.75318E-01-5.43251E+01 0.00000E+00
 -1       128-7.67662E-01-4.53239E+01 0.00000E+00
 -1       129-7.57376E-01-3.64274E+01 0.00000E+00
 -1       130-7.44202E-01-2.76676E+01 0.00000E+00
 -1       131-7.27951E-01-1.90795E+01 0.00000E+00
 -1       132-7.08485E-01-1.06999E+01 0.00000E+00
 -1       133-6.85706E-01-2.56663E+00 0.00000E+00
 -1       134-6.59580E-01 5.28133E+00 0.00000E+00
 -1       135-6.30111E-01 1.28050E+01 0.00000E+00
 -1       136-5.97352E-01 1.99656E+01 0.00000E+00
 -1       137-5.61414E-01 2.67255E+01 0.00000E+00
 -1       138-5.22422E-01 3.30482E+01 0.00000E+00
 -1       139-4.80569E-01 3.88994E+01 0.00000E+00
 -1       140-4.36070E-01 4.42468E+01 0.00000E+00
 -1       141-3.89170E-01 4.90610E+01 0.00000E+00
 -1       142-3.40173E-01 5.33158E+01 0.00000E+00
 -1       143-2.89354E-01 5.69882E+01 0.00000E+00
 -1       144-2.37091E-01 6.00594E+01 0.00000E+00
 -1       145-1.83692E-01 6.25141E+01 0.00000E+00
 -1       146-1.29580E-01 6.43416E+01 0.00000E+00
 -1       147-7.50842E-02 6.55355E+01 0.00000E+00
 -1       148-2.06401E-02 6.60939E+01 0.00000E+00
 -1       149 3.33603E-02 6.60196E+01 0.00000E+00
 -1       150 8.65418E-02 6.53201E+01 0.00000E+00
 -1       151 1.38466E-01 6.40074E+01 0.00000E+00
 -1       152 1.88786E-01 6.20983E+01 0.00000E+00
 -1       153 2.37069E-01 5.96139E+01 0.00000E+00
 -1       154 2.83005E-01 5.65798E+01 0.00000E+00
 -1       155 3.26181E-01 5.30259E+01 0.00000E+00
 -1       156 3.66310E-01 4.89860E+01 0.00000E+00
 -1       157 4.03064E-01 4.44976E+01 0.00000E+00
 -1       158 4.36154E-01 3.96017E+01 0.00000E+00
 -1       159 4.65345E-01 3.43426E+01 0.00000E+00
 -1       160 4.90388E-01 2.87670E+01 0.00000E+00
 -1       161 5.11118E-01 2.29243E+01 0.00000E+00
 -1       162 5.27353E-01 1.68660E+01 0.00000E+00
 -1       163 5.38992E-01 1.06452E+01 0.00000E+00
 -1       164 5.45938E-01 4.31590E+00 0.00000E+00
 -1       165 5.48156E-01-2.06685E+00 0.00000E+00
 -1       166 5.45631E-01-8.44779E+00 0.00000E+00
 -1       167 5.38403E-01-1.47718E+01 0.00000E+00
 -1       168 5.26530E-01-2.09845E+01 0.00000E+00
 -1       169 5.10138E-01-2.70323E+01 0.00000E+00
 -1       170 4.89353E-01-3.28631E+01 0.00000E+00
 -1       171 4.64377E-01-3.84270E+01 0.00000E+00
 -1       172 4.35404E-01-4.36762E+01 0.00000E+00
 -1       173 4.02706E-01-4.85655E+01 0.00000E+00
 -1       174 3.66542E-01-5.30532E+01 0.00000E+00
 -1       175 3.27233E-01-5.71006E+01 0.00000E+00
 -1       176 2.85109E-01-6.06729E+01 0.00000E+00
 -1       177 2.40522E-01-6.37393E+01 0.00000E+00
 -1       178 1.93868E-01-6.62735E+01 0.00000E+00
 -1       179 1.45509E-01-6.82533E+01 0.00000E+00
 -1       180 9.58896E-02-6.96616E+01 0.00000E+00
 -1       181 4.53953E-02-7.04858E+01 0.00000E+00
 -1       182-5.52687E-03-7.07184E+01 0.00000E+00
 -1       183-5.64641E-02-7.03568E+01 0.00000E+00
 -1       184-1.06969E-01-6.94034E+01 0.00000E+00
 -1       185-1.56640E-01-6.78655E+01 0.00000E+00
 -1       186-2.05052E-01-6.57555E+01 0.00000E+00
 -1       187-2.51788E-01-6.30904E+01 0.00000E+00
 -1       188-2.96481E-01-5.98919E+01 0.00000E+00
 -1       189-3.38738E-01-5.61861E+01 0.00000E+00
 -1       190-3.78221E-01-5.20035E+01 0.00000E+00
 -1       191-4.14584E-01-4.73784E+01 0.00000E+00
 -1       192-4.47552E-01-4.23489E+01 0.00000E+00
 -1       193-4.76825E-01-3.69563E+01 0.00000E+00
 -1       194-5.02185E-01-3.12449E+01 0.00000E+00
 -1       195-5.23412E-01-2.52618E+01 0.00000E+00
 -1       196-5.40340E-01-1.90560E+01 0.00000E+00
 -1       197-5.52834E-01-1.26786E+01 0.00000E+00
 -1       198-5.60796E-01-6.18194E+00 0.00000E+00
 -1       199-5.64171E-01 3.80883E-01 0.00000E+00
 -1       200-5.62940E-01 6.95622E+00 0.00000E+00
 -1       201-5.57125E-01 1.34905E+01 0.00000E+00
 -1       202-5.46792E-01 1.99305E+01 0.00000E+00
 -1       203-5.32034E-01 2.62242E+01 0.00000E+00
 -1       204-5.12998E-01 3.23207E+01 0.00000E+00
 -1       205-4.89864E-01 3.81712E+01 0.00000E+00
 -1       206-4.62832E-01 4.37290E+01 0.00000E+00
 -1       207-4.32171E-01 4.89503E+01 0.00000E+00
 -1       208-3.98136E-01 5.37941E+01 0.00000E+00
 -1       209-3.61073E-01 5.82232E+01 0.00000E+00
 -1       210-3.21275E-01 6.22039E+01 0.00000E+00
 -1       211-2.79160E-01 6.57067E+01 0.00000E+00
 -1       212-2.35073E-01 6.87066E+01 0.00000E+00
 -1       213-1.89439E-01 7.11831E+01 0.00000E+00
 -1       214-1.42694E-01 7.31206E+01 0.00000E+00
 -1       215-9.52420E-02 7.45086E+01 0.00000E+00
 -1       216-4.75769E-02 7.53418E+01 0.00000E+00
 -1       217-9.48334E-05 7.56198E+01 0.00000E+00
 -1       218 4.66818E-02 7.53480E+01 0.00000E+00
 -1       219 9.23529E-02 7.45368E+01 0.00000E+00
 -1       220 1.36420E-01 7.32022E+01 0.00000E+00
 -1       221 1.78466E-01 7.13651E+01 0.00000E+00
 -1       222 2.18040E-01 6.90519E+01 0.00000E+00
 -1       223 2.54704E-01 6.62939E+01 0.00000E+00
 -1       224 2.88083E-01 6.31272E+01 0.00000E+00
 -1       225 3.17740E-01 5.95929E+01 0.00000E+00
 -1       226 3.43341E-01 5.57361E+01 0.00000E+00
 -1       227 3.64509E-01 5.16066E+01 0.00000E+00
 -1       228 3.80939E-01 4.72576E+01 0.00000E+00
 -1       229 3.92316E-01 4.27464E+01 0.00000E+00
 -1       230 3.98378E-01 3.81335E+01 0.00000E+00
 -1       231 3.98871E-01 3.34823E+01 0.00000E+00
 -1       232 3.93586E-01 2.88590E+01 0.00000E+00
 -1       233 3.82325E-01 2.43323E+01 0.00000E+00
 -1       234 3.64940E-01 1.99726E+01 0.00000E+00
 -1       235 3.41275E-01 1.58525E+01 0.00000E+00
 -1       236 3.11258E-01 1.20454E+01 0.00000E+00
 -1       237 2.74735E-01 8.62649E+00 0.00000E+00
 -1       238 2.31788E-01 5.67117E+00 0.00000E+00
 -1       239 1.82006E-01 3.25683E+00 0.00000E+00
 -1       240 1.26504E-01 1.45649E+00 0.00000E+00
 -1       241 6.14012E-02 3.60285E-01 0.00000E+00
 -1       242 0.00000E+00 0.00000E+00 0.00000E+00
 -1       243-3.14636E-05-1.00034E+02 0.00000E+00
 -1       244-3.14589E-05-9.08579E+01 0.00000E+00
 -1       245-3.14316E-05-8.16866E+01 0.00000E+00
 -1       246-3.13602E-05-7.25293E+01 0.00000E+00
 -1       247-3.12264E-05-6.34020E+01 0.00000E+00
 -1       248-3.10135E-05-5.43251E+01 0.00000E+00
 -1       249-3.07073E-05-4.53241E+01 0.00000E+00
 -1       250-3.02958E-05-3.64276E+01 0.00000E+00
 -1       251-2.97689E-05-2.76678E+01 0.00000E+00
 -1       252-2.91188E-05-1.90799E+01 0.00000E+00
 -1       253-2.83401E-05-1.07002E+01 0.00000E+00
 -1       254-2.74290E-05-2.56680E+00 0.00000E+00
 -1       255-2.63839E-05 5.28127E+00 0.00000E+00
 -1       256-2.52051E-05 1.28049E+01 0.00000E+00
 -1       257-2.38948E-05 1.99656E+01 0.00000E+00
 -1       258-2.24573E-05 2.67256E+01 0.00000E+00
 -1       259-2.08976E-05 3.30484E+01 0.00000E+00
 -1       260-1.92235E-05 3.88997E+01 0.00000E+00
 -1       261-1.74435E-05 4.42472E+01 0.00000E+00
 -1       262-1.55676E-05 4.90615E+01 0.00000E+00
 -1       263-1.36076E-05 5.33164E+01 0.00000E+00
 -1       264-1.15750E-05 5.69890E+01 0.00000E+00
 -1       265-9.48437E-06 6.00602E+01 0.00000E+00
 -1       266-7.34854E-06 6.25150E+01 0.00000E+00
 -1       267-5.18395E-06 6.43427E+01 0.00000E+00
 -1       268-3.00420E-06 6.55367E+01 0.00000E+00
 -1       269-8.26440E-07 6.60953E+01 0.00000E+00
 -1       270 1.33362E-06 6.60211E+01 0.00000E+00
 -1       271 3.46080E-06 6.53217E+01 0.00000E+00
 -1       272 5.53789E-06 6.40092E+01 0.00000E+00
 -1       273 7.55056E-06 6.21001E+01 0.00000E+00
 -1       274 9.48204E-06 5.96158E+01 0.00000E+00
 -1       275 1.13194E-05 5.65819E+01 0.00000E+00
 -1       276 1.30465E-05 5.30281E+01 0.00000E+00
 -1       277 1.46516E-05 4.89883E+01 0.00000E+00
 -1       278 1.61218E-05 4.45000E+01 0.00000E+00
 -1       279 1.74455E-05 3.96042E+01 0.00000E+00
 -1       280 1.86131E-05 3.43451E+01 0.00000E+00
 -1       281 1.96149E-05 2.87695E+01 0.00000E+00
 -1       282 2.04441E-05 2.29269E+01 0.00000E+00
 -1       283 2.10936E-05 1.68686E+01 0.00000E+00
 -1       284 2.15591E-05 1.06478E+01 0.00000E+00
 -1       285 2.18371E-05 4.31838E+00 0.00000E+00
 -1       286 2.19258E-05-2.06440E+00 0.00000E+00
 -1       287 2.18249E-05-8.44540E+00 0.00000E+00
 -1       288 2.15358E-05-1.47696E+01 0.00000E+00
 -1       289 2.10610E-05-2.09823E+01 0.00000E+00
 -1       290 2.04053E-05-2.70303E+01 0.00000E+00
 -1       291 1.95740E-05-3.28612E+01 0.00000E+00
 -1       292 1.85749E-05-3.84254E+01 0.00000E+00
 -1       293 1.74161E-05-4.36747E+01 0.00000E+00
 -1       294 1.61082E-05-4.85643E+01 0.00000E+00
 -1       295 1.46617E-05-5.30522E+01 0.00000E+00
 -1       296 1.30894E-05-5.70998E+01 0.00000E+00
 -1       297 1.14045E-05-6.06724E+01 0.00000E+00
 -1       298 9.62111E-06-6.37391E+01 0.00000E+00
 -1       299 7.75489E-06-6.62736E+01 0.00000E+00
 -1       300 5.82065E-06-6.82537E+01 0.00000E+00
 -1       301 3.83582E-06-6.96623E+01 0.00000E+00
 -1       302 1.81615E-06-7.04869E+01 0.00000E+00
 -1       303-2.20787E-07-7.07198E+01 0.00000E+00
 -1       304-2.25820E-06-7.03585E+01 0.00000E+00
 -1       305-4.27843E-06-6.94054E+01 0.00000E+00
 -1       306-6.26529E-06-6.78678E+01 0.00000E+00
 -1       307-8.20174E-06-6.57581E+01 0.00000E+00
 -1       308-1.00713E-05-6.30933E+01 0.00000E+00
 -1       309-1.18589E-05-5.98951E+01 0.00000E+00
 -1       310-1.35493E-05-5.61895E+01 0.00000E+00
 -1       311-1.51286E-05-5.20072E+01 0.00000E+00
 -1       312-1.65833E-05-4.73823E+01 0.00000E+00
 -1       313-1.79019E-05-4.23530E+01 0.00000E+00
 -1       314-1.90730E-05-3.69605E+01 0.00000E+00
 -1       315-2.00874E-05-3.12493E+01 0.00000E+00
 -1       316-2.09366E-05-2.52663E+01 0.00000E+00
 -1       317-2.16138E-05-1.90606E+01 0.00000E+00
 -1       318-2.21136E-05-1.26833E+01 0.00000E+00
 -1       319-2.24321E-05-6.18652E+00 0.00000E+00
 -1       320-2.25672E-05 3.76314E-01 0.00000E+00
 -1       321-2.25181E-05 6.95178E+00 0.00000E+00
 -1       322-2.22855E-05 1.34861E+01 0.00000E+00
 -1       323-2.18724E-05 1.99263E+01 0.00000E+00
 -1       324-2.12821E-05 2.62201E+01 0.00000E+00
 -1       325-2.05208E-05 3.23168E+01 0.00000E+00
 -1       326-1.95954E-05 3.81676E+01 0.00000E+00
 -1       327-1.85143E-05 4.37257E+01 0.00000E+00
 -1       328-1.72878E-05 4.89473E+01 0.00000E+00
 -1       329-1.59267E-05 5.37915E+01 0.00000E+00
 -1       330-1.44440E-05 5.82209E+01 0.00000E+00
 -1       331-1.28523E-05 6.22020E+01 0.00000E+00
 -1       332-1.11677E-05 6.57052E+01 0.00000E+00
 -1       333-9.40434E-06 6.87055E+01 0.00000E+00
 -1       334-7.57897E-06 7.11825E+01 0.00000E+00
 -1       335-5.70921E-06 7.31205E+01 0.00000E+00
 -1       336-3.81113E-06 7.45090E+01 0.00000E+00
 -1       337-1.90459E-06 7.53426E+01 0.00000E+00
 -1       338-5.24390E-09 7.56211E+01 0.00000E+00
 -1       339 1.86569E-06 7.53497E+01 0.00000E+00
 -1       340 3.69277E-06 7.45390E+01 0.00000E+00
 -1       341 5.45517E-06 7.32047E+01 0.00000E+00
 -1       342 7.13746E-06 7.13680E+01 0.00000E+00
 -1       343 8.71992E-06 6.90552E+01 0.00000E+00
 -1       344 1.01873E-05 6.62975E+01 0.00000E+00
 -1       345 1.15216E-05 6.31312E+01 0.00000E+00
 -1       346 1.27090E-05 5.95970E+01 0.00000E+00
 -1       347 1.37319E-05 5.57405E+01 0.00000E+00
 -1       348 1.45802E-05 5.16110E+01 0.00000E+00
 -1       349 1.52358E-05 4.72622E+01 0.00000E+00
 -1       350 1.56930E-05 4.27510E+01 0.00000E+00
 -1       351 1.59332E-05 3.81381E+01 0.00000E+00
 -1       352 1.59559E-05 3.34868E+01 0.00000E+00
 -1       353 1.57413E-05 2.88633E+01 0.00000E+00
 -1       354 1.52950E-05 2.43364E+01 0.00000E+00
 -1       355 1.45949E-05 1.99764E+01 0.00000E+00
 -1       356 1.36541E-05 1.58558E+01 0.00000E+00
 -1       357 1.24468E-05 1.20482E+01 0.00000E+00
 -1       358 1.09941E-05 8.62876E+00 0.00000E+00
 -1       359 9.26689E-06 5.67277E+00 0.00000E+00
 -1       360 7.28695E-06 3.25762E+00 0.00000E+00
 -1       361 5.05422E-06 1.45665E+00 0.00000E+00
 -1       362 2.46343E-06 3.58756E-01 0.00000E+00
 -1       363 0.00000E+00 0.00000E+00 0.00000E+00
 -1       364-3.14634E-05-1.00034E+02 0.00000E+00
 -1       365-3.14587E-05-9.08579E+01 0.00000E+00
 -1       366-3.14313E-05-8.16866E+01 0.00000E+00
 -1       367-3.13600E-05-7.25293E+01 0.00000E+00
 -1       368-3.12262E-05-6.34020E+01 0.00000E+00
 -1       369-3.10133E-05-5.43251E+01 0.00000E+00
 -1       370-3.07071E-05-4.53241E+01 0.00000E+00
 -1       371-3.02956E-05-3.64276E+01 0.00000E+00
 -1       372-2.97686E-05-2.76678E+01 0.00000E+00
 -1       373-2.91186E-05-1.90799E+01 0.00000E+00
 -1       374-2.83399E-05-1.07002E+01 0.00000E+00
 -1       375-2.74287E-05-2.56680E+00 0.00000E+00
 -1       376-2.63837E-05 5.28127E+00 0.00000E+00
 -1       377-2.52049E-05 1.28049E+01 0.00000E+00
 -1       378-2.38946E-05 1.99656E+01 0.00000E+00
 -1       379-2.24571E-05 2.67256E+01 0.00000E+00
 -1       380-2.08974E-05 3.30484E+01 0.00000E+00
 -1       381-1.92233E-05 3.88997E+01 0.00000E+00
 -1       382-1.74433E-05 4.42472E+01 0.00000E+00
 -1       383-1.55674E-05 4.90615E+01 0.00000E+00
 -1       384-1.36074E-05 5.33164E+01 0.00000E+00
 -1       385-1.15748E-05 5.69890E+01 0.00000E+00
 -1       386-9.48416E-06 6.00602E+01 0.00000E+00
 -1       387-7.34833E-06 6.25150E+01 0.00000E+00
 -1       388-5.18374E-06 6.43427E+01 0.00000E+00
 -1       389-3.00400E-06 6.55367E+01 0.00000E+00
 -1       390-8.26235E-07 6.60953E+01 0.00000E+00
 -1       391 1.33382E-06 6.60211E+01 0.00000E+00
 -1       392 3.46100E-06 6.53217E+01 0.00000E+00
 -1       393 5.53809E-06 6.40092E+01 0.00000E+00
 -1       394 7.55076E-06 6.21001E+01 0.00000E+00
 -1       395 9.48223E-06 5.96158E+01 0.00000E+00
 -1       396 1.13195E-05 5.65819E+01 0.00000E+00
 -1       397 1.30467E-05 5.30281E+01 0.00000E+00
 -1       398 1.46518E-05 4.89883E+01 0.00000E+00
 -1       399 1.61220E-05 4.45000E+01 0.00000E+00
 -1       400 1.74457E-05 3.96042E+01 0.00000E+00
 -1       401 1.86133E-05 3.43451E+01 0.00000E+00
 -1       402 1.96151E-05 2.87695E+01 0.00000E+00
 -1       403 2.04443E-05 2.29269E+01 0.00000E+00
 -1       404 2.10938E-05 1.68686E+01 0.00000E+00
 -1       405 2.15593E-05 1.06478E+01 0.00000E+00
 -1       406 2.18373E-05 4.31838E+00 0.00000E+00
 -1       407 2.19259E-05-2.06440E+00 0.00000E+00
 -1       408 2.18251E-05-8.44540E+00 0.00000E+00
 -1       409 2.15359E-05-1.47696E+01 0.00000E+00
 -1       410 2.10612E-05-2.09823E+01 0.00000E+00
 -1       411 2.04054E-05-2.70303E+01 0.00000E+00
 -1       412 1.95742E-05-3.28612E+01 0.00000E+00
 -1       413 1.85751E-05-3.84254E+01 0.00000E+00
 -1       414 1.74163E-05-4.36747E+01 0.00000E+00
 -1       415 1.61084E-05-4.85643E+01 0.00000E+00
 -1       416 1.46619E-05-5.30522E+01 0.00000E+00
 -1       417 1.30896E-05-5.70998E+01 0.00000E+00
 -1       418 1.14047E-05-6.06724E+01 0.00000E+00
 -1       419 9.62127E-06-6.37391E+01 0.00000E+00
 -1       420 7.75505E-06-6.62736E+01 0.00000E+00
 -1       421 5.82081E-06-6.82537E+01 0.00000E+00
 -1       422 3.83597E-06-6.96623E+01 0.00000E+00
 -1       423 1.81630E-06-7.04869E+01 0.00000E+00
 -1       424-2.20634E-07-7.07198E+01 0.00000E+00
 -1       425-2.25805E-06-7.03585E+01 0.00000E+00
 -1       426-4.27828E-06-6.94054E+01 0.00000E+00
 -1       427-6.26514E-06-6.78678E+01 0.00000E+00
 -1       428-8.20159E-06-6.57581E+01 0.00000E+00
 -1       429-1.00711E-05-6.30933E+01 0.00000E+00
 -1       430-1.18588E-05-5.98951E+01 0.00000E+00
 -1       431-1.35492E-05-5.61895E+01 0.00000E+00
 -1       432-1.51284E-05-5.20072E+01 0.00000E+00
 -1       433-1.65831E-05-4.73823E+01 0.00000E+00
 -1       434-1.79018E-05-4.23530E+01 0.00000E+00
 -1       435-1.90729E-05-3.69605E+01 0.00000E+00
 -1       436-2.00873E-05-3.12493E+01 0.00000E+00
 -1       437-2.09365E-05-2.52663E+01 0.00000E+00
 -1       438-2.16136E-05-1.90606E+01 0.00000E+00
 -1       439-2.21135E-05-1.26833E+01 0.00000E+00
 -1       440-2.24320E-05-6.18652E+00 0.00000E+00
 -1       441-2.25671E-05 3.76314E-01 0.00000E+00
 -1       442-2.25180E-05 6.95178E+00 0.00000E+00
 -1       443-2.22854E-05 1.34861E+01 0.00000E+00
 -1       444-2.18723E-05 1.99263E+01 0.00000E+00
 -1       445-2.12820E-05 2.62201E+01 0.00000E+00
 -1       446-2.05207E-05 3.23168E+01 0.00000E+00
 -1       447-1.95953E-05 3.81676E+01 0.00000E+00
 -1       448-1.85142E-05 4.37257E+01 0.00000E+00
 -1       449-1.72878E-05 4.89473E+01 0.00000E+00
 -1       450-1.59266E-05 5.37915E+01 0.00000E+00
 -1       451-1.44440E-05 5.82209E+01 0.00000E+00
 -1       452-1.28523E-05 6.22020E+01 0.00000E+00
 -1       453-1.11676E-05 6.57052E+01 0.00000E+00
 -1       454-9.40428E-06 6.87055E+01 0.00000E+00
 -1       455-7.57890E-06 7.11825E+01 0.00000E+00
 -1       456-5.70915E-06 7.31205E+01 0.00000E+00
 -1       457-3.81107E-06 7.45090E+01 0.00000E+00
 -1       458-1.90453E-06 7.53426E+01 0.00000E+00
 -1       459-5.18656E-09 7.56211E+01 0.00000E+00
 -1       460 1.86575E-06 7.53497E+01 0.00000E+00
 -1       461 3.69282E-06 7.45390E+01 0.00000E+00
 -1       462 5.45523E-06 7.32047E+01 0.00000E+00
 -1       463 7.13751E-06 7.13680E+01 0.00000E+00
 -1       464 8.71997E-06 6.90552E+01 0.00000E+00
 -1       465 1.01873E-05 6.62975E+01 0.00000E+00
 -1       466 1.15216E-05 6.31312E+01 0.00000E+00
 -1       467 1.27090E-05 5.95970E+01 0.00000E+00
 -1       468 1.37319E-05 5.57405E+01 0.00000E+00
 -1       469 1.45802E-05 5.16110E+01 0.00000E+00
 -1       470 1.52358E-05 4.72622E+01 0.00000E+00
 -1       471 1.56930E-05 4.27510E+01 0.00000E+00
 -1       472 1.59332E-05 3.81381E+01 0.00000E+00
 -1       473 1.59559E-05 3.34868E+01 0.00000E+00
 -1       474 1.57413E-05 2.88633E+01 0.00000E+00
 -1       475 1.52950E-05 2.43364E+01 0.00000E+00
 -1       476 1.45949E-05 1.99764E+01 0.00000E+00
 -1       477 1.36542E-05 1.58558E+01 0.00000E+00
 -1       478 1.24469E-05 1.20482E+01 0.00000E+00
 -1       479 1.09941E-05 8.62876E+00 0.00000E+00
 -1       480 9.26690E-06 5.67277E+00 0.00000E+00
 -1       481 7.28696E-06 3.25762E+00 0.00000E+00
 -1       482 5.05422E-06 1.45665E+00 0.00000E+00
 -1       483 2.46343E-06 3.58756E-01 0.00000E+00
 -1       484 0.00000E+00 0.00000E+00 0.00000E+00
 -1       485 7.86562E-01-1.00034E+02 0.00000E+00
 -1       486 7.86449E-01-9.08579E+01 0.00000E+00
 -1       487 7.85764E-01-8.16864E+01 0.00000E+00
 -1       488 7.83983E-01-7.25292E+01 0.00000E+00
 -1       489 7.80638E-01-6.34019E+01 0.00000E+00
 -1       490 7.75318E-01-5.43251E+01 0.00000E+00
 -1       491 7.67662E-01-4.53239E+01 0.00000E+00
 -1       492 7.57376E-01-3.64274E+01 0.00000E+00
 -1       493 7.44202E-01-2.76676E+01 0.00000E+00
 -1       494 7.27951E-01-1.90795E+01 0.00000E+00
 -1       495 7.08485E-01-1.06999E+01 0.00000E+00
 -1       496 6.85706E-01-2.56663E+00 0.00000E+00
 -1       497 6.59580E-01 5.28133E+00 0.00000E+00
 -1       498 6.30111E-01 1.28050E+01 0.00000E+00
 -1       499 5.97352E-01 1.99656E+01 0.00000E+00
 -1       500 5.61414E-01 2.67255E+01 0.00000E+00
 -1       501 5.22422E-01 3.30482E+01 0.00000E+00
 -1       502 4.80569E-01 3.88994E+01 0.00000E+00
 -1       503 4.36070E-01 4.42468E+01 0.00000E+00
 -1       504 3.89170E-01 4.90610E+01 0.00000E+00
 -1       505 3.40173E-01 5.33158E+01 0.00000E+00
 -1       506 2.89354E-01 5.69882E+01 0.00000E+00
 -1       507 2.37091E-01 6.00594E+01 0.00000E+00
 -1       508 1.83692E-01 6.25141E+01 0.00000E+00
 -1       509 1.29580E-01 6.43416E+01 0.00000E+00
 -1       510 7.50842E-02 6.55355E+01 0.00000E+00
 -1       511 2.06401E-02 6.60939E+01 0.00000E+00
 -1       512-3.33603E-02 6.60196E+01 0.00000E+00
 -1       513-8.65418E-02 6.53201E+01 0.00000E+00
 -1       514-1.38466E-01 6.40074E+01 0.00000E+00
 -1       515-1.88786E-01 6.20983E+01 0.00000E+00
 -1       516-2.37069E-01 5.96139E+01 0.00000E+00
 -1       517-2.83005E-01 5.65798E+01 0.00000E+00
 -1       518-3.26181E-01 5.30259E+01 0.00000E+00
 -1       519-3.66310E-01 4.89860E+01 0.00000E+00
 -1       520-4.03064E-01 4.44976E+01 0.00000E+00
 -1       521-4.36154E-01 3.96017E+01 0.00000E+00
 -1       522-4.65345E-01 3.43426E+01 0.00000E+00
 -1       523-4.90388E-01 2.87670E+01 0.00000E+00
 -1       524-5.11118E-01 2.29243E+01 0.00000E+00
 -1       525-5.27353E-01 1.68660E+01 0.00000E+00
 -1       526-5.38992E-01 1.06452E+01 0.00000E+00
 -1       527-5.45938E-01 4.31590E+00 0.00000E+00
 -1       528-5.48156E-01-2.06685E+00 0.00000E+00
 -1       529-5.45631E-01-8.44779E+00 0.00000E+00
 -1       530-5.38403E-01-1.47718E+01 0.00000E+00
 -1       531-5.26530E-01-2.09845E+01 0.00000E+00
 -1       532-5.10138E-01-2.70323E+01 0.00000E+00
 -1       533-4.89353E-01-3.28631E+01 0.00000E+00
 -1       534-4.64377E-01-3.84270E+01 0.00000E+00
 -1       535-4.35404E-01-4.36762E+01 0.00000E+00
 -1       536-4.02706E-01-4.85655E+01 0.00000E+00
 -1       537-3.66542E-01-5.30532E+01 0.00000E+00
 -1       538-3.27233E-01-5.71006E+01 0.00000E+00
 -1       539-2.85109E-01-6.06729E+01 0.00000E+00
 -1       540-2.40522E-01-6.37393E+01 0.00000E+00
 -1       541-1.93868E-01-6.62735E+01 0.00000E+00
 -1       542-1.45509E-01-6.82533E+01 0.00000E+00
 -1       543-9.58896E-02-6.96616E+01 0.00000E+00
 -1       544-4.53953E-02-7.04858E+01 0.00000E+00
 -1       545 5.52687E-03-7.07184E+01 0.00000E+00
 -1       546 5.64641E-02-7.03568E+01 0.00000E+00
 -1       547 1.06969E-01-6.94034E+01 0.00000E+00
 -1       548 1.56640E-01-6.78655E+01 0.00000E+00
 -1       549 2.05052E-01-6.57555E+01 0.00000E+00
 -1       550 2.51788E-01-6.30904E+01 0.00000E+00
 -1       551 2.96481E-01-5.98919E+01 0.00000E+00
 -1       552 3.38738E-01-5.61861E+01 0.00000E+00
 -1       553 3.78221E-01-5.20035E+01 0.00000E+00
 -1       554 4.14584E-01-4.73784E+01 0.00000E+00
 -1       555 4.47552E-01-4.23489E+01 0.00000E+00
 -1       556 4.76825E-01-3.69563E+01 0.00000E+00
 -1       557 5.02185E-01-3.12449E+01 0.00000E+00
 -1       558 5.23412E-01-2.52618E+01 0.00000E+00
 -1       559 5.40340E-01-1.90560E+01 0.00000E+00
 -1       560 5.52834E-01-1.26786E+01 0.00000E+00
 -1       561 5.60796E-01-6.18194E+00 0.00000E+00
 -1       562 5.64171E-01 3.80883E-01 0.00000E+00
 -1       563 5.62940E-01 6.95622E+00 0.00000E+00
 -1       564 5.57125E-01 1.34905E+01 0.00000E+00
 -1       565 5.46792E-01 1.99305E+01 0.00000E+00
 -1       566 5.32034E-01 2.62242E+01 0.00000E+00
 -1       567 5.12998E-01 3.23207E+01 0.00000E+00
 -1       568 4.89864E-01 3.81712E+01 0.00000E+00
 -1       569 4.62832E-01 4.37290E+01 0.00000E+00
 -1       570 4.32171E-01 4.89503E+01 0.00000E+00
 -1       571 3.98136E-01 5.37941E+01 0.00000E+00
 -1       572 3.61073E-01 5.82232E+01 0.00000E+00
 -1       573 3.21275E-01 6.22039E+01 0.00000E+00
 -1       574 2.79160E-01 6.57067E+01 0.00000E+00
 -1       575 2.35073E-01 6.87066E+01 0.00000E+00
 -1       576 1.89439E-01 7.11831E+01 0.00000E+00
 -1       577 1.42694E-01 7.31206E+01 0.00000E+00
 -1       578 9.52420E-02 7.45086E+01 0.00000E+00
 -1       579 4.75769E-02 7.53418E+01 0.00000E+00
 -1       580 9.48343E-05 7.56198E+01 0.00000E+00
 -1       581-4.66818E-02 7.53480E+01 0.00000E+00
 -1       582-9.23529E-02 7.45368E+01 0.00000E+00
 -1       583-1.36420E-01 7.32022E+01 0.00000E+00
 -1       584-1.78466E-01 7.13651E+01 0.00000E+00
 -1       585-2.18040E-01 6.90519E+01 0.00000E+00
 -1       586-2.54704E-01 6.62939E+01 0.00000E+00
 -1       587-2.88083E-01 6.31272E+01 0.00000E+00
 -1       588-3.17740E-01 5.95929E+01 0.00000E+00
 -1       589-3.43341E-01 5.57361E+01 0.00000E+00
 -1       590-3.64509E-01 5.16066E+01 0.00000E+00
 -1       591-3.80939E-01 4.72576E+01 0.00000E+00
 -1       592-3.92316E-01 4.27464E+01 0.00000E+00
 -1       593-3.98378E-01 3.81335E+01 0.00000E+00
 -1       594-3.98871E-01 3.34823E+01 0.00000E+00
 -1       595-3.93586E-01 2.88590E+01 0.00000E+00
 -1       596-3.82325E-01 2.43323E+01 0.00000E+00
 -1       597-3.64940E-01 1.99726E+01 0.00000E+00
 -1       598-3.41275E-01 1.58525E+01 0.00000E+00
 -1       599-3.11258E-01 1.20454E+01 0.00000E+00
 -1       600-2.74735E-01 8.62649E+00 0.00000E+00
 -1       601-2.31788E-01 5.67117E+00 0.00000E+00
 -1       602-1.82006E-01 3.25683E+00 0.00000E+00
 -1       603-1.26504E-01 1.45649E+00 0.00000E+00
 -1       604-6.14012E-02 3.60285E-01 0.00000E+00
 -1       605 0.00000E+00 0.00000E+00 0.00000E+00
 -1       606 7.86562E-01-1.00034E+02 0.00000E+00
 -1       607 7.86449E-01-9.08579E+01 0.00000E+00
 -1       608 7.85764E-01-8.16864E+01 0.00000E+00
 -1       609 7.83983E-01-7.25292E+01 0.00000E+00
 -1       610 7.80638E-01-6.34019E+01 0.00000E+00
 -1       611 7.75318E-01-5.43251E+01 0.00000E+00
 -1       612 7.67662E-01-4.53239E+01 0.00000E+00
 -1       613 7.57376E-01-3.64274E+01 0.00000E+00
 -1       614 7.44202E-01-2.76676E+01 0.00000E+00
 -1       615 7.27951E-01-1.90795E+01 0.00000E+00
 -1       616 7.08485E-01-1.06999E+01 0.00000E+00
 -1       617 6.85706E-01-2.56663E+00 0.00000E+00
 -1       618 6.59580E-01 5.28133E+00 0.00000E+00
 -1       619 6.30111E-01 1.28050E+01 0.00000E+00
 -1       620 5.97352E-01 1.99656E+01 0.00000E+00
 -1       621 5.61414E-01 2.67255E+01 0.00000E+00
 -1       622 5.22422E-01 3.30482E+01 0.00000E+00
 -1       623 4.80569E-01 3.88994E+01 0.00000E+00
 -1       624 4.36070E-01 4.42468E+01 0.00000E+00
 -1       625 3.89170E-01 4.90610E+01 0.00000E+00
 -1       626 3.40173E-01 5.33158E+01 0.00000E+00
 -1       627 2.89354E-01 5.69882E+01 0.00000E+00
 -1       628 2.37091E-01 6.00594E+01 0.00000E+00
 -1       629 1.83692E-01 6.25141E+01 0.00000E+00
 -1       630 1.29580E-01 6.43416E+01 0.00000E+00
 -1       631 7.50842E-02 6.55355E+01 0.00000E+00
 -1       632 2.06401E-02 6.60939E+01 0.00000E+00
 -1       633-3.33603E-02 6.60196E+01 0.00000E+00
 -1       634-8.65418E-02 6.53201E+01 0.00000E+00
 -1       635-1.38466E-01 6.40074E+01 0.00000E+00
 -1       636-1.88786E-01 6.20983E+01 0.00000E+00
 -1       637-2.37069E-01 5.96139E+01 0.00000E+00
 -1       638-2.83005E-01 5.65798E+01 0.00000E+00
 -1       639-3.26181E-01 5.30259E+01 0.00000E+00
 -1       640-3.66310E-01 4.89860E+01 0.00000E+00
 -1       641-4.03064E-01 4.44976E+01 0.00000E+00
 -1       642-4.36154E-01 3.96017E+01 0.00000E+00
 -1       643-4.65345E-01 3.43426E+01 0.00000E+00
 -1       644-4.90388E-01 2.87670E+01 0.00000E+00
 -1       645-5.11118E-01 2.29243E+01 0.00000E+00
 -1       646-5.27353E-01 1.68660E+01 0.00000E+00
 -1       647-5.38992E-01 1.06452E+01 0.00000E+00
 -1       648-5.45938E-01 4.31590E+00 0.00000E+00
 -1       649-5.48156E-01-2.06685E+00 0.00000E+00
 -1       650-5.45631E-01-8.44779E+00 0.00000E+00
 -1       651-5.38403E-01-1.47718E+01 0.00000E+00
 -1       652-5.26530E-01-2.09845E+01 0.00000E+00
 -1       653-5.10138E-01-2.70323E+01 0.00000E+00
 -1       654-4.89353E-01-3.28631E+01 0.00000E+00
 -1       655-4.64377E-01-3.84270E+01 0.00000E+00
 -1       656-4.35404E-01-4.36762E+01 0.00000E+00
 -1       657-4.02706E-01-4.85655E+01 0.00000E+00
 -1       658-3.66542E-01-5.30532E+01 0.00000E+00
 -1       659-3.27233E-01-5.71006E+01 0.00000E+00
 -1       660-2.85109E-01-6.06729E+01 0.00000E+00
 -1       661-2.40522E-01-6.37393E+01 0.00000E+00
 -1       662-1.93868E-01-6.62735E+01 0.00000E+00
 -1       663-1.45509E-01-6.82533E+01 0.00000E+00
 -1       664-9.58896E-02-6.96616E+01 0.00000E+00
 -1       665-4.53953E-02-7.04858E+01 0.00000E+00
 -1       666 5.52687E-03-7.07184E+01 0.00000E+00
 -1       667 5.64641E-02-7.03568E+01 0.00000E+00
 -1       668 1.06969E-01-6.94034E+01 0.00000E+00
 -1       669 1.56640E-01-6.78655E+01 0.00000E+00
 -1       670 2.05052E-01-6.57555E+01 0.00000E+00
 -1       671 2.51788E-01-6.30904E+01 0.00000E+00
 -1       672 2.96481E-01-5.98919E+01 0.00000E+00
 -1       673 3.38738E-01-5.61861E+01 0.00000E+00
 -1       674 3.78221E-01-5.20035E+01 0.00000E+00
 -1       675 4.14584E-01-4.73784E+01 0.00000E+00
 -1       676 4.47552E-01-4.23489E+01 0.00000E+00
 -1       677 4.76825E-01-3.69563E+01 0.00000E+00
 -1       678 5.02185E-01-3.12449E+01 0.00000E+00
 -1       679 5.23412E-01-2.52618E+01 0.00000E+00
 -1       680 5.40340E-01-1.90560E+01 0.00000E+00
 -1       681 5.52834E-01-1.26786E+01 0.00000E+00
 -1       682 5.60796E-01-6.18194E+00 0.00000E+00
 -1       683 5.64171E-01 3.80883E-01 0.00000E+00
 -1       684 5.62940E-01 6.95622E+00 0.00000E+00
 -1       685 5.57125E-01 1.34905E+01 0.00000E+00
 -1       686 5.46792E-01 1.99305E+01 0.00000E+00
 -1       687 5.32034E-01 2.62242E+01 0.00000E+00
 -1       688 5.12998E-01 3.23207E+01 0.00000E+00
 -1       689 4.89864E-01 3.81712E+01 0.00000E+00
 -1       690 4.62832E-01 4.37290E+01 0.00000E+00
 -1       691 4.32171E-01 4.89503E+01 0.00000E+00
 -1       692 3.98136E-01 5.37941E+01 0.00000E+00
 -1       693 3.61073E-01 5.82232E+01 0.00000E+00
 -1       694 3.21275E-01 6.22039E+01 0.00000E+00
 -1       695 2.79160E-01 6.57067E+01 0.00000E+00
 -1       696 2.35073E-01 6.87066E+01 0.00000E+00
 -1       697 1.89439E-01 7.11831E+01 0.00000E+00
 -1       698 1.42694E-01 7.31206E+01 0.00000E+00
 -1       699 9.52420E-02 7.45086E+01 0.00000E+00
 -1       700 4.75769E-02 7.53418E+01 0.00000E+00
 -1       701 9.48338E-05 7.56198E+01 0.00000E+00
 -1       702-4.66818E-02 7.53480E+01 0.00000E+00
 -1       703-9.23529E-02 7.45368E+01 0.00000E+00
 -1       704-1.36420E-01 7.32022E+01 0.00000E+00
 -1       705-1.78466E-01 7.13651E+01 0.00000E+00
 -1       706-2.18040E-01 6.90519E+01 0.00000E+00
 -1       707-2.54704E-01 6.62939E+01 0.00000E+00
 -1       708-2.88083E-01 6.31272E+01 0.00000E+00
 -1       709-3.17740E-01 5.95929E+01 0.00000E+00
 -1       710-3.43341E-01 5.57361E+01 0.00000E+00
 -1       711-3.64509E-01 5.16066E+01 0.00000E+00
 -1       712-3.80939E-01 4.72576E+01 0.00000E+00
 -1       713-3.92316E-01 4.27464E+01 0.00000E+00
 -1       714-3.98378E-01 3.81335E+01 0.00000E+00
 -1       715-3.98871E-01 3.34823E+01 0.00000E+00
 -1       716-3.93586E-01 2.88590E+01 0.00000E+00
 -1       717-3.82325E-01 2.43323E+01 0.00000E+00
 -1       718-3.64940E-01 1.99726E+01 0.00000E+00
 -1       719-3.41275E-01 1.58525E+01 0.00000E+00
 -1       720-3.11258E-01 1.20454E+01 0.00000E+00
 -1       721-2.74735E-01 8.62649E+00 0.00000E+00
 -1       722-2.31788E-01 5.67117E+00 0.00000E+00
 -1       723-1.82006E-01 3.25683E+00 0.00000E+00
 -1       724-1.26504E-01 1.45649E+00 0.00000E+00
 -1       725-6.14012E-02 3.60285E-01 0.00000E+00
 -1       726 0.00000E+00 0.00000E+00 0.00000E+00
 -1       727-7.86562E-01-1.00034E+02 0.00000E+00
 -3
    1PSTEP                        14           1           1          
    1PGM                1.000000E+00                                  
    1PGK                8.115021E+06                                  
    1PHID                         -1                                  
    1PSUBC                         0                                  
    1PMODE                         4                                  
  100CL  104 453.3827060         726                     2    4MODAL      1
 -4  STRESS      6    1
 -5  SXX         1    4    1    1
 -5  SYY         1    4    2    2
 -5  SZZ         1    4    3    3
 -5  SXY         1    4    1    2
 -5  SYZ         1    4    2    3
 -5  SZX         1    4    3    1
 -1         2-7.51850E+09-5.59913E+08-3.06980E+09-3.21221E+08 8.31386E+10 3.59771E+08
 -1         3-2.36022E+10-4.97589E+08-9.15790E+09-6.08894E+08 7.47479E+10 3.59406E+08
 -1         4-4.92265E+10-4.48444E+08-1.88765E+10-8.66094E+08 6.63712E+10 3.58543E+08
 -1         5-8.33146E+10-3.62760E+08-3.17974E+10-1.09278E+09 5.80225E+10 3.56971E+08
 -1         6-1.24819E+11-3.56532E+08-4.75666E+10-1.29113E+09 4.97208E+10 3.54502E+08
 -1         7-1.72657E+11-2.69722E+08-6.57120E+10-1.45399E+09 4.14889E+10 3.50970E+08
 -1         8-2.25789E+11-1.80778E+08-8.58687E+10-1.59487E+09 3.33531E+10 3.46238E+08
 -1         9-2.83203E+11-2.44687E+08-1.07710E+11-1.70009E+09 2.53430E+10 3.40192E+08
 -1        10-3.43823E+11-1.11479E+08-1.30695E+11-1.77309E+09 1.74903E+10 3.32743E+08
 -1        11-4.06684E+11-3.53682E+07-1.54554E+11-1.82571E+09 9.82836E+09 3.23826E+08
 -1        12-4.70808E+11 1.59198E+05-1.78907E+11-1.84774E+09 2.39204E+09 3.13400E+08
 -1        13-5.35237E+11 5.34262E+07-2.03370E+11-1.84621E+09-4.78320E+09 3.01447E+08
 -1        14-5.99076E+11-3.89442E+06-2.27650E+11-1.81351E+09-1.16617E+10 2.87970E+08
 -1        15-6.61395E+11 1.69052E+08-2.51266E+11-1.75421E+09-1.82082E+10 2.72993E+08
 -1        16-7.21416E+11 2.02892E+08-2.74061E+11-1.68373E+09-2.43882E+10 2.56562E+08
 -1        17-7.78342E+11 1.43088E+08-2.95716E+11-1.58015E+09-3.01685E+10 2.38741E+08
 -1        18-8.31395E+11 2.75486E+08-3.15825E+11-1.45957E+09-3.55177E+10 2.19614E+08
 -1        19-8.79954E+11 1.84393E+08-3.34312E+11-1.32066E+09-4.04063E+10 1.99279E+08
 -1        20-9.23318E+11 3.83825E+08-3.50715E+11-1.15867E+09-4.48075E+10 1.77851E+08
 -1        21-9.61013E+11 2.93090E+08-3.65074E+11-9.98674E+08-4.86973E+10 1.55460E+08
 -1        22-9.92476E+11 3.62655E+08-3.77003E+11-8.02641E+08-5.20549E+10 1.32247E+08
 -1        23-1.01731E+12 3.47751E+08-3.86447E+11-6.18706E+08-5.48629E+10 1.08365E+08
 -1        24-1.03514E+12 4.31815E+08-3.93190E+11-4.01875E+08-5.71074E+10 8.39763E+07
 -1        25-1.04570E+12 4.44045E+08-3.97198E+11-2.07770E+08-5.87787E+10 5.92495E+07
 -1        26-1.04881E+12 1.59435E+08-3.98487E+11 2.64647E+07-5.98710E+10 3.43614E+07
 -1        27-1.04418E+12 5.94796E+08-3.96561E+11 2.47972E+08-6.03824E+10 9.49078E+06
 -1        28-1.03195E+12 3.50299E+08-3.92007E+11 4.56004E+08-6.03157E+10-1.51802E+07
 -1        29-1.01198E+12 4.14257E+08-3.84395E+11 6.87405E+08-5.96775E+10-3.94679E+07
 -1        30-9.84418E+11 3.73330E+08-3.73937E+11 8.91966E+08-5.84789E+10-6.31911E+07
 -1        31-9.49385E+11 4.39228E+08-3.60599E+11 1.11400E+09-5.67353E+10-8.61706E+07
 -1        32-9.07144E+11 3.25957E+08-3.44591E+11 1.30139E+09-5.44659E+10-1.08232E+08
 -1        33-8.57952E+11 2.56582E+08-3.25924E+11 1.51590E+09-5.16942E+10-1.29206E+08
 -1        34-8.02124E+11 4.81788E+08-3.04624E+11 1.68494E+09-4.84475E+10-1.48933E+08
 -1        35-7.40202E+11 1.53466E+08-2.81219E+11 1.85930E+09-4.47566E+10-1.67261E+08
 -1        36-6.72494E+11 3.51081E+08-2.55414E+11 2.01968E+09-4.06559E+10-1.84048E+08
 -1        37-5.99651E+11 2.22575E+08-2.27783E+11 2.15238E+09-3.61827E+10-1.99165E+08
 -1        38-5.22175E+11 2.28164E+08-1.98340E+11 2.28258E+09-3.13776E+10-2.12496E+08
 -1        39-4.40707E+11 1.70804E+08-1.67404E+11 2.38025E+09-2.62832E+10-2.23938E+08
 -1        40-3.55890E+11 9.50785E+07-1.35202E+11 2.47545E+09-2.09449E+10-2.33404E+08
 -1        41-2.68383E+11 1.53467E+08-1.01927E+11 2.53614E+09-1.54094E+10-2.40822E+08
 -1        42-1.78937E+11 3.89280E+07-6.79814E+10 2.58408E+09-9.72536E+09-2.46138E+08
 -1        43-8.82348E+10 3.87073E+07-3.35145E+10 2.60761E+09-3.94219E+09-2.49313E+08
 -1        44 2.96334E+09-7.05332E+06 1.12339E+09 2.61230E+09 1.88984E+09-2.50327E+08
 -1        45 9.39156E+10-8.30398E+07 3.56564E+10 2.59322E+09 7.72027E+09-2.49176E+08
 -1        46 1.83899E+11-5.66887E+07 6.98599E+10 2.55792E+09 1.34987E+10-2.45875E+08
 -1        47 2.72145E+11-1.34204E+08 1.03364E+11 2.49236E+09 1.91754E+10-2.40456E+08
 -1        48 3.57953E+11-1.64141E+08 1.35960E+11 2.41682E+09 2.47015E+10-2.32968E+08
 -1        49 4.40608E+11-2.11524E+08 1.67350E+11 2.31177E+09 3.00294E+10-2.23479E+08
 -1        50 5.19438E+11-2.22782E+08 1.97302E+11 2.19816E+09 3.51133E+10-2.12071E+08
 -1        51 5.93786E+11-2.65766E+08 2.25538E+11 2.05428E+09 3.99097E+10-1.98843E+08
 -1        52 6.63039E+11-3.46706E+08 2.51823E+11 1.90726E+09 4.43774E+10-1.83908E+08
 -1        53 7.26658E+11-2.64156E+08 2.76030E+11 1.73419E+09 4.84780E+10-1.67394E+08
 -1        54 7.84064E+11-3.85666E+08 2.97798E+11 1.54964E+09 5.21763E+10-1.49442E+08
 -1        55 8.34849E+11-2.87810E+08 3.17133E+11 1.35309E+09 5.54405E+10-1.30205E+08
 -1        56 8.78523E+11-4.66764E+08 3.33662E+11 1.13895E+09 5.82425E+10-1.09845E+08
 -1        57 9.14810E+11-3.82724E+08 3.47482E+11 9.32488E+08 6.05581E+10-8.85342E+07
 -1        58 9.43358E+11-4.05013E+08 3.58322E+11 6.96922E+08 6.23672E+10-6.64536E+07
 -1        59 9.63942E+11-4.97855E+08 3.66109E+11 4.76868E+08 6.36541E+10-4.37888E+07
 -1        60 9.76443E+11-3.69623E+08 3.70908E+11 2.38135E+08 6.44073E+10-2.07310E+07
 -1        61 9.80710E+11-3.79111E+08 3.72526E+11 1.74883E+06 6.46199E+10 2.52577E+06
 -1        62 9.76724E+11-4.76130E+08 3.70974E+11-2.40056E+08 6.42895E+10 2.57862E+07
 -1        63 9.64550E+11-5.03221E+08 3.66338E+11-4.62624E+08 6.34183E+10 4.88551E+07
 -1        64 9.44329E+11-2.67440E+08 3.58743E+11-6.96164E+08 6.20131E+10 7.15384E+07
 -1        65 9.16133E+11-4.79779E+08 3.47948E+11-9.25951E+08 6.00851E+10 9.36462E+07
 -1        66 8.80315E+11-4.25253E+08 3.34358E+11-1.13045E+09 5.76499E+10 1.14994E+08
 -1        67 8.37154E+11-3.14658E+08 3.17999E+11-1.34083E+09 5.47273E+10 1.35403E+08
 -1        68 7.86999E+11-3.03357E+08 2.98945E+11-1.53454E+09 5.13411E+10 1.54703E+08
 -1        69 7.30288E+11-3.65060E+08 2.77371E+11-1.71995E+09 4.75192E+10 1.72734E+08
 -1        70 6.67537E+11-2.91428E+08 2.53553E+11-1.87714E+09 4.32930E+10 1.89345E+08
 -1        71 5.99263E+11-2.36127E+08 2.27630E+11-2.03406E+09 3.86972E+10 2.04398E+08
 -1        72 5.26040E+11-2.74719E+08 1.99791E+11-2.16035E+09 3.37696E+10 2.17771E+08
 -1        73 4.48538E+11-1.41078E+08 1.70391E+11-2.27703E+09 2.85508E+10 2.29352E+08
 -1        74 3.67370E+11-1.71283E+08 1.39536E+11-2.37160E+09 2.30835E+10 2.39048E+08
 -1        75 2.83274E+11-9.99948E+07 1.07606E+11-2.44528E+09 1.74128E+10 2.46780E+08
 -1        76 1.96950E+11-8.78481E+07 7.48075E+10-2.49867E+09 1.15853E+10 2.52487E+08
 -1        77 1.09152E+11-4.91390E+07 4.14593E+10-2.52820E+09 5.64871E+09 2.56125E+08
 -1        78 2.06399E+10 2.10569E+07 7.85116E+09-2.53812E+09-3.48350E+08 2.57668E+08
 -1        79-6.78385E+10 2.02353E+07-2.57709E+10-2.52611E+09-6.35688E+09 2.57107E+08
 -1        80-1.55492E+11 1.11538E+08-5.90446E+10-2.49002E+09-1.23279E+10 2.54454E+08
 -1        81-2.41584E+11 1.28394E+08-9.17532E+10-2.43821E+09-1.82129E+10 2.49736E+08
 -1        82-3.25363E+11 8.81736E+07-1.23604E+11-2.35742E+09-2.39641E+10 2.42999E+08
 -1        83-4.06052E+11 2.64896E+08-1.54199E+11-2.25645E+09-2.95353E+10 2.34308E+08
 -1        84-4.83011E+11 1.98674E+08-1.83469E+11-2.14441E+09-3.48817E+10 2.23743E+08
 -1        85-5.55496E+11 2.94228E+08-2.10977E+11-2.00070E+09-3.99608E+10 2.11403E+08
 -1        86-6.22905E+11 2.65158E+08-2.36603E+11-1.85319E+09-4.47323E+10 1.97400E+08
 -1        87-6.84584E+11 3.98166E+08-2.59991E+11-1.67257E+09-4.91590E+10 1.81863E+08
 -1        88-7.40027E+11 3.05877E+08-2.81094E+11-1.49922E+09-5.32068E+10 1.64934E+08
 -1        89-7.88672E+11 3.13649E+08-2.99576E+11-1.28013E+09-5.68450E+10 1.46769E+08
 -1        90-8.30031E+11 5.49999E+08-3.15203E+11-1.07787E+09-6.00465E+10 1.27533E+08
 -1        91-8.63814E+11 2.55557E+08-3.28152E+11-8.51474E+08-6.27886E+10 1.07405E+08
 -1        92-8.89501E+11 5.40104E+08-3.37805E+11-6.09768E+08-6.50525E+10 8.65703E+07
 -1        93-9.06957E+11 3.96546E+08-3.44493E+11-3.80367E+08-6.68241E+10 6.52224E+07
 -1        94-9.15849E+11 5.32241E+08-3.47821E+11-1.22111E+08-6.80935E+10 4.35613E+07
 -1        95-9.16097E+11 4.02910E+08-3.47964E+11 1.11552E+08-6.88561E+10 2.17916E+07
 -1        96-9.07545E+11 4.03180E+08-3.44714E+11 3.84595E+08-6.91115E+10 1.20893E+05
 -1        97-8.90158E+11 5.42064E+08-3.38054E+11 6.22605E+08-6.88646E+10-2.12422E+07
 -1        98-8.64031E+11 4.01548E+08-3.28179E+11 8.81651E+08-6.81249E+10-4.20882E+07
 -1        99-8.29172E+11 5.48081E+08-3.14877E+11 1.12022E+09-6.69071E+10-6.22098E+07
 -1       100-7.85842E+11 2.86376E+08-2.98511E+11 1.36402E+09-6.52303E+10-8.14020E+07
 -1       101-7.34114E+11 5.48043E+08-2.78755E+11 1.60544E+09-6.31185E+10-9.94647E+07
 -1       102-6.74404E+11 3.54277E+08-2.56139E+11 1.81776E+09-6.06005E+10-1.16204E+08
 -1       103-6.06940E+11 3.36076E+08-2.30509E+11 2.04879E+09-5.77093E+10-1.31431E+08
 -1       104-5.32097E+11 4.32531E+08-2.02033E+11 2.24404E+09-5.44823E+10-1.44968E+08
 -1       105-4.50340E+11 3.04381E+08-1.71014E+11 2.44095E+09-5.09608E+10-1.56644E+08
 -1       106-3.62059E+11 3.37199E+08-1.37454E+11 2.61602E+09-4.71903E+10-1.66300E+08
 -1       107-2.67772E+11 2.75147E+08-1.01649E+11 2.78397E+09-4.32196E+10-1.73786E+08
 -1       108-1.67963E+11 2.73699E+08-6.37218E+10 2.93142E+09-3.91010E+10-1.78966E+08
 -1       109-6.31732E+10 2.16039E+08-2.39237E+10 3.06887E+09-3.48896E+10-1.81715E+08
 -1       110 4.60743E+10 2.03001E+08 1.75854E+10 3.18618E+09-3.06437E+10-1.81921E+08
 -1       111 1.59233E+11 1.98898E+08 6.05841E+10 3.29137E+09-2.64236E+10-1.79484E+08
 -1       112 2.75752E+11 1.12733E+08 1.04829E+11 3.37651E+09-2.22921E+10-1.74318E+08
 -1       113 3.95141E+11 1.85169E+08 1.50224E+11 3.45504E+09-1.83137E+10-1.66348E+08
 -1       114 5.16821E+11-5.53261E+07 1.96371E+11 3.50663E+09-1.45547E+10-1.55515E+08
 -1       115 6.40464E+11 3.82379E+08 2.43521E+11 3.56927E+09-1.10823E+10-1.41767E+08
 -1       116 7.65286E+11-7.52388E+08 2.90523E+11 3.57388E+09-7.96508E+09-1.25064E+08
 -1       117 8.91847E+11 2.81799E+09 3.39973E+11 3.65376E+09-5.27234E+09-1.05383E+08
 -1       118 1.01660E+12-9.86366E+09 3.82561E+11 3.50935E+09-3.07390E+09-8.26831E+07
 -1       119 1.15050E+12 3.45244E+10 4.50311E+11 4.05593E+09-1.43986E+09-5.70279E+07
 -1       120 1.25429E+12-1.18981E+11 4.31419E+11 2.16998E+09-4.41185E+08-2.81409E+07
 -1       121 1.28498E+12 4.24617E+11 6.49647E+11 8.90256E+09-1.09682E+08-1.27941E+07
 -1       122-1.99379E+09-5.84835E+08-9.79879E+08-2.56393E+06-8.73361E+10-3.59858E+08
 -1       123-7.51850E+09-5.59913E+08-3.06980E+09-3.21221E+08-8.31386E+10-3.59771E+08
 -1       124-2.36022E+10-4.97589E+08-9.15790E+09-6.08894E+08-7.47479E+10-3.59406E+08
 -1       125-4.92265E+10-4.48443E+08-1.88765E+10-8.66095E+08-6.63712E+10-3.58543E+08
 -1       126-8.33146E+10-3.62759E+08-3.17974E+10-1.09278E+09-5.80225E+10-3.56971E+08
 -1       127-1.24819E+11-3.56531E+08-4.75666E+10-1.29113E+09-4.97208E+10-3.54502E+08
 -1       128-1.72657E+11-2.69720E+08-6.57120E+10-1.45399E+09-4.14889E+10-3.50970E+08
 -1       129-2.25789E+11-1.80777E+08-8.58687E+10-1.59487E+09-3.33531E+10-3.46238E+08
 -1       130-2.83203E+11-2.44686E+08-1.07710E+11-1.70009E+09-2.53430E+10-3.40192E+08
 -1       131-3.43823E+11-1.11478E+08-1.30695E+11-1.77309E+09-1.74903E+10-3.32743E+08
 -1       132-4.06684E+11-3.53670E+07-1.54554E+11-1.82571E+09-9.82836E+09-3.23826E+08
 -1       133-4.70808E+11 1.60133E+05-1.78907E+11-1.84774E+09-2.39204E+09-3.13400E+08
 -1       134-5.35237E+11 5.34271E+07-2.03370E+11-1.84621E+09 4.78320E+09-3.01447E+08
 -1       135-5.99076E+11-3.89371E+06-2.27650E+11-1.81351E+09 1.16617E+10-2.87970E+08
 -1       136-6.61395E+11 1.69052E+08-2.51266E+11-1.75421E+09 1.82082E+10-2.72993E+08
 -1       137-7.21416E+11 2.02892E+08-2.74061E+11-1.68373E+09 2.43882E+10-2.56562E+08
 -1       138-7.78342E+11 1.43088E+08-2.95716E+11-1.58015E+09 3.01685E+10-2.38741E+08
 -1       139-8.31395E+11 2.75486E+08-3.15825E+11-1.45957E+09 3.55177E+10-2.19614E+08
 -1       140-8.79954E+11 1.84393E+08-3.34312E+11-1.32066E+09 4.04063E+10-1.99279E+08
 -1       141-9.23318E+11 3.83825E+08-3.50715E+11-1.15867E+09 4.48075E+10-1.77851E+08
 -1       142-9.61013E+11 2.93090E+08-3.65074E+11-9.98674E+08 4.86973E+10-1.55460E+08
 -1       143-9.92476E+11 3.62655E+08-3.77003E+11-8.02642E+08 5.20549E+10-1.32247E+08
 -1       144-1.01731E+12 3.47751E+08-3.86447E+11-6.18706E+08 5.48629E+10-1.08365E+08
 -1       145-1.03514E+12 4.31815E+08-3.93190E+11-4.01875E+08 5.71074E+10-8.39763E+07
 -1       146-1.04570E+12 4.44046E+08-3.97198E+11-2.07770E+08 5.87787E+10-5.92495E+07
 -1       147-1.04881E+12 1.59436E+08-3.98487E+11 2.64647E+07 5.98710E+10-3.43614E+07
 -1       148-1.04418E+12 5.94796E+08-3.96561E+11 2.47972E+08 6.03824E+10-9.49079E+06
 -1       149-1.03195E+12 3.50299E+08-3.92007E+11 4.56004E+08 6.03157E+10 1.51802E+07
 -1       150-1.01198E+12 4.14258E+08-3.84395E+11 6.87405E+08 5.96775E+10 3.94679E+07
 -1       151-9.84418E+11 3.73331E+08-3.73937E+11 8.91966E+08 5.84789E+10 6.31911E+07
 -1       152-9.49385E+11 4.39229E+08-3.60599E+11 1.11400E+09 5.67353E+10 8.61706E+07
 -1       153-9.07144E+11 3.25958E+08-3.44591E+11 1.30140E+09 5.44659E+10 1.08232E+08
 -1       154-8.57952E+11 2.56582E+08-3.25924E+11 1.51590E+09 5.16942E+10 1.29206E+08
 -1       155-8.02124E+11 4.81788E+08-3.04624E+11 1.68494E+09 4.84475E+10 1.48933E+08
 -1       156-7.40202E+11 1.53466E+08-2.81219E+11 1.85930E+09 4.47566E+10 1.67261E+08
 -1       157-6.72494E+11 3.51082E+08-2.55414E+11 2.01968E+09 4.06559E+10 1.84048E+08
 -1       158-5.99651E+11 2.22575E+08-2.27783E+11 2.15238E+09 3.61827E+10 1.99165E+08
 -1       159-5.22175E+11 2.28164E+08-1.98340E+11 2.28258E+09 3.13776E+10 2.12496E+08
 -1       160-4.40707E+11 1.70805E+08-1.67404E+11 2.38025E+09 2.62832E+10 2.23938E+08
 -1       161-3.55890E+11 9.50786E+07-1.35202E+11 2.47545E+09 2.09449E+10 2.33404E+08
 -1       162-2.68383E+11 1.53467E+08-1.01927E+11 2.53614E+09 1.54094E+10 2.40822E+08
 -1       163-1.78937E+11 3.89280E+07-6.79814E+10 2.58408E+09 9.72536E+09 2.46138E+08
 -1       164-8.82348E+10 3.87072E+07-3.35145E+10 2.60761E+09 3.94219E+09 2.49313E+08
 -1       165 2.96334E+09-7.05343E+06 1.12339E+09 2.61230E+09-1.88984E+09 2.50327E+08
 -1       166 9.39156E+10-8.30400E+07 3.56564E+10 2.59322E+09-7.72027E+09 2.49176E+08
 -1       167 1.83899E+11-5.66889E+07 6.98599E+10 2.55792E+09-1.34987E+10 2.45875E+08
 -1       168 2.72145E+11-1.34204E+08 1.03364E+11 2.49236E+09-1.91754E+10 2.40456E+08
 -1       169 3.57953E+11-1.64141E+08 1.35960E+11 2.41682E+09-2.47015E+10 2.32968E+08
 -1       170 4.40608E+11-2.11524E+08 1.67350E+11 2.31177E+09-3.00294E+10 2.23479E+08
 -1       171 5.19438E+11-2.22783E+08 1.97302E+11 2.19816E+09-3.51133E+10 2.12071E+08
 -1       172 5.93786E+11-2.65767E+08 2.25538E+11 2.05428E+09-3.99097E+10 1.98843E+08
 -1       173 6.63039E+11-3.46706E+08 2.51823E+11 1.90726E+09-4.43774E+10 1.83908E+08
 -1       174 7.26658E+11-2.64157E+08 2.76030E+11 1.73419E+09-4.84780E+10 1.67394E+08
 -1       175 7.84064E+11-3.85666E+08 2.97798E+11 1.54964E+09-5.21763E+10 1.49442E+08
 -1       176 8.34849E+11-2.87810E+08 3.17133E+11 1.35309E+09-5.54405E+10 1.30205E+08
 -1       177 8.78523E+11-4.66764E+08 3.33662E+11 1.13895E+09-5.82425E+10 1.09845E+08
 -1       178 9.14810E+11-3.82724E+08 3.47482E+11 9.32488E+08-6.05581E+10 8.85342E+07
 -1       179 9.43358E+11-4.05013E+08 3.58322E+11 6.96922E+08-6.23672E+10 6.64536E+07
 -1       180 9.63942E+11-4.97855E+08 3.66109E+11 4.76868E+08-6.36541E+10 4.37888E+07
 -1       181 9.76443E+11-3.69624E+08 3.70908E+11 2.38135E+08-6.44073E+10 2.07310E+07
 -1       182 9.80710E+11-3.79111E+08 3.72526E+11 1.74896E+06-6.46199E+10-2.52578E+06
 -1       183 9.76724E+11-4.76131E+08 3.70974E+11-2.40056E+08-6.42895E+10-2.57862E+07
 -1       184 9.64550E+11-5.03222E+08 3.66338E+11-4.62624E+08-6.34183E+10-4.88551E+07
 -1       185 9.44329E+11-2.67440E+08 3.58743E+11-6.96164E+08-6.20131E+10-7.15384E+07
 -1       186 9.16133E+11-4.79780E+08 3.47948E+11-9.25951E+08-6.00851E+10-9.36462E+07
 -1       187 8.80315E+11-4.25253E+08 3.34358E+11-1.13045E+09-5.76499E+10-1.14994E+08
 -1       188 8.37154E+11-3.14658E+08 3.17999E+11-1.34084E+09-5.47273E+10-1.35403E+08
 -1       189 7.86999E+11-3.03356E+08 2.98945E+11-1.53454E+09-5.13411E+10-1.54703E+08
 -1       190 7.30288E+11-3.65059E+08 2.77371E+11-1.71995E+09-4.75192E+10-1.72734E+08
 -1       191 6.67537E+11-2.91427E+08 2.53553E+11-1.87714E+09-4.32930E+10-1.89345E+08
 -1       192 5.99263E+11-2.36127E+08 2.27630E+11-2.03406E+09-3.86972E+10-2.04398E+08
 -1       193 5.26040E+11-2.74718E+08 1.99791E+11-2.16035E+09-3.37696E+10-2.17771E+08
 -1       194 4.48538E+11-1.41077E+08 1.70391E+11-2.27703E+09-2.85508E+10-2.29352E+08
 -1       195 3.67370E+11-1.71283E+08 1.39536E+11-2.37160E+09-2.30835E+10-2.39048E+08
 -1       196 2.83274E+11-9.99946E+07 1.07606E+11-2.44528E+09-1.74128E+10-2.46780E+08
 -1       197 1.96950E+11-8.78479E+07 7.48075E+10-2.49867E+09-1.15853E+10-2.52487E+08
 -1       198 1.09152E+11-4.91389E+07 4.14593E+10-2.52820E+09-5.64872E+09-2.56125E+08
 -1       199 2.06399E+10 2.10569E+07 7.85116E+09-2.53811E+09 3.48350E+08-2.57668E+08
 -1       200-6.78385E+10 2.02352E+07-2.57709E+10-2.52611E+09 6.35688E+09-2.57107E+08
 -1       201-1.55492E+11 1.11538E+08-5.90446E+10-2.49002E+09 1.23279E+10-2.54454E+08
 -1       202-2.41584E+11 1.28394E+08-9.17532E+10-2.43821E+09 1.82129E+10-2.49736E+08
 -1       203-3.25363E+11 8.81733E+07-1.23604E+11-2.35742E+09 2.39641E+10-2.42999E+08
 -1       204-4.06052E+11 2.64896E+08-1.54199E+11-2.25645E+09 2.95353E+10-2.34308E+08
 -1       205-4.83011E+11 1.98673E+08-1.83469E+11-2.14441E+09 3.48817E+10-2.23743E+08
 -1       206-5.55496E+11 2.94228E+08-2.10977E+11-2.00070E+09 3.99608E+10-2.11403E+08
 -1       207-6.22905E+11 2.65157E+08-2.36603E+11-1.85319E+09 4.47323E+10-1.97400E+08
 -1       208-6.84584E+11 3.98165E+08-2.59991E+11-1.67257E+09 4.91590E+10-1.81863E+08
 -1       209-7.40027E+11 3.05876E+08-2.81094E+11-1.49922E+09 5.32068E+10-1.64934E+08
 -1       210-7.88672E+11 3.13649E+08-2.99576E+11-1.28013E+09 5.68450E+10-1.46769E+08
 -1       211-8.30031E+11 5.49998E+08-3.15203E+11-1.07787E+09 6.00465E+10-1.27533E+08
 -1       212-8.63814E+11 2.55556E+08-3.28152E+11-8.51474E+08 6.27886E+10-1.07405E+08
 -1       213-8.89501E+11 5.40104E+08-3.37805E+11-6.09768E+08 6.50525E+10-8.65704E+07
 -1       214-9.06957E+11 3.96546E+08-3.44493E+11-3.80367E+08 6.68241E+10-6.52224E+07
 -1       215-9.15849E+11 5.32241E+08-3.47821E+11-1.22111E+08 6.80935E+10-4.35613E+07
 -1       216-9.16097E+11 4.02910E+08-3.47964E+11 1.11551E+08 6.88561E+10-2.17916E+07
 -1       217-9.07545E+11 4.03180E+08-3.44714E+11 3.84595E+08 6.91115E+10-1.20906E+05
 -1       218-8.90158E+11 5.42064E+08-3.38054E+11 6.22605E+08 6.88646E+10 2.12422E+07
 -1       219-8.64031E+11 4.01549E+08-3.28179E+11 8.81651E+08 6.81249E+10 4.20882E+07
 -1       220-8.29172E+11 5.48081E+08-3.14877E+11 1.12022E+09 6.69071E+10 6.22098E+07
 -1       221-7.85842E+11 2.86377E+08-2.98511E+11 1.36402E+09 6.52303E+10 8.14020E+07
 -1       222-7.34114E+11 5.48044E+08-2.78755E+11 1.60544E+09 6.31185E+10 9.94647E+07
 -1       223-6.74404E+11 3.54278E+08-2.56139E+11 1.81776E+09 6.06005E+10 1.16204E+08
 -1       224-6.06940E+11 3.36076E+08-2.30509E+11 2.04879E+09 5.77093E+10 1.31431E+08
 -1       225-5.32097E+11 4.32532E+08-2.02033E+11 2.24404E+09 5.44823E+10 1.44968E+08
 -1       226-4.50340E+11 3.04382E+08-1.71014E+11 2.44095E+09 5.09608E+10 1.56644E+08
 -1       227-3.62059E+11 3.37200E+08-1.37454E+11 2.61602E+09 4.71903E+10 1.66300E+08
 -1       228-2.67772E+11 2.75148E+08-1.01649E+11 2.78397E+09 4.32196E+10 1.73786E+08
 -1       229-1.67963E+11 2.73700E+08-6.37218E+10 2.93142E+09 3.91010E+10 1.78966E+08
 -1       230-6.31732E+10 2.16040E+08-2.39237E+10 3.06887E+09 3.48896E+10 1.81715E+08
 -1       231 4.60743E+10 2.03002E+08 1.75854E+10 3.18618E+09 3.06437E+10 1.81921E+08
 -1       232 1.59233E+11 1.98898E+08 6.05841E+10 3.29137E+09 2.64236E+10 1.79484E+08
 -1       233 2.75752E+11 1.12733E+08 1.04829E+11 3.37651E+09 2.22921E+10 1.74318E+08
 -1       234 3.95141E+11 1.85169E+08 1.50224E+11 3.45504E+09 1.83137E+10 1.66348E+08
 -1       235 5.16821E+11-5.53263E+07 1.96371E+11 3.50663E+09 1.45547E+10 1.55515E+08
 -1       236 6.40464E+11 3.82379E+08 2.43521E+11 3.56927E+09 1.10823E+10 1.41767E+08
 -1       237 7.65286E+11-7.52388E+08 2.90523E+11 3.57388E+09 7.96508E+09 1.25064E+08
 -1       238 8.91847E+11 2.81799E+09 3.39973E+11 3.65376E+09 5.27234E+09 1.05383E+08
 -1       239 1.01660E+12-9.86366E+09 3.82561E+11 3.50935E+09 3.07390E+09 8.26831E+07
 -1       240 1.15050E+12 3.45244E+10 4.50311E+11 4.05593E+09 1.43986E+09 5.70279E+07
 -1       241 1.25429E+12-1.18981E+11 4.31419E+11 2.16998E+09 4.41185E+08 2.81409E+07
 -1       242 1.28498E+12 4.24617E+11 6.49647E+11 8.90256E+09 1.09682E+08 1.27941E+07
 -1       243-8.30473E+04-2.32510E+04-4.03889E+04-2.45412E+06 8.73361E+10 1.43920E+04
 -1       244-3.01736E+05-2.19434E+04-1.22992E+05-3.20818E+08 8.31386E+10 1.43885E+04
 -1       245-9.44672E+05-1.97574E+04-3.66477E+05-6.09092E+08 7.47479E+10 1.43738E+04
 -1       246-1.96988E+06-1.76373E+04-7.55256E+05-8.66010E+08 6.63712E+10 1.43392E+04
 -1       247-3.33312E+06-1.44242E+04-1.27206E+06-1.09269E+09 5.80225E+10 1.42763E+04
 -1       248-4.99343E+06-1.40083E+04-1.90283E+06-1.28768E+09 4.97208E+10 1.41775E+04
 -1       249-6.90666E+06-1.07757E+04-2.62863E+06-1.45731E+09 4.14889E+10 1.40362E+04
 -1       250-9.03214E+06-7.00388E+03-3.43487E+06-1.58899E+09 3.33531E+10 1.38468E+04
 -1       251-1.13283E+07-9.80026E+03-4.30849E+06-1.69860E+09 2.53430E+10 1.36051E+04
 -1       252-1.37533E+07-4.34067E+03-5.22792E+06-1.78032E+09 1.74903E+10 1.33072E+04
 -1       253-1.62676E+07-1.48826E+03-6.18225E+06-1.82565E+09 9.82836E+09 1.29507E+04
 -1       254-1.88326E+07 6.25288E+01-7.15637E+06-1.84752E+09 2.39204E+09 1.25337E+04
 -1       255-2.14096E+07 2.09860E+03-8.13486E+06-1.83999E+09-4.78320E+09 1.20555E+04
 -1       256-2.39633E+07-1.64425E+02-9.10610E+06-1.81258E+09-1.16617E+10 1.15164E+04
 -1       257-2.64559E+07 6.60553E+03-1.00507E+07-1.76119E+09-1.82082E+10 1.09174E+04
 -1       258-2.88569E+07 8.11976E+03-1.09625E+07-1.67529E+09-2.43882E+10 1.02601E+04
 -1       259-3.11336E+07 5.52635E+03-1.18287E+07-1.57950E+09-3.01685E+10 9.54722E+03
 -1       260-3.32561E+07 1.10864E+04-1.26331E+07-1.45896E+09-3.55177E+10 8.78204E+03
 -1       261-3.51981E+07 7.04491E+03-1.33726E+07-1.32011E+09-4.04063E+10 7.96860E+03
 -1       262-3.69330E+07 1.53679E+04-1.40287E+07-1.16900E+09-4.48075E+10 7.11165E+03
 -1       263-3.84405E+07 1.15090E+04-1.46030E+07-9.87124E+08-4.86973E+10 6.21622E+03
 -1       264-3.96992E+07 1.43394E+04-1.50802E+07-8.14149E+08-5.20549E+10 5.28770E+03
 -1       265-4.06929E+07 1.38055E+04-1.54580E+07-6.06894E+08-5.48629E+10 4.33244E+03
 -1       266-4.14057E+07 1.69306E+04-1.57277E+07-4.13653E+08-5.71074E+10 3.35693E+03
 -1       267-4.18286E+07 1.78470E+04-1.58881E+07-1.83686E+08-5.87787E+10 2.36797E+03
 -1       268-4.19522E+07 5.77957E+03-1.59396E+07 1.47540E+07-5.98710E+10 1.37251E+03
 -1       269-4.17678E+07 2.40261E+04-1.58626E+07 2.35631E+08-6.03824E+10 3.77564E+02
 -1       270-4.12778E+07 1.35061E+04-1.56804E+07 4.67758E+08-6.03157E+10-6.09401E+02
 -1       271-4.04798E+07 1.66148E+04-1.53760E+07 6.75664E+08-5.96775E+10-1.58072E+03
 -1       272-3.93770E+07 1.46159E+04-1.49577E+07 9.03083E+08-5.84789E+10-2.52950E+03
 -1       273-3.79759E+07 1.74344E+04-1.44242E+07 1.10289E+09-5.67353E+10-3.44867E+03
 -1       274-3.62863E+07 1.29517E+04-1.37839E+07 1.32197E+09-5.44659E+10-4.33100E+03
 -1       275-3.43184E+07 9.93126E+03-1.30372E+07 1.49534E+09-5.16942E+10-5.16991E+03
 -1       276-3.20859E+07 1.94139E+04-1.21853E+07 1.69380E+09-4.84475E+10-5.95893E+03
 -1       277-2.96084E+07 5.69409E+03-1.12490E+07 1.85856E+09-4.47566E+10-6.69200E+03
 -1       278-2.69008E+07 1.42035E+04-1.02169E+07 2.01156E+09-4.06559E+10-7.36357E+03
 -1       279-2.39866E+07 8.52407E+03-9.11165E+06 2.15899E+09-3.61827E+10-7.96819E+03
 -1       280-2.08880E+07 9.20151E+03-7.93394E+06 2.27595E+09-3.13776E+10-8.50128E+03
 -1       281-1.76290E+07 6.61144E+03-6.69649E+06 2.38941E+09-2.62832E+10-8.95892E+03
 -1       282-1.42366E+07 3.82267E+03-5.40843E+06 2.46639E+09-2.09449E+10-9.33735E+03
 -1       283-1.07362E+07 6.03693E+03-4.07745E+06 2.53854E+09-1.54094E+10-9.63404E+03
 -1       284-7.15845E+06 1.56131E+03-2.71961E+06 2.58157E+09-9.72536E+09-9.84687E+03
 -1       285-3.53029E+06 1.53445E+03-1.34092E+06 2.60811E+09-3.94219E+09-9.97383E+03
 -1       286 1.17551E+05-2.50395E+02 4.45804E+04 2.61125E+09 1.88984E+09-1.00143E+04
 -1       287 3.75568E+06-3.33539E+03 1.42589E+06 2.59381E+09 7.72027E+09-9.96834E+03
 -1       288 7.35498E+06-2.21629E+03 2.79405E+06 2.55250E+09 1.34987E+10-9.83615E+03
 -1       289 1.08848E+07-5.32666E+03 4.13422E+06 2.49785E+09 1.91754E+10-9.61939E+03
 -1       290 1.43172E+07-6.51201E+03 5.43808E+06 2.41199E+09 2.47015E+10-9.32009E+03
 -1       291 1.76233E+07-8.29765E+03 6.69372E+06 2.31647E+09 3.00294E+10-8.94044E+03
 -1       292 2.07768E+07-8.89083E+03 7.89182E+06 2.19176E+09 3.51133E+10-8.48410E+03
 -1       293 2.37505E+07-1.03848E+04 9.02124E+06 2.06086E+09 3.99097E+10-7.95497E+03
 -1       294 2.65211E+07-1.38908E+04 1.00727E+07 1.89885E+09 4.43774E+10-7.35748E+03
 -1       295 2.90654E+07-1.02141E+04 1.10410E+07 1.73371E+09 4.84780E+10-6.69672E+03
 -1       296 3.13622E+07-1.54860E+04 1.19118E+07 1.54877E+09 5.21763E+10-5.97869E+03
 -1       297 3.33932E+07-1.11257E+04 1.26852E+07 1.35280E+09 5.54405E+10-5.20941E+03
 -1       298 3.51407E+07-1.86634E+04 1.33464E+07 1.14879E+09 5.82425E+10-4.39490E+03
 -1       299 3.65920E+07-1.49997E+04 1.38993E+07 9.21804E+08 6.05581E+10-3.54249E+03
 -1       300 3.77341E+07-1.60506E+04 1.43329E+07 7.07601E+08 6.23672E+10-2.65941E+03
 -1       301 3.85576E+07-1.97380E+04 1.46444E+07 4.65715E+08 6.36541E+10-1.75274E+03
 -1       302 3.90577E+07-1.44859E+04 1.48364E+07 2.37738E+08 6.44073E+10-8.30212E+02
 -1       303 3.92286E+07-1.50611E+04 1.49012E+07 2.05053E+06 6.46199E+10 1.00103E+02
 -1       304 3.90690E+07-1.86733E+04 1.48391E+07-2.28803E+08 6.42895E+10 1.03032E+03
 -1       305 3.85826E+07-2.01160E+04 1.46537E+07-4.73592E+08 6.34183E+10 1.95288E+03
 -1       306 3.77734E+07-1.02571E+04 1.43500E+07-6.95886E+08 6.20131E+10 2.86030E+03
 -1       307 3.66461E+07-1.92077E+04 1.39182E+07-9.15253E+08 6.00851E+10 3.74479E+03
 -1       308 3.52132E+07-1.66615E+04 1.33747E+07-1.14058E+09 5.76499E+10 4.59863E+03
 -1       309 3.34871E+07-1.25245E+04 1.27203E+07-1.34003E+09 5.47273E+10 5.41469E+03
 -1       310 3.14808E+07-1.18968E+04 1.19582E+07-1.53417E+09 5.13411E+10 6.18668E+03
 -1       311 2.92126E+07-1.45056E+04 1.10953E+07-1.71077E+09 4.75192E+10 6.90797E+03
 -1       312 2.67026E+07-1.14981E+04 1.01426E+07-1.88463E+09 4.32930E+10 7.57235E+03
 -1       313 2.39717E+07-9.28284E+03 9.10572E+06-2.02677E+09 3.86972E+10 8.17457E+03
 -1       314 2.10430E+07-1.09620E+04 7.99220E+06-2.16609E+09 3.37696E+10 8.70953E+03
 -1       315 1.79428E+07-5.46056E+03 6.81619E+06-2.27597E+09 2.85508E+10 9.17274E+03
 -1       316 1.46964E+07-6.88509E+03 5.58203E+06-2.37076E+09 2.30835E+10 9.56065E+03
 -1       317 1.13324E+07-3.82396E+03 4.30487E+06-2.44413E+09 1.74128E+10 9.87003E+03
 -1       318 7.87969E+06-3.57912E+03 2.99293E+06-2.49598E+09 1.15853E+10 1.00983E+04
 -1       319 4.36761E+06-1.84551E+03 1.65900E+06-2.52895E+09 5.64871E+09 1.02438E+04
 -1       320 8.27326E+05 7.63903E+02 3.14685E+05-2.53734E+09-3.48350E+08 1.03054E+04
 -1       321-2.71205E+06 8.66867E+02-1.03024E+06-2.52485E+09-6.35688E+09 1.02829E+04
 -1       322-6.21794E+06 4.30509E+03-2.36117E+06-2.49120E+09-1.23279E+10 1.01768E+04
 -1       323-9.66198E+06 5.22825E+03-3.66956E+06-2.43176E+09-1.82129E+10 9.98824E+03
 -1       324-1.30127E+07 3.28174E+03-4.94359E+06-2.35964E+09-2.39641E+10 9.71877E+03
 -1       325-1.62408E+07 1.06847E+04-6.16743E+06-2.26075E+09-2.95353E+10 9.37116E+03
 -1       326-1.93188E+07 7.65471E+03-7.33823E+06-2.13843E+09-3.48817E+10 8.94863E+03
 -1       327-2.22187E+07 1.18033E+04-8.43859E+06-2.00684E+09-3.99608E+10 8.45491E+03
 -1       328-2.49148E+07 1.03568E+04-9.46369E+06-1.84527E+09-4.47323E+10 7.89481E+03
 -1       329-2.73823E+07 1.58198E+04-1.03992E+07-1.68028E+09-4.91590E+10 7.27346E+03
 -1       330-2.96002E+07 1.20610E+04-1.12435E+07-1.48140E+09-5.32068E+10 6.59636E+03
 -1       331-3.15458E+07 1.22613E+04-1.19827E+07-1.29795E+09-5.68450E+10 5.86973E+03
 -1       332-3.32008E+07 2.19426E+04-1.26080E+07-1.06812E+09-6.00465E+10 5.10028E+03
 -1       333-3.45517E+07 9.82146E+03-1.31259E+07-8.51127E+08-6.27886E+10 4.29534E+03
 -1       334-3.55798E+07 2.15787E+04-1.35121E+07-6.19837E+08-6.50525E+10 3.46210E+03
 -1       335-3.62780E+07 1.55545E+04-1.37797E+07-3.69876E+08-6.68241E+10 2.60823E+03
 -1       336-3.66338E+07 2.09807E+04-1.39129E+07-1.32297E+08-6.80935E+10 1.74186E+03
 -1       337-3.66444E+07 1.61282E+04-1.39187E+07 1.32251E+08-6.88561E+10 8.71158E+02
 -1       338-3.63016E+07 1.54760E+04-1.37887E+07 3.63633E+08-6.91115E+10 4.37086E+00
 -1       339-3.56076E+07 2.21008E+04-1.35225E+07 6.32702E+08-6.88646E+10-8.50266E+02
 -1       340-3.45610E+07 1.50062E+04-1.31275E+07 8.71573E+08-6.81249E+10-1.68401E+03
 -1       341-3.31689E+07 2.27144E+04-1.25955E+07 1.12952E+09-6.69071E+10-2.48882E+03
 -1       342-3.14335E+07 1.00642E+04-1.19409E+07 1.36373E+09-6.52303E+10-3.25655E+03
 -1       343-2.93672E+07 2.30221E+04-1.11508E+07 1.59647E+09-6.31185E+10-3.97887E+03
 -1       344-2.69762E+07 1.25013E+04-1.02462E+07 1.83273E+09-6.06005E+10-4.64830E+03
 -1       345-2.42809E+07 1.48295E+04-9.22108E+06 2.03369E+09-5.77093E+10-5.25742E+03
 -1       346-2.12839E+07 1.53315E+04-8.08204E+06 2.24988E+09-5.44823E+10-5.79888E+03
 -1       347-1.80177E+07 1.40601E+04-6.84139E+06 2.43544E+09-5.09608E+10-6.26580E+03
 -1       348-1.44819E+07 1.08871E+04-5.49899E+06 2.61955E+09-4.71903E+10-6.65195E+03
 -1       349-1.07161E+07 1.37654E+04-4.06690E+06 2.78036E+09-4.32196E+10-6.95135E+03
 -1       350-6.71723E+06 7.35255E+03-2.54975E+06 2.93418E+09-3.91010E+10-7.15844E+03
 -1       351-2.53376E+06 1.26302E+04-9.58020E+05 3.06632E+09-3.48896E+10-7.26829E+03
 -1       352 1.84556E+06 3.07258E+03 7.02490E+05 3.18610E+09-3.06437E+10-7.27650E+03
 -1       353 6.36048E+06 1.38012E+04 2.42224E+06 3.28884E+09-2.64236E+10-7.17914E+03
 -1       354 1.10348E+07-2.64859E+03 4.19221E+06 3.37910E+09-2.22921E+10-6.97250E+03
 -1       355 1.57941E+07 1.57485E+04 6.00774E+06 3.44985E+09-1.83137E+10-6.65358E+03
 -1       356 2.06805E+07-1.22144E+04 7.85396E+06 3.51190E+09-1.45547E+10-6.21989E+03
 -1       357 2.56035E+07 2.68593E+04 9.73956E+06 3.55320E+09-1.10823E+10-5.66987E+03
 -1       358 3.06228E+07-4.31641E+04 1.16203E+07 3.59009E+09-7.96508E+09-5.00184E+03
 -1       359 3.56555E+07 1.26137E+05 1.35970E+07 3.64253E+09-5.27234E+09-4.21447E+03
 -1       360 4.06755E+07-4.05072E+05 1.53028E+07 3.50849E+09-3.07390E+09-3.30647E+03
 -1       361 4.60167E+07 1.38085E+06 1.80111E+07 4.06825E+09-1.43986E+09-2.28011E+03
 -1       362 5.01147E+07-4.73935E+06 1.72426E+07 2.16348E+09-4.41185E+08-1.12539E+03
 -1       363 5.15421E+07 1.69609E+07 2.60311E+07 8.91523E+09-1.09682E+08-5.12515E+02
 -1       364-8.30114E+04-2.32083E+04-4.03679E+04-2.45406E+06-8.73361E+10-1.43969E+04
 -1       365-3.01733E+05-2.19378E+04-1.23001E+05-3.20818E+08-8.31386E+10-1.43934E+04
 -1       366-9.44746E+05-1.98769E+04-3.66563E+05-6.09092E+08-7.47479E+10-1.43787E+04
 -1       367-1.96982E+06-1.75868E+04-7.55217E+05-8.66011E+08-6.63712E+10-1.43441E+04
 -1       368-3.33312E+06-1.44572E+04-1.27208E+06-1.09269E+09-5.80225E+10-1.42812E+04
 -1       369-4.99341E+06-1.40057E+04-1.90282E+06-1.28768E+09-4.97208E+10-1.41824E+04
 -1       370-6.90659E+06-1.07178E+04-2.62858E+06-1.45731E+09-4.14889E+10-1.40410E+04
 -1       371-9.03219E+06-7.08265E+03-3.43493E+06-1.58899E+09-3.33531E+10-1.38516E+04
 -1       372-1.13284E+07-9.82487E+03-4.30851E+06-1.69860E+09-2.53430E+10-1.36099E+04
 -1       373-1.37533E+07-4.26281E+03-5.22786E+06-1.78032E+09-1.74903E+10-1.33120E+04
 -1       374-1.62675E+07-1.43263E+03-6.18220E+06-1.82565E+09-9.82836E+09-1.29554E+04
 -1       375-1.88326E+07 3.01842E+01-7.15639E+06-1.84752E+09-2.39204E+09-1.25384E+04
 -1       376-2.14097E+07 2.04342E+03-8.13490E+06-1.83999E+09 4.78320E+09-1.20602E+04
 -1       377-2.39632E+07-1.14802E+02-9.10606E+06-1.81258E+09 1.16617E+10-1.15211E+04
 -1       378-2.64558E+07 6.65859E+03-1.00507E+07-1.76119E+09 1.82082E+10-1.09221E+04
 -1       379-2.88569E+07 8.16841E+03-1.09625E+07-1.67529E+09 2.43882E+10-1.02648E+04
 -1       380-3.11336E+07 5.46367E+03-1.18287E+07-1.57950E+09 3.01685E+10-9.55189E+03
 -1       381-3.32561E+07 1.10770E+04-1.26331E+07-1.45896E+09 3.55177E+10-8.78670E+03
 -1       382-3.51980E+07 7.07087E+03-1.33726E+07-1.32011E+09 4.04063E+10-7.97325E+03
 -1       383-3.69330E+07 1.53660E+04-1.40287E+07-1.16900E+09 4.48075E+10-7.11629E+03
 -1       384-3.84405E+07 1.14682E+04-1.46030E+07-9.87124E+08 4.86973E+10-6.22083E+03
 -1       385-3.96992E+07 1.43544E+04-1.50802E+07-8.14149E+08 5.20549E+10-5.29228E+03
 -1       386-4.06928E+07 1.38156E+04-1.54580E+07-6.06895E+08 5.48629E+10-4.33700E+03
 -1       387-4.14057E+07 1.68807E+04-1.57278E+07-4.13653E+08 5.71074E+10-3.36147E+03
 -1       388-4.18286E+07 1.78700E+04-1.58881E+07-1.83686E+08 5.87787E+10-2.37248E+03
 -1       389-4.19522E+07 5.82307E+03-1.59396E+07 1.47539E+07 5.98710E+10-1.37700E+03
 -1       390-4.17678E+07 2.39643E+04-1.58627E+07 2.35631E+08 6.03824E+10-3.82028E+02
 -1       391-4.12778E+07 1.34665E+04-1.56804E+07 4.67757E+08 6.03157E+10 6.04970E+02
 -1       392-4.04798E+07 1.66863E+04-1.53760E+07 6.75664E+08 5.96775E+10 1.57633E+03
 -1       393-3.93770E+07 1.45426E+04-1.49577E+07 9.03083E+08 5.84789E+10 2.52514E+03
 -1       394-3.79759E+07 1.74671E+04-1.44242E+07 1.10289E+09 5.67353E+10 3.44436E+03
 -1       395-3.62863E+07 1.29210E+04-1.37839E+07 1.32197E+09 5.44659E+10 4.32674E+03
 -1       396-3.43184E+07 9.93309E+03-1.30372E+07 1.49534E+09 5.16942E+10 5.16569E+03
 -1       397-3.20859E+07 1.93790E+04-1.21853E+07 1.69380E+09 4.84475E+10 5.95475E+03
 -1       398-2.96084E+07 5.68066E+03-1.12490E+07 1.85856E+09 4.47566E+10 6.68785E+03
 -1       399-2.69008E+07 1.42127E+04-1.02169E+07 2.01156E+09 4.06559E+10 7.35946E+03
 -1       400-2.39866E+07 8.48837E+03-9.11167E+06 2.15899E+09 3.61827E+10 7.96412E+03
 -1       401-2.08880E+07 9.22293E+03-7.93393E+06 2.27596E+09 3.13776E+10 8.49724E+03
 -1       402-1.76289E+07 6.61177E+03-6.69648E+06 2.38941E+09 2.62832E+10 8.95491E+03
 -1       403-1.42365E+07 3.84224E+03-5.40843E+06 2.46639E+09 2.09449E+10 9.33338E+03
 -1       404-1.07362E+07 6.06339E+03-4.07744E+06 2.53854E+09 1.54094E+10 9.63010E+03
 -1       405-7.15843E+06 1.55431E+03-2.71962E+06 2.58157E+09 9.72536E+09 9.84296E+03
 -1       406-3.53029E+06 1.49152E+03-1.34095E+06 2.60811E+09 3.94219E+09 9.96996E+03
 -1       407 1.17568E+05-2.61443E+02 4.45704E+04 2.61125E+09-1.88984E+09 1.00104E+04
 -1       408 3.75571E+06-3.33218E+03 1.42590E+06 2.59381E+09-7.72027E+09 9.96453E+03
 -1       409 7.35503E+06-2.17279E+03 2.79408E+06 2.55250E+09-1.34987E+10 9.83238E+03
 -1       410 1.08848E+07-5.37037E+03 4.13418E+06 2.49785E+09-1.91754E+10 9.61565E+03
 -1       411 1.43173E+07-6.49102E+03 5.43809E+06 2.41199E+09-2.47015E+10 9.31639E+03
 -1       412 1.76234E+07-8.32101E+03 6.69371E+06 2.31647E+09-3.00294E+10 8.93678E+03
 -1       413 2.07769E+07-8.86801E+03 7.89183E+06 2.19176E+09-3.51133E+10 8.48048E+03
 -1       414 2.37505E+07-1.03882E+04 9.02124E+06 2.06086E+09-3.99097E+10 7.95138E+03
 -1       415 2.65211E+07-1.39260E+04 1.00727E+07 1.89885E+09-4.43774E+10 7.35393E+03
 -1       416 2.90654E+07-1.01646E+04 1.10410E+07 1.73371E+09-4.84780E+10 6.69320E+03
 -1       417 3.13622E+07-1.54937E+04 1.19118E+07 1.54877E+09-5.21763E+10 5.97520E+03
 -1       418 3.33933E+07-1.11114E+04 1.26852E+07 1.35280E+09-5.54405E+10 5.20594E+03
 -1       419 3.51407E+07-1.86736E+04 1.33464E+07 1.14879E+09-5.82425E+10 4.39146E+03
 -1       420 3.65920E+07-1.49743E+04 1.38993E+07 9.21804E+08-6.05581E+10 3.53907E+03
 -1       421 3.77341E+07-1.60566E+04 1.43329E+07 7.07601E+08-6.23672E+10 2.65600E+03
 -1       422 3.85577E+07-1.97428E+04 1.46444E+07 4.65715E+08-6.36541E+10 1.74935E+03
 -1       423 3.90577E+07-1.45063E+04 1.48364E+07 2.37738E+08-6.44073E+10 8.26849E+02
 -1       424 3.92287E+07-1.50505E+04 1.49012E+07 2.05065E+06-6.46199E+10-1.03434E+02
 -1       425 3.90690E+07-1.87356E+04 1.48391E+07-2.28803E+08-6.42895E+10-1.03361E+03
 -1       426 3.85826E+07-2.00966E+04 1.46538E+07-4.73592E+08-6.34183E+10-1.95613E+03
 -1       427 3.77734E+07-1.02820E+04 1.43500E+07-6.95886E+08-6.20131E+10-2.86351E+03
 -1       428 3.66461E+07-1.92084E+04 1.39182E+07-9.15254E+08-6.00851E+10-3.74796E+03
 -1       429 3.52132E+07-1.66486E+04 1.33747E+07-1.14058E+09-5.76499E+10-4.60176E+03
 -1       430 3.34871E+07-1.25123E+04 1.27204E+07-1.34003E+09-5.47273E+10-5.41778E+03
 -1       431 3.14809E+07-1.18932E+04 1.19582E+07-1.53417E+09-5.13411E+10-6.18972E+03
 -1       432 2.92126E+07-1.45157E+04 1.10953E+07-1.71077E+09-4.75192E+10-6.91095E+03
 -1       433 2.67027E+07-1.15137E+04 1.01426E+07-1.88463E+09-4.32930E+10-7.57529E+03
 -1       434 2.39717E+07-9.28049E+03 9.10573E+06-2.02677E+09-3.86972E+10-8.17744E+03
 -1       435 2.10431E+07-1.09248E+04 7.99222E+06-2.16609E+09-3.37696E+10-8.71234E+03
 -1       436 1.79428E+07-5.44404E+03 6.81620E+06-2.27597E+09-2.85508E+10-9.17548E+03
 -1       437 1.46965E+07-6.87037E+03 5.58203E+06-2.37076E+09-2.30835E+10-9.56333E+03
 -1       438 1.13324E+07-3.86155E+03 4.30484E+06-2.44413E+09-1.74128E+10-9.87264E+03
 -1       439 7.87975E+06-3.57833E+03 2.99294E+06-2.49598E+09-1.15853E+10-1.01008E+04
 -1       440 4.36764E+06-1.86507E+03 1.65899E+06-2.52895E+09-5.64872E+09-1.02462E+04
 -1       441 8.27364E+05 7.53013E+02 3.14673E+05-2.53734E+09 3.48350E+08-1.03078E+04
 -1       442-2.71197E+06 9.05115E+02-1.03021E+06-2.52485E+09 6.35688E+09-1.02852E+04
 -1       443-6.21787E+06 4.32398E+03-2.36116E+06-2.49120E+09 1.23279E+10-1.01791E+04
 -1       444-9.66195E+06 5.20852E+03-3.66957E+06-2.43176E+09 1.82129E+10-9.99045E+03
 -1       445-1.30127E+07 3.27849E+03-4.94358E+06-2.35964E+09 2.39641E+10-9.72091E+03
 -1       446-1.62407E+07 1.07235E+04-6.16740E+06-2.26075E+09 2.95353E+10-9.37322E+03
 -1       447-1.93188E+07 7.63497E+03-7.33824E+06-2.13843E+09 3.48817E+10-8.95062E+03
 -1       448-2.22186E+07 1.18028E+04-8.43860E+06-2.00684E+09 3.99608E+10-8.45684E+03
 -1       449-2.49148E+07 1.03302E+04-9.46372E+06-1.84527E+09 4.47323E+10-7.89667E+03
 -1       450-2.73822E+07 1.58171E+04-1.03992E+07-1.68028E+09 4.91590E+10-7.27525E+03
 -1       451-2.96001E+07 1.20826E+04-1.12435E+07-1.48140E+09 5.32068E+10-6.59808E+03
 -1       452-3.15457E+07 1.22805E+04-1.19827E+07-1.29795E+09 5.68450E+10-5.87138E+03
 -1       453-3.32008E+07 2.19928E+04-1.26079E+07-1.06812E+09 6.00465E+10-5.10186E+03
 -1       454-3.45517E+07 9.80217E+03-1.31259E+07-8.51127E+08 6.27886E+10-4.29685E+03
 -1       455-3.55798E+07 2.15426E+04-1.35121E+07-6.19837E+08 6.50525E+10-3.46355E+03
 -1       456-3.62780E+07 1.55559E+04-1.37797E+07-3.69877E+08 6.68241E+10-2.60962E+03
 -1       457-3.66338E+07 2.09905E+04-1.39129E+07-1.32297E+08 6.80935E+10-1.74321E+03
 -1       458-3.66443E+07 1.61315E+04-1.39187E+07 1.32251E+08 6.88561E+10-8.72452E+02
 -1       459-3.63015E+07 1.54610E+04-1.37887E+07 3.63633E+08 6.91115E+10-5.62026E+00
 -1       460-3.56076E+07 2.20973E+04-1.35225E+07 6.32702E+08 6.88646E+10 8.49055E+02
 -1       461-3.45610E+07 1.49950E+04-1.31275E+07 8.71573E+08 6.81249E+10 1.68283E+03
 -1       462-3.31689E+07 2.26944E+04-1.25956E+07 1.12952E+09 6.69071E+10 2.48767E+03
 -1       463-3.14335E+07 1.00764E+04-1.19409E+07 1.36372E+09 6.52303E+10 3.25544E+03
 -1       464-2.93672E+07 2.30360E+04-1.11508E+07 1.59647E+09 6.31185E+10 3.97780E+03
 -1       465-2.69761E+07 1.25018E+04-1.02462E+07 1.83273E+09 6.06005E+10 4.64728E+03
 -1       466-2.42808E+07 1.48468E+04-9.22108E+06 2.03369E+09 5.77093E+10 5.25644E+03
 -1       467-2.12838E+07 1.53290E+04-8.08204E+06 2.24988E+09 5.44823E+10 5.79794E+03
 -1       468-1.80177E+07 1.40824E+04-6.84138E+06 2.43543E+09 5.09608E+10 6.26491E+03
 -1       469-1.44819E+07 1.08883E+04-5.49899E+06 2.61955E+09 4.71903E+10 6.65110E+03
 -1       470-1.07161E+07 1.37516E+04-4.06690E+06 2.78036E+09 4.32196E+10 6.95055E+03
 -1       471-6.71719E+06 7.35609E+03-2.54974E+06 2.93418E+09 3.91010E+10 7.15769E+03
 -1       472-2.53370E+06 1.26436E+04-9.58010E+05 3.06632E+09 3.48896E+10 7.26760E+03
 -1       473 1.84560E+06 3.06897E+03 7.02484E+05 3.18610E+09 3.06437E+10 7.27586E+03
 -1       474 6.36052E+06 1.37824E+04 2.42222E+06 3.28884E+09 2.64236E+10 7.17857E+03
 -1       475 1.10348E+07-2.62958E+03 4.19222E+06 3.37910E+09 2.22921E+10 6.97198E+03
 -1       476 1.57941E+07 1.57685E+04 6.00776E+06 3.44985E+09 1.83137E+10 6.65313E+03
 -1       477 2.06806E+07-1.22195E+04 7.85396E+06 3.51190E+09 1.45547E+10 6.21950E+03
 -1       478 2.56036E+07 2.68578E+04 9.73956E+06 3.55320E+09 1.10823E+10 5.66954E+03
 -1       479 3.06229E+07-4.31608E+04 1.16203E+07 3.59009E+09 7.96508E+09 5.00157E+03
 -1       480 3.56556E+07 1.26137E+05 1.35970E+07 3.64253E+09 5.27234E+09 4.21426E+03
 -1       481 4.06755E+07-4.05078E+05 1.53028E+07 3.50849E+09 3.07390E+09 3.30631E+03
 -1       482 4.60167E+07 1.38085E+06 1.80111E+07 4.06825E+09 1.43986E+09 2.28000E+03
 -1       483 5.01147E+07-4.73935E+06 1.72426E+07 2.16348E+09 4.41185E+08 1.12534E+03
 -1       484 5.15421E+07 1.69609E+07 2.60312E+07 8.91522E+09 1.09682E+08 5.12489E+02
 -1       485 1.99381E+09 5.84791E+08 9.79870E+08-2.56915E+06 8.73361E+10-3.59829E+08
 -1       486 7.51851E+09 5.59871E+08 3.06979E+09-3.21233E+08 8.31386E+10-3.59742E+08
 -1       487 2.36022E+10 4.97551E+08 9.15789E+09-6.08918E+08 7.47479E+10-3.59377E+08
 -1       488 4.92266E+10 4.48411E+08 1.88765E+10-8.66129E+08 6.63712E+10-3.58514E+08
 -1       489 8.33146E+10 3.62732E+08 3.17974E+10-1.09282E+09 5.80225E+10-3.56943E+08
 -1       490 1.24819E+11 3.56505E+08 4.75666E+10-1.29118E+09 4.97208E+10-3.54474E+08
 -1       491 1.72657E+11 2.69701E+08 6.57120E+10-1.45405E+09 4.14889E+10-3.50942E+08
 -1       492 2.25790E+11 1.80765E+08 8.58687E+10-1.59493E+09 3.33531E+10-3.46210E+08
 -1       493 2.83203E+11 2.44668E+08 1.07710E+11-1.70015E+09 2.53430E+10-3.40165E+08
 -1       494 3.43823E+11 1.11471E+08 1.30695E+11-1.77316E+09 1.74903E+10-3.32716E+08
 -1       495 4.06684E+11 3.53655E+07 1.54554E+11-1.82579E+09 9.82836E+09-3.23800E+08
 -1       496 4.70808E+11-1.59012E+05 1.78907E+11-1.84781E+09 2.39204E+09-3.13375E+08
 -1       497 5.35237E+11-5.34221E+07 2.03370E+11-1.84629E+09-4.78320E+09-3.01423E+08
 -1       498 5.99076E+11 3.89380E+06 2.27650E+11-1.81359E+09-1.16617E+10-2.87947E+08
 -1       499 6.61395E+11-1.69039E+08 2.51266E+11-1.75428E+09-1.82082E+10-2.72971E+08
 -1       500 7.21416E+11-2.02876E+08 2.74061E+11-1.68379E+09-2.43882E+10-2.56541E+08
 -1       501 7.78342E+11-1.43077E+08 2.95716E+11-1.58022E+09-3.01685E+10-2.38722E+08
 -1       502 8.31395E+11-2.75465E+08 3.15825E+11-1.45962E+09-3.55177E+10-2.19596E+08
 -1       503 8.79954E+11-1.84380E+08 3.34312E+11-1.32072E+09-4.04063E+10-1.99263E+08
 -1       504 9.23318E+11-3.83795E+08 3.50715E+11-1.15871E+09-4.48075E+10-1.77837E+08
 -1       505 9.61013E+11-2.93068E+08 3.65074E+11-9.98714E+08-4.86973E+10-1.55448E+08
 -1       506 9.92476E+11-3.62628E+08 3.77003E+11-8.02673E+08-5.20549E+10-1.32237E+08
 -1       507 1.01731E+12-3.47725E+08 3.86447E+11-6.18731E+08-5.48629E+10-1.08357E+08
 -1       508 1.03514E+12-4.31783E+08 3.93190E+11-4.01891E+08-5.71074E+10-8.39696E+07
 -1       509 1.04570E+12-4.44011E+08 3.97198E+11-2.07778E+08-5.87787E+10-5.92448E+07
 -1       510 1.04881E+12-1.59425E+08 3.98487E+11 2.64657E+07-5.98710E+10-3.43587E+07
 -1       511 1.04418E+12-5.94749E+08 3.96561E+11 2.47981E+08-6.03824E+10-9.49003E+06
 -1       512 1.03195E+12-3.50273E+08 3.92007E+11 4.56022E+08-6.03157E+10 1.51790E+07
 -1       513 1.01198E+12-4.14225E+08 3.84395E+11 6.87432E+08-5.96775E+10 3.94647E+07
 -1       514 9.84418E+11-3.73302E+08 3.73937E+11 8.92001E+08-5.84789E+10 6.31860E+07
 -1       515 9.49385E+11-4.39195E+08 3.60599E+11 1.11405E+09-5.67353E+10 8.61637E+07
 -1       516 9.07144E+11-3.25933E+08 3.44591E+11 1.30145E+09-5.44659E+10 1.08223E+08
 -1       517 8.57952E+11-2.56563E+08 3.25924E+11 1.51596E+09-5.16942E+10 1.29196E+08
 -1       518 8.02124E+11-4.81750E+08 3.04624E+11 1.68500E+09-4.84475E+10 1.48921E+08
 -1       519 7.40202E+11-1.53455E+08 2.81219E+11 1.85937E+09-4.47566E+10 1.67248E+08
 -1       520 6.72494E+11-3.51054E+08 2.55414E+11 2.01976E+09-4.06559E+10 1.84033E+08
 -1       521 5.99651E+11-2.22559E+08 2.27783E+11 2.15246E+09-3.61827E+10 1.99149E+08
 -1       522 5.22175E+11-2.28146E+08 1.98340E+11 2.28267E+09-3.13776E+10 2.12479E+08
 -1       523 4.40707E+11-1.70792E+08 1.67404E+11 2.38034E+09-2.62832E+10 2.23920E+08
 -1       524 3.55890E+11-9.50714E+07 1.35202E+11 2.47554E+09-2.09449E+10 2.33386E+08
 -1       525 2.68383E+11-1.53455E+08 1.01927E+11 2.53624E+09-1.54094E+10 2.40803E+08
 -1       526 1.78937E+11-3.89251E+07 6.79814E+10 2.58418E+09-9.72536E+09 2.46119E+08
 -1       527 8.82348E+10-3.87044E+07 3.35145E+10 2.60772E+09-3.94219E+09 2.49293E+08
 -1       528-2.96334E+09 7.05287E+06-1.12339E+09 2.61241E+09 1.88984E+09 2.50307E+08
 -1       529-9.39156E+10 8.30334E+07-3.56564E+10 2.59332E+09 7.72027E+09 2.49156E+08
 -1       530-1.83899E+11 5.66846E+07-6.98599E+10 2.55802E+09 1.34987E+10 2.45855E+08
 -1       531-2.72145E+11 1.34194E+08-1.03364E+11 2.49246E+09 1.91754E+10 2.40437E+08
 -1       532-3.57953E+11 1.64128E+08-1.35960E+11 2.41691E+09 2.47015E+10 2.32950E+08
 -1       533-4.40607E+11 2.11508E+08-1.67350E+11 2.31186E+09 3.00294E+10 2.23461E+08
 -1       534-5.19438E+11 2.22765E+08-1.97302E+11 2.19825E+09 3.51133E+10 2.12054E+08
 -1       535-5.93786E+11 2.65746E+08-2.25538E+11 2.05436E+09 3.99097E+10 1.98827E+08
 -1       536-6.63039E+11 3.46679E+08-2.51823E+11 1.90734E+09 4.43774E+10 1.83893E+08
 -1       537-7.26658E+11 2.64137E+08-2.76030E+11 1.73426E+09 4.84780E+10 1.67381E+08
 -1       538-7.84064E+11 3.85636E+08-2.97798E+11 1.54971E+09 5.21763E+10 1.49430E+08
 -1       539-8.34849E+11 2.87789E+08-3.17133E+11 1.35314E+09 5.54405E+10 1.30194E+08
 -1       540-8.78523E+11 4.66728E+08-3.33662E+11 1.13899E+09 5.82425E+10 1.09836E+08
 -1       541-9.14810E+11 3.82695E+08-3.47482E+11 9.32526E+08 6.05581E+10 8.85271E+07
 -1       542-9.43358E+11 4.04983E+08-3.58322E+11 6.96950E+08 6.23672E+10 6.64483E+07
 -1       543-9.63942E+11 4.97817E+08-3.66109E+11 4.76888E+08 6.36541E+10 4.37853E+07
 -1       544-9.76443E+11 3.69596E+08-3.70908E+11 2.38144E+08 6.44073E+10 2.07293E+07
 -1       545-9.80710E+11 3.79082E+08-3.72526E+11 1.74948E+06 6.46199E+10-2.52557E+06
 -1       546-9.76724E+11 4.76095E+08-3.70974E+11-2.40065E+08 6.42895E+10-2.57841E+07
 -1       547-9.64550E+11 5.03183E+08-3.66338E+11-4.62642E+08 6.34183E+10-4.88512E+07
 -1       548-9.44329E+11 2.67421E+08-3.58743E+11-6.96191E+08 6.20131E+10-7.15327E+07
 -1       549-9.16133E+11 4.79742E+08-3.47948E+11-9.25987E+08 6.00851E+10-9.36388E+07
 -1       550-8.80315E+11 4.25221E+08-3.34358E+11-1.13049E+09 5.76499E+10-1.14985E+08
 -1       551-8.37154E+11 3.14635E+08-3.17999E+11-1.34089E+09 5.47273E+10-1.35393E+08
 -1       552-7.86999E+11 3.03335E+08-2.98945E+11-1.53460E+09 5.13411E+10-1.54691E+08
 -1       553-7.30288E+11 3.65032E+08-2.77371E+11-1.72002E+09 4.75192E+10-1.72720E+08
 -1       554-6.67537E+11 2.91406E+08-2.53553E+11-1.87721E+09 4.32930E+10-1.89329E+08
 -1       555-5.99263E+11 2.36110E+08-2.27630E+11-2.03414E+09 3.86972E+10-2.04382E+08
 -1       556-5.26040E+11 2.74698E+08-1.99791E+11-2.16043E+09 3.37696E+10-2.17753E+08
 -1       557-4.48538E+11 1.41067E+08-1.70391E+11-2.27712E+09 2.85508E+10-2.29334E+08
 -1       558-3.67370E+11 1.71270E+08-1.39536E+11-2.37170E+09 2.30835E+10-2.39029E+08
 -1       559-2.83274E+11 9.99876E+07-1.07606E+11-2.44538E+09 1.74128E+10-2.46761E+08
 -1       560-1.96950E+11 8.78412E+07-7.48075E+10-2.49877E+09 1.15853E+10-2.52467E+08
 -1       561-1.09152E+11 4.91354E+07-4.14593E+10-2.52830E+09 5.64871E+09-2.56104E+08
 -1       562-2.06399E+10-2.10554E+07-7.85116E+09-2.53822E+09-3.48350E+08-2.57647E+08
 -1       563 6.78385E+10-2.02337E+07 2.57709E+10-2.52621E+09-6.35688E+09-2.57087E+08
 -1       564 1.55492E+11-1.11530E+08 5.90446E+10-2.49012E+09-1.23279E+10-2.54433E+08
 -1       565 2.41584E+11-1.28384E+08 9.17532E+10-2.43831E+09-1.82129E+10-2.49716E+08
 -1       566 3.25363E+11-8.81677E+07 1.23604E+11-2.35752E+09-2.39641E+10-2.42980E+08
 -1       567 4.06052E+11-2.64876E+08 1.54199E+11-2.25654E+09-2.95353E+10-2.34289E+08
 -1       568 4.83011E+11-1.98659E+08 1.83469E+11-2.14450E+09-3.48817E+10-2.23725E+08
 -1       569 5.55496E+11-2.94206E+08 2.10977E+11-2.00078E+09-3.99608E+10-2.11386E+08
 -1       570 6.22905E+11-2.65138E+08 2.36603E+11-1.85326E+09-4.47323E+10-1.97384E+08
 -1       571 6.84584E+11-3.98135E+08 2.59991E+11-1.67264E+09-4.91590E+10-1.81848E+08
 -1       572 7.40027E+11-3.05854E+08 2.81094E+11-1.49928E+09-5.32068E+10-1.64921E+08
 -1       573 7.88672E+11-3.13626E+08 2.99576E+11-1.28018E+09-5.68450E+10-1.46757E+08
 -1       574 8.30031E+11-5.49956E+08 3.15203E+11-1.07791E+09-6.00465E+10-1.27523E+08
 -1       575 8.63814E+11-2.55539E+08 3.28152E+11-8.51509E+08-6.27886E+10-1.07397E+08
 -1       576 8.89501E+11-5.40063E+08 3.37805E+11-6.09793E+08-6.50525E+10-8.65634E+07
 -1       577 9.06957E+11-3.96517E+08 3.44493E+11-3.80383E+08-6.68241E+10-6.52171E+07
 -1       578 9.15849E+11-5.32201E+08 3.47821E+11-1.22117E+08-6.80935E+10-4.35578E+07
 -1       579 9.16097E+11-4.02879E+08 3.47964E+11 1.11555E+08-6.88561E+10-2.17898E+07
 -1       580 9.07545E+11-4.03151E+08 3.44714E+11 3.84610E+08-6.91115E+10-1.20884E+05
 -1       581 8.90158E+11-5.42021E+08 3.38054E+11 6.22628E+08-6.88646E+10 2.12405E+07
 -1       582 8.64031E+11-4.01520E+08 3.28179E+11 8.81686E+08-6.81249E+10 4.20848E+07
 -1       583 8.29172E+11-5.48037E+08 3.14877E+11 1.12026E+09-6.69071E+10 6.22048E+07
 -1       584 7.85842E+11-2.86358E+08 2.98511E+11 1.36407E+09-6.52303E+10 8.13955E+07
 -1       585 7.34114E+11-5.47998E+08 2.78755E+11 1.60550E+09-6.31185E+10 9.94567E+07
 -1       586 6.74404E+11-3.54254E+08 2.56139E+11 1.81783E+09-6.06005E+10 1.16195E+08
 -1       587 6.06940E+11-3.36047E+08 2.30509E+11 2.04887E+09-5.77093E+10 1.31421E+08
 -1       588 5.32097E+11-4.32502E+08 2.02033E+11 2.24413E+09-5.44823E+10 1.44956E+08
 -1       589 4.50340E+11-3.04354E+08 1.71014E+11 2.44104E+09-5.09608E+10 1.56632E+08
 -1       590 3.62059E+11-3.37179E+08 1.37454E+11 2.61613E+09-4.71903E+10 1.66287E+08
 -1       591 2.67772E+11-2.75120E+08 1.01649E+11 2.78408E+09-4.32196E+10 1.73772E+08
 -1       592 1.67963E+11-2.73685E+08 6.37218E+10 2.93154E+09-3.91010E+10 1.78952E+08
 -1       593 6.31732E+10-2.16015E+08 2.39237E+10 3.06899E+09-3.48896E+10 1.81701E+08
 -1       594-4.60743E+10-2.02996E+08-1.75854E+10 3.18631E+09-3.06437E+10 1.81906E+08
 -1       595-1.59233E+11-1.98871E+08-6.05841E+10 3.29150E+09-2.64236E+10 1.79469E+08
 -1       596-2.75752E+11-1.12739E+08-1.04829E+11 3.37664E+09-2.22921E+10 1.74304E+08
 -1       597-3.95141E+11-1.85138E+08-1.50224E+11 3.45517E+09-1.83137E+10 1.66335E+08
 -1       598-5.16821E+11 5.53013E+07-1.96371E+11 3.50677E+09-1.45547E+10 1.55502E+08
 -1       599-6.40464E+11-3.82326E+08-2.43521E+11 3.56940E+09-1.10823E+10 1.41755E+08
 -1       600-7.65286E+11 7.52301E+08-2.90523E+11 3.57403E+09-7.96508E+09 1.25054E+08
 -1       601-8.91847E+11-2.81774E+09-3.39972E+11 3.65389E+09-5.27234E+09 1.05375E+08
 -1       602-1.01660E+12 9.86285E+09-3.82562E+11 3.50951E+09-3.07390E+09 8.26765E+07
 -1       603-1.15051E+12-3.45217E+10-4.50310E+11 4.05606E+09-1.43986E+09 5.70233E+07
 -1       604-1.25429E+12 1.18972E+11-4.31421E+11 2.17015E+09-4.41185E+08 2.81387E+07
 -1       605-1.28497E+12-4.24583E+11-6.49631E+11 8.90144E+09-1.09682E+08 1.27931E+07
 -1       606 1.99381E+09 5.84791E+08 9.79870E+08-2.56909E+06-8.73361E+10 3.59829E+08
 -1       607 7.51851E+09 5.59871E+08 3.06979E+09-3.21233E+08-8.31386E+10 3.59743E+08
 -1       608 2.36022E+10 4.97551E+08 9.15789E+09-6.08918E+08-7.47479E+10 3.59377E+08
 -1       609 4.92266E+10 4.48410E+08 1.88765E+10-8.66129E+08-6.63712E+10 3.58514E+08
 -1       610 8.33146E+10 3.62731E+08 3.17974E+10-1.09282E+09-5.80225E+10 3.56943E+08
 -1       611 1.24819E+11 3.56504E+08 4.75666E+10-1.29118E+09-4.97208E+10 3.54474E+08
 -1       612 1.72657E+11 2.69700E+08 6.57120E+10-1.45405E+09-4.14889E+10 3.50942E+08
 -1       613 2.25789E+11 1.80764E+08 8.58687E+10-1.59493E+09-3.33531E+10 3.46210E+08
 -1       614 2.83203E+11 2.44667E+08 1.07710E+11-1.70015E+09-2.53430E+10 3.40165E+08
 -1       615 3.43823E+11 1.11469E+08 1.30695E+11-1.77316E+09-1.74903E+10 3.32716E+08
 -1       616 4.06684E+11 3.53644E+07 1.54554E+11-1.82579E+09-9.82836E+09 3.23800E+08
 -1       617 4.70808E+11-1.60012E+05 1.78907E+11-1.84781E+09-2.39204E+09 3.13375E+08
 -1       618 5.35237E+11-5.34231E+07 2.03370E+11-1.84629E+09 4.78320E+09 3.01423E+08
 -1       619 5.99076E+11 3.89319E+06 2.27650E+11-1.81359E+09 1.16617E+10 2.87947E+08
 -1       620 6.61395E+11-1.69040E+08 2.51266E+11-1.75428E+09 1.82082E+10 2.72971E+08
 -1       621 7.21416E+11-2.02877E+08 2.74061E+11-1.68379E+09 2.43882E+10 2.56541E+08
 -1       622 7.78342E+11-1.43078E+08 2.95716E+11-1.58022E+09 3.01685E+10 2.38722E+08
 -1       623 8.31395E+11-2.75465E+08 3.15825E+11-1.45962E+09 3.55177E+10 2.19596E+08
 -1       624 8.79954E+11-1.84380E+08 3.34312E+11-1.32072E+09 4.04063E+10 1.99263E+08
 -1       625 9.23318E+11-3.83795E+08 3.50715E+11-1.15871E+09 4.48075E+10 1.77837E+08
 -1       626 9.61013E+11-2.93068E+08 3.65074E+11-9.98714E+08 4.86973E+10 1.55448E+08
 -1       627 9.92476E+11-3.62628E+08 3.77003E+11-8.02674E+08 5.20549E+10 1.32237E+08
 -1       628 1.01731E+12-3.47725E+08 3.86447E+11-6.18731E+08 5.48629E+10 1.08357E+08
 -1       629 1.03514E+12-4.31783E+08 3.93190E+11-4.01891E+08 5.71074E+10 8.39696E+07
 -1       630 1.04570E+12-4.44012E+08 3.97198E+11-2.07778E+08 5.87787E+10 5.92448E+07
 -1       631 1.04881E+12-1.59425E+08 3.98487E+11 2.64657E+07 5.98710E+10 3.43587E+07
 -1       632 1.04418E+12-5.94750E+08 3.96561E+11 2.47981E+08 6.03824E+10 9.49002E+06
 -1       633 1.03195E+12-3.50274E+08 3.92007E+11 4.56022E+08 6.03157E+10-1.51790E+07
 -1       634 1.01198E+12-4.14226E+08 3.84395E+11 6.87432E+08 5.96775E+10-3.94647E+07
 -1       635 9.84418E+11-3.73303E+08 3.73937E+11 8.92001E+08 5.84789E+10-6.31860E+07
 -1       636 9.49385E+11-4.39195E+08 3.60599E+11 1.11405E+09 5.67353E+10-8.61637E+07
 -1       637 9.07144E+11-3.25933E+08 3.44591E+11 1.30145E+09 5.44659E+10-1.08223E+08
 -1       638 8.57952E+11-2.56564E+08 3.25924E+11 1.51596E+09 5.16942E+10-1.29196E+08
 -1       639 8.02124E+11-4.81750E+08 3.04624E+11 1.68500E+09 4.84475E+10-1.48921E+08
 -1       640 7.40202E+11-1.53456E+08 2.81219E+11 1.85937E+09 4.47566E+10-1.67248E+08
 -1       641 6.72494E+11-3.51054E+08 2.55414E+11 2.01976E+09 4.06559E+10-1.84033E+08
 -1       642 5.99651E+11-2.22559E+08 2.27783E+11 2.15246E+09 3.61827E+10-1.99149E+08
 -1       643 5.22175E+11-2.28147E+08 1.98340E+11 2.28267E+09 3.13776E+10-2.12479E+08
 -1       644 4.40707E+11-1.70792E+08 1.67404E+11 2.38034E+09 2.62832E+10-2.23920E+08
 -1       645 3.55890E+11-9.50715E+07 1.35202E+11 2.47554E+09 2.09449E+10-2.33386E+08
 -1       646 2.68383E+11-1.53455E+08 1.01927E+11 2.53624E+09 1.54094E+10-2.40803E+08
 -1       647 1.78937E+11-3.89252E+07 6.79814E+10 2.58418E+09 9.72536E+09-2.46119E+08
 -1       648 8.82348E+10-3.87044E+07 3.35145E+10 2.60772E+09 3.94219E+09-2.49293E+08
 -1       649-2.96334E+09 7.05296E+06-1.12339E+09 2.61241E+09-1.88984E+09-2.50307E+08
 -1       650-9.39156E+10 8.30335E+07-3.56564E+10 2.59332E+09-7.72027E+09-2.49156E+08
 -1       651-1.83899E+11 5.66849E+07-6.98599E+10 2.55802E+09-1.34987E+10-2.45855E+08
 -1       652-2.72145E+11 1.34194E+08-1.03364E+11 2.49246E+09-1.91754E+10-2.40437E+08
 -1       653-3.57953E+11 1.64129E+08-1.35960E+11 2.41691E+09-2.47015E+10-2.32950E+08
 -1       654-4.40607E+11 2.11508E+08-1.67350E+11 2.31186E+09-3.00294E+10-2.23461E+08
 -1       655-5.19438E+11 2.22766E+08-1.97302E+11 2.19825E+09-3.51133E+10-2.12054E+08
 -1       656-5.93786E+11 2.65747E+08-2.25538E+11 2.05436E+09-3.99097E+10-1.98827E+08
 -1       657-6.63039E+11 3.46679E+08-2.51823E+11 1.90734E+09-4.43774E+10-1.83893E+08
 -1       658-7.26658E+11 2.64138E+08-2.76030E+11 1.73426E+09-4.84780E+10-1.67381E+08
 -1       659-7.84064E+11 3.85636E+08-2.97798E+11 1.54971E+09-5.21763E+10-1.49430E+08
 -1       660-8.34849E+11 2.87789E+08-3.17133E+11 1.35314E+09-5.54405E+10-1.30194E+08
 -1       661-8.78523E+11 4.66728E+08-3.33662E+11 1.13899E+09-5.82425E+10-1.09836E+08
 -1       662-9.14810E+11 3.82695E+08-3.47482E+11 9.32526E+08-6.05581E+10-8.85271E+07
 -1       663-9.43358E+11 4.04983E+08-3.58322E+11 6.96950E+08-6.23672E+10-6.64483E+07
 -1       664-9.63942E+11 4.97818E+08-3.66109E+11 4.76888E+08-6.36541E+10-4.37853E+07
 -1       665-9.76443E+11 3.69596E+08-3.70908E+11 2.38145E+08-6.44073E+10-2.07293E+07
 -1       666-9.80710E+11 3.79083E+08-3.72526E+11 1.74961E+06-6.46199E+10 2.52557E+06
 -1       667-9.76724E+11 4.76095E+08-3.70974E+11-2.40065E+08-6.42895E+10 2.57841E+07
 -1       668-9.64550E+11 5.03183E+08-3.66338E+11-4.62642E+08-6.34183E+10 4.88512E+07
 -1       669-9.44329E+11 2.67421E+08-3.58743E+11-6.96192E+08-6.20131E+10 7.15327E+07
 -1       670-9.16133E+11 4.79743E+08-3.47948E+11-9.25988E+08-6.00851E+10 9.36388E+07
 -1       671-8.80315E+11 4.25221E+08-3.34358E+11-1.13049E+09-5.76499E+10 1.14985E+08
 -1       672-8.37154E+11 3.14634E+08-3.17999E+11-1.34089E+09-5.47273E+10 1.35393E+08
 -1       673-7.86999E+11 3.03334E+08-2.98945E+11-1.53460E+09-5.13411E+10 1.54691E+08
 -1       674-7.30288E+11 3.65031E+08-2.77371E+11-1.72002E+09-4.75192E+10 1.72720E+08
 -1       675-6.67537E+11 2.91405E+08-2.53553E+11-1.87721E+09-4.32930E+10 1.89329E+08
 -1       676-5.99263E+11 2.36109E+08-2.27630E+11-2.03414E+09-3.86972E+10 2.04382E+08
 -1       677-5.26040E+11 2.74697E+08-1.99791E+11-2.16043E+09-3.37696E+10 2.17753E+08
 -1       678-4.48538E+11 1.41067E+08-1.70391E+11-2.27712E+09-2.85508E+10 2.29334E+08
 -1       679-3.67370E+11 1.71270E+08-1.39536E+11-2.37170E+09-2.30835E+10 2.39029E+08
 -1       680-2.83274E+11 9.99874E+07-1.07606E+11-2.44538E+09-1.74128E+10 2.46761E+08
 -1       681-1.96950E+11 8.78410E+07-7.48075E+10-2.49877E+09-1.15853E+10 2.52467E+08
 -1       682-1.09152E+11 4.91353E+07-4.14593E+10-2.52830E+09-5.64872E+09 2.56104E+08
 -1       683-2.06399E+10-2.10554E+07-7.85116E+09-2.53822E+09 3.48350E+08 2.57647E+08
 -1       684 6.78385E+10-2.02335E+07 2.57709E+10-2.52621E+09 6.35688E+09 2.57087E+08
 -1       685 1.55492E+11-1.11530E+08 5.90446E+10-2.49012E+09 1.23279E+10 2.54433E+08
 -1       686 2.41584E+11-1.28384E+08 9.17532E+10-2.43831E+09 1.82129E+10 2.49716E+08
 -1       687 3.25363E+11-8.81674E+07 1.23604E+11-2.35752E+09 2.39641E+10 2.42980E+08
 -1       688 4.06052E+11-2.64875E+08 1.54199E+11-2.25654E+09 2.95353E+10 2.34289E+08
 -1       689 4.83011E+11-1.98659E+08 1.83469E+11-2.14450E+09 3.48817E+10 2.23725E+08
 -1       690 5.55496E+11-2.94205E+08 2.10977E+11-2.00078E+09 3.99608E+10 2.11386E+08
 -1       691 6.22905E+11-2.65138E+08 2.36603E+11-1.85326E+09 4.47323E+10 1.97384E+08
 -1       692 6.84584E+11-3.98135E+08 2.59991E+11-1.67264E+09 4.91590E+10 1.81848E+08
 -1       693 7.40027E+11-3.05853E+08 2.81094E+11-1.49928E+09 5.32068E+10 1.64921E+08
 -1       694 7.88672E+11-3.13626E+08 2.99576E+11-1.28018E+09 5.68450E+10 1.46757E+08
 -1       695 8.30031E+11-5.49956E+08 3.15203E+11-1.07791E+09 6.00465E+10 1.27523E+08
 -1       696 8.63814E+11-2.55538E+08 3.28152E+11-8.51509E+08 6.27886E+10 1.07397E+08
 -1       697 8.89501E+11-5.40062E+08 3.37805E+11-6.09793E+08 6.50525E+10 8.65634E+07
 -1       698 9.06957E+11-3.96516E+08 3.44493E+11-3.80383E+08 6.68241E+10 6.52172E+07
 -1       699 9.15849E+11-5.32200E+08 3.47821E+11-1.22117E+08 6.80935E+10 4.35579E+07
 -1       700 9.16097E+11-4.02879E+08 3.47964E+11 1.11555E+08 6.88561E+10 2.17898E+07
 -1       701 9.07545E+11-4.03151E+08 3.44714E+11 3.84610E+08 6.91115E+10 1.20895E+05
 -1       702 8.90158E+11-5.42021E+08 3.38054E+11 6.22629E+08 6.88646E+10-2.12405E+07
 -1       703 8.64031E+11-4.01520E+08 3.28179E+11 8.81686E+08 6.81249E+10-4.20848E+07
 -1       704 8.29172E+11-5.48038E+08 3.14877E+11 1.12026E+09 6.69071E+10-6.22048E+07
 -1       705 7.85842E+11-2.86358E+08 2.98511E+11 1.36407E+09 6.52303E+10-8.13955E+07
 -1       706 7.34114E+11-5.47999E+08 2.78755E+11 1.60550E+09 6.31185E+10-9.94567E+07
 -1       707 6.74404E+11-3.54254E+08 2.56139E+11 1.81783E+09 6.06005E+10-1.16195E+08
 -1       708 6.06940E+11-3.36048E+08 2.30509E+11 2.04887E+09 5.77093E+10-1.31421E+08
 -1       709 5.32097E+11-4.32503E+08 2.02033E+11 2.24413E+09 5.44823E+10-1.44956E+08
 -1       710 4.50340E+11-3.04355E+08 1.71014E+11 2.44104E+09 5.09608E+10-1.56632E+08
 -1       711 3.62059E+11-3.37179E+08 1.37454E+11 2.61613E+09 4.71903E+10-1.66287E+08
 -1       712 2.67772E+11-2.75121E+08 1.01649E+11 2.78408E+09 4.32196E+10-1.73772E+08
 -1       713 1.67963E+11-2.73686E+08 6.37218E+10 2.93154E+09 3.91010E+10-1.78952E+08
 -1       714 6.31732E+10-2.16016E+08 2.39237E+10 3.06899E+09 3.48896E+10-1.81701E+08
 -1       715-4.60743E+10-2.02996E+08-1.75854E+10 3.18631E+09 3.06437E+10-1.81906E+08
 -1       716-1.59233E+11-1.98871E+08-6.05841E+10 3.29150E+09 2.64236E+10-1.79469E+08
 -1       717-2.75752E+11-1.12739E+08-1.04829E+11 3.37664E+09 2.22921E+10-1.74304E+08
 -1       718-3.95141E+11-1.85138E+08-1.50224E+11 3.45517E+09 1.83137E+10-1.66335E+08
 -1       719-5.16821E+11 5.53015E+07-1.96371E+11 3.50677E+09 1.45547E+10-1.55502E+08
 -1       720-6.40464E+11-3.82326E+08-2.43521E+11 3.56940E+09 1.10823E+10-1.41755E+08
 -1       721-7.65286E+11 7.52302E+08-2.90523E+11 3.57403E+09 7.96508E+09-1.25054E+08
 -1       722-8.91847E+11-2.81774E+09-3.39972E+11 3.65389E+09 5.27234E+09-1.05375E+08
 -1       723-1.01660E+12 9.86285E+09-3.82562E+11 3.50951E+09 3.07390E+09-8.26765E+07
 -1       724-1.15051E+12-3.45217E+10-4.50310E+11 4.05606E+09 1.43986E+09-5.70233E+07
 -1       725-1.25429E+12 1.18972E+11-4.31421E+11 2.17015E+09 4.41185E+08-2.81387E+07
 -1       726-1.28497E+12-4.24583E+11-6.49631E+11 8.90144E+09 1.09682E+08-1.27931E+07
 -1       727-1.99379E+09-5.84835E+08-9.79879E+08-2.56399E+06 8.73361E+10 3.59858E+08
 -3
    1PSTEP                        15           1           1          
    1PGM                1.000000E+00                                  
    1PGK                8.115021E+06                                  
    1PHID                         -1                                  
    1PSUBC                         0                                  
    1PMODE                         4                                  
  100CL  104 453.3827060         726                     2    4MODAL      1
 -4  TOSTRAIN    6    1
 -5  EXX         1    4    1    1
 -5  EYY         1    4    2    2
 -5  EZZ         1    4    3    3
 -5  EXY         1    4    1    2
 -5  EYZ         1    4    2    3
 -5  EZX         1    4    3    1
 -1         2-1.27767E+00 7.20840E-01 4.75513E-09-9.22548E-02 2.38775E+01 1.03327E-01
 -1         3-4.14840E+00 2.48725E+00 1.50272E-08-1.74875E-01 2.14677E+01 1.03222E-01
 -1         4-8.71656E+00 5.29255E+00 2.57824E-08-2.48743E-01 1.90619E+01 1.02974E-01
 -1         5-1.47958E+01 9.02806E+00 3.63164E-08-3.13846E-01 1.66641E+01 1.02522E-01
 -1         6-2.21869E+01 1.35588E+01 3.95288E-08-3.70814E-01 1.42798E+01 1.01813E-01
 -1         7-3.07146E+01 1.87951E+01 3.91099E-08-4.17587E-01 1.19156E+01 1.00799E-01
 -1         8-4.01854E+01 2.46096E+01 4.25142E-08-4.58047E-01 9.57905E+00 9.94397E-02
 -1         9-5.04017E+01 3.08642E+01 4.41334E-08-4.88266E-01 7.27853E+00 9.77035E-02
 -1        10-6.12105E+01 3.75037E+01 4.09190E-08-5.09233E-01 5.02322E+00 9.55641E-02
 -1        11-7.24122E+01 4.43778E+01 3.60578E-08-5.24347E-01 2.82271E+00 9.30030E-02
 -1        12-8.38343E+01 5.13823E+01 3.35504E-08-5.30672E-01 6.86995E-01 9.00088E-02
 -1        13-9.53126E+01 5.84234E+01 2.98081E-08-5.30234E-01-1.37374E+00 8.65758E-02
 -1        14-1.06674E+02 6.53802E+01 2.36440E-08-5.20843E-01-3.34925E+00 8.27052E-02
 -1        15-1.17789E+02 7.22123E+01 1.84769E-08-5.03810E-01-5.22941E+00 7.84038E-02
 -1        16-1.28481E+02 7.87688E+01 1.27557E-08-4.83567E-01-7.00432E+00 7.36847E-02
 -1        17-1.38611E+02 8.49709E+01 6.11858E-09-4.53822E-01-8.66443E+00 6.85668E-02
 -1        18-1.48072E+02 9.07844E+01 1.51421E-09-4.19188E-01-1.02007E+01 6.30733E-02
 -1        19-1.56709E+02 9.60678E+01-9.23073E-10-3.79296E-01-1.16047E+01 5.72331E-02
 -1        20-1.64452E+02 1.00836E+02-1.92840E-09-3.32770E-01-1.28688E+01 5.10790E-02
 -1        21-1.71154E+02 1.04934E+02-3.73121E-10-2.86820E-01-1.39859E+01 4.46482E-02
 -1        22-1.76764E+02 1.08380E+02 4.30298E-09-2.30519E-01-1.49502E+01 3.79815E-02
 -1        23-1.81186E+02 1.11088E+02 1.11312E-08-1.77693E-01-1.57567E+01 3.11226E-02
 -1        24-1.84369E+02 1.13049E+02 1.72321E-08-1.15419E-01-1.64013E+01 2.41181E-02
 -1        25-1.86251E+02 1.14203E+02 1.89920E-08-5.96716E-02-1.68813E+01 1.70165E-02
 -1        26-1.86773E+02 1.14492E+02 1.87883E-08 7.60067E-03-1.71950E+01 9.86863E-03
 -1        27-1.85996E+02 1.14063E+02 1.97571E-08 7.12177E-02-1.73419E+01 2.72576E-03
 -1        28-1.83791E+02 1.12685E+02 2.27718E-08 1.30965E-01-1.73227E+01-4.35976E-03
 -1        29-1.80243E+02 1.10517E+02 2.48068E-08 1.97423E-01-1.71394E+01-1.13352E-02
 -1        30-1.75331E+02 1.07502E+02 2.38648E-08 2.56173E-01-1.67952E+01-1.81485E-02
 -1        31-1.69100E+02 1.03691E+02 1.94166E-08 3.19942E-01-1.62944E+01-2.47483E-02
 -1        32-1.61566E+02 9.90604E+01 1.17219E-08 3.73762E-01-1.56427E+01-3.10843E-02
 -1        33-1.52799E+02 9.36794E+01 4.78645E-09 4.35367E-01-1.48466E+01-3.71081E-02
 -1        34-1.42882E+02 8.76266E+01 5.03647E-09 4.83915E-01-1.39142E+01-4.27737E-02
 -1        35-1.31820E+02 8.08103E+01 1.02134E-08 5.33992E-01-1.28541E+01-4.80375E-02
 -1        36-1.19786E+02 7.34560E+01 1.42675E-08 5.80055E-01-1.16764E+01-5.28586E-02
 -1        37-1.06801E+02 6.54834E+01 1.67527E-08 6.18165E-01-1.03917E+01-5.72003E-02
 -1        38-9.30057E+01 5.70289E+01 1.57341E-08 6.55560E-01-9.01166E+00-6.10290E-02
 -1        39-7.84929E+01 4.81275E+01 1.08061E-08 6.83609E-01-7.54857E+00-6.43152E-02
 -1        40-6.33817E+01 3.88574E+01 7.67841E-09 7.10950E-01-6.01538E+00-6.70339E-02
 -1        41-4.78062E+01 2.93176E+01 4.89850E-09 7.28382E-01-4.42560E+00-6.91644E-02
 -1        42-3.18666E+01 1.95355E+01 7.80371E-10 7.42150E-01-2.79313E+00-7.06911E-02
 -1        43-1.57157E+01 9.63651E+00-9.97218E-10 7.48908E-01-1.13220E+00-7.16030E-02
 -1        44 5.28436E-01-3.24664E-01-2.33305E-09 7.50256E-01 5.42764E-01-7.18941E-02
 -1        45 1.67321E+01-1.02644E+01-4.66659E-09 7.44775E-01 2.21727E+00-7.15634E-02
 -1        46 3.27520E+01-2.00801E+01-7.04952E-09 7.34637E-01 3.87685E+00-7.06154E-02
 -1        47 4.84740E+01-2.97248E+01-9.63618E-09 7.15809E-01 5.50720E+00-6.90591E-02
 -1        48 6.37566E+01-3.90949E+01-1.36018E-08 6.94112E-01 7.09429E+00-6.69087E-02
 -1        49 7.84796E+01-4.81239E+01-1.53184E-08 6.63942E-01 8.62446E+00-6.41834E-02
 -1        50 9.25178E+01-5.67292E+01-1.50189E-08 6.31315E-01 1.00846E+01-6.09070E-02
 -1        51 1.05761E+02-6.48510E+01-1.79261E-08 5.89990E-01 1.14621E+01-5.71078E-02
 -1        52 1.18102E+02-7.24234E+01-1.90798E-08 5.47767E-01 1.27452E+01-5.28184E-02
 -1        53 1.29421E+02-7.93518E+01-1.55198E-08 4.98060E-01 1.39229E+01-4.80757E-02
 -1        54 1.39656E+02-8.56385E+01-1.12744E-08 4.45059E-01 1.49851E+01-4.29199E-02
 -1        55 1.48688E+02-9.11636E+01-6.48715E-09 3.88608E-01 1.59225E+01-3.73949E-02
 -1        56 1.56485E+02-9.59619E+01-3.29283E-09 3.27107E-01 1.67273E+01-3.15475E-02
 -1        57 1.62937E+02-9.99071E+01 6.96109E-10 2.67811E-01 1.73923E+01-2.54271E-02
 -1        58 1.68023E+02-1.03027E+02 2.51494E-09 2.00157E-01 1.79119E+01-1.90855E-02
 -1        59 1.71698E+02-1.05290E+02-3.79536E-09 1.36957E-01 1.82815E+01-1.25762E-02
 -1        60 1.73910E+02-1.06631E+02-1.15694E-08 6.83924E-02 1.84978E+01-5.95395E-03
 -1        61 1.74671E+02-1.07099E+02-1.66566E-08 5.02267E-04 1.85589E+01 7.25405E-04
 -1        62 1.73972E+02-1.06681E+02-1.89483E-08-6.89442E-02 1.84640E+01 7.40582E-03
 -1        63 1.71807E+02-1.05357E+02-1.97636E-08-1.32866E-01 1.82138E+01 1.40312E-02
 -1        64 1.68181E+02-1.03108E+02-1.67201E-08-1.99939E-01 1.78102E+01 2.05459E-02
 -1        65 1.63183E+02-1.00069E+02-6.87111E-09-2.65934E-01 1.72565E+01 2.68953E-02
 -1        66 1.56799E+02-9.61500E+01 6.75318E-09-3.24666E-01 1.65571E+01 3.30264E-02
 -1        67 1.49102E+02-9.14199E+01 1.87349E-08-3.85089E-01 1.57177E+01 3.88880E-02
 -1        68 1.40170E+02-8.59442E+01 2.63315E-08-4.40721E-01 1.47452E+01 4.44309E-02
 -1        69 1.30078E+02-7.97659E+01 2.91090E-08-4.93972E-01 1.36476E+01 4.96092E-02
 -1        70 1.18896E+02-7.29044E+01 2.57940E-08-5.39116E-01 1.24338E+01 5.43799E-02
 -1        71 1.06733E+02-6.54434E+01 2.08596E-08-5.84183E-01 1.11139E+01 5.87034E-02
 -1        72 9.36991E+01-5.74590E+01 1.80745E-08-6.20453E-01 9.69866E+00 6.25440E-02
 -1        73 7.98841E+01-4.89769E+01 1.51266E-08-6.53965E-01 8.19980E+00 6.58702E-02
 -1        74 6.54343E+01-4.01239E+01 1.17985E-08-6.81126E-01 6.62961E+00 6.86549E-02
 -1        75 5.04520E+01-3.09333E+01 8.94989E-09-7.02287E-01 5.00098E+00 7.08755E-02
 -1        76 3.50793E+01-2.15100E+01 7.38238E-09-7.17621E-01 3.32731E+00 7.25145E-02
 -1        77 1.94415E+01-1.19212E+01 5.91958E-09-7.26100E-01 1.62232E+00 7.35593E-02
 -1        78 3.67293E+00-2.24881E+00 3.53102E-09-7.28949E-01-1.00046E-01 7.40024E-02
 -1        79-1.20818E+01 7.40724E+00-2.98970E-10-7.25502E-01-1.82570E+00 7.38414E-02
 -1        80-2.76998E+01 1.69897E+01-3.36374E-09-7.15137E-01-3.54058E+00 7.30793E-02
 -1        81-4.30316E+01 2.63885E+01-5.43132E-09-7.00257E-01-5.23075E+00 7.17243E-02
 -1        82-5.79452E+01 3.55246E+01-9.60440E-09-6.77054E-01-6.88252E+00 6.97896E-02
 -1        83-7.23323E+01 4.43622E+01-1.08404E-08-6.48053E-01-8.48256E+00 6.72934E-02
 -1        84-8.60287E+01 5.27494E+01-9.91663E-09-6.15877E-01-1.00181E+01 6.42592E-02
 -1        85-9.89463E+01 6.06772E+01-1.16776E-08-5.74604E-01-1.14768E+01 6.07150E-02
 -1        86-1.10946E+02 6.80287E+01-1.63370E-08-5.32237E-01-1.28472E+01 5.66934E-02
 -1        87-1.21944E+02 7.47839E+01-2.10270E-08-4.80363E-01-1.41185E+01 5.22312E-02
 -1        88-1.31806E+02 8.08183E+01-1.96805E-08-4.30576E-01-1.52810E+01 4.73692E-02
 -1        89-1.40469E+02 8.61286E+01-1.71491E-08-3.67655E-01-1.63259E+01 4.21522E-02
 -1        90-1.47859E+02 9.06845E+01-1.79701E-08-3.09564E-01-1.72454E+01 3.66276E-02
 -1        91-1.53842E+02 9.43190E+01-1.86491E-08-2.44544E-01-1.80329E+01 3.08469E-02
 -1        92-1.58448E+02 9.71731E+01-1.80988E-08-1.75126E-01-1.86831E+01 2.48631E-02
 -1        93-1.61540E+02 9.90526E+01-1.46289E-08-1.09242E-01-1.91919E+01 1.87319E-02
 -1        94-1.63138E+02 1.00047E+02-7.90590E-09-3.50704E-02-1.95565E+01 1.25109E-02
 -1        95-1.63168E+02 1.00051E+02 1.83469E-09 3.20377E-02-1.97755E+01 6.25856E-03
 -1        96-1.61646E+02 9.91179E+01 9.30256E-09 1.10456E-01-1.98489E+01 3.47206E-05
 -1        97-1.58565E+02 9.72450E+01 9.36214E-09 1.78813E-01-1.97780E+01-6.10077E-03
 -1        98-1.53897E+02 9.43686E+01 9.23655E-09 2.53211E-01-1.95655E+01-1.20878E-02
 -1        99-1.47706E+02 9.05903E+01 1.43601E-08 3.21728E-01-1.92158E+01-1.78667E-02
 -1       100-1.39962E+02 8.58149E+01 2.21885E-08 3.91746E-01-1.87342E+01-2.33787E-02
 -1       101-1.30779E+02 8.02161E+01 2.80967E-08 4.61082E-01-1.81277E+01-2.85663E-02
 -1       102-1.20126E+02 7.36651E+01 3.10750E-08 5.22062E-01-1.74045E+01-3.33739E-02
 -1       103-1.08111E+02 6.62990E+01 3.20328E-08 5.88413E-01-1.65742E+01-3.77472E-02
 -1       104-9.47949E+01 5.81482E+01 3.08903E-08 6.44489E-01-1.56474E+01-4.16349E-02
 -1       105-8.02229E+01 4.92027E+01 3.08217E-08 7.01042E-01-1.46360E+01-4.49884E-02
 -1       106-6.45066E+01 3.95738E+01 3.21712E-08 7.51324E-01-1.35531E+01-4.77614E-02
 -1       107-4.77107E+01 2.92727E+01 3.31903E-08 7.99559E-01-1.24127E+01-4.99115E-02
 -1       108-2.99381E+01 1.83796E+01 3.10348E-08 8.41907E-01-1.12298E+01-5.13993E-02
 -1       109-1.12725E+01 6.93296E+00 2.42275E-08 8.81381E-01-1.00203E+01-5.21888E-02
 -1       110 8.18204E+00-4.99223E+00 1.57026E-08 9.15074E-01-8.80089E+00-5.22478E-02
 -1       111 2.83320E+01-1.73427E+01 7.04859E-09 9.45284E-01-7.58888E+00-5.15479E-02
 -1       112 4.90893E+01-3.00745E+01 3.03944E-10 9.69735E-01-6.40231E+00-5.00642E-02
 -1       113 7.03403E+01-4.30912E+01-2.79529E-09 9.92291E-01-5.25972E+00-4.77754E-02
 -1       114 9.20335E+01-5.64138E+01-5.66400E-09 1.00711E+00-4.18011E+00-4.46639E-02
 -1       115 1.14002E+02-6.98298E+01-9.77804E-09 1.02510E+00-3.18284E+00-4.07155E-02
 -1       116 1.36352E+02-8.36544E+01-1.38439E-08 1.02642E+00-2.28758E+00-3.59185E-02
 -1       117 1.58499E+02-9.68311E+01-1.76675E-08 1.04936E+00-1.51422E+00-3.02662E-02
 -1       118 1.82098E+02-1.12705E+02-2.11856E-08 1.00789E+00-8.82826E-01-2.37467E-02
 -1       119 2.01096E+02-1.19414E+02-2.41871E-08 1.16487E+00-4.13530E-01-1.63785E-02
 -1       120 2.36330E+02-1.58075E+02-3.15715E-08 6.23221E-01-1.26709E-01-8.08210E-03
 -1       121 1.82468E+02-6.46288E+01-3.77487E-08 2.55682E+00-3.15008E-02-3.67449E-03
 -1       122-2.91197E-01 1.13457E-01-4.58275E-10-7.36362E-04-2.50830E+01-1.03351E-01
 -1       123-1.27767E+00 7.20840E-01-4.75513E-09-9.22549E-02-2.38775E+01-1.03327E-01
 -1       124-4.14840E+00 2.48725E+00-1.50272E-08-1.74875E-01-2.14677E+01-1.03222E-01
 -1       125-8.71656E+00 5.29255E+00-2.57824E-08-2.48743E-01-1.90619E+01-1.02974E-01
 -1       126-1.47958E+01 9.02806E+00-3.63164E-08-3.13846E-01-1.66641E+01-1.02522E-01
 -1       127-2.21869E+01 1.35588E+01-3.95288E-08-3.70814E-01-1.42798E+01-1.01813E-01
 -1       128-3.07146E+01 1.87951E+01-3.91099E-08-4.17587E-01-1.19156E+01-1.00799E-01
 -1       129-4.01854E+01 2.46096E+01-4.25142E-08-4.58047E-01-9.57905E+00-9.94397E-02
 -1       130-5.04017E+01 3.08642E+01-4.41334E-08-4.88266E-01-7.27853E+00-9.77035E-02
 -1       131-6.12105E+01 3.75037E+01-4.09190E-08-5.09233E-01-5.02322E+00-9.55641E-02
 -1       132-7.24122E+01 4.43778E+01-3.60578E-08-5.24347E-01-2.82271E+00-9.30031E-02
 -1       133-8.38343E+01 5.13823E+01-3.35504E-08-5.30672E-01-6.86995E-01-9.00088E-02
 -1       134-9.53126E+01 5.84234E+01-2.98081E-08-5.30234E-01 1.37374E+00-8.65758E-02
 -1       135-1.06674E+02 6.53802E+01-2.36440E-08-5.20843E-01 3.34925E+00-8.27052E-02
 -1       136-1.17789E+02 7.22123E+01-1.84769E-08-5.03810E-01 5.22941E+00-7.84038E-02
 -1       137-1.28481E+02 7.87688E+01-1.27557E-08-4.83567E-01 7.00432E+00-7.36848E-02
 -1       138-1.38611E+02 8.49709E+01-6.11858E-09-4.53822E-01 8.66443E+00-6.85668E-02
 -1       139-1.48072E+02 9.07844E+01-1.51421E-09-4.19188E-01 1.02007E+01-6.30733E-02
 -1       140-1.56709E+02 9.60678E+01 9.23073E-10-3.79296E-01 1.16047E+01-5.72331E-02
 -1       141-1.64452E+02 1.00836E+02 1.92840E-09-3.32770E-01 1.28688E+01-5.10790E-02
 -1       142-1.71154E+02 1.04934E+02 3.73121E-10-2.86820E-01 1.39859E+01-4.46482E-02
 -1       143-1.76764E+02 1.08380E+02-4.30298E-09-2.30519E-01 1.49502E+01-3.79815E-02
 -1       144-1.81186E+02 1.11088E+02-1.11312E-08-1.77693E-01 1.57567E+01-3.11226E-02
 -1       145-1.84369E+02 1.13049E+02-1.72321E-08-1.15419E-01 1.64013E+01-2.41181E-02
 -1       146-1.86251E+02 1.14203E+02-1.89920E-08-5.96716E-02 1.68813E+01-1.70165E-02
 -1       147-1.86773E+02 1.14492E+02-1.87883E-08 7.60067E-03 1.71950E+01-9.86863E-03
 -1       148-1.85996E+02 1.14063E+02-1.97571E-08 7.12177E-02 1.73419E+01-2.72576E-03
 -1       149-1.83791E+02 1.12685E+02-2.27718E-08 1.30965E-01 1.73227E+01 4.35976E-03
 -1       150-1.80243E+02 1.10517E+02-2.48068E-08 1.97423E-01 1.71394E+01 1.13352E-02
 -1       151-1.75331E+02 1.07502E+02-2.38648E-08 2.56173E-01 1.67952E+01 1.81485E-02
 -1       152-1.69100E+02 1.03691E+02-1.94166E-08 3.19942E-01 1.62944E+01 2.47483E-02
 -1       153-1.61566E+02 9.90604E+01-1.17219E-08 3.73762E-01 1.56427E+01 3.10843E-02
 -1       154-1.52799E+02 9.36794E+01-4.78645E-09 4.35367E-01 1.48466E+01 3.71081E-02
 -1       155-1.42882E+02 8.76266E+01-5.03647E-09 4.83915E-01 1.39142E+01 4.27737E-02
 -1       156-1.31820E+02 8.08103E+01-1.02134E-08 5.33992E-01 1.28541E+01 4.80375E-02
 -1       157-1.19786E+02 7.34560E+01-1.42675E-08 5.80055E-01 1.16764E+01 5.28586E-02
 -1       158-1.06801E+02 6.54834E+01-1.67527E-08 6.18165E-01 1.03917E+01 5.72003E-02
 -1       159-9.30057E+01 5.70289E+01-1.57341E-08 6.55560E-01 9.01166E+00 6.10290E-02
 -1       160-7.84929E+01 4.81275E+01-1.08061E-08 6.83609E-01 7.54857E+00 6.43152E-02
 -1       161-6.33817E+01 3.88574E+01-7.67841E-09 7.10950E-01 6.01538E+00 6.70339E-02
 -1       162-4.78062E+01 2.93176E+01-4.89850E-09 7.28382E-01 4.42560E+00 6.91644E-02
 -1       163-3.18666E+01 1.95355E+01-7.80371E-10 7.42150E-01 2.79313E+00 7.06911E-02
 -1       164-1.57157E+01 9.63651E+00 9.97218E-10 7.48908E-01 1.13220E+00 7.16030E-02
 -1       165 5.28436E-01-3.24664E-01 2.33305E-09 7.50256E-01-5.42764E-01 7.18941E-02
 -1       166 1.67321E+01-1.02644E+01 4.66659E-09 7.44775E-01-2.21727E+00 7.15634E-02
 -1       167 3.27520E+01-2.00801E+01 7.04952E-09 7.34637E-01-3.87685E+00 7.06154E-02
 -1       168 4.84740E+01-2.97248E+01 9.63618E-09 7.15809E-01-5.50720E+00 6.90591E-02
 -1       169 6.37566E+01-3.90949E+01 1.36018E-08 6.94112E-01-7.09429E+00 6.69087E-02
 -1       170 7.84796E+01-4.81239E+01 1.53184E-08 6.63942E-01-8.62446E+00 6.41834E-02
 -1       171 9.25178E+01-5.67292E+01 1.50189E-08 6.31315E-01-1.00846E+01 6.09070E-02
 -1       172 1.05761E+02-6.48510E+01 1.79261E-08 5.89991E-01-1.14621E+01 5.71078E-02
 -1       173 1.18102E+02-7.24234E+01 1.90798E-08 5.47767E-01-1.27452E+01 5.28184E-02
 -1       174 1.29421E+02-7.93518E+01 1.55198E-08 4.98060E-01-1.39229E+01 4.80757E-02
 -1       175 1.39656E+02-8.56385E+01 1.12744E-08 4.45059E-01-1.49851E+01 4.29199E-02
 -1       176 1.48688E+02-9.11636E+01 6.48715E-09 3.88608E-01-1.59225E+01 3.73949E-02
 -1       177 1.56485E+02-9.59619E+01 3.29283E-09 3.27107E-01-1.67273E+01 3.15475E-02
 -1       178 1.62937E+02-9.99071E+01-6.96109E-10 2.67811E-01-1.73923E+01 2.54271E-02
 -1       179 1.68023E+02-1.03027E+02-2.51494E-09 2.00157E-01-1.79119E+01 1.90855E-02
 -1       180 1.71698E+02-1.05290E+02 3.79536E-09 1.36957E-01-1.82815E+01 1.25762E-02
 -1       181 1.73910E+02-1.06631E+02 1.15694E-08 6.83925E-02-1.84978E+01 5.95395E-03
 -1       182 1.74671E+02-1.07099E+02 1.66566E-08 5.02302E-04-1.85589E+01-7.25406E-04
 -1       183 1.73972E+02-1.06681E+02 1.89483E-08-6.89442E-02-1.84640E+01-7.40582E-03
 -1       184 1.71807E+02-1.05357E+02 1.97636E-08-1.32866E-01-1.82138E+01-1.40312E-02
 -1       185 1.68181E+02-1.03108E+02 1.67201E-08-1.99939E-01-1.78102E+01-2.05459E-02
 -1       186 1.63183E+02-1.00069E+02 6.87111E-09-2.65934E-01-1.72565E+01-2.68953E-02
 -1       187 1.56799E+02-9.61500E+01-6.75318E-09-3.24666E-01-1.65571E+01-3.30264E-02
 -1       188 1.49102E+02-9.14199E+01-1.87349E-08-3.85089E-01-1.57177E+01-3.88880E-02
 -1       189 1.40170E+02-8.59442E+01-2.63315E-08-4.40721E-01-1.47452E+01-4.44309E-02
 -1       190 1.30078E+02-7.97659E+01-2.91090E-08-4.93972E-01-1.36476E+01-4.96092E-02
 -1       191 1.18896E+02-7.29044E+01-2.57940E-08-5.39116E-01-1.24338E+01-5.43799E-02
 -1       192 1.06733E+02-6.54434E+01-2.08596E-08-5.84183E-01-1.11139E+01-5.87034E-02
 -1       193 9.36991E+01-5.74590E+01-1.80745E-08-6.20453E-01-9.69866E+00-6.25440E-02
 -1       194 7.98841E+01-4.89769E+01-1.51266E-08-6.53965E-01-8.19980E+00-6.58702E-02
 -1       195 6.54343E+01-4.01239E+01-1.17985E-08-6.81126E-01-6.62961E+00-6.86549E-02
 -1       196 5.04520E+01-3.09333E+01-8.94989E-09-7.02287E-01-5.00098E+00-7.08755E-02
 -1       197 3.50793E+01-2.15100E+01-7.38238E-09-7.17621E-01-3.32731E+00-7.25145E-02
 -1       198 1.94415E+01-1.19212E+01-5.91958E-09-7.26100E-01-1.62232E+00-7.35593E-02
 -1       199 3.67293E+00-2.24881E+00-3.53102E-09-7.28949E-01 1.00046E-01-7.40024E-02
 -1       200-1.20818E+01 7.40724E+00 2.98970E-10-7.25502E-01 1.82570E+00-7.38414E-02
 -1       201-2.76998E+01 1.69897E+01 3.36374E-09-7.15137E-01 3.54058E+00-7.30793E-02
 -1       202-4.30316E+01 2.63885E+01 5.43132E-09-7.00257E-01 5.23075E+00-7.17243E-02
 -1       203-5.79452E+01 3.55246E+01 9.60440E-09-6.77054E-01 6.88252E+00-6.97896E-02
 -1       204-7.23323E+01 4.43622E+01 1.08404E-08-6.48053E-01 8.48256E+00-6.72934E-02
 -1       205-8.60287E+01 5.27494E+01 9.91663E-09-6.15877E-01 1.00181E+01-6.42592E-02
 -1       206-9.89463E+01 6.06772E+01 1.16776E-08-5.74604E-01 1.14768E+01-6.07150E-02
 -1       207-1.10946E+02 6.80287E+01 1.63370E-08-5.32237E-01 1.28472E+01-5.66934E-02
 -1       208-1.21944E+02 7.47839E+01 2.10270E-08-4.80363E-01 1.41185E+01-5.22312E-02
 -1       209-1.31806E+02 8.08183E+01 1.96805E-08-4.30576E-01 1.52810E+01-4.73692E-02
 -1       210-1.40469E+02 8.61286E+01 1.71491E-08-3.67655E-01 1.63259E+01-4.21522E-02
 -1       211-1.47859E+02 9.06845E+01 1.79701E-08-3.09564E-01 1.72454E+01-3.66276E-02
 -1       212-1.53842E+02 9.43190E+01 1.86491E-08-2.44544E-01 1.80329E+01-3.08469E-02
 -1       213-1.58448E+02 9.71731E+01 1.80988E-08-1.75126E-01 1.86831E+01-2.48631E-02
 -1       214-1.61540E+02 9.90526E+01 1.46289E-08-1.09242E-01 1.91919E+01-1.87319E-02
 -1       215-1.63138E+02 1.00047E+02 7.90590E-09-3.50705E-02 1.95565E+01-1.25109E-02
 -1       216-1.63168E+02 1.00051E+02-1.83469E-09 3.20376E-02 1.97755E+01-6.25856E-03
 -1       217-1.61646E+02 9.91179E+01-9.30256E-09 1.10456E-01 1.98489E+01-3.47243E-05
 -1       218-1.58565E+02 9.72450E+01-9.36214E-09 1.78813E-01 1.97780E+01 6.10077E-03
 -1       219-1.53897E+02 9.43686E+01-9.23655E-09 2.53211E-01 1.95655E+01 1.20878E-02
 -1       220-1.47706E+02 9.05903E+01-1.43601E-08 3.21728E-01 1.92158E+01 1.78667E-02
 -1       221-1.39962E+02 8.58149E+01-2.21885E-08 3.91746E-01 1.87342E+01 2.33787E-02
 -1       222-1.30779E+02 8.02161E+01-2.80967E-08 4.61082E-01 1.81277E+01 2.85663E-02
 -1       223-1.20126E+02 7.36651E+01-3.10750E-08 5.22062E-01 1.74045E+01 3.33739E-02
 -1       224-1.08111E+02 6.62990E+01-3.20328E-08 5.88413E-01 1.65742E+01 3.77472E-02
 -1       225-9.47949E+01 5.81482E+01-3.08903E-08 6.44489E-01 1.56474E+01 4.16349E-02
 -1       226-8.02229E+01 4.92027E+01-3.08217E-08 7.01042E-01 1.46360E+01 4.49884E-02
 -1       227-6.45066E+01 3.95738E+01-3.21712E-08 7.51324E-01 1.35531E+01 4.77614E-02
 -1       228-4.77107E+01 2.92727E+01-3.31903E-08 7.99559E-01 1.24127E+01 4.99115E-02
 -1       229-2.99381E+01 1.83796E+01-3.10348E-08 8.41907E-01 1.12298E+01 5.13993E-02
 -1       230-1.12725E+01 6.93296E+00-2.42275E-08 8.81381E-01 1.00203E+01 5.21888E-02
 -1       231 8.18204E+00-4.99223E+00-1.57026E-08 9.15074E-01 8.80089E+00 5.22478E-02
 -1       232 2.83320E+01-1.73427E+01-7.04859E-09 9.45284E-01 7.58888E+00 5.15479E-02
 -1       233 4.90893E+01-3.00745E+01-3.03944E-10 9.69735E-01 6.40231E+00 5.00642E-02
 -1       234 7.03403E+01-4.30912E+01 2.79529E-09 9.92291E-01 5.25972E+00 4.77754E-02
 -1       235 9.20335E+01-5.64138E+01 5.66400E-09 1.00711E+00 4.18011E+00 4.46639E-02
 -1       236 1.14002E+02-6.98298E+01 9.77804E-09 1.02510E+00 3.18284E+00 4.07155E-02
 -1       237 1.36352E+02-8.36544E+01 1.38439E-08 1.02642E+00 2.28758E+00 3.59185E-02
 -1       238 1.58499E+02-9.68311E+01 1.76675E-08 1.04936E+00 1.51422E+00 3.02662E-02
 -1       239 1.82098E+02-1.12705E+02 2.11856E-08 1.00789E+00 8.82826E-01 2.37467E-02
 -1       240 2.01096E+02-1.19414E+02 2.41871E-08 1.16487E+00 4.13530E-01 1.63785E-02
 -1       241 2.36330E+02-1.58075E+02 3.15715E-08 6.23221E-01 1.26709E-01 8.08210E-03
 -1       242 1.82468E+02-6.46288E+01 3.77487E-08 2.55682E+00 3.15008E-02 3.67449E-03
 -1       243-1.22506E-05 4.92295E-06 9.18404E-10-7.04826E-04 2.50830E+01 4.13340E-06
 -1       244-5.13341E-05 2.90225E-05 1.26740E-09-9.21391E-02 2.38775E+01 4.13239E-06
 -1       245-1.66057E-04 9.95794E-05 1.33005E-09-1.74932E-01 2.14677E+01 4.12816E-06
 -1       246-3.48841E-04 2.11845E-04 1.23515E-10-2.48719E-01 1.90619E+01 4.11823E-06
 -1       247-5.91936E-04 3.61195E-04 6.84679E-10-3.13820E-01 1.66641E+01 4.10016E-06
 -1       248-8.87625E-04 5.42470E-04 6.08398E-10-3.69823E-01 1.42798E+01 4.07180E-06
 -1       249-1.22865E-03 7.51848E-04-4.61610E-10-4.18540E-01 1.19156E+01 4.03120E-06
 -1       250-1.60754E-03 9.84486E-04 1.22975E-09-4.56360E-01 9.57905E+00 3.97682E-06
 -1       251-2.01611E-03 1.23459E-03 1.21195E-09-4.87840E-01 7.27853E+00 3.90741E-06
 -1       252-2.44851E-03 1.50022E-03-3.09080E-10-5.11309E-01 5.02322E+00 3.82185E-06
 -1       253-2.89652E-03 1.77512E-03 9.52774E-11-5.24328E-01 2.82271E+00 3.71944E-06
 -1       254-3.35343E-03 2.05533E-03 8.83293E-10-5.30610E-01 6.86995E-01 3.59968E-06
 -1       255-3.81253E-03 2.33694E-03 8.60778E-10-5.28447E-01-1.37374E+00 3.46235E-06
 -1       256-4.26699E-03 2.61523E-03-2.60932E-10-5.20575E-01-3.34925E+00 3.30753E-06
 -1       257-4.71157E-03 2.88847E-03-4.74409E-12-5.05815E-01-5.22941E+00 3.13548E-06
 -1       258-5.13928E-03 3.15078E-03 6.29359E-10-4.81146E-01-7.00432E+00 2.94670E-06
 -1       259-5.54439E-03 3.39879E-03 1.56083E-11-4.53634E-01-8.66443E+00 2.74197E-06
 -1       260-5.92294E-03 3.63142E-03-2.25787E-10-4.19015E-01-1.02007E+01 2.52221E-06
 -1       261-6.26829E-03 3.84264E-03 5.44318E-10-3.79138E-01-1.16047E+01 2.28859E-06
 -1       262-6.57813E-03 4.03347E-03 5.46662E-10-3.35738E-01-1.28688E+01 2.04247E-06
 -1       263-6.84615E-03 4.19731E-03 2.04757E-10-2.83503E-01-1.39859E+01 1.78530E-06
 -1       264-7.07058E-03 4.33518E-03 6.79864E-10-2.33824E-01-1.49502E+01 1.51863E-06
 -1       265-7.24746E-03 4.44353E-03 7.42097E-10-1.74301E-01-1.57567E+01 1.24428E-06
 -1       266-7.37473E-03 4.52188E-03 6.68200E-10-1.18801E-01-1.64013E+01 9.64114E-07
 -1       267-7.45014E-03 4.56820E-03 6.17899E-10-5.27547E-02-1.68813E+01 6.80082E-07
 -1       268-7.47083E-03 4.57954E-03 8.05503E-10 4.23735E-03-1.71950E+01 3.94185E-07
 -1       269-7.43999E-03 4.56266E-03 7.58261E-10 6.76735E-02-1.73419E+01 1.08437E-07
 -1       270-7.35159E-03 4.50731E-03 9.38771E-10 1.34340E-01-1.73227E+01-1.75020E-07
 -1       271-7.20984E-03 4.42078E-03 1.13779E-09 1.94051E-01-1.71394E+01-4.53986E-07
 -1       272-7.01323E-03 4.30006E-03 1.24734E-09 2.59366E-01-1.67952E+01-7.26473E-07
 -1       273-6.76407E-03 4.14766E-03 1.23958E-09 3.16751E-01-1.62944E+01-9.90460E-07
 -1       274-6.46272E-03 3.96246E-03 1.10646E-09 3.79671E-01-1.56427E+01-1.24387E-06
 -1       275-6.11198E-03 3.74715E-03 1.05121E-09 4.29464E-01-1.48466E+01-1.48480E-06
 -1       276-5.71548E-03 3.50519E-03 9.97071E-10 4.86460E-01-1.39142E+01-1.71141E-06
 -1       277-5.27283E-03 3.23236E-03 8.33003E-10 5.33780E-01-1.28541E+01-1.92195E-06
 -1       278-4.79164E-03 2.93839E-03 8.73796E-10 5.77722E-01-1.16764E+01-2.11482E-06
 -1       279-4.27208E-03 2.61932E-03 1.12341E-09 6.20065E-01-1.03917E+01-2.28847E-06
 -1       280-3.72042E-03 2.28128E-03 8.02541E-10 6.53656E-01-9.01166E+00-2.44157E-06
 -1       281-3.13982E-03 1.92514E-03 4.55971E-10 6.86241E-01-7.54857E+00-2.57301E-06
 -1       282-2.53544E-03 1.55441E-03 1.32180E-09 7.08350E-01-6.01538E+00-2.68170E-06
 -1       283-1.91239E-03 1.17278E-03 1.62007E-09 7.29070E-01-4.42560E+00-2.76690E-06
 -1       284-1.27484E-03 7.81524E-04 1.01598E-09 7.41429E-01-2.79313E+00-2.82803E-06
 -1       285-6.28787E-04 3.85556E-04 1.26729E-09 7.49050E-01-1.13220E+00-2.86449E-06
 -1       286 2.09586E-05-1.28742E-05 1.26743E-09 7.49953E-01 5.42764E-01-2.87611E-06
 -1       287 6.69117E-04-4.10475E-04 6.51569E-10 7.44945E-01 2.21727E+00-2.86291E-06
 -1       288 1.30990E-03-8.03091E-04 8.18993E-10 7.33080E-01 3.87685E+00-2.82495E-06
 -1       289 1.93878E-03-1.18888E-03 1.17049E-09 7.17386E-01 5.50720E+00-2.76270E-06
 -1       290 2.55010E-03-1.56369E-03 6.14587E-10 6.92727E-01 7.09429E+00-2.67674E-06
 -1       291 3.13900E-03-1.92482E-03 7.81302E-10 6.65293E-01 8.62446E+00-2.56770E-06
 -1       292 3.70058E-03-2.26909E-03 1.26064E-09 6.29474E-01 1.00846E+01-2.43664E-06
 -1       293 4.23025E-03-2.59389E-03 1.14702E-09 5.91882E-01 1.14621E+01-2.28467E-06
 -1       294 4.72398E-03-2.89689E-03 9.42884E-10 5.45353E-01 1.27452E+01-2.11308E-06
 -1       295 5.17663E-03-3.17391E-03 8.60039E-10 4.97924E-01 1.39229E+01-1.92330E-06
 -1       296 5.58619E-03-3.42552E-03 1.14440E-09 4.44809E-01 1.49851E+01-1.71709E-06
 -1       297 5.94736E-03-3.64640E-03 1.30797E-09 3.88525E-01 1.59225E+01-1.49615E-06
 -1       298 6.25935E-03-3.83845E-03 6.40572E-10 3.29934E-01 1.67273E+01-1.26222E-06
 -1       299 6.51737E-03-3.99618E-03 2.33400E-10 2.64743E-01 1.73923E+01-1.01741E-06
 -1       300 6.72086E-03-4.12102E-03 3.16715E-10 2.03224E-01 1.79119E+01-7.63784E-07
 -1       301 6.86790E-03-4.21155E-03 1.37267E-10 1.33754E-01 1.82815E+01-5.03390E-07
 -1       302 6.95636E-03-4.26519E-03 3.41880E-10 6.82785E-02 1.84978E+01-2.38438E-07
 -1       303 6.98687E-03-4.28395E-03 6.29970E-10 5.88914E-04 1.85589E+01 2.87496E-08
 -1       304 6.95885E-03-4.26718E-03 1.28444E-09-6.57125E-02 1.84640E+01 2.95909E-07
 -1       305 6.87238E-03-4.21434E-03 8.73469E-10-1.36016E-01 1.82138E+01 5.60870E-07
 -1       306 6.72722E-03-4.12428E-03 5.27157E-10-1.99859E-01 1.78102E+01 8.21480E-07
 -1       307 6.52747E-03-4.00284E-03 1.00327E-09-2.62861E-01 1.72565E+01 1.07551E-06
 -1       308 6.27203E-03-3.84600E-03 1.31866E-09-3.27576E-01 1.65571E+01 1.32073E-06
 -1       309 5.96423E-03-3.65689E-03 1.46111E-09-3.84858E-01 1.57177E+01 1.55510E-06
 -1       310 5.60692E-03-3.43782E-03 8.20795E-10-4.40614E-01 1.47452E+01 1.77682E-06
 -1       311 5.20331E-03-3.19074E-03 1.21911E-09-4.91335E-01 1.36476E+01 1.98397E-06
 -1       312 4.75605E-03-2.91628E-03 2.08924E-09-5.41266E-01 1.24338E+01 2.17479E-06
 -1       313 4.26952E-03-2.61784E-03 1.84044E-09-5.82089E-01 1.11139E+01 2.34774E-06
 -1       314 3.74821E-03-2.29851E-03 1.64824E-09-6.22102E-01 9.69866E+00 2.50138E-06
 -1       315 3.19557E-03-1.95918E-03 1.73832E-09-6.53660E-01 8.19980E+00 2.63442E-06
 -1       316 2.61766E-03-1.60514E-03 2.30497E-09-6.80883E-01 6.62961E+00 2.74583E-06
 -1       317 2.01832E-03-1.23746E-03 2.27354E-09-7.01956E-01 5.00098E+00 2.83468E-06
 -1       318 1.40348E-03-8.60598E-04 1.58880E-09-7.16846E-01 3.32731E+00 2.90023E-06
 -1       319 7.77917E-04-4.76994E-04 2.13155E-09-7.26316E-01 1.62232E+00 2.94202E-06
 -1       320 1.47233E-04-9.01561E-05 2.30486E-09-7.28725E-01-1.00046E-01 2.95971E-06
 -1       321-4.83015E-04 2.96137E-04 1.53716E-09-7.25139E-01-1.82570E+00 2.95326E-06
 -1       322-1.10766E-03 6.79369E-04 1.82364E-09-7.15474E-01-3.54058E+00 2.92280E-06
 -1       323-1.72103E-03 1.05540E-03 2.40504E-09-6.98403E-01-5.23075E+00 2.86863E-06
 -1       324-2.31747E-03 1.42075E-03 1.44195E-09-6.77691E-01-6.88252E+00 2.79124E-06
 -1       325-2.89307E-03 1.77436E-03 1.47554E-09-6.49289E-01-8.48256E+00 2.69140E-06
 -1       326-3.44083E-03 2.10975E-03 2.58052E-09-6.14158E-01-1.00181E+01 2.57005E-06
 -1       327-3.95764E-03 2.42696E-03 2.52383E-09-5.76367E-01-1.14768E+01 2.42826E-06
 -1       328-4.43758E-03 2.72096E-03 2.53957E-09-5.29963E-01-1.28472E+01 2.26740E-06
 -1       329-4.87753E-03 2.99121E-03 1.99720E-09-4.82577E-01-1.41185E+01 2.08894E-06
 -1       330-5.27207E-03 3.23261E-03 2.04029E-09-4.25458E-01-1.52810E+01 1.89448E-06
 -1       331-5.61852E-03 3.44497E-03 2.76794E-09-3.72771E-01-1.63259E+01 1.68579E-06
 -1       332-5.91429E-03 3.62732E-03 2.49648E-09-3.06764E-01-1.72454E+01 1.46480E-06
 -1       333-6.15351E-03 3.77260E-03 2.45321E-09-2.44444E-01-1.80329E+01 1.23363E-06
 -1       334-6.33786E-03 3.88689E-03 2.47990E-09-1.78018E-01-1.86831E+01 9.94317E-07
 -1       335-6.46153E-03 3.96202E-03 2.27064E-09-1.06229E-01-1.91919E+01 7.49085E-07
 -1       336-6.52547E-03 4.00181E-03 1.91785E-09-3.79958E-02-1.95565E+01 5.00265E-07
 -1       337-6.52682E-03 4.00210E-03 1.30807E-09 3.79827E-02-1.97755E+01 2.50197E-07
 -1       338-6.46571E-03 3.96457E-03 8.65783E-10 1.04436E-01-1.98489E+01 1.25531E-09
 -1       339-6.34286E-03 3.89002E-03 8.31868E-10 1.81712E-01-1.97780E+01-2.44197E-07
 -1       340-6.15572E-03 3.77453E-03 6.54436E-10 2.50317E-01-1.95655E+01-4.83649E-07
 -1       341-5.90868E-03 3.62398E-03 7.23445E-10 3.24398E-01-1.92158E+01-7.14792E-07
 -1       342-5.59829E-03 3.43233E-03 1.25661E-09 3.91663E-01-1.87342E+01-9.35284E-07
 -1       343-5.23177E-03 3.20913E-03 1.33996E-09 4.58507E-01-1.81277E+01-1.14274E-06
 -1       344-4.80486E-03 2.94631E-03 1.50596E-09 5.26361E-01-1.74045E+01-1.33500E-06
 -1       345-4.32518E-03 2.65256E-03 1.64210E-09 5.84078E-01-1.65742E+01-1.50994E-06
 -1       346-3.79158E-03 2.32557E-03 1.67348E-09 6.46168E-01-1.56474E+01-1.66544E-06
 -1       347-3.20985E-03 1.96889E-03 1.82926E-09 6.99459E-01-1.46360E+01-1.79954E-06
 -1       348-2.57990E-03 1.58244E-03 1.24135E-09 7.52336E-01-1.35531E+01-1.91044E-06
 -1       349-1.90967E-03 1.17197E-03 1.30730E-09 7.98522E-01-1.24127E+01-1.99643E-06
 -1       350-1.19690E-03 7.34403E-04 1.61932E-09 8.42699E-01-1.12298E+01-2.05591E-06
 -1       351-4.52551E-04 2.78773E-04 1.63335E-09 8.80650E-01-1.00203E+01-2.08746E-06
 -1       352 3.28292E-04-2.00871E-04 2.15109E-09 9.15052E-01-8.80089E+00-2.08982E-06
 -1       353 1.13107E-03-6.91703E-04 2.06490E-09 9.44559E-01-7.58888E+00-2.06186E-06
 -1       354 1.96519E-03-1.20476E-03 1.61228E-09 9.70479E-01-6.40231E+00-2.00251E-06
 -1       355 2.81065E-03-1.72090E-03 1.64816E-09 9.90800E-01-5.25972E+00-1.91091E-06
 -1       356 3.68380E-03-2.25917E-03 1.86436E-09 1.00862E+00-4.18011E+00-1.78636E-06
 -1       357 4.55615E-03-2.78949E-03 1.81350E-09 1.02048E+00-3.18284E+00-1.62839E-06
 -1       358 5.45755E-03-3.34975E-03 1.60555E-09 1.03108E+00-2.28758E+00-1.43653E-06
 -1       359 6.33521E-03-3.86885E-03 1.67889E-09 1.04614E+00-1.51422E+00-1.21040E-06
 -1       360 7.28707E-03-4.51130E-03 1.79732E-09 1.00764E+00-8.82826E-01-9.49622E-07
 -1       361 8.04324E-03-4.77621E-03 1.66416E-09 1.16841E+00-4.13530E-01-6.54849E-07
 -1       362 9.44088E-03-6.31324E-03 1.77790E-09 6.21353E-01-1.26709E-01-3.23212E-07
 -1       363 7.32677E-03-2.60498E-03 1.93713E-09 2.56046E+00-3.15008E-02-1.47195E-07
 -1       364-1.22482E-05 4.92733E-06-9.18404E-10-7.04809E-04-2.50830E+01-4.13481E-06
 -1       365-5.13333E-05 2.90242E-05-1.26740E-09-9.21392E-02-2.38775E+01-4.13380E-06
 -1       366-1.66056E-04 9.95672E-05-1.33005E-09-1.74932E-01-2.14677E+01-4.12957E-06
 -1       367-3.48836E-04 2.11848E-04-1.23515E-10-2.48719E-01-1.90619E+01-4.11964E-06
 -1       368-5.91932E-04 3.61190E-04-6.84679E-10-3.13820E-01-1.66641E+01-4.10156E-06
 -1       369-8.87621E-04 5.42469E-04-6.08398E-10-3.69823E-01-1.42798E+01-4.07320E-06
 -1       370-1.22865E-03 7.51851E-04 4.61610E-10-4.18540E-01-1.19156E+01-4.03258E-06
 -1       371-1.60754E-03 9.84479E-04-1.22975E-09-4.56360E-01-9.57905E+00-3.97820E-06
 -1       372-2.01610E-03 1.23459E-03-1.21195E-09-4.87840E-01-7.27853E+00-3.90879E-06
 -1       373-2.44850E-03 1.50022E-03 3.09080E-10-5.11309E-01-5.02322E+00-3.82322E-06
 -1       374-2.89651E-03 1.77512E-03-9.52774E-11-5.24328E-01-2.82271E+00-3.72081E-06
 -1       375-3.35343E-03 2.05533E-03-8.83293E-10-5.30610E-01-6.86995E-01-3.60105E-06
 -1       376-3.81253E-03 2.33694E-03-8.60778E-10-5.28447E-01 1.37374E+00-3.46371E-06
 -1       377-4.26699E-03 2.61524E-03 2.60932E-10-5.20575E-01 3.34925E+00-3.30888E-06
 -1       378-4.71157E-03 2.88848E-03 4.74409E-12-5.05815E-01 5.22941E+00-3.13683E-06
 -1       379-5.13928E-03 3.15079E-03-6.29359E-10-4.81145E-01 7.00432E+00-2.94805E-06
 -1       380-5.54439E-03 3.39878E-03-1.56083E-11-4.53633E-01 8.66443E+00-2.74331E-06
 -1       381-5.92294E-03 3.63142E-03 2.25787E-10-4.19015E-01 1.02007E+01-2.52355E-06
 -1       382-6.26829E-03 3.84264E-03-5.44318E-10-3.79138E-01 1.16047E+01-2.28993E-06
 -1       383-6.57813E-03 4.03346E-03-5.46662E-10-3.35738E-01 1.28688E+01-2.04380E-06
 -1       384-6.84615E-03 4.19730E-03-2.04757E-10-2.83503E-01 1.39859E+01-1.78663E-06
 -1       385-7.07058E-03 4.33518E-03-6.79864E-10-2.33824E-01 1.49502E+01-1.51995E-06
 -1       386-7.24746E-03 4.44353E-03-7.42097E-10-1.74301E-01 1.57567E+01-1.24559E-06
 -1       387-7.37473E-03 4.52187E-03-6.68200E-10-1.18801E-01 1.64013E+01-9.65417E-07
 -1       388-7.45014E-03 4.56820E-03-6.17899E-10-5.27547E-02 1.68813E+01-6.81379E-07
 -1       389-7.47083E-03 4.57954E-03-8.05503E-10 4.23734E-03 1.71950E+01-3.95475E-07
 -1       390-7.43998E-03 4.56265E-03-7.58261E-10 6.76735E-02 1.73419E+01-1.09719E-07
 -1       391-7.35158E-03 4.50730E-03-9.38771E-10 1.34340E-01 1.73227E+01 1.73748E-07
 -1       392-7.20983E-03 4.42079E-03-1.13779E-09 1.94051E-01 1.71394E+01 4.52725E-07
 -1       393-7.01323E-03 4.30005E-03-1.24734E-09 2.59366E-01 1.67952E+01 7.25223E-07
 -1       394-6.76406E-03 4.14766E-03-1.23958E-09 3.16751E-01 1.62944E+01 9.89222E-07
 -1       395-6.46271E-03 3.96246E-03-1.10646E-09 3.79671E-01 1.56427E+01 1.24264E-06
 -1       396-6.11197E-03 3.74715E-03-1.05121E-09 4.29464E-01 1.48466E+01 1.48359E-06
 -1       397-5.71547E-03 3.50519E-03-9.97071E-10 4.86460E-01 1.39142E+01 1.71021E-06
 -1       398-5.27282E-03 3.23236E-03-8.33003E-10 5.33780E-01 1.28541E+01 1.92076E-06
 -1       399-4.79163E-03 2.93839E-03-8.73796E-10 5.77722E-01 1.16764E+01 2.11364E-06
 -1       400-4.27208E-03 2.61932E-03-1.12341E-09 6.20065E-01 1.03917E+01 2.28730E-06
 -1       401-3.72041E-03 2.28128E-03-8.02541E-10 6.53656E-01 9.01166E+00 2.44041E-06
 -1       402-3.13981E-03 1.92513E-03-4.55971E-10 6.86241E-01 7.54857E+00 2.57186E-06
 -1       403-2.53544E-03 1.55441E-03-1.32180E-09 7.08350E-01 6.01538E+00 2.68056E-06
 -1       404-1.91239E-03 1.17279E-03-1.62007E-09 7.29070E-01 4.42560E+00 2.76577E-06
 -1       405-1.27483E-03 7.81521E-04-1.01598E-09 7.41429E-01 2.79313E+00 2.82691E-06
 -1       406-6.28783E-04 3.85549E-04-1.26729E-09 7.49050E-01 1.13220E+00 2.86338E-06
 -1       407 2.09637E-05-1.28770E-05-1.26743E-09 7.49953E-01-5.42764E-01 2.87500E-06
 -1       408 6.69123E-04-4.10478E-04-6.51569E-10 7.44945E-01-2.21727E+00 2.86182E-06
 -1       409 1.30991E-03-8.03088E-04-8.18993E-10 7.33080E-01-3.87685E+00 2.82387E-06
 -1       410 1.93879E-03-1.18888E-03-1.17049E-09 7.17386E-01-5.50720E+00 2.76162E-06
 -1       411 2.55011E-03-1.56369E-03-6.14587E-10 6.92727E-01-7.09429E+00 2.67568E-06
 -1       412 3.13900E-03-1.92483E-03-7.81302E-10 6.65293E-01-8.62446E+00 2.56665E-06
 -1       413 3.70059E-03-2.26909E-03-1.26064E-09 6.29474E-01-1.00846E+01 2.43560E-06
 -1       414 4.23025E-03-2.59389E-03-1.14702E-09 5.91882E-01-1.14621E+01 2.28364E-06
 -1       415 4.72398E-03-2.89689E-03-9.42884E-10 5.45352E-01-1.27452E+01 2.11206E-06
 -1       416 5.17663E-03-3.17391E-03-8.60039E-10 4.97924E-01-1.39229E+01 1.92229E-06
 -1       417 5.58619E-03-3.42552E-03-1.14440E-09 4.44809E-01-1.49851E+01 1.71608E-06
 -1       418 5.94737E-03-3.64639E-03-1.30797E-09 3.88525E-01-1.59225E+01 1.49515E-06
 -1       419 6.25935E-03-3.83845E-03-6.40572E-10 3.29934E-01-1.67273E+01 1.26123E-06
 -1       420 6.51737E-03-3.99618E-03-2.33400E-10 2.64743E-01-1.73923E+01 1.01642E-06
 -1       421 6.72086E-03-4.12102E-03-3.16715E-10 2.03224E-01-1.79119E+01 7.62805E-07
 -1       422 6.86791E-03-4.21156E-03-1.37267E-10 1.33754E-01-1.82815E+01 5.02416E-07
 -1       423 6.95637E-03-4.26519E-03-3.41880E-10 6.82785E-02-1.84978E+01 2.37472E-07
 -1       424 6.98688E-03-4.28395E-03-6.29970E-10 5.88948E-04-1.85589E+01-2.97064E-08
 -1       425 6.95885E-03-4.26719E-03-1.28444E-09-6.57125E-02-1.84640E+01-2.96855E-07
 -1       426 6.87239E-03-4.21434E-03-8.73469E-10-1.36016E-01-1.82138E+01-5.61803E-07
 -1       427 6.72723E-03-4.12428E-03-5.27157E-10-1.99859E-01-1.78102E+01-8.22403E-07
 -1       428 6.52748E-03-4.00285E-03-1.00327E-09-2.62862E-01-1.72565E+01-1.07642E-06
 -1       429 6.27204E-03-3.84600E-03-1.31866E-09-3.27576E-01-1.65571E+01-1.32163E-06
 -1       430 5.96424E-03-3.65689E-03-1.46111E-09-3.84858E-01-1.57177E+01-1.55599E-06
 -1       431 5.60693E-03-3.43783E-03-8.20795E-10-4.40614E-01-1.47452E+01-1.77769E-06
 -1       432 5.20332E-03-3.19074E-03-1.21911E-09-4.91335E-01-1.36476E+01-1.98483E-06
 -1       433 4.75606E-03-2.91628E-03-2.08924E-09-5.41266E-01-1.24338E+01-2.17563E-06
 -1       434 4.26953E-03-2.61784E-03-1.84044E-09-5.82089E-01-1.11139E+01-2.34857E-06
 -1       435 3.74822E-03-2.29851E-03-1.64824E-09-6.22102E-01-9.69866E+00-2.50219E-06
 -1       436 3.19558E-03-1.95918E-03-1.73832E-09-6.53660E-01-8.19980E+00-2.63521E-06
 -1       437 2.61767E-03-1.60514E-03-2.30497E-09-6.80883E-01-6.62961E+00-2.74660E-06
 -1       438 2.01833E-03-1.23747E-03-2.27354E-09-7.01956E-01-5.00098E+00-2.83543E-06
 -1       439 1.40349E-03-8.60603E-04-1.58880E-09-7.16846E-01-3.32731E+00-2.90096E-06
 -1       440 7.77927E-04-4.77000E-04-2.13155E-09-7.26316E-01-1.62232E+00-2.94273E-06
 -1       441 1.47243E-04-9.01605E-05-2.30486E-09-7.28725E-01 1.00046E-01-2.96041E-06
 -1       442-4.83004E-04 2.96136E-04-1.53716E-09-7.25139E-01 1.82570E+00-2.95393E-06
 -1       443-1.10765E-03 6.79366E-04-1.82364E-09-7.15474E-01 3.54058E+00-2.92345E-06
 -1       444-1.72102E-03 1.05540E-03-2.40504E-09-6.98403E-01 5.23075E+00-2.86926E-06
 -1       445-2.31745E-03 1.42074E-03-1.44195E-09-6.77691E-01 6.88252E+00-2.79185E-06
 -1       446-2.89306E-03 1.77436E-03-1.47554E-09-6.49289E-01 8.48256E+00-2.69200E-06
 -1       447-3.44082E-03 2.10974E-03-2.58052E-09-6.14158E-01 1.00181E+01-2.57063E-06
 -1       448-3.95763E-03 2.42696E-03-2.52383E-09-5.76367E-01 1.14768E+01-2.42881E-06
 -1       449-4.43757E-03 2.72095E-03-2.53957E-09-5.29963E-01 1.28472E+01-2.26793E-06
 -1       450-4.87752E-03 2.99121E-03-1.99720E-09-4.82577E-01 1.41185E+01-2.08946E-06
 -1       451-5.27205E-03 3.23260E-03-2.04029E-09-4.25458E-01 1.52810E+01-1.89497E-06
 -1       452-5.61851E-03 3.44497E-03-2.76794E-09-3.72771E-01 1.63259E+01-1.68627E-06
 -1       453-5.91427E-03 3.62732E-03-2.49648E-09-3.06764E-01 1.72454E+01-1.46526E-06
 -1       454-6.15350E-03 3.77259E-03-2.45321E-09-2.44444E-01 1.80329E+01-1.23406E-06
 -1       455-6.33785E-03 3.88688E-03-2.47990E-09-1.78018E-01 1.86831E+01-9.94735E-07
 -1       456-6.46152E-03 3.96202E-03-2.27064E-09-1.06229E-01 1.91919E+01-7.49486E-07
 -1       457-6.52546E-03 4.00181E-03-1.91785E-09-3.79959E-02 1.95565E+01-5.00651E-07
 -1       458-6.52681E-03 4.00210E-03-1.30807E-09 3.79826E-02 1.97755E+01-2.50569E-07
 -1       459-6.46570E-03 3.96457E-03-8.65783E-10 1.04436E-01 1.98489E+01-1.61414E-09
 -1       460-6.34286E-03 3.89001E-03-8.31868E-10 1.81712E-01 1.97780E+01 2.43849E-07
 -1       461-6.15572E-03 3.77453E-03-6.54436E-10 2.50317E-01 1.95655E+01 4.83310E-07
 -1       462-5.90868E-03 3.62397E-03-7.23445E-10 3.24398E-01 1.92158E+01 7.14462E-07
 -1       463-5.59828E-03 3.43233E-03-1.25661E-09 3.91663E-01 1.87342E+01 9.34964E-07
 -1       464-5.23177E-03 3.20913E-03-1.33996E-09 4.58507E-01 1.81277E+01 1.14243E-06
 -1       465-4.80486E-03 2.94630E-03-1.50596E-09 5.26361E-01 1.74045E+01 1.33470E-06
 -1       466-4.32517E-03 2.65256E-03-1.64210E-09 5.84078E-01 1.65742E+01 1.50965E-06
 -1       467-3.79157E-03 2.32557E-03-1.67348E-09 6.46168E-01 1.56474E+01 1.66517E-06
 -1       468-3.20985E-03 1.96889E-03-1.82926E-09 6.99459E-01 1.46360E+01 1.79929E-06
 -1       469-2.57990E-03 1.58244E-03-1.24135E-09 7.52335E-01 1.35531E+01 1.91020E-06
 -1       470-1.90966E-03 1.17197E-03-1.30730E-09 7.98522E-01 1.24127E+01 1.99620E-06
 -1       471-1.19690E-03 7.34400E-04-1.61932E-09 8.42699E-01 1.12298E+01 2.05569E-06
 -1       472-4.52541E-04 2.78771E-04-1.63335E-09 8.80650E-01 1.00203E+01 2.08726E-06
 -1       473 3.28302E-04-2.00875E-04-2.15109E-09 9.15052E-01 8.80089E+00 2.08963E-06
 -1       474 1.13108E-03-6.91709E-04-2.06490E-09 9.44559E-01 7.58888E+00 2.06169E-06
 -1       475 1.96520E-03-1.20477E-03-1.61228E-09 9.70479E-01 6.40231E+00 2.00236E-06
 -1       476 2.81066E-03-1.72091E-03-1.64816E-09 9.90800E-01 5.25972E+00 1.91079E-06
 -1       477 3.68381E-03-2.25917E-03-1.86436E-09 1.00862E+00 4.18011E+00 1.78625E-06
 -1       478 4.55616E-03-2.78950E-03-1.81350E-09 1.02048E+00 3.18284E+00 1.62830E-06
 -1       479 5.45756E-03-3.34975E-03-1.60555E-09 1.03108E+00 2.28758E+00 1.43645E-06
 -1       480 6.33522E-03-3.86885E-03-1.67889E-09 1.04614E+00 1.51422E+00 1.21034E-06
 -1       481 7.28708E-03-4.51131E-03-1.79732E-09 1.00764E+00 8.82826E-01 9.49576E-07
 -1       482 8.04325E-03-4.77622E-03-1.66416E-09 1.16841E+00 4.13530E-01 6.54818E-07
 -1       483 9.44089E-03-6.31325E-03-1.77790E-09 6.21353E-01 1.26709E-01 3.23197E-07
 -1       484 7.32678E-03-2.60498E-03-1.93713E-09 2.56046E+00 3.15008E-02 1.47187E-07
 -1       485 2.91206E-01-1.13467E-01 1.37853E-09-7.37863E-04 2.50830E+01-1.03343E-01
 -1       486 1.27768E+00-7.20849E-01-2.22034E-09-9.22584E-02 2.38775E+01-1.03318E-01
 -1       487 4.14841E+00-2.48726E+00-1.23671E-08-1.74882E-01 2.14677E+01-1.03213E-01
 -1       488 8.71657E+00-5.29256E+00-2.55354E-08-2.48753E-01 1.90619E+01-1.02966E-01
 -1       489 1.47958E+01-9.02806E+00-3.49470E-08-3.13858E-01 1.66641E+01-1.02514E-01
 -1       490 2.21869E+01-1.35588E+01-3.83120E-08-3.70829E-01 1.42798E+01-1.01805E-01
 -1       491 3.07146E+01-1.87951E+01-4.00331E-08-4.17604E-01 1.19156E+01-1.00791E-01
 -1       492 4.01854E+01-2.46096E+01-4.00547E-08-4.58065E-01 9.57905E+00-9.94318E-02
 -1       493 5.04017E+01-3.08642E+01-4.17095E-08-4.88286E-01 7.27853E+00-9.76957E-02
 -1       494 6.12105E+01-3.75037E+01-4.15371E-08-5.09254E-01 5.02322E+00-9.55564E-02
 -1       495 7.24122E+01-4.43778E+01-3.58672E-08-5.24368E-01 2.82271E+00-9.29956E-02
 -1       496 8.38343E+01-5.13823E+01-3.17838E-08-5.30693E-01 6.86995E-01-9.00016E-02
 -1       497 9.53126E+01-5.84234E+01-2.80865E-08-5.30255E-01-1.37374E+00-8.65689E-02
 -1       498 1.06674E+02-6.53802E+01-2.41658E-08-5.20864E-01-3.34925E+00-8.26986E-02
 -1       499 1.17789E+02-7.22123E+01-1.84863E-08-5.03830E-01-5.22941E+00-7.83975E-02
 -1       500 1.28481E+02-7.87688E+01-1.14969E-08-4.83587E-01-7.00432E+00-7.36789E-02
 -1       501 1.38611E+02-8.49709E+01-6.08736E-09-4.53840E-01-8.66443E+00-6.85613E-02
 -1       502 1.48072E+02-9.07844E+01-1.96579E-09-4.19205E-01-1.02007E+01-6.30683E-02
 -1       503 1.56709E+02-9.60678E+01 2.01171E-09-3.79311E-01-1.16047E+01-5.72285E-02
 -1       504 1.64452E+02-1.00836E+02 3.02172E-09-3.32783E-01-1.28688E+01-5.10749E-02
 -1       505 1.71154E+02-1.04934E+02 7.82636E-10-2.86831E-01-1.39859E+01-4.46447E-02
 -1       506 1.76764E+02-1.08380E+02-2.94325E-09-2.30528E-01-1.49502E+01-3.79785E-02
 -1       507 1.81186E+02-1.11088E+02-9.64697E-09-1.77700E-01-1.57567E+01-3.11201E-02
 -1       508 1.84369E+02-1.13049E+02-1.58957E-08-1.15423E-01-1.64013E+01-2.41161E-02
 -1       509 1.86251E+02-1.14203E+02-1.77562E-08-5.96741E-02-1.68813E+01-1.70152E-02
 -1       510 1.86773E+02-1.14492E+02-1.71772E-08 7.60097E-03-1.71950E+01-9.86784E-03
 -1       511 1.85996E+02-1.14063E+02-1.82406E-08 7.12204E-02-1.73419E+01-2.72554E-03
 -1       512 1.83791E+02-1.12685E+02-2.08943E-08 1.30970E-01-1.73227E+01 4.35941E-03
 -1       513 1.80243E+02-1.10517E+02-2.25312E-08 1.97431E-01-1.71394E+01 1.13343E-02
 -1       514 1.75331E+02-1.07502E+02-2.13701E-08 2.56183E-01-1.67952E+01 1.81471E-02
 -1       515 1.69100E+02-1.03691E+02-1.69374E-08 3.19955E-01-1.62944E+01 2.47463E-02
 -1       516 1.61566E+02-9.90604E+01-9.50900E-09 3.73776E-01-1.56427E+01 3.10818E-02
 -1       517 1.52799E+02-9.36794E+01-2.68403E-09 4.35385E-01-1.48466E+01 3.71052E-02
 -1       518 1.42882E+02-8.76266E+01-3.04233E-09 4.83935E-01-1.39142E+01 4.27703E-02
 -1       519 1.31820E+02-8.08103E+01-8.54743E-09 5.34013E-01-1.28541E+01 4.80336E-02
 -1       520 1.19786E+02-7.34560E+01-1.25199E-08 5.80078E-01-1.16764E+01 5.28544E-02
 -1       521 1.06801E+02-6.54834E+01-1.45059E-08 6.18189E-01-1.03917E+01 5.71958E-02
 -1       522 9.30057E+01-5.70289E+01-1.41290E-08 6.55586E-01-9.01166E+00 6.10241E-02
 -1       523 7.84929E+01-4.81275E+01-9.89420E-09 6.83636E-01-7.54857E+00 6.43101E-02
 -1       524 6.33817E+01-3.88574E+01-5.03481E-09 7.10978E-01-6.01538E+00 6.70285E-02
 -1       525 4.78062E+01-2.93176E+01-1.65836E-09 7.28411E-01-4.42560E+00 6.91589E-02
 -1       526 3.18666E+01-1.95355E+01 1.25158E-09 7.42180E-01-2.79313E+00 7.06854E-02
 -1       527 1.57157E+01-9.63651E+00 3.53180E-09 7.48938E-01-1.13220E+00 7.15972E-02
 -1       528-5.28435E-01 3.24664E-01 4.86792E-09 7.50285E-01 5.42764E-01 7.18884E-02
 -1       529-1.67321E+01 1.02644E+01 5.96973E-09 7.44805E-01 2.21727E+00 7.15577E-02
 -1       530-3.27520E+01 2.00801E+01 8.68750E-09 7.34666E-01 3.87685E+00 7.06098E-02
 -1       531-4.84740E+01 2.97248E+01 1.19772E-08 7.15837E-01 5.50720E+00 6.90536E-02
 -1       532-6.37566E+01 3.90949E+01 1.48309E-08 6.94139E-01 7.09429E+00 6.69033E-02
 -1       533-7.84796E+01 4.81239E+01 1.68810E-08 6.63968E-01 8.62446E+00 6.41782E-02
 -1       534-9.25178E+01 5.67292E+01 1.75402E-08 6.31340E-01 1.00846E+01 6.09021E-02
 -1       535-1.05761E+02 6.48510E+01 2.02201E-08 5.90014E-01 1.14621E+01 5.71032E-02
 -1       536-1.18102E+02 7.24234E+01 2.09656E-08 5.47789E-01 1.27452E+01 5.28142E-02
 -1       537-1.29421E+02 7.93518E+01 1.72398E-08 4.98080E-01 1.39229E+01 4.80719E-02
 -1       538-1.39656E+02 8.56385E+01 1.35632E-08 4.45077E-01 1.49851E+01 4.29165E-02
 -1       539-1.48688E+02 9.11636E+01 9.10308E-09 3.88624E-01 1.59225E+01 3.73919E-02
 -1       540-1.56485E+02 9.59619E+01 4.57398E-09 3.27120E-01 1.67273E+01 3.15450E-02
 -1       541-1.62937E+02 9.99071E+01-2.29310E-10 2.67822E-01 1.73923E+01 2.54251E-02
 -1       542-1.68023E+02 1.03027E+02-1.88151E-09 2.00165E-01 1.79119E+01 1.90840E-02
 -1       543-1.71698E+02 1.05290E+02 4.06990E-09 1.36963E-01 1.82815E+01 1.25752E-02
 -1       544-1.73910E+02 1.06631E+02 1.22532E-08 6.83953E-02 1.84978E+01 5.95347E-03
 -1       545-1.74671E+02 1.07099E+02 1.79166E-08 5.02453E-04 1.85589E+01-7.25347E-04
 -1       546-1.73972E+02 1.06681E+02 2.15171E-08-6.89468E-02 1.84640E+01-7.40523E-03
 -1       547-1.71807E+02 1.05357E+02 2.15105E-08-1.32871E-01 1.82138E+01-1.40301E-02
 -1       548-1.68181E+02 1.03108E+02 1.77744E-08-1.99947E-01 1.78102E+01-2.05443E-02
 -1       549-1.63183E+02 1.00069E+02 8.87764E-09-2.65944E-01 1.72565E+01-2.68931E-02
 -1       550-1.56799E+02 9.61500E+01-4.11587E-09-3.24679E-01 1.65571E+01-3.30238E-02
 -1       551-1.49102E+02 9.14199E+01-1.58127E-08-3.85104E-01 1.57177E+01-3.88849E-02
 -1       552-1.40170E+02 8.59442E+01-2.46899E-08-4.40739E-01 1.47452E+01-4.44274E-02
 -1       553-1.30078E+02 7.97659E+01-2.66708E-08-4.93991E-01 1.36476E+01-4.96053E-02
 -1       554-1.18896E+02 7.29044E+01-2.16155E-08-5.39137E-01 1.24338E+01-5.43756E-02
 -1       555-1.06733E+02 6.54434E+01-1.71787E-08-5.84207E-01 1.11139E+01-5.86987E-02
 -1       556-9.36991E+01 5.74590E+01-1.47780E-08-6.20478E-01 9.69866E+00-6.25390E-02
 -1       557-7.98841E+01 4.89769E+01-1.16500E-08-6.53991E-01 8.19980E+00-6.58650E-02
 -1       558-6.54343E+01 4.01239E+01-7.18858E-09-6.81153E-01 6.62961E+00-6.86494E-02
 -1       559-5.04520E+01 3.09333E+01-4.40281E-09-7.02315E-01 5.00098E+00-7.08698E-02
 -1       560-3.50793E+01 2.15100E+01-4.20478E-09-7.17650E-01 3.32731E+00-7.25087E-02
 -1       561-1.94415E+01 1.19212E+01-1.65648E-09-7.26129E-01 1.62232E+00-7.35534E-02
 -1       562-3.67293E+00 2.24881E+00 1.07871E-09-7.28978E-01-1.00046E-01-7.39964E-02
 -1       563 1.20818E+01-7.40724E+00 3.37329E-09-7.25531E-01-1.82570E+00-7.38355E-02
 -1       564 2.76998E+01-1.69897E+01 7.01103E-09-7.15166E-01-3.54058E+00-7.30735E-02
 -1       565 4.30316E+01-2.63885E+01 1.02414E-08-7.00285E-01-5.23075E+00-7.17186E-02
 -1       566 5.79452E+01-3.55246E+01 1.24883E-08-6.77081E-01-6.88252E+00-6.97841E-02
 -1       567 7.23323E+01-4.43622E+01 1.37915E-08-6.48079E-01-8.48256E+00-6.72880E-02
 -1       568 8.60287E+01-5.27494E+01 1.50777E-08-6.15902E-01-1.00181E+01-6.42541E-02
 -1       569 9.89463E+01-6.06772E+01 1.67253E-08-5.74627E-01-1.14768E+01-6.07102E-02
 -1       570 1.10946E+02-6.80287E+01 2.14161E-08-5.32258E-01-1.28472E+01-5.66889E-02
 -1       571 1.21944E+02-7.47839E+01 2.50214E-08-4.80383E-01-1.41185E+01-5.22270E-02
 -1       572 1.31806E+02-8.08183E+01 2.37611E-08-4.30593E-01-1.52810E+01-4.73655E-02
 -1       573 1.40469E+02-8.61286E+01 2.26850E-08-3.67670E-01-1.63259E+01-4.21488E-02
 -1       574 1.47859E+02-9.06845E+01 2.29630E-08-3.09577E-01-1.72454E+01-3.66247E-02
 -1       575 1.53842E+02-9.43190E+01 2.35555E-08-2.44554E-01-1.80329E+01-3.08444E-02
 -1       576 1.58448E+02-9.71731E+01 2.30586E-08-1.75133E-01-1.86831E+01-2.48611E-02
 -1       577 1.61540E+02-9.90526E+01 1.91701E-08-1.09246E-01-1.91919E+01-1.87304E-02
 -1       578 1.63138E+02-1.00047E+02 1.17416E-08-3.50720E-02-1.95565E+01-1.25099E-02
 -1       579 1.63168E+02-1.00051E+02 7.81448E-10 3.20387E-02-1.97755E+01-6.25806E-03
 -1       580 1.61646E+02-9.91179E+01-7.57100E-09 1.10460E-01-1.98489E+01-3.47181E-05
 -1       581 1.58565E+02-9.72450E+01-7.69840E-09 1.78819E-01-1.97780E+01 6.10028E-03
 -1       582 1.53897E+02-9.43686E+01-7.92768E-09 2.53221E-01-1.95655E+01 1.20868E-02
 -1       583 1.47706E+02-9.05903E+01-1.29132E-08 3.21741E-01-1.92158E+01 1.78653E-02
 -1       584 1.39962E+02-8.58149E+01-1.96753E-08 3.91762E-01-1.87342E+01 2.33768E-02
 -1       585 1.30779E+02-8.02161E+01-2.54168E-08 4.61100E-01-1.81277E+01 2.85641E-02
 -1       586 1.20126E+02-7.36651E+01-2.80631E-08 5.22083E-01-1.74045E+01 3.33712E-02
 -1       587 1.08111E+02-6.62990E+01-2.87486E-08 5.88436E-01-1.65742E+01 3.77442E-02
 -1       588 9.47949E+01-5.81482E+01-2.75433E-08 6.44515E-01-1.56474E+01 4.16316E-02
 -1       589 8.02229E+01-4.92027E+01-2.71632E-08 7.01070E-01-1.46360E+01 4.49848E-02
 -1       590 6.45066E+01-3.95738E+01-2.96885E-08 7.51355E-01-1.35531E+01 4.77576E-02
 -1       591 4.77107E+01-2.92726E+01-3.05757E-08 7.99591E-01-1.24127E+01 4.99075E-02
 -1       592 2.99381E+01-1.83796E+01-2.77961E-08 8.41941E-01-1.12298E+01 5.13952E-02
 -1       593 1.12725E+01-6.93296E+00-2.09608E-08 8.81415E-01-1.00203E+01 5.21846E-02
 -1       594-8.18205E+00 4.99223E+00-1.14004E-08 9.15112E-01-8.80089E+00 5.22436E-02
 -1       595-2.83320E+01 1.73427E+01-2.91879E-09 9.45320E-01-7.58888E+00 5.15437E-02
 -1       596-4.90893E+01 3.00745E+01 2.92061E-09 9.69775E-01-6.40231E+00 5.00601E-02
 -1       597-7.03403E+01 4.30912E+01 6.09160E-09 9.92329E-01-5.25972E+00 4.77716E-02
 -1       598-9.20335E+01 5.64138E+01 9.39272E-09 1.00715E+00-4.18011E+00 4.46603E-02
 -1       599-1.14002E+02 6.98298E+01 1.34050E-08 1.02514E+00-3.18284E+00 4.07122E-02
 -1       600-1.36352E+02 8.36544E+01 1.70550E-08 1.02646E+00-2.28758E+00 3.59156E-02
 -1       601-1.58499E+02 9.68311E+01 2.10253E-08 1.04940E+00-1.51422E+00 3.02638E-02
 -1       602-1.82097E+02 1.12705E+02 2.47802E-08 1.00793E+00-8.82826E-01 2.37448E-02
 -1       603-2.01097E+02 1.19415E+02 2.75154E-08 1.16490E+00-4.13530E-01 1.63772E-02
 -1       604-2.36329E+02 1.58073E+02 3.51273E-08 6.23268E-01-1.26709E-01 8.08145E-03
 -1       605-1.82471E+02 6.46340E+01 4.16229E-08 2.55650E+00-3.15008E-02 3.67419E-03
 -1       606 2.91206E-01-1.13467E-01-1.37853E-09-7.37846E-04-2.50830E+01 1.03343E-01
 -1       607 1.27768E+00-7.20849E-01 2.22034E-09-9.22585E-02-2.38775E+01 1.03318E-01
 -1       608 4.14841E+00-2.48726E+00 1.23671E-08-1.74882E-01-2.14677E+01 1.03213E-01
 -1       609 8.71657E+00-5.29256E+00 2.55354E-08-2.48753E-01-1.90619E+01 1.02966E-01
 -1       610 1.47958E+01-9.02806E+00 3.49470E-08-3.13859E-01-1.66641E+01 1.02514E-01
 -1       611 2.21869E+01-1.35588E+01 3.83120E-08-3.70829E-01-1.42798E+01 1.01805E-01
 -1       612 3.07146E+01-1.87951E+01 4.00331E-08-4.17604E-01-1.19156E+01 1.00791E-01
 -1       613 4.01854E+01-2.46096E+01 4.00547E-08-4.58065E-01-9.57905E+00 9.94318E-02
 -1       614 5.04017E+01-3.08642E+01 4.17095E-08-4.88286E-01-7.27853E+00 9.76957E-02
 -1       615 6.12105E+01-3.75037E+01 4.15371E-08-5.09254E-01-5.02322E+00 9.55564E-02
 -1       616 7.24122E+01-4.43778E+01 3.58672E-08-5.24368E-01-2.82271E+00 9.29956E-02
 -1       617 8.38343E+01-5.13823E+01 3.17838E-08-5.30693E-01-6.86995E-01 9.00016E-02
 -1       618 9.53126E+01-5.84234E+01 2.80865E-08-5.30255E-01 1.37374E+00 8.65689E-02
 -1       619 1.06674E+02-6.53802E+01 2.41658E-08-5.20864E-01 3.34925E+00 8.26986E-02
 -1       620 1.17789E+02-7.22123E+01 1.84863E-08-5.03830E-01 5.22941E+00 7.83975E-02
 -1       621 1.28481E+02-7.87688E+01 1.14969E-08-4.83587E-01 7.00432E+00 7.36789E-02
 -1       622 1.38611E+02-8.49709E+01 6.08736E-09-4.53840E-01 8.66443E+00 6.85613E-02
 -1       623 1.48072E+02-9.07844E+01 1.96579E-09-4.19205E-01 1.02007E+01 6.30683E-02
 -1       624 1.56709E+02-9.60678E+01-2.01171E-09-3.79311E-01 1.16047E+01 5.72285E-02
 -1       625 1.64452E+02-1.00836E+02-3.02172E-09-3.32783E-01 1.28688E+01 5.10749E-02
 -1       626 1.71154E+02-1.04934E+02-7.82636E-10-2.86831E-01 1.39859E+01 4.46447E-02
 -1       627 1.76764E+02-1.08380E+02 2.94325E-09-2.30529E-01 1.49502E+01 3.79785E-02
 -1       628 1.81186E+02-1.11088E+02 9.64697E-09-1.77700E-01 1.57567E+01 3.11201E-02
 -1       629 1.84369E+02-1.13049E+02 1.58957E-08-1.15423E-01 1.64013E+01 2.41161E-02
 -1       630 1.86251E+02-1.14203E+02 1.77562E-08-5.96741E-02 1.68813E+01 1.70152E-02
 -1       631 1.86773E+02-1.14492E+02 1.71772E-08 7.60096E-03 1.71950E+01 9.86784E-03
 -1       632 1.85996E+02-1.14063E+02 1.82406E-08 7.12204E-02 1.73419E+01 2.72554E-03
 -1       633 1.83791E+02-1.12685E+02 2.08943E-08 1.30970E-01 1.73227E+01-4.35941E-03
 -1       634 1.80243E+02-1.10517E+02 2.25312E-08 1.97431E-01 1.71394E+01-1.13343E-02
 -1       635 1.75331E+02-1.07502E+02 2.13701E-08 2.56183E-01 1.67952E+01-1.81471E-02
 -1       636 1.69100E+02-1.03691E+02 1.69374E-08 3.19955E-01 1.62944E+01-2.47463E-02
 -1       637 1.61566E+02-9.90604E+01 9.50900E-09 3.73777E-01 1.56427E+01-3.10818E-02
 -1       638 1.52799E+02-9.36794E+01 2.68403E-09 4.35385E-01 1.48466E+01-3.71052E-02
 -1       639 1.42882E+02-8.76266E+01 3.04233E-09 4.83935E-01 1.39142E+01-4.27703E-02
 -1       640 1.31820E+02-8.08103E+01 8.54743E-09 5.34013E-01 1.28541E+01-4.80336E-02
 -1       641 1.19786E+02-7.34560E+01 1.25199E-08 5.80078E-01 1.16764E+01-5.28544E-02
 -1       642 1.06801E+02-6.54834E+01 1.45059E-08 6.18189E-01 1.03917E+01-5.71958E-02
 -1       643 9.30057E+01-5.70289E+01 1.41290E-08 6.55586E-01 9.01166E+00-6.10241E-02
 -1       644 7.84929E+01-4.81275E+01 9.89420E-09 6.83636E-01 7.54857E+00-6.43101E-02
 -1       645 6.33817E+01-3.88574E+01 5.03481E-09 7.10978E-01 6.01538E+00-6.70285E-02
 -1       646 4.78062E+01-2.93176E+01 1.65836E-09 7.28411E-01 4.42560E+00-6.91589E-02
 -1       647 3.18666E+01-1.95355E+01-1.25158E-09 7.42180E-01 2.79313E+00-7.06854E-02
 -1       648 1.57157E+01-9.63651E+00-3.53180E-09 7.48938E-01 1.13220E+00-7.15972E-02
 -1       649-5.28435E-01 3.24664E-01-4.86792E-09 7.50286E-01-5.42764E-01-7.18884E-02
 -1       650-1.67321E+01 1.02644E+01-5.96973E-09 7.44805E-01-2.21727E+00-7.15577E-02
 -1       651-3.27520E+01 2.00801E+01-8.68750E-09 7.34667E-01-3.87685E+00-7.06098E-02
 -1       652-4.84740E+01 2.97248E+01-1.19772E-08 7.15837E-01-5.50720E+00-6.90536E-02
 -1       653-6.37566E+01 3.90949E+01-1.48309E-08 6.94140E-01-7.09429E+00-6.69033E-02
 -1       654-7.84796E+01 4.81239E+01-1.68810E-08 6.63968E-01-8.62446E+00-6.41782E-02
 -1       655-9.25178E+01 5.67292E+01-1.75402E-08 6.31340E-01-1.00846E+01-6.09021E-02
 -1       656-1.05761E+02 6.48510E+01-2.02201E-08 5.90014E-01-1.14621E+01-5.71032E-02
 -1       657-1.18102E+02 7.24234E+01-2.09656E-08 5.47789E-01-1.27452E+01-5.28142E-02
 -1       658-1.29421E+02 7.93518E+01-1.72398E-08 4.98080E-01-1.39229E+01-4.80719E-02
 -1       659-1.39656E+02 8.56385E+01-1.35632E-08 4.45077E-01-1.49851E+01-4.29165E-02
 -1       660-1.48688E+02 9.11636E+01-9.10308E-09 3.88624E-01-1.59225E+01-3.73919E-02
 -1       661-1.56485E+02 9.59619E+01-4.57398E-09 3.27120E-01-1.67273E+01-3.15450E-02
 -1       662-1.62937E+02 9.99071E+01 2.29310E-10 2.67822E-01-1.73923E+01-2.54251E-02
 -1       663-1.68023E+02 1.03027E+02 1.88151E-09 2.00165E-01-1.79119E+01-1.90840E-02
 -1       664-1.71698E+02 1.05290E+02-4.06990E-09 1.36963E-01-1.82815E+01-1.25752E-02
 -1       665-1.73910E+02 1.06631E+02-1.22532E-08 6.83953E-02-1.84978E+01-5.95347E-03
 -1       666-1.74671E+02 1.07099E+02-1.79166E-08 5.02488E-04-1.85589E+01 7.25347E-04
 -1       667-1.73972E+02 1.06681E+02-2.15171E-08-6.89468E-02-1.84640E+01 7.40523E-03
 -1       668-1.71807E+02 1.05357E+02-2.15105E-08-1.32871E-01-1.82138E+01 1.40301E-02
 -1       669-1.68181E+02 1.03108E+02-1.77744E-08-1.99947E-01-1.78102E+01 2.05443E-02
 -1       670-1.63183E+02 1.00069E+02-8.87764E-09-2.65944E-01-1.72565E+01 2.68931E-02
 -1       671-1.56799E+02 9.61500E+01 4.11587E-09-3.24679E-01-1.65571E+01 3.30238E-02
 -1       672-1.49102E+02 9.14199E+01 1.58127E-08-3.85104E-01-1.57177E+01 3.88849E-02
 -1       673-1.40170E+02 8.59442E+01 2.46899E-08-4.40739E-01-1.47452E+01 4.44274E-02
 -1       674-1.30078E+02 7.97659E+01 2.66708E-08-4.93991E-01-1.36476E+01 4.96053E-02
 -1       675-1.18896E+02 7.29044E+01 2.16155E-08-5.39137E-01-1.24338E+01 5.43756E-02
 -1       676-1.06733E+02 6.54434E+01 1.71787E-08-5.84207E-01-1.11139E+01 5.86987E-02
 -1       677-9.36991E+01 5.74590E+01 1.47780E-08-6.20478E-01-9.69866E+00 6.25390E-02
 -1       678-7.98841E+01 4.89769E+01 1.16500E-08-6.53991E-01-8.19980E+00 6.58650E-02
 -1       679-6.54343E+01 4.01239E+01 7.18858E-09-6.81153E-01-6.62961E+00 6.86494E-02
 -1       680-5.04520E+01 3.09333E+01 4.40281E-09-7.02315E-01-5.00098E+00 7.08698E-02
 -1       681-3.50793E+01 2.15100E+01 4.20478E-09-7.17650E-01-3.32731E+00 7.25087E-02
 -1       682-1.94415E+01 1.19212E+01 1.65648E-09-7.26129E-01-1.62232E+00 7.35534E-02
 -1       683-3.67293E+00 2.24881E+00-1.07871E-09-7.28978E-01 1.00046E-01 7.39964E-02
 -1       684 1.20818E+01-7.40724E+00-3.37329E-09-7.25531E-01 1.82570E+00 7.38355E-02
 -1       685 2.76998E+01-1.69897E+01-7.01103E-09-7.15166E-01 3.54058E+00 7.30735E-02
 -1       686 4.30316E+01-2.63885E+01-1.02414E-08-7.00285E-01 5.23075E+00 7.17186E-02
 -1       687 5.79452E+01-3.55246E+01-1.24883E-08-6.77081E-01 6.88252E+00 6.97841E-02
 -1       688 7.23323E+01-4.43622E+01-1.37915E-08-6.48079E-01 8.48256E+00 6.72880E-02
 -1       689 8.60287E+01-5.27494E+01-1.50777E-08-6.15902E-01 1.00181E+01 6.42541E-02
 -1       690 9.89463E+01-6.06772E+01-1.67253E-08-5.74627E-01 1.14768E+01 6.07102E-02
 -1       691 1.10946E+02-6.80287E+01-2.14161E-08-5.32258E-01 1.28472E+01 5.66889E-02
 -1       692 1.21944E+02-7.47839E+01-2.50214E-08-4.80383E-01 1.41185E+01 5.22270E-02
 -1       693 1.31806E+02-8.08183E+01-2.37611E-08-4.30594E-01 1.52810E+01 4.73655E-02
 -1       694 1.40469E+02-8.61286E+01-2.26850E-08-3.67670E-01 1.63259E+01 4.21488E-02
 -1       695 1.47859E+02-9.06845E+01-2.29630E-08-3.09577E-01 1.72454E+01 3.66247E-02
 -1       696 1.53842E+02-9.43190E+01-2.35555E-08-2.44554E-01 1.80329E+01 3.08444E-02
 -1       697 1.58448E+02-9.71731E+01-2.30586E-08-1.75133E-01 1.86831E+01 2.48611E-02
 -1       698 1.61540E+02-9.90526E+01-1.91701E-08-1.09246E-01 1.91919E+01 1.87304E-02
 -1       699 1.63138E+02-1.00047E+02-1.17416E-08-3.50721E-02 1.95565E+01 1.25099E-02
 -1       700 1.63168E+02-1.00051E+02-7.81448E-10 3.20386E-02 1.97755E+01 6.25806E-03
 -1       701 1.61646E+02-9.91179E+01 7.57100E-09 1.10460E-01 1.98489E+01 3.47211E-05
 -1       702 1.58565E+02-9.72450E+01 7.69840E-09 1.78819E-01 1.97780E+01-6.10028E-03
 -1       703 1.53897E+02-9.43686E+01 7.92768E-09 2.53221E-01 1.95655E+01-1.20868E-02
 -1       704 1.47706E+02-9.05903E+01 1.29132E-08 3.21741E-01 1.92158E+01-1.78653E-02
 -1       705 1.39962E+02-8.58149E+01 1.96753E-08 3.91762E-01 1.87342E+01-2.33768E-02
 -1       706 1.30779E+02-8.02161E+01 2.54168E-08 4.61100E-01 1.81277E+01-2.85640E-02
 -1       707 1.20126E+02-7.36651E+01 2.80631E-08 5.22083E-01 1.74045E+01-3.33712E-02
 -1       708 1.08111E+02-6.62990E+01 2.87486E-08 5.88436E-01 1.65742E+01-3.77442E-02
 -1       709 9.47949E+01-5.81482E+01 2.75433E-08 6.44515E-01 1.56474E+01-4.16316E-02
 -1       710 8.02229E+01-4.92027E+01 2.71632E-08 7.01070E-01 1.46360E+01-4.49848E-02
 -1       711 6.45066E+01-3.95738E+01 2.96885E-08 7.51355E-01 1.35531E+01-4.77576E-02
 -1       712 4.77107E+01-2.92726E+01 3.05757E-08 7.99591E-01 1.24127E+01-4.99075E-02
 -1       713 2.99381E+01-1.83796E+01 2.77961E-08 8.41942E-01 1.12298E+01-5.13952E-02
 -1       714 1.12725E+01-6.93296E+00 2.09608E-08 8.81416E-01 1.00203E+01-5.21846E-02
 -1       715-8.18205E+00 4.99223E+00 1.14004E-08 9.15112E-01 8.80089E+00-5.22436E-02
 -1       716-2.83320E+01 1.73427E+01 2.91879E-09 9.45320E-01 7.58888E+00-5.15437E-02
 -1       717-4.90893E+01 3.00745E+01-2.92061E-09 9.69775E-01 6.40231E+00-5.00601E-02
 -1       718-7.03403E+01 4.30912E+01-6.09160E-09 9.92329E-01 5.25972E+00-4.77716E-02
 -1       719-9.20335E+01 5.64138E+01-9.39272E-09 1.00715E+00 4.18011E+00-4.46603E-02
 -1       720-1.14002E+02 6.98298E+01-1.34050E-08 1.02514E+00 3.18284E+00-4.07122E-02
 -1       721-1.36352E+02 8.36544E+01-1.70550E-08 1.02646E+00 2.28758E+00-3.59156E-02
 -1       722-1.58499E+02 9.68311E+01-2.10253E-08 1.04940E+00 1.51422E+00-3.02638E-02
 -1       723-1.82097E+02 1.12705E+02-2.47802E-08 1.00793E+00 8.82826E-01-2.37448E-02
 -1       724-2.01097E+02 1.19415E+02-2.75154E-08 1.16490E+00 4.13530E-01-1.63772E-02
 -1       725-2.36329E+02 1.58073E+02-3.51273E-08 6.23268E-01 1.26709E-01-8.08145E-03
 -1       726-1.82471E+02 6.46340E+01-4.16229E-08 2.55650E+00 3.15008E-02-3.67419E-03
 -1       727-2.91197E-01 1.13457E-01 4.58275E-10-7.36380E-04 2.50830E+01 1.03351E-01
 -3
    1PSTEP                        16           1           1          
    1PGM                1.000000E+00                                  
    1PGK                8.115021E+06                                  
    1PHID                         -1                                  
    1PSUBC                         0                                  
    1PMODE                         4                                  
  100CL  104 453.3827060         726                     2    4MODAL      1
 -4  ERROR       1    1
 -5  STR(%)      1    1    0    0
 -1         2 2.16880E+00
 -1         3 4.53541E+00
 -1         4 2.16710E+01
 -1         5 6.43093E+01
 -1         6 8.34299E+01
 -1         7 8.40574E+01
 -1         8 8.41160E+01
 -1         9 8.41232E+01
 -1        10 8.41232E+01
 -1        11 8.41135E+01
 -1        12 8.41135E+01
 -1        13 8.41094E+01
 -1        14 8.41138E+01
 -1        15 8.41138E+01
 -1        16 8.41123E+01
 -1        17 8.41123E+01
 -1        18 8.41035E+01
 -1        19 8.41140E+01
 -1        20 8.41140E+01
 -1        21 8.41223E+01
 -1        22 8.41223E+01
 -1        23 8.41236E+01
 -1        24 8.41236E+01
 -1        25 8.41225E+01
 -1        26 8.41225E+01
 -1        27 8.41010E+01
 -1        28 8.41193E+01
 -1        29 8.41193E+01
 -1        30 8.41222E+01
 -1        31 8.41222E+01
 -1        32 8.41315E+01
 -1        33 8.41315E+01
 -1        34 8.41089E+01
 -1        35 8.41089E+01
 -1        36 8.41005E+01
 -1        37 8.41097E+01
 -1        38 8.41097E+01
 -1        39 8.41070E+01
 -1        40 8.41070E+01
 -1        41 8.40382E+01
 -1        42 8.40382E+01
 -1        43 8.38547E+01
 -1        44 8.30766E+01
 -1        45 8.38635E+01
 -1        46 8.40546E+01
 -1        47 8.40546E+01
 -1        48 8.40967E+01
 -1        49 8.40967E+01
 -1        50 8.41081E+01
 -1        51 8.41081E+01
 -1        52 8.41042E+01
 -1        53 8.41042E+01
 -1        54 8.40962E+01
 -1        55 8.41084E+01
 -1        56 8.41084E+01
 -1        57 8.41172E+01
 -1        58 8.41172E+01
 -1        59 8.41101E+01
 -1        60 8.41101E+01
 -1        61 8.41094E+01
 -1        62 8.41094E+01
 -1        63 8.41066E+01
 -1        64 8.41066E+01
 -1        65 8.41057E+01
 -1        66 8.41088E+01
 -1        67 8.41088E+01
 -1        68 8.41071E+01
 -1        69 8.41071E+01
 -1        70 8.41112E+01
 -1        71 8.41112E+01
 -1        72 8.40968E+01
 -1        73 8.40968E+01
 -1        74 8.40729E+01
 -1        75 8.40625E+01
 -1        76 8.40321E+01
 -1        77 8.39185E+01
 -1        78 8.33907E+01
 -1        79 8.38494E+01
 -1        80 8.39808E+01
 -1        81 8.40668E+01
 -1        82 8.40768E+01
 -1        83 8.40768E+01
 -1        84 8.41069E+01
 -1        85 8.41069E+01
 -1        86 8.41163E+01
 -1        87 8.41163E+01
 -1        88 8.41279E+01
 -1        89 8.41279E+01
 -1        90 8.41063E+01
 -1        91 8.41063E+01
 -1        92 8.41050E+01
 -1        93 8.41184E+01
 -1        94 8.41184E+01
 -1        95 8.41293E+01
 -1        96 8.41293E+01
 -1        97 8.41170E+01
 -1        98 8.41170E+01
 -1        99 8.41012E+01
 -1       100 8.41012E+01
 -1       101 8.41004E+01
 -1       102 8.41171E+01
 -1       103 8.41171E+01
 -1       104 8.40928E+01
 -1       105 8.40928E+01
 -1       106 8.40369E+01
 -1       107 8.40369E+01
 -1       108 8.38830E+01
 -1       109 8.29596E+01
 -1       110 8.31626E+01
 -1       111 8.40134E+01
 -1       112 8.40446E+01
 -1       113 8.41183E+01
 -1       114 8.41183E+01
 -1       115 8.41753E+01
 -1       116 8.41753E+01
 -1       117 8.44610E+01
 -1       118 8.44610E+01
 -1       119 8.72922E+01
 -1       120 8.72922E+01
 -1       121 7.39845E+01
 -1       122 5.54970E-01
 -1       123 2.16880E+00
 -1       124 4.53541E+00
 -1       125 2.16710E+01
 -1       126 6.43093E+01
 -1       127 8.34299E+01
 -1       128 8.40574E+01
 -1       129 8.41160E+01
 -1       130 8.41232E+01
 -1       131 8.41232E+01
 -1       132 8.41135E+01
 -1       133 8.41135E+01
 -1       134 8.41094E+01
 -1       135 8.41138E+01
 -1       136 8.41138E+01
 -1       137 8.41123E+01
 -1       138 8.41123E+01
 -1       139 8.41035E+01
 -1       140 8.41140E+01
 -1       141 8.41140E+01
 -1       142 8.41223E+01
 -1       143 8.41223E+01
 -1       144 8.41236E+01
 -1       145 8.41236E+01
 -1       146 8.41225E+01
 -1       147 8.41225E+01
 -1       148 8.41010E+01
 -1       149 8.41193E+01
 -1       150 8.41193E+01
 -1       151 8.41222E+01
 -1       152 8.41222E+01
 -1       153 8.41315E+01
 -1       154 8.41315E+01
 -1       155 8.41089E+01
 -1       156 8.41089E+01
 -1       157 8.41005E+01
 -1       158 8.41097E+01
 -1       159 8.41097E+01
 -1       160 8.41070E+01
 -1       161 8.41070E+01
 -1       162 8.40382E+01
 -1       163 8.40382E+01
 -1       164 8.38547E+01
 -1       165 8.30766E+01
 -1       166 8.38635E+01
 -1       167 8.40546E+01
 -1       168 8.40546E+01
 -1       169 8.40967E+01
 -1       170 8.40967E+01
 -1       171 8.41081E+01
 -1       172 8.41081E+01
 -1       173 8.41042E+01
 -1       174 8.41042E+01
 -1       175 8.40962E+01
 -1       176 8.41084E+01
 -1       177 8.41084E+01
 -1       178 8.41172E+01
 -1       179 8.41172E+01
 -1       180 8.41101E+01
 -1       181 8.41101E+01
 -1       182 8.41094E+01
 -1       183 8.41094E+01
 -1       184 8.41066E+01
 -1       185 8.41066E+01
 -1       186 8.41057E+01
 -1       187 8.41088E+01
 -1       188 8.41088E+01
 -1       189 8.41071E+01
 -1       190 8.41071E+01
 -1       191 8.41112E+01
 -1       192 8.41112E+01
 -1       193 8.40968E+01
 -1       194 8.40968E+01
 -1       195 8.40729E+01
 -1       196 8.40625E+01
 -1       197 8.40321E+01
 -1       198 8.39185E+01
 -1       199 8.33907E+01
 -1       200 8.38494E+01
 -1       201 8.39808E+01
 -1       202 8.40668E+01
 -1       203 8.40768E+01
 -1       204 8.40768E+01
 -1       205 8.41069E+01
 -1       206 8.41069E+01
 -1       207 8.41163E+01
 -1       208 8.41163E+01
 -1       209 8.41279E+01
 -1       210 8.41279E+01
 -1       211 8.41063E+01
 -1       212 8.41063E+01
 -1       213 8.41050E+01
 -1       214 8.41184E+01
 -1       215 8.41184E+01
 -1       216 8.41293E+01
 -1       217 8.41293E+01
 -1       218 8.41170E+01
 -1       219 8.41170E+01
 -1       220 8.41012E+01
 -1       221 8.41012E+01
 -1       222 8.41004E+01
 -1       223 8.41171E+01
 -1       224 8.41171E+01
 -1       225 8.40928E+01
 -1       226 8.40928E+01
 -1       227 8.40369E+01
 -1       228 8.40369E+01
 -1       229 8.38830E+01
 -1       230 8.29596E+01
 -1       231 8.31626E+01
 -1       232 8.40134E+01
 -1       233 8.40446E+01
 -1       234 8.41183E+01
 -1       235 8.41183E+01
 -1       236 8.41753E+01
 -1       237 8.41753E+01
 -1       238 8.44610E+01
 -1       239 8.44610E+01
 -1       240 8.72922E+01
 -1       241 8.72922E+01
 -1       242 7.39845E+01
 -1       243 5.54970E-01
 -1       244 2.16880E+00
 -1       245 4.53548E+00
 -1       246 2.16710E+01
 -1       247 6.43103E+01
 -1       248 8.34376E+01
 -1       249 8.40677E+01
 -1       250 8.41263E+01
 -1       251 8.41336E+01
 -1       252 8.41336E+01
 -1       253 8.41239E+01
 -1       254 8.41239E+01
 -1       255 8.41197E+01
 -1       256 8.41241E+01
 -1       257 8.41241E+01
 -1       258 8.41227E+01
 -1       259 8.41227E+01
 -1       260 8.41138E+01
 -1       261 8.41243E+01
 -1       262 8.41243E+01
 -1       263 8.41326E+01
 -1       264 8.41326E+01
 -1       265 8.41340E+01
 -1       266 8.41340E+01
 -1       267 8.41328E+01
 -1       268 8.41328E+01
 -1       269 8.41114E+01
 -1       270 8.41297E+01
 -1       271 8.41297E+01
 -1       272 8.41326E+01
 -1       273 8.41326E+01
 -1       274 8.41419E+01
 -1       275 8.41419E+01
 -1       276 8.41193E+01
 -1       277 8.41193E+01
 -1       278 8.41109E+01
 -1       279 8.41201E+01
 -1       280 8.41201E+01
 -1       281 8.41173E+01
 -1       282 8.41173E+01
 -1       283 8.40485E+01
 -1       284 8.40485E+01
 -1       285 8.38649E+01
 -1       286 8.30865E+01
 -1       287 8.38738E+01
 -1       288 8.40649E+01
 -1       289 8.40649E+01
 -1       290 8.41071E+01
 -1       291 8.41071E+01
 -1       292 8.41185E+01
 -1       293 8.41185E+01
 -1       294 8.41146E+01
 -1       295 8.41146E+01
 -1       296 8.41065E+01
 -1       297 8.41188E+01
 -1       298 8.41188E+01
 -1       299 8.41276E+01
 -1       300 8.41276E+01
 -1       301 8.41204E+01
 -1       302 8.41204E+01
 -1       303 8.41198E+01
 -1       304 8.41198E+01
 -1       305 8.41170E+01
 -1       306 8.41170E+01
 -1       307 8.41161E+01
 -1       308 8.41192E+01
 -1       309 8.41192E+01
 -1       310 8.41175E+01
 -1       311 8.41175E+01
 -1       312 8.41215E+01
 -1       313 8.41215E+01
 -1       314 8.41071E+01
 -1       315 8.41071E+01
 -1       316 8.40833E+01
 -1       317 8.40728E+01
 -1       318 8.40424E+01
 -1       319 8.39288E+01
 -1       320 8.34008E+01
 -1       321 8.38597E+01
 -1       322 8.39911E+01
 -1       323 8.40772E+01
 -1       324 8.40872E+01
 -1       325 8.40872E+01
 -1       326 8.41172E+01
 -1       327 8.41172E+01
 -1       328 8.41267E+01
 -1       329 8.41267E+01
 -1       330 8.41383E+01
 -1       331 8.41383E+01
 -1       332 8.41167E+01
 -1       333 8.41167E+01
 -1       334 8.41154E+01
 -1       335 8.41288E+01
 -1       336 8.41288E+01
 -1       337 8.41397E+01
 -1       338 8.41397E+01
 -1       339 8.41273E+01
 -1       340 8.41273E+01
 -1       341 8.41116E+01
 -1       342 8.41116E+01
 -1       343 8.41107E+01
 -1       344 8.41274E+01
 -1       345 8.41274E+01
 -1       346 8.41032E+01
 -1       347 8.41032E+01
 -1       348 8.40472E+01
 -1       349 8.40472E+01
 -1       350 8.38933E+01
 -1       351 8.29686E+01
 -1       352 8.31723E+01
 -1       353 8.40236E+01
 -1       354 8.40550E+01
 -1       355 8.41286E+01
 -1       356 8.41286E+01
 -1       357 8.41856E+01
 -1       358 8.41856E+01
 -1       359 8.44713E+01
 -1       360 8.44713E+01
 -1       361 8.73027E+01
 -1       362 8.73027E+01
 -1       363 7.39944E+01
 -1       364 5.54970E-01
 -1       365 2.16880E+00
 -1       366 4.53548E+00
 -1       367 2.16710E+01
 -1       368 6.43103E+01
 -1       369 8.34376E+01
 -1       370 8.40677E+01
 -1       371 8.41263E+01
 -1       372 8.41336E+01
 -1       373 8.41336E+01
 -1       374 8.41239E+01
 -1       375 8.41239E+01
 -1       376 8.41197E+01
 -1       377 8.41241E+01
 -1       378 8.41241E+01
 -1       379 8.41227E+01
 -1       380 8.41227E+01
 -1       381 8.41138E+01
 -1       382 8.41243E+01
 -1       383 8.41243E+01
 -1       384 8.41326E+01
 -1       385 8.41326E+01
 -1       386 8.41340E+01
 -1       387 8.41340E+01
 -1       388 8.41328E+01
 -1       389 8.41328E+01
 -1       390 8.41114E+01
 -1       391 8.41297E+01
 -1       392 8.41297E+01
 -1       393 8.41326E+01
 -1       394 8.41326E+01
 -1       395 8.41419E+01
 -1       396 8.41419E+01
 -1       397 8.41193E+01
 -1       398 8.41193E+01
 -1       399 8.41109E+01
 -1       400 8.41201E+01
 -1       401 8.41201E+01
 -1       402 8.41173E+01
 -1       403 8.41173E+01
 -1       404 8.40485E+01
 -1       405 8.40485E+01
 -1       406 8.38649E+01
 -1       407 8.30865E+01
 -1       408 8.38738E+01
 -1       409 8.40649E+01
 -1       410 8.40649E+01
 -1       411 8.41071E+01
 -1       412 8.41071E+01
 -1       413 8.41185E+01
 -1       414 8.41185E+01
 -1       415 8.41146E+01
 -1       416 8.41146E+01
 -1       417 8.41065E+01
 -1       418 8.41188E+01
 -1       419 8.41188E+01
 -1       420 8.41276E+01
 -1       421 8.41276E+01
 -1       422 8.41204E+01
 -1       423 8.41204E+01
 -1       424 8.41198E+01
 -1       425 8.41198E+01
 -1       426 8.41170E+01
 -1       427 8.41170E+01
 -1       428 8.41161E+01
 -1       429 8.41192E+01
 -1       430 8.41192E+01
 -1       431 8.41175E+01
 -1       432 8.41175E+01
 -1       433 8.41215E+01
 -1       434 8.41215E+01
 -1       435 8.41071E+01
 -1       436 8.41071E+01
 -1       437 8.40833E+01
 -1       438 8.40728E+01
 -1       439 8.40424E+01
 -1       440 8.39288E+01
 -1       441 8.34008E+01
 -1       442 8.38597E+01
 -1       443 8.39911E+01
 -1       444 8.40772E+01
 -1       445 8.40872E+01
 -1       446 8.40872E+01
 -1       447 8.41172E+01
 -1       448 8.41172E+01
 -1       449 8.41267E+01
 -1       450 8.41267E+01
 -1       451 8.41383E+01
 -1       452 8.41383E+01
 -1       453 8.41167E+01
 -1       454 8.41167E+01
 -1       455 8.41154E+01
 -1       456 8.41288E+01
 -1       457 8.41288E+01
 -1       458 8.41397E+01
 -1       459 8.41397E+01
 -1       460 8.41273E+01
 -1       461 8.41273E+01
 -1       462 8.41116E+01
 -1       463 8.41116E+01
 -1       464 8.41107E+01
 -1       465 8.41274E+01
 -1       466 8.41274E+01
 -1       467 8.41032E+01
 -1       468 8.41032E+01
 -1       469 8.40472E+01
 -1       470 8.40472E+01
 -1       471 8.38933E+01
 -1       472 8.29686E+01
 -1       473 8.31723E+01
 -1       474 8.40236E+01
 -1       475 8.40550E+01
 -1       476 8.41286E+01
 -1       477 8.41286E+01
 -1       478 8.41856E+01
 -1       479 8.41856E+01
 -1       480 8.44713E+01
 -1       481 8.44713E+01
 -1       482 8.73027E+01
 -1       483 8.73027E+01
 -1       484 7.39944E+01
 -1       485 5.54950E-01
 -1       486 2.16878E+00
 -1       487 4.53548E+00
 -1       488 2.16708E+01
 -1       489 6.43103E+01
 -1       490 8.34376E+01
 -1       491 8.40677E+01
 -1       492 8.41263E+01
 -1       493 8.41336E+01
 -1       494 8.41336E+01
 -1       495 8.41239E+01
 -1       496 8.41239E+01
 -1       497 8.41197E+01
 -1       498 8.41241E+01
 -1       499 8.41241E+01
 -1       500 8.41227E+01
 -1       501 8.41227E+01
 -1       502 8.41138E+01
 -1       503 8.41243E+01
 -1       504 8.41243E+01
 -1       505 8.41326E+01
 -1       506 8.41326E+01
 -1       507 8.41340E+01
 -1       508 8.41340E+01
 -1       509 8.41328E+01
 -1       510 8.41328E+01
 -1       511 8.41114E+01
 -1       512 8.41297E+01
 -1       513 8.41297E+01
 -1       514 8.41326E+01
 -1       515 8.41326E+01
 -1       516 8.41419E+01
 -1       517 8.41419E+01
 -1       518 8.41193E+01
 -1       519 8.41193E+01
 -1       520 8.41109E+01
 -1       521 8.41201E+01
 -1       522 8.41201E+01
 -1       523 8.41173E+01
 -1       524 8.41173E+01
 -1       525 8.40485E+01
 -1       526 8.40485E+01
 -1       527 8.38649E+01
 -1       528 8.30865E+01
 -1       529 8.38738E+01
 -1       530 8.40649E+01
 -1       531 8.40649E+01
 -1       532 8.41071E+01
 -1       533 8.41071E+01
 -1       534 8.41185E+01
 -1       535 8.41185E+01
 -1       536 8.41146E+01
 -1       537 8.41146E+01
 -1       538 8.41065E+01
 -1       539 8.41188E+01
 -1       540 8.41188E+01
 -1       541 8.41276E+01
 -1       542 8.41276E+01
 -1       543 8.41204E+01
 -1       544 8.41204E+01
 -1       545 8.41198E+01
 -1       546 8.41198E+01
 -1       547 8.41170E+01
 -1       548 8.41170E+01
 -1       549 8.41161E+01
 -1       550 8.41192E+01
 -1       551 8.41192E+01
 -1       552 8.41175E+01
 -1       553 8.41175E+01
 -1       554 8.41215E+01
 -1       555 8.41215E+01
 -1       556 8.41071E+01
 -1       557 8.41071E+01
 -1       558 8.40833E+01
 -1       559 8.40728E+01
 -1       560 8.40424E+01
 -1       561 8.39288E+01
 -1       562 8.34008E+01
 -1       563 8.38597E+01
 -1       564 8.39911E+01
 -1       565 8.40772E+01
 -1       566 8.40872E+01
 -1       567 8.40872E+01
 -1       568 8.41172E+01
 -1       569 8.41172E+01
 -1       570 8.41267E+01
 -1       571 8.41267E+01
 -1       572 8.41383E+01
 -1       573 8.41383E+01
 -1       574 8.41167E+01
 -1       575 8.41167E+01
 -1       576 8.41154E+01
 -1       577 8.41288E+01
 -1       578 8.41288E+01
 -1       579 8.41397E+01
 -1       580 8.41397E+01
 -1       581 8.41273E+01
 -1       582 8.41273E+01
 -1       583 8.41116E+01
 -1       584 8.41116E+01
 -1       585 8.41107E+01
 -1       586 8.41274E+01
 -1       587 8.41274E+01
 -1       588 8.41032E+01
 -1       589 8.41032E+01
 -1       590 8.40472E+01
 -1       591 8.40472E+01
 -1       592 8.38933E+01
 -1       593 8.29686E+01
 -1       594 8.31723E+01
 -1       595 8.40236E+01
 -1       596 8.40550E+01
 -1       597 8.41286E+01
 -1       598 8.41286E+01
 -1       599 8.41856E+01
 -1       600 8.41856E+01
 -1       601 8.44713E+01
 -1       602 8.44713E+01
 -1       603 8.73027E+01
 -1       604 8.73027E+01
 -1       605 7.39944E+01
 -1       606 5.54950E-01
 -1       607 2.16878E+00
 -1       608 4.53548E+00
 -1       609 2.16708E+01
 -1       610 6.43103E+01
 -1       611 8.34376E+01
 -1       612 8.40677E+01
 -1       613 8.41263E+01
 -1       614 8.41336E+01
 -1       615 8.41336E+01
 -1       616 8.41239E+01
 -1       617 8.41239E+01
 -1       618 8.41197E+01
 -1       619 8.41241E+01
 -1       620 8.41241E+01
 -1       621 8.41227E+01
 -1       622 8.41227E+01
 -1       623 8.41138E+01
 -1       624 8.41243E+01
 -1       625 8.41243E+01
 -1       626 8.41326E+01
 -1       627 8.41326E+01
 -1       628 8.41340E+01
 -1       629 8.41340E+01
 -1       630 8.41328E+01
 -1       631 8.41328E+01
 -1       632 8.41114E+01
 -1       633 8.41297E+01
 -1       634 8.41297E+01
 -1       635 8.41326E+01
 -1       636 8.41326E+01
 -1       637 8.41419E+01
 -1       638 8.41419E+01
 -1       639 8.41193E+01
 -1       640 8.41193E+01
 -1       641 8.41109E+01
 -1       642 8.41201E+01
 -1       643 8.41201E+01
 -1       644 8.41173E+01
 -1       645 8.41173E+01
 -1       646 8.40485E+01
 -1       647 8.40485E+01
 -1       648 8.38649E+01
 -1       649 8.30865E+01
 -1       650 8.38738E+01
 -1       651 8.40649E+01
 -1       652 8.40649E+01
 -1       653 8.41071E+01
 -1       654 8.41071E+01
 -1       655 8.41185E+01
 -1       656 8.41185E+01
 -1       657 8.41146E+01
 -1       658 8.41146E+01
 -1       659 8.41065E+01
 -1       660 8.41188E+01
 -1       661 8.41188E+01
 -1       662 8.41276E+01
 -1       663 8.41276E+01
 -1       664 8.41204E+01
 -1       665 8.41204E+01
 -1       666 8.41198E+01
 -1       667 8.41198E+01
 -1       668 8.41170E+01
 -1       669 8.41170E+01
 -1       670 8.41161E+01
 -1       671 8.41192E+01
 -1       672 8.41192E+01
 -1       673 8.41175E+01
 -1       674 8.41175E+01
 -1       675 8.41215E+01
 -1       676 8.41215E+01
 -1       677 8.41071E+01
 -1       678 8.41071E+01
 -1       679 8.40833E+01
 -1       680 8.40728E+01
 -1       681 8.40424E+01
 -1       682 8.39288E+01
 -1       683 8.34008E+01
 -1       684 8.38597E+01
 -1       685 8.39911E+01
 -1       686 8.40772E+01
 -1       687 8.40872E+01
 -1       688 8.40872E+01
 -1       689 8.41172E+01
 -1       690 8.41172E+01
 -1       691 8.41267E+01
 -1       692 8.41267E+01
 -1       693 8.41383E+01
 -1       694 8.41383E+01
 -1       695 8.41167E+01
 -1       696 8.41167E+01
 -1       697 8.41154E+01
 -1       698 8.41288E+01
 -1       699 8.41288E+01
 -1       700 8.41397E+01
 -1       701 8.41397E+01
 -1       702 8.41273E+01
 -1       703 8.41273E+01
 -1       704 8.41116E+01
 -1       705 8.41116E+01
 -1       706 8.41107E+01
 -1       707 8.41274E+01
 -1       708 8.41274E+01
 -1       709 8.41032E+01
 -1       710 8.41032E+01
 -1       711 8.40472E+01
 -1       712 8.40472E+01
 -1       713 8.38933E+01
 -1       714 8.29686E+01
 -1       715 8.31723E+01
 -1       716 8.40236E+01
 -1       717 8.40550E+01
 -1       718 8.41286E+01
 -1       719 8.41286E+01
 -1       720 8.41856E+01
 -1       721 8.41856E+01
 -1       722 8.44713E+01
 -1       723 8.44713E+01
 -1       724 8.73027E+01
 -1       725 8.73027E+01
 -1       726 7.39944E+01
 -1       727 5.54970E-01
 -3
    1PSTEP                        17           1           1          
    1PGM                1.000000E+00                                  
    1PGK                2.166874E+07                                  
    1PHID                         -1                                  
    1PSUBC                         0                                  
    1PMODE                         5                                  
  100CL  105 740.8613878         726                     2    5MODAL      1
 -4  DISP        4    1
 -5  D1          1    2    1    0
 -5  D2          1    2    2    0
 -5  D3          1    2    3    0
 -5  ALL         1    2    0    0    1ALL
 -1         2 9.87719E-01 8.61835E+01 0.00000E+00
 -1         3 9.85918E-01 7.46701E+01 0.00000E+00
 -1         4 9.81279E-01 6.31943E+01 0.00000E+00
 -1         5 9.72658E-01 5.17957E+01 0.00000E+00
 -1         6 9.59109E-01 4.05263E+01 0.00000E+00
 -1         7 9.39849E-01 2.94484E+01 0.00000E+00
 -1         8 9.14324E-01 1.86316E+01 0.00000E+00
 -1         9 8.82108E-01 8.15132E+00 0.00000E+00
 -1        10 8.42991E-01-1.91255E+00 0.00000E+00
 -1        11 7.96932E-01-1.14795E+01 0.00000E+00
 -1        12 7.44023E-01-2.04692E+01 0.00000E+00
 -1        13 6.84544E-01-2.88032E+01 0.00000E+00
 -1        14 6.18890E-01-3.64072E+01 0.00000E+00
 -1        15 5.47603E-01-4.32124E+01 0.00000E+00
 -1        16 4.71364E-01-4.91568E+01 0.00000E+00
 -1        17 3.90905E-01-5.41872E+01 0.00000E+00
 -1        18 3.07107E-01-5.82592E+01 0.00000E+00
 -1        19 2.20894E-01-6.13395E+01 0.00000E+00
 -1        20 1.33247E-01-6.34054E+01 0.00000E+00
 -1        21 4.52354E-02-6.44466E+01 0.00000E+00
 -1        22-4.21412E-02-6.44646E+01 0.00000E+00
 -1        23-1.27742E-01-6.34734E+01 0.00000E+00
 -1        24-2.10583E-01-6.14995E+01 0.00000E+00
 -1        25-2.89549E-01-5.85816E+01 0.00000E+00
 -1        26-3.63726E-01-5.47703E+01 0.00000E+00
 -1        27-4.32112E-01-5.01273E+01 0.00000E+00
 -1        28-4.93855E-01-4.47252E+01 0.00000E+00
 -1        29-5.48192E-01-3.86458E+01 0.00000E+00
 -1        30-5.94394E-01-3.19799E+01 0.00000E+00
 -1        31-6.31914E-01-2.48255E+01 0.00000E+00
 -1        32-6.60246E-01-1.72870E+01 0.00000E+00
 -1        33-6.79072E-01-9.47327E+00 0.00000E+00
 -1        34-6.88145E-01-1.49687E+00 0.00000E+00
 -1        35-6.87392E-01 6.52807E+00 0.00000E+00
 -1        36-6.76842E-01 1.44871E+01 0.00000E+00
 -1        37-6.56682E-01 2.22669E+01 0.00000E+00
 -1        38-6.27198E-01 2.97571E+01 0.00000E+00
 -1        39-5.88853E-01 3.68516E+01 0.00000E+00
 -1        40-5.42148E-01 4.34500E+01 0.00000E+00
 -1        41-4.87812E-01 4.94588E+01 0.00000E+00
 -1        42-4.26554E-01 5.47932E+01 0.00000E+00
 -1        43-3.59291E-01 5.93779E+01 0.00000E+00
 -1        44-2.86929E-01 6.31479E+01 0.00000E+00
 -1        45-2.10494E-01 6.60499E+01 0.00000E+00
 -1        46-1.31094E-01 6.80428E+01 0.00000E+00
 -1        47-4.97541E-02 6.90978E+01 0.00000E+00
 -1        48 3.22771E-02 6.91998E+01 0.00000E+00
 -1        49 1.13958E-01 6.83467E+01 0.00000E+00
 -1        50 1.94064E-01 6.65497E+01 0.00000E+00
 -1        51 2.71549E-01 6.38333E+01 0.00000E+00
 -1        52 3.45267E-01 6.02348E+01 0.00000E+00
 -1        53 4.14245E-01 5.58037E+01 0.00000E+00
 -1        54 4.77486E-01 5.06013E+01 0.00000E+00
 -1        55 5.34121E-01 4.46996E+01 0.00000E+00
 -1        56 5.83363E-01 3.81801E+01 0.00000E+00
 -1        57 6.24510E-01 3.11334E+01 0.00000E+00
 -1        58 6.57011E-01 2.36570E+01 0.00000E+00
 -1        59 6.80387E-01 1.58545E+01 0.00000E+00
 -1        60 6.94331E-01 7.83441E+00 0.00000E+00
 -1        61 6.98635E-01-2.92297E-01 0.00000E+00
 -1        62 6.93239E-01-8.41253E+00 0.00000E+00
 -1        63 6.78219E-01-1.64136E+01 0.00000E+00
 -1        64 6.53775E-01-2.41845E+01 0.00000E+00
 -1        65 6.20243E-01-3.16172E+01 0.00000E+00
 -1        66 5.78099E-01-3.86083E+01 0.00000E+00
 -1        67 5.27903E-01-4.50608E+01 0.00000E+00
 -1        68 4.70368E-01-5.08848E+01 0.00000E+00
 -1        69 4.06269E-01-5.59991E+01 0.00000E+00
 -1        70 3.36527E-01-6.03326E+01 0.00000E+00
 -1        71 2.62055E-01-6.38248E+01 0.00000E+00
 -1        72 1.83939E-01-6.64267E+01 0.00000E+00
 -1        73 1.03207E-01-6.81019E+01 0.00000E+00
 -1        74 2.10071E-02-6.88266E+01 0.00000E+00
 -1        75-6.15377E-02-6.85901E+01 0.00000E+00
 -1        76-1.43295E-01-6.73951E+01 0.00000E+00
 -1        77-2.23107E-01-6.52575E+01 0.00000E+00
 -1        78-2.99928E-01-6.22062E+01 0.00000E+00
 -1        79-3.72639E-01-5.82824E+01 0.00000E+00
 -1        80-4.40304E-01-5.35397E+01 0.00000E+00
 -1        81-5.01933E-01-4.80426E+01 0.00000E+00
 -1        82-5.56747E-01-4.18662E+01 0.00000E+00
 -1        83-6.03952E-01-3.50947E+01 0.00000E+00
 -1        84-6.42928E-01-2.78204E+01 0.00000E+00
 -1        85-6.73163E-01-2.01423E+01 0.00000E+00
 -1        86-6.94241E-01-1.21648E+01 0.00000E+00
 -1        87-7.05910E-01-3.99633E+00 0.00000E+00
 -1        88-7.08028E-01 4.25260E+00 0.00000E+00
 -1        89-7.00595E-01 1.24706E+01 0.00000E+00
 -1        90-6.83760E-01 2.05470E+01 0.00000E+00
 -1        91-6.57786E-01 2.83735E+01 0.00000E+00
 -1        92-6.23078E-01 3.58461E+01 0.00000E+00
 -1        93-5.80187E-01 4.28659E+01 0.00000E+00
 -1        94-5.29729E-01 4.93412E+01 0.00000E+00
 -1        95-4.72522E-01 5.51883E+01 0.00000E+00
 -1        96-4.09358E-01 6.03332E+01 0.00000E+00
 -1        97-3.41282E-01 6.47124E+01 0.00000E+00
 -1        98-2.69248E-01 6.82742E+01 0.00000E+00
 -1        99-1.94426E-01 7.09792E+01 0.00000E+00
 -1       100-1.17922E-01 7.28013E+01 0.00000E+00
 -1       101-4.09416E-02 7.37280E+01 0.00000E+00
 -1       102 3.52668E-02 7.37610E+01 0.00000E+00
 -1       103 1.09559E-01 7.29160E+01 0.00000E+00
 -1       104 1.80621E-01 7.12229E+01 0.00000E+00
 -1       105 2.47347E-01 6.87260E+01 0.00000E+00
 -1       106 3.08508E-01 6.54829E+01 0.00000E+00
 -1       107 3.63047E-01 6.15649E+01 0.00000E+00
 -1       108 4.09861E-01 5.70555E+01 0.00000E+00
 -1       109 4.48015E-01 5.20503E+01 0.00000E+00
 -1       110 4.76565E-01 4.66560E+01 0.00000E+00
 -1       111 4.94713E-01 4.09892E+01 0.00000E+00
 -1       112 5.01728E-01 3.51756E+01 0.00000E+00
 -1       113 4.96982E-01 2.93487E+01 0.00000E+00
 -1       114 4.79926E-01 2.36490E+01 0.00000E+00
 -1       115 4.50158E-01 1.82223E+01 0.00000E+00
 -1       116 4.07243E-01 1.32196E+01 0.00000E+00
 -1       117 3.51129E-01 8.79456E+00 0.00000E+00
 -1       118 2.81056E-01 5.10571E+00 0.00000E+00
 -1       119 1.98750E-01 2.30548E+00 0.00000E+00
 -1       120 9.78914E-02 5.74691E-01 0.00000E+00
 -1       121 0.00000E+00 0.00000E+00 0.00000E+00
 -1       122 9.88017E-01 9.77089E+01 0.00000E+00
 -1       123 9.87719E-01 8.61835E+01 0.00000E+00
 -1       124 9.85918E-01 7.46701E+01 0.00000E+00
 -1       125 9.81279E-01 6.31943E+01 0.00000E+00
 -1       126 9.72658E-01 5.17957E+01 0.00000E+00
 -1       127 9.59109E-01 4.05263E+01 0.00000E+00
 -1       128 9.39849E-01 2.94483E+01 0.00000E+00
 -1       129 9.14324E-01 1.86316E+01 0.00000E+00
 -1       130 8.82108E-01 8.15132E+00 0.00000E+00
 -1       131 8.42991E-01-1.91255E+00 0.00000E+00
 -1       132 7.96932E-01-1.14795E+01 0.00000E+00
 -1       133 7.44023E-01-2.04692E+01 0.00000E+00
 -1       134 6.84544E-01-2.88032E+01 0.00000E+00
 -1       135 6.18890E-01-3.64072E+01 0.00000E+00
 -1       136 5.47603E-01-4.32124E+01 0.00000E+00
 -1       137 4.71364E-01-4.91568E+01 0.00000E+00
 -1       138 3.90905E-01-5.41872E+01 0.00000E+00
 -1       139 3.07107E-01-5.82592E+01 0.00000E+00
 -1       140 2.20894E-01-6.13395E+01 0.00000E+00
 -1       141 1.33247E-01-6.34054E+01 0.00000E+00
 -1       142 4.52354E-02-6.44466E+01 0.00000E+00
 -1       143-4.21412E-02-6.44646E+01 0.00000E+00
 -1       144-1.27742E-01-6.34734E+01 0.00000E+00
 -1       145-2.10583E-01-6.14995E+01 0.00000E+00
 -1       146-2.89549E-01-5.85816E+01 0.00000E+00
 -1       147-3.63726E-01-5.47703E+01 0.00000E+00
 -1       148-4.32112E-01-5.01273E+01 0.00000E+00
 -1       149-4.93855E-01-4.47252E+01 0.00000E+00
 -1       150-5.48192E-01-3.86458E+01 0.00000E+00
 -1       151-5.94394E-01-3.19799E+01 0.00000E+00
 -1       152-6.31914E-01-2.48255E+01 0.00000E+00
 -1       153-6.60246E-01-1.72870E+01 0.00000E+00
 -1       154-6.79072E-01-9.47327E+00 0.00000E+00
 -1       155-6.88145E-01-1.49687E+00 0.00000E+00
 -1       156-6.87392E-01 6.52807E+00 0.00000E+00
 -1       157-6.76842E-01 1.44871E+01 0.00000E+00
 -1       158-6.56682E-01 2.22669E+01 0.00000E+00
 -1       159-6.27198E-01 2.97571E+01 0.00000E+00
 -1       160-5.88853E-01 3.68516E+01 0.00000E+00
 -1       161-5.42148E-01 4.34500E+01 0.00000E+00
 -1       162-4.87812E-01 4.94588E+01 0.00000E+00
 -1       163-4.26554E-01 5.47932E+01 0.00000E+00
 -1       164-3.59291E-01 5.93779E+01 0.00000E+00
 -1       165-2.86929E-01 6.31479E+01 0.00000E+00
 -1       166-2.10494E-01 6.60499E+01 0.00000E+00
 -1       167-1.31094E-01 6.80428E+01 0.00000E+00
 -1       168-4.97541E-02 6.90978E+01 0.00000E+00
 -1       169 3.22771E-02 6.91998E+01 0.00000E+00
 -1       170 1.13958E-01 6.83467E+01 0.00000E+00
 -1       171 1.94064E-01 6.65497E+01 0.00000E+00
 -1       172 2.71549E-01 6.38333E+01 0.00000E+00
 -1       173 3.45267E-01 6.02348E+01 0.00000E+00
 -1       174 4.14245E-01 5.58037E+01 0.00000E+00
 -1       175 4.77486E-01 5.06013E+01 0.00000E+00
 -1       176 5.34121E-01 4.46996E+01 0.00000E+00
 -1       177 5.83363E-01 3.81801E+01 0.00000E+00
 -1       178 6.24510E-01 3.11334E+01 0.00000E+00
 -1       179 6.57011E-01 2.36570E+01 0.00000E+00
 -1       180 6.80387E-01 1.58545E+01 0.00000E+00
 -1       181 6.94331E-01 7.83441E+00 0.00000E+00
 -1       182 6.98635E-01-2.92297E-01 0.00000E+00
 -1       183 6.93239E-01-8.41253E+00 0.00000E+00
 -1       184 6.78219E-01-1.64136E+01 0.00000E+00
 -1       185 6.53775E-01-2.41845E+01 0.00000E+00
 -1       186 6.20243E-01-3.16172E+01 0.00000E+00
 -1       187 5.78099E-01-3.86083E+01 0.00000E+00
 -1       188 5.27903E-01-4.50608E+01 0.00000E+00
 -1       189 4.70368E-01-5.08848E+01 0.00000E+00
 -1       190 4.06269E-01-5.59991E+01 0.00000E+00
 -1       191 3.36527E-01-6.03326E+01 0.00000E+00
 -1       192 2.62055E-01-6.38248E+01 0.00000E+00
 -1       193 1.83939E-01-6.64267E+01 0.00000E+00
 -1       194 1.03207E-01-6.81019E+01 0.00000E+00
 -1       195 2.10071E-02-6.88266E+01 0.00000E+00
 -1       196-6.15377E-02-6.85901E+01 0.00000E+00
 -1       197-1.43295E-01-6.73951E+01 0.00000E+00
 -1       198-2.23107E-01-6.52575E+01 0.00000E+00
 -1       199-2.99928E-01-6.22062E+01 0.00000E+00
 -1       200-3.72639E-01-5.82824E+01 0.00000E+00
 -1       201-4.40304E-01-5.35397E+01 0.00000E+00
 -1       202-5.01933E-01-4.80426E+01 0.00000E+00
 -1       203-5.56747E-01-4.18662E+01 0.00000E+00
 -1       204-6.03952E-01-3.50947E+01 0.00000E+00
 -1       205-6.42928E-01-2.78204E+01 0.00000E+00
 -1       206-6.73163E-01-2.01423E+01 0.00000E+00
 -1       207-6.94241E-01-1.21648E+01 0.00000E+00
 -1       208-7.05910E-01-3.99633E+00 0.00000E+00
 -1       209-7.08028E-01 4.25260E+00 0.00000E+00
 -1       210-7.00595E-01 1.24706E+01 0.00000E+00
 -1       211-6.83760E-01 2.05470E+01 0.00000E+00
 -1       212-6.57786E-01 2.83735E+01 0.00000E+00
 -1       213-6.23078E-01 3.58461E+01 0.00000E+00
 -1       214-5.80187E-01 4.28659E+01 0.00000E+00
 -1       215-5.29729E-01 4.93412E+01 0.00000E+00
 -1       216-4.72522E-01 5.51883E+01 0.00000E+00
 -1       217-4.09358E-01 6.03332E+01 0.00000E+00
 -1       218-3.41282E-01 6.47124E+01 0.00000E+00
 -1       219-2.69248E-01 6.82742E+01 0.00000E+00
 -1       220-1.94426E-01 7.09792E+01 0.00000E+00
 -1       221-1.17922E-01 7.28013E+01 0.00000E+00
 -1       222-4.09416E-02 7.37280E+01 0.00000E+00
 -1       223 3.52668E-02 7.37610E+01 0.00000E+00
 -1       224 1.09559E-01 7.29160E+01 0.00000E+00
 -1       225 1.80621E-01 7.12229E+01 0.00000E+00
 -1       226 2.47347E-01 6.87260E+01 0.00000E+00
 -1       227 3.08508E-01 6.54829E+01 0.00000E+00
 -1       228 3.63047E-01 6.15649E+01 0.00000E+00
 -1       229 4.09861E-01 5.70555E+01 0.00000E+00
 -1       230 4.48015E-01 5.20503E+01 0.00000E+00
 -1       231 4.76565E-01 4.66560E+01 0.00000E+00
 -1       232 4.94713E-01 4.09892E+01 0.00000E+00
 -1       233 5.01728E-01 3.51756E+01 0.00000E+00
 -1       234 4.96982E-01 2.93487E+01 0.00000E+00
 -1       235 4.79926E-01 2.36490E+01 0.00000E+00
 -1       236 4.50158E-01 1.82223E+01 0.00000E+00
 -1       237 4.07243E-01 1.32196E+01 0.00000E+00
 -1       238 3.51129E-01 8.79456E+00 0.00000E+00
 -1       239 2.81056E-01 5.10571E+00 0.00000E+00
 -1       240 1.98750E-01 2.30548E+00 0.00000E+00
 -1       241 9.78914E-02 5.74691E-01 0.00000E+00
 -1       242 0.00000E+00 0.00000E+00 0.00000E+00
 -1       243 3.95212E-05 9.77089E+01 0.00000E+00
 -1       244 3.95088E-05 8.61835E+01 0.00000E+00
 -1       245 3.94369E-05 7.46704E+01 0.00000E+00
 -1       246 3.92510E-05 6.31944E+01 0.00000E+00
 -1       247 3.89063E-05 5.17957E+01 0.00000E+00
 -1       248 3.83640E-05 4.05262E+01 0.00000E+00
 -1       249 3.75937E-05 2.94483E+01 0.00000E+00
 -1       250 3.65725E-05 1.86314E+01 0.00000E+00
 -1       251 3.52840E-05 8.15118E+00 0.00000E+00
 -1       252 3.37193E-05-1.91266E+00 0.00000E+00
 -1       253 3.18769E-05-1.14799E+01 0.00000E+00
 -1       254 2.97606E-05-2.04698E+01 0.00000E+00
 -1       255 2.73814E-05-2.88040E+01 0.00000E+00
 -1       256 2.47553E-05-3.64082E+01 0.00000E+00
 -1       257 2.19038E-05-4.32135E+01 0.00000E+00
 -1       258 1.88544E-05-4.91582E+01 0.00000E+00
 -1       259 1.56360E-05-5.41887E+01 0.00000E+00
 -1       260 1.22842E-05-5.82609E+01 0.00000E+00
 -1       261 8.83562E-06-6.13414E+01 0.00000E+00
 -1       262 5.32997E-06-6.34075E+01 0.00000E+00
 -1       263 1.80933E-06-6.44488E+01 0.00000E+00
 -1       264-1.68544E-06-6.44669E+01 0.00000E+00
 -1       265-5.10972E-06-6.34759E+01 0.00000E+00
 -1       266-8.42307E-06-6.15021E+01 0.00000E+00
 -1       267-1.15819E-05-5.85843E+01 0.00000E+00
 -1       268-1.45488E-05-5.47732E+01 0.00000E+00
 -1       269-1.72843E-05-5.01303E+01 0.00000E+00
 -1       270-1.97540E-05-4.47281E+01 0.00000E+00
 -1       271-2.19275E-05-3.86487E+01 0.00000E+00
 -1       272-2.37757E-05-3.19827E+01 0.00000E+00
 -1       273-2.52764E-05-2.48284E+01 0.00000E+00
 -1       274-2.64098E-05-1.72897E+01 0.00000E+00
 -1       275-2.71628E-05-9.47597E+00 0.00000E+00
 -1       276-2.75260E-05-1.49934E+00 0.00000E+00
 -1       277-2.74958E-05 6.52576E+00 0.00000E+00
 -1       278-2.70740E-05 1.44849E+01 0.00000E+00
 -1       279-2.62676E-05 2.22651E+01 0.00000E+00
 -1       280-2.50885E-05 2.97556E+01 0.00000E+00
 -1       281-2.35546E-05 3.68504E+01 0.00000E+00
 -1       282-2.16867E-05 4.34490E+01 0.00000E+00
 -1       283-1.95133E-05 4.94583E+01 0.00000E+00
 -1       284-1.70631E-05 5.47931E+01 0.00000E+00
 -1       285-1.43727E-05 5.93781E+01 0.00000E+00
 -1       286-1.14782E-05 6.31486E+01 0.00000E+00
 -1       287-8.42109E-06 6.60510E+01 0.00000E+00
 -1       288-5.24491E-06 6.80443E+01 0.00000E+00
 -1       289-1.99173E-06 6.90997E+01 0.00000E+00
 -1       290 1.28981E-06 6.92021E+01 0.00000E+00
 -1       291 4.55666E-06 6.83494E+01 0.00000E+00
 -1       292 7.76119E-06 6.65527E+01 0.00000E+00
 -1       293 1.08603E-05 6.38367E+01 0.00000E+00
 -1       294 1.38093E-05 6.02384E+01 0.00000E+00
 -1       295 1.65682E-05 5.58077E+01 0.00000E+00
 -1       296 1.90980E-05 5.06055E+01 0.00000E+00
 -1       297 2.13633E-05 4.47040E+01 0.00000E+00
 -1       298 2.33331E-05 3.81847E+01 0.00000E+00
 -1       299 2.49791E-05 3.11380E+01 0.00000E+00
 -1       300 2.62792E-05 2.36616E+01 0.00000E+00
 -1       301 2.72144E-05 1.58591E+01 0.00000E+00
 -1       302 2.77722E-05 7.83889E+00 0.00000E+00
 -1       303 2.79446E-05-2.87937E-01 0.00000E+00
 -1       304 2.77288E-05-8.40835E+00 0.00000E+00
 -1       305 2.71282E-05-1.64098E+01 0.00000E+00
 -1       306 2.61506E-05-2.41810E+01 0.00000E+00
 -1       307 2.48095E-05-3.16140E+01 0.00000E+00
 -1       308 2.31238E-05-3.86057E+01 0.00000E+00
 -1       309 2.11162E-05-4.50586E+01 0.00000E+00
 -1       310 1.88149E-05-5.08831E+01 0.00000E+00
 -1       311 1.62512E-05-5.59980E+01 0.00000E+00
 -1       312 1.34615E-05-6.03321E+01 0.00000E+00
 -1       313 1.04829E-05-6.38249E+01 0.00000E+00
 -1       314 7.35822E-06-6.64275E+01 0.00000E+00
 -1       315 4.12909E-06-6.81033E+01 0.00000E+00
 -1       316 8.41206E-07-6.88286E+01 0.00000E+00
 -1       317-2.46058E-06-6.85928E+01 0.00000E+00
 -1       318-5.73072E-06-6.73984E+01 0.00000E+00
 -1       319-8.92338E-06-6.52614E+01 0.00000E+00
 -1       320-1.19960E-05-6.22105E+01 0.00000E+00
 -1       321-1.49047E-05-5.82872E+01 0.00000E+00
 -1       322-1.76111E-05-5.35450E+01 0.00000E+00
 -1       323-2.00766E-05-4.80483E+01 0.00000E+00
 -1       324-2.22690E-05-4.18723E+01 0.00000E+00
 -1       325-2.41575E-05-3.51010E+01 0.00000E+00
 -1       326-2.57166E-05-2.78268E+01 0.00000E+00
 -1       327-2.69262E-05-2.01489E+01 0.00000E+00
 -1       328-2.77695E-05-1.21714E+01 0.00000E+00
 -1       329-2.82365E-05-4.00282E+00 0.00000E+00
 -1       330-2.83213E-05 4.24634E+00 0.00000E+00
 -1       331-2.80243E-05 1.24645E+01 0.00000E+00
 -1       332-2.73510E-05 2.05412E+01 0.00000E+00
 -1       333-2.63123E-05 2.83682E+01 0.00000E+00
 -1       334-2.49242E-05 3.58412E+01 0.00000E+00
 -1       335-2.32088E-05 4.28616E+01 0.00000E+00
 -1       336-2.11906E-05 4.93374E+01 0.00000E+00
 -1       337-1.89026E-05 5.51853E+01 0.00000E+00
 -1       338-1.63761E-05 6.03308E+01 0.00000E+00
 -1       339-1.36535E-05 6.47108E+01 0.00000E+00
 -1       340-1.07719E-05 6.82734E+01 0.00000E+00
 -1       341-7.77965E-06 7.09792E+01 0.00000E+00
 -1       342-4.71880E-06 7.28021E+01 0.00000E+00
 -1       343-1.64068E-06 7.37296E+01 0.00000E+00
 -1       344 1.40888E-06 7.37634E+01 0.00000E+00
 -1       345 4.37904E-06 7.29191E+01 0.00000E+00
 -1       346 7.22331E-06 7.12267E+01 0.00000E+00
 -1       347 9.89033E-06 6.87304E+01 0.00000E+00
 -1       348 1.23393E-05 6.54878E+01 0.00000E+00
 -1       349 1.45181E-05 6.15702E+01 0.00000E+00
 -1       350 1.63941E-05 5.70611E+01 0.00000E+00
 -1       351 1.79166E-05 5.20563E+01 0.00000E+00
 -1       352 1.90633E-05 4.66621E+01 0.00000E+00
 -1       353 1.97841E-05 4.09953E+01 0.00000E+00
 -1       354 2.00713E-05 3.51815E+01 0.00000E+00
 -1       355 1.98742E-05 2.93542E+01 0.00000E+00
 -1       356 1.92013E-05 2.36540E+01 0.00000E+00
 -1       357 1.80001E-05 1.82267E+01 0.00000E+00
 -1       358 1.62966E-05 1.32232E+01 0.00000E+00
 -1       359 1.40372E-05 8.79717E+00 0.00000E+00
 -1       360 1.12524E-05 5.10707E+00 0.00000E+00
 -1       361 7.94013E-06 2.30583E+00 0.00000E+00
 -1       362 3.92706E-06 5.72276E-01 0.00000E+00
 -1       363 0.00000E+00 0.00000E+00 0.00000E+00
 -1       364 3.95211E-05 9.77089E+01 0.00000E+00
 -1       365 3.95087E-05 8.61835E+01 0.00000E+00
 -1       366 3.94368E-05 7.46704E+01 0.00000E+00
 -1       367 3.92509E-05 6.31944E+01 0.00000E+00
 -1       368 3.89062E-05 5.17957E+01 0.00000E+00
 -1       369 3.83639E-05 4.05262E+01 0.00000E+00
 -1       370 3.75936E-05 2.94483E+01 0.00000E+00
 -1       371 3.65724E-05 1.86314E+01 0.00000E+00
 -1       372 3.52839E-05 8.15118E+00 0.00000E+00
 -1       373 3.37192E-05-1.91266E+00 0.00000E+00
 -1       374 3.18768E-05-1.14799E+01 0.00000E+00
 -1       375 2.97605E-05-2.04698E+01 0.00000E+00
 -1       376 2.73813E-05-2.88040E+01 0.00000E+00
 -1       377 2.47552E-05-3.64082E+01 0.00000E+00
 -1       378 2.19037E-05-4.32135E+01 0.00000E+00
 -1       379 1.88543E-05-4.91582E+01 0.00000E+00
 -1       380 1.56359E-05-5.41887E+01 0.00000E+00
 -1       381 1.22841E-05-5.82609E+01 0.00000E+00
 -1       382 8.83553E-06-6.13414E+01 0.00000E+00
 -1       383 5.32988E-06-6.34075E+01 0.00000E+00
 -1       384 1.80924E-06-6.44488E+01 0.00000E+00
 -1       385-1.68553E-06-6.44669E+01 0.00000E+00
 -1       386-5.10980E-06-6.34759E+01 0.00000E+00
 -1       387-8.42315E-06-6.15021E+01 0.00000E+00
 -1       388-1.15820E-05-5.85843E+01 0.00000E+00
 -1       389-1.45488E-05-5.47732E+01 0.00000E+00
 -1       390-1.72844E-05-5.01303E+01 0.00000E+00
 -1       391-1.97541E-05-4.47281E+01 0.00000E+00
 -1       392-2.19276E-05-3.86487E+01 0.00000E+00
 -1       393-2.37757E-05-3.19827E+01 0.00000E+00
 -1       394-2.52765E-05-2.48284E+01 0.00000E+00
 -1       395-2.64099E-05-1.72897E+01 0.00000E+00
 -1       396-2.71629E-05-9.47597E+00 0.00000E+00
 -1       397-2.75260E-05-1.49934E+00 0.00000E+00
 -1       398-2.74958E-05 6.52576E+00 0.00000E+00
 -1       399-2.70741E-05 1.44849E+01 0.00000E+00
 -1       400-2.62676E-05 2.22651E+01 0.00000E+00
 -1       401-2.50885E-05 2.97556E+01 0.00000E+00
 -1       402-2.35547E-05 3.68504E+01 0.00000E+00
 -1       403-2.16867E-05 4.34490E+01 0.00000E+00
 -1       404-1.95133E-05 4.94583E+01 0.00000E+00
 -1       405-1.70631E-05 5.47931E+01 0.00000E+00
 -1       406-1.43727E-05 5.93781E+01 0.00000E+00
 -1       407-1.14782E-05 6.31486E+01 0.00000E+00
 -1       408-8.42113E-06 6.60510E+01 0.00000E+00
 -1       409-5.24495E-06 6.80443E+01 0.00000E+00
 -1       410-1.99177E-06 6.90997E+01 0.00000E+00
 -1       411 1.28977E-06 6.92021E+01 0.00000E+00
 -1       412 4.55663E-06 6.83494E+01 0.00000E+00
 -1       413 7.76116E-06 6.65527E+01 0.00000E+00
 -1       414 1.08602E-05 6.38367E+01 0.00000E+00
 -1       415 1.38092E-05 6.02384E+01 0.00000E+00
 -1       416 1.65681E-05 5.58077E+01 0.00000E+00
 -1       417 1.90980E-05 5.06055E+01 0.00000E+00
 -1       418 2.13633E-05 4.47040E+01 0.00000E+00
 -1       419 2.33331E-05 3.81847E+01 0.00000E+00
 -1       420 2.49790E-05 3.11380E+01 0.00000E+00
 -1       421 2.62792E-05 2.36616E+01 0.00000E+00
 -1       422 2.72144E-05 1.58591E+01 0.00000E+00
 -1       423 2.77722E-05 7.83889E+00 0.00000E+00
 -1       424 2.79446E-05-2.87937E-01 0.00000E+00
 -1       425 2.77288E-05-8.40835E+00 0.00000E+00
 -1       426 2.71282E-05-1.64098E+01 0.00000E+00
 -1       427 2.61505E-05-2.41810E+01 0.00000E+00
 -1       428 2.48095E-05-3.16140E+01 0.00000E+00
 -1       429 2.31238E-05-3.86057E+01 0.00000E+00
 -1       430 2.11162E-05-4.50586E+01 0.00000E+00
 -1       431 1.88149E-05-5.08831E+01 0.00000E+00
 -1       432 1.62512E-05-5.59980E+01 0.00000E+00
 -1       433 1.34615E-05-6.03321E+01 0.00000E+00
 -1       434 1.04829E-05-6.38249E+01 0.00000E+00
 -1       435 7.35822E-06-6.64275E+01 0.00000E+00
 -1       436 4.12909E-06-6.81033E+01 0.00000E+00
 -1       437 8.41205E-07-6.88286E+01 0.00000E+00
 -1       438-2.46058E-06-6.85928E+01 0.00000E+00
 -1       439-5.73072E-06-6.73984E+01 0.00000E+00
 -1       440-8.92338E-06-6.52614E+01 0.00000E+00
 -1       441-1.19960E-05-6.22105E+01 0.00000E+00
 -1       442-1.49047E-05-5.82872E+01 0.00000E+00
 -1       443-1.76111E-05-5.35450E+01 0.00000E+00
 -1       444-2.00766E-05-4.80483E+01 0.00000E+00
 -1       445-2.22690E-05-4.18723E+01 0.00000E+00
 -1       446-2.41575E-05-3.51010E+01 0.00000E+00
 -1       447-2.57166E-05-2.78268E+01 0.00000E+00
 -1       448-2.69262E-05-2.01489E+01 0.00000E+00
 -1       449-2.77695E-05-1.21714E+01 0.00000E+00
 -1       450-2.82365E-05-4.00282E+00 0.00000E+00
 -1       451-2.83213E-05 4.24634E+00 0.00000E+00
 -1       452-2.80243E-05 1.24645E+01 0.00000E+00
 -1       453-2.73510E-05 2.05412E+01 0.00000E+00
 -1       454-2.63123E-05 2.83682E+01 0.00000E+00
 -1       455-2.49242E-05 3.58412E+01 0.00000E+00
 -1       456-2.32088E-05 4.28616E+01 0.00000E+00
 -1       457-2.11906E-05 4.93374E+01 0.00000E+00
 -1       458-1.89026E-05 5.51853E+01 0.00000E+00
 -1       459-1.63761E-05 6.03308E+01 0.00000E+00
 -1       460-1.36535E-05 6.47108E+01 0.00000E+00
 -1       461-1.07719E-05 6.82734E+01 0.00000E+00
 -1       462-7.77965E-06 7.09792E+01 0.00000E+00
 -1       463-4.71880E-06 7.28021E+01 0.00000E+00
 -1       464-1.64068E-06 7.37296E+01 0.00000E+00
 -1       465 1.40888E-06 7.37634E+01 0.00000E+00
 -1       466 4.37905E-06 7.29191E+01 0.00000E+00
 -1       467 7.22332E-06 7.12267E+01 0.00000E+00
 -1       468 9.89033E-06 6.87304E+01 0.00000E+00
 -1       469 1.23393E-05 6.54878E+01 0.00000E+00
 -1       470 1.45181E-05 6.15702E+01 0.00000E+00
 -1       471 1.63941E-05 5.70611E+01 0.00000E+00
 -1       472 1.79166E-05 5.20563E+01 0.00000E+00
 -1       473 1.90634E-05 4.66621E+01 0.00000E+00
 -1       474 1.97841E-05 4.09953E+01 0.00000E+00
 -1       475 2.00713E-05 3.51815E+01 0.00000E+00
 -1       476 1.98742E-05 2.93542E+01 0.00000E+00
 -1       477 1.92013E-05 2.36540E+01 0.00000E+00
 -1       478 1.80001E-05 1.82267E+01 0.00000E+00
 -1       479 1.62966E-05 1.32232E+01 0.00000E+00
 -1       480 1.40372E-05 8.79717E+00 0.00000E+00
 -1       481 1.12524E-05 5.10707E+00 0.00000E+00
 -1       482 7.94013E-06 2.30583E+00 0.00000E+00
 -1       483 3.92706E-06 5.72276E-01 0.00000E+00
 -1       484 0.00000E+00 0.00000E+00 0.00000E+00
 -1       485-9.88017E-01 9.77089E+01 0.00000E+00
 -1       486-9.87719E-01 8.61835E+01 0.00000E+00
 -1       487-9.85918E-01 7.46701E+01 0.00000E+00
 -1       488-9.81279E-01 6.31943E+01 0.00000E+00
 -1       489-9.72658E-01 5.17957E+01 0.00000E+00
 -1       490-9.59109E-01 4.05263E+01 0.00000E+00
 -1       491-9.39849E-01 2.94484E+01 0.00000E+00
 -1       492-9.14324E-01 1.86316E+01 0.00000E+00
 -1       493-8.82108E-01 8.15132E+00 0.00000E+00
 -1       494-8.42991E-01-1.91255E+00 0.00000E+00
 -1       495-7.96932E-01-1.14795E+01 0.00000E+00
 -1       496-7.44023E-01-2.04692E+01 0.00000E+00
 -1       497-6.84544E-01-2.88032E+01 0.00000E+00
 -1       498-6.18890E-01-3.64072E+01 0.00000E+00
 -1       499-5.47603E-01-4.32124E+01 0.00000E+00
 -1       500-4.71364E-01-4.91568E+01 0.00000E+00
 -1       501-3.90905E-01-5.41872E+01 0.00000E+00
 -1       502-3.07107E-01-5.82592E+01 0.00000E+00
 -1       503-2.20894E-01-6.13395E+01 0.00000E+00
 -1       504-1.33247E-01-6.34054E+01 0.00000E+00
 -1       505-4.52354E-02-6.44466E+01 0.00000E+00
 -1       506 4.21412E-02-6.44646E+01 0.00000E+00
 -1       507 1.27742E-01-6.34734E+01 0.00000E+00
 -1       508 2.10583E-01-6.14995E+01 0.00000E+00
 -1       509 2.89549E-01-5.85816E+01 0.00000E+00
 -1       510 3.63726E-01-5.47703E+01 0.00000E+00
 -1       511 4.32112E-01-5.01273E+01 0.00000E+00
 -1       512 4.93855E-01-4.47252E+01 0.00000E+00
 -1       513 5.48192E-01-3.86458E+01 0.00000E+00
 -1       514 5.94394E-01-3.19799E+01 0.00000E+00
 -1       515 6.31914E-01-2.48255E+01 0.00000E+00
 -1       516 6.60246E-01-1.72870E+01 0.00000E+00
 -1       517 6.79072E-01-9.47327E+00 0.00000E+00
 -1       518 6.88145E-01-1.49687E+00 0.00000E+00
 -1       519 6.87392E-01 6.52807E+00 0.00000E+00
 -1       520 6.76842E-01 1.44871E+01 0.00000E+00
 -1       521 6.56682E-01 2.22669E+01 0.00000E+00
 -1       522 6.27198E-01 2.97571E+01 0.00000E+00
 -1       523 5.88853E-01 3.68516E+01 0.00000E+00
 -1       524 5.42148E-01 4.34500E+01 0.00000E+00
 -1       525 4.87812E-01 4.94588E+01 0.00000E+00
 -1       526 4.26554E-01 5.47932E+01 0.00000E+00
 -1       527 3.59291E-01 5.93779E+01 0.00000E+00
 -1       528 2.86929E-01 6.31479E+01 0.00000E+00
 -1       529 2.10494E-01 6.60499E+01 0.00000E+00
 -1       530 1.31094E-01 6.80428E+01 0.00000E+00
 -1       531 4.97541E-02 6.90978E+01 0.00000E+00
 -1       532-3.22771E-02 6.91998E+01 0.00000E+00
 -1       533-1.13958E-01 6.83467E+01 0.00000E+00
 -1       534-1.94064E-01 6.65497E+01 0.00000E+00
 -1       535-2.71549E-01 6.38333E+01 0.00000E+00
 -1       536-3.45267E-01 6.02348E+01 0.00000E+00
 -1       537-4.14245E-01 5.58037E+01 0.00000E+00
 -1       538-4.77486E-01 5.06013E+01 0.00000E+00
 -1       539-5.34121E-01 4.46996E+01 0.00000E+00
 -1       540-5.83363E-01 3.81801E+01 0.00000E+00
 -1       541-6.24510E-01 3.11334E+01 0.00000E+00
 -1       542-6.57011E-01 2.36570E+01 0.00000E+00
 -1       543-6.80387E-01 1.58545E+01 0.00000E+00
 -1       544-6.94331E-01 7.83441E+00 0.00000E+00
 -1       545-6.98635E-01-2.92297E-01 0.00000E+00
 -1       546-6.93239E-01-8.41253E+00 0.00000E+00
 -1       547-6.78219E-01-1.64136E+01 0.00000E+00
 -1       548-6.53775E-01-2.41845E+01 0.00000E+00
 -1       549-6.20243E-01-3.16172E+01 0.00000E+00
 -1       550-5.78099E-01-3.86083E+01 0.00000E+00
 -1       551-5.27903E-01-4.50608E+01 0.00000E+00
 -1       552-4.70368E-01-5.08848E+01 0.00000E+00
 -1       553-4.06269E-01-5.59991E+01 0.00000E+00
 -1       554-3.36527E-01-6.03326E+01 0.00000E+00
 -1       555-2.62055E-01-6.38248E+01 0.00000E+00
 -1       556-1.83939E-01-6.64267E+01 0.00000E+00
 -1       557-1.03207E-01-6.81019E+01 0.00000E+00
 -1       558-2.10071E-02-6.88266E+01 0.00000E+00
 -1       559 6.15377E-02-6.85901E+01 0.00000E+00
 -1       560 1.43295E-01-6.73951E+01 0.00000E+00
 -1       561 2.23107E-01-6.52575E+01 0.00000E+00
 -1       562 2.99928E-01-6.22062E+01 0.00000E+00
 -1       563 3.72639E-01-5.82824E+01 0.00000E+00
 -1       564 4.40304E-01-5.35397E+01 0.00000E+00
 -1       565 5.01933E-01-4.80426E+01 0.00000E+00
 -1       566 5.56747E-01-4.18662E+01 0.00000E+00
 -1       567 6.03952E-01-3.50947E+01 0.00000E+00
 -1       568 6.42928E-01-2.78204E+01 0.00000E+00
 -1       569 6.73163E-01-2.01423E+01 0.00000E+00
 -1       570 6.94241E-01-1.21648E+01 0.00000E+00
 -1       571 7.05910E-01-3.99633E+00 0.00000E+00
 -1       572 7.08028E-01 4.25260E+00 0.00000E+00
 -1       573 7.00595E-01 1.24706E+01 0.00000E+00
 -1       574 6.83760E-01 2.05470E+01 0.00000E+00
 -1       575 6.57786E-01 2.83735E+01 0.00000E+00
 -1       576 6.23078E-01 3.58461E+01 0.00000E+00
 -1       577 5.80187E-01 4.28659E+01 0.00000E+00
 -1       578 5.29729E-01 4.93412E+01 0.00000E+00
 -1       579 4.72522E-01 5.51883E+01 0.00000E+00
 -1       580 4.09358E-01 6.03332E+01 0.00000E+00
 -1       581 3.41282E-01 6.47124E+01 0.00000E+00
 -1       582 2.69248E-01 6.82742E+01 0.00000E+00
 -1       583 1.94426E-01 7.09792E+01 0.00000E+00
 -1       584 1.17922E-01 7.28013E+01 0.00000E+00
 -1       585 4.09416E-02 7.37280E+01 0.00000E+00
 -1       586-3.52668E-02 7.37610E+01 0.00000E+00
 -1       587-1.09559E-01 7.29160E+01 0.00000E+00
 -1       588-1.80621E-01 7.12229E+01 0.00000E+00
 -1       589-2.47347E-01 6.87260E+01 0.00000E+00
 -1       590-3.08508E-01 6.54829E+01 0.00000E+00
 -1       591-3.63047E-01 6.15649E+01 0.00000E+00
 -1       592-4.09861E-01 5.70555E+01 0.00000E+00
 -1       593-4.48015E-01 5.20503E+01 0.00000E+00
 -1       594-4.76565E-01 4.66560E+01 0.00000E+00
 -1       595-4.94713E-01 4.09892E+01 0.00000E+00
 -1       596-5.01728E-01 3.51756E+01 0.00000E+00
 -1       597-4.96982E-01 2.93487E+01 0.00000E+00
 -1       598-4.79926E-01 2.36490E+01 0.00000E+00
 -1       599-4.50158E-01 1.82223E+01 0.00000E+00
 -1       600-4.07243E-01 1.32196E+01 0.00000E+00
 -1       601-3.51129E-01 8.79456E+00 0.00000E+00
 -1       602-2.81057E-01 5.10571E+00 0.00000E+00
 -1       603-1.98750E-01 2.30548E+00 0.00000E+00
 -1       604-9.78915E-02 5.74691E-01 0.00000E+00
 -1       605 0.00000E+00 0.00000E+00 0.00000E+00
 -1       606-9.88017E-01 9.77089E+01 0.00000E+00
 -1       607-9.87719E-01 8.61835E+01 0.00000E+00
 -1       608-9.85918E-01 7.46701E+01 0.00000E+00
 -1       609-9.81279E-01 6.31943E+01 0.00000E+00
 -1       610-9.72658E-01 5.17957E+01 0.00000E+00
 -1       611-9.59109E-01 4.05263E+01 0.00000E+00
 -1       612-9.39849E-01 2.94483E+01 0.00000E+00
 -1       613-9.14324E-01 1.86316E+01 0.00000E+00
 -1       614-8.82108E-01 8.15132E+00 0.00000E+00
 -1       615-8.42991E-01-1.91255E+00 0.00000E+00
 -1       616-7.96932E-01-1.14795E+01 0.00000E+00
 -1       617-7.44023E-01-2.04692E+01 0.00000E+00
 -1       618-6.84544E-01-2.88032E+01 0.00000E+00
 -1       619-6.18890E-01-3.64072E+01 0.00000E+00
 -1       620-5.47603E-01-4.32124E+01 0.00000E+00
 -1       621-4.71364E-01-4.91568E+01 0.00000E+00
 -1       622-3.90905E-01-5.41872E+01 0.00000E+00
 -1       623-3.07107E-01-5.82592E+01 0.00000E+00
 -1       624-2.20894E-01-6.13395E+01 0.00000E+00
 -1       625-1.33247E-01-6.34054E+01 0.00000E+00
 -1       626-4.52354E-02-6.44466E+01 0.00000E+00
 -1       627 4.21412E-02-6.44646E+01 0.00000E+00
 -1       628 1.27742E-01-6.34734E+01 0.00000E+00
 -1       629 2.10583E-01-6.14995E+01 0.00000E+00
 -1       630 2.89549E-01-5.85816E+01 0.00000E+00
 -1       631 3.63726E-01-5.47703E+01 0.00000E+00
 -1       632 4.32112E-01-5.01273E+01 0.00000E+00
 -1       633 4.93855E-01-4.47252E+01 0.00000E+00
 -1       634 5.48192E-01-3.86458E+01 0.00000E+00
 -1       635 5.94394E-01-3.19799E+01 0.00000E+00
 -1       636 6.31914E-01-2.48255E+01 0.00000E+00
 -1       637 6.60246E-01-1.72870E+01 0.00000E+00
 -1       638 6.79072E-01-9.47327E+00 0.00000E+00
 -1       639 6.88145E-01-1.49687E+00 0.00000E+00
 -1       640 6.87392E-01 6.52807E+00 0.00000E+00
 -1       641 6.76842E-01 1.44871E+01 0.00000E+00
 -1       642 6.56682E-01 2.22669E+01 0.00000E+00
 -1       643 6.27198E-01 2.97571E+01 0.00000E+00
 -1       644 5.88853E-01 3.68516E+01 0.00000E+00
 -1       645 5.42148E-01 4.34500E+01 0.00000E+00
 -1       646 4.87812E-01 4.94588E+01 0.00000E+00
 -1       647 4.26554E-01 5.47932E+01 0.00000E+00
 -1       648 3.59291E-01 5.93779E+01 0.00000E+00
 -1       649 2.86929E-01 6.31479E+01 0.00000E+00
 -1       650 2.10494E-01 6.60499E+01 0.00000E+00
 -1       651 1.31094E-01 6.80428E+01 0.00000E+00
 -1       652 4.97541E-02 6.90978E+01 0.00000E+00
 -1       653-3.22771E-02 6.91998E+01 0.00000E+00
 -1       654-1.13958E-01 6.83467E+01 0.00000E+00
 -1       655-1.94064E-01 6.65497E+01 0.00000E+00
 -1       656-2.71549E-01 6.38333E+01 0.00000E+00
 -1       657-3.45267E-01 6.02348E+01 0.00000E+00
 -1       658-4.14245E-01 5.58037E+01 0.00000E+00
 -1       659-4.77486E-01 5.06013E+01 0.00000E+00
 -1       660-5.34121E-01 4.46996E+01 0.00000E+00
 -1       661-5.83363E-01 3.81801E+01 0.00000E+00
 -1       662-6.24510E-01 3.11334E+01 0.00000E+00
 -1       663-6.57011E-01 2.36570E+01 0.00000E+00
 -1       664-6.80387E-01 1.58545E+01 0.00000E+00
 -1       665-6.94331E-01 7.83441E+00 0.00000E+00
 -1       666-6.98635E-01-2.92297E-01 0.00000E+00
 -1       667-6.93239E-01-8.41253E+00 0.00000E+00
 -1       668-6.78219E-01-1.64136E+01 0.00000E+00
 -1       669-6.53775E-01-2.41845E+01 0.00000E+00
 -1       670-6.20243E-01-3.16172E+01 0.00000E+00
 -1       671-5.78099E-01-3.86083E+01 0.00000E+00
 -1       672-5.27903E-01-4.50608E+01 0.00000E+00
 -1       673-4.70368E-01-5.08848E+01 0.00000E+00
 -1       674-4.06269E-01-5.59991E+01 0.00000E+00
 -1       675-3.36527E-01-6.03326E+01 0.00000E+00
 -1       676-2.62055E-01-6.38248E+01 0.00000E+00
 -1       677-1.83939E-01-6.64267E+01 0.00000E+00
 -1       678-1.03207E-01-6.81019E+01 0.00000E+00
 -1       679-2.10071E-02-6.88266E+01 0.00000E+00
 -1       680 6.15377E-02-6.85901E+01 0.00000E+00
 -1       681 1.43295E-01-6.73951E+01 0.00000E+00
 -1       682 2.23107E-01-6.52575E+01 0.00000E+00
 -1       683 2.99928E-01-6.22062E+01 0.00000E+00
 -1       684 3.72639E-01-5.82824E+01 0.00000E+00
 -1       685 4.40304E-01-5.35397E+01 0.00000E+00
 -1       686 5.01933E-01-4.80426E+01 0.00000E+00
 -1       687 5.56747E-01-4.18662E+01 0.00000E+00
 -1       688 6.03952E-01-3.50947E+01 0.00000E+00
 -1       689 6.42928E-01-2.78204E+01 0.00000E+00
 -1       690 6.73163E-01-2.01423E+01 0.00000E+00
 -1       691 6.94241E-01-1.21648E+01 0.00000E+00
 -1       692 7.05910E-01-3.99633E+00 0.00000E+00
 -1       693 7.08028E-01 4.25260E+00 0.00000E+00
 -1       694 7.00595E-01 1.24706E+01 0.00000E+00
 -1       695 6.83760E-01 2.05470E+01 0.00000E+00
 -1       696 6.57786E-01 2.83735E+01 0.00000E+00
 -1       697 6.23078E-01 3.58461E+01 0.00000E+00
 -1       698 5.80187E-01 4.28659E+01 0.00000E+00
 -1       699 5.29729E-01 4.93412E+01 0.00000E+00
 -1       700 4.72522E-01 5.51883E+01 0.00000E+00
 -1       701 4.09358E-01 6.03332E+01 0.00000E+00
 -1       702 3.41282E-01 6.47124E+01 0.00000E+00
 -1       703 2.69248E-01 6.82742E+01 0.00000E+00
 -1       704 1.94426E-01 7.09792E+01 0.00000E+00
 -1       705 1.17922E-01 7.28013E+01 0.00000E+00
 -1       706 4.09416E-02 7.37280E+01 0.00000E+00
 -1       707-3.52668E-02 7.37610E+01 0.00000E+00
 -1       708-1.09559E-01 7.29160E+01 0.00000E+00
 -1       709-1.80621E-01 7.12229E+01 0.00000E+00
 -1       710-2.47347E-01 6.87260E+01 0.00000E+00
 -1       711-3.08508E-01 6.54829E+01 0.00000E+00
 -1       712-3.63047E-01 6.15649E+01 0.00000E+00
 -1       713-4.09861E-01 5.70555E+01 0.00000E+00
 -1       714-4.48015E-01 5.20503E+01 0.00000E+00
 -1       715-4.76565E-01 4.66560E+01 0.00000E+00
 -1       716-4.94713E-01 4.09892E+01 0.00000E+00
 -1       717-5.01728E-01 3.51756E+01 0.00000E+00
 -1       718-4.96982E-01 2.93487E+01 0.00000E+00
 -1       719-4.79926E-01 2.36490E+01 0.00000E+00
 -1       720-4.50158E-01 1.82223E+01 0.00000E+00
 -1       721-4.07243E-01 1.32196E+01 0.00000E+00
 -1       722-3.51129E-01 8.79456E+00 0.00000E+00
 -1       723-2.81057E-01 5.10571E+00 0.00000E+00
 -1       724-1.98750E-01 2.30548E+00 0.00000E+00
 -1       725-9.78915E-02 5.74691E-01 0.00000E+00
 -1       726 0.00000E+00 0.00000E+00 0.00000E+00
 -1       727 9.88017E-01 9.77089E+01 0.00000E+00
 -3
    1PSTEP                        18           1           1          
    1PGM                1.000000E+00                                  
    1PGK                2.166874E+07                                  
    1PHID                         -1                                  
    1PSUBC                         0                                  
    1PMODE                         5                                  
  100CL  105 740.8613878         726                     2    5MODAL      1
 -4  STRESS      6    1
 -5  SXX         1    4    1    1
 -5  SYY         1    4    2    2
 -5  SZZ         1    4    3    3
 -5  SXY         1    4    1    2
 -5  SYZ         1    4    2    3
 -5  SZX         1    4    3    1
 -1         2 1.97941E+10 1.45392E+09 8.07424E+09 8.47930E+08-2.15627E+11-1.23522E+09
 -1         3 6.16448E+10 1.24329E+09 2.38975E+10 1.58114E+09-1.86832E+11-1.23261E+09
 -1         4 1.27344E+11 1.06904E+09 4.87969E+10 2.20975E+09-1.58137E+11-1.22649E+09
 -1         5 2.13209E+11 8.03637E+08 8.13249E+10 2.73394E+09-1.29641E+11-1.21544E+09
 -1         6 3.15651E+11 7.38817E+08 1.20228E+11 3.15980E+09-1.01472E+11-1.19828E+09
 -1         7 4.31016E+11 4.75329E+08 1.63967E+11 3.47019E+09-7.37851E+10-1.17404E+09
 -1         8 5.55805E+11 2.09802E+08 2.11285E+11 3.70027E+09-4.67539E+10-1.14199E+09
 -1         9 6.86626E+11 3.20497E+08 2.61040E+11 3.81756E+09-2.05668E+10-1.10163E+09
 -1        10 8.20010E+11-4.50669E+07 3.11587E+11 3.83364E+09 4.57849E+09-1.05269E+09
 -1        11 9.52846E+11-2.63897E+08 3.61981E+11 3.77923E+09 2.84808E+10-9.95090E+08
 -1        12 1.08208E+12-3.75551E+08 4.11047E+11 3.63265E+09 5.09396E+10-9.28976E+08
 -1        13 1.20482E+12-5.24946E+08 4.57632E+11 3.41383E+09 7.17597E+10-8.54675E+08
 -1        14 1.31846E+12-4.27918E+08 5.00853E+11 3.10964E+09 9.07557E+10-7.72694E+08
 -1        15 1.42047E+12-8.21562E+08 5.39467E+11 2.73577E+09 1.07756E+11-6.83703E+08
 -1        16 1.50880E+12-9.02497E+08 5.73002E+11 2.32925E+09 1.22606E+11-5.88523E+08
 -1        17 1.58154E+12-7.81217E+08 6.00689E+11 1.84850E+09 1.35173E+11-4.88113E+08
 -1        18 1.63700E+12-1.04370E+09 6.21663E+11 1.33339E+09 1.45348E+11-3.83536E+08
 -1        19 1.67400E+12-8.68424E+08 6.35791E+11 7.86370E+08 1.53045E+11-2.75953E+08
 -1        20 1.69143E+12-1.20417E+09 6.42284E+11 2.05123E+08 1.58210E+11-1.66601E+08
 -1        21 1.68877E+12-1.03152E+09 6.41339E+11-3.59703E+08 1.60815E+11-5.67673E+07
 -1        22 1.66558E+12-1.08147E+09 6.32509E+11-9.69244E+08 1.60866E+11 5.22250E+07
 -1        23 1.62190E+12-1.05044E+09 6.15924E+11-1.53524E+09 1.58398E+11 1.59046E+08
 -1        24 1.55803E+12-1.07709E+09 5.91643E+11-2.12517E+09 1.53475E+11 2.62372E+08
 -1        25 1.47461E+12-1.05306E+09 5.59952E+11-2.64914E+09 1.46196E+11 3.60915E+08
 -1        26 1.37262E+12-5.97058E+08 5.21370E+11-3.19193E+09 1.36687E+11 4.53430E+08
 -1        27 1.25307E+12-1.07316E+09 4.75760E+11-3.67136E+09 1.25101E+11 5.38746E+08
 -1        28 1.11771E+12-7.02665E+08 4.24463E+11-4.09033E+09 1.11619E+11 6.15783E+08
 -1        29 9.68078E+11-6.31749E+08 3.67630E+11-4.48342E+09 9.64471E+10 6.83557E+08
 -1        30 8.06155E+11-5.57436E+08 3.06127E+11-4.79606E+09 7.98105E+10 7.41209E+08
 -1        31 6.34072E+11-4.03607E+08 2.40794E+11-5.06369E+09 6.19544E+10 7.88008E+08
 -1        32 4.54085E+11-3.05635E+08 1.72436E+11-5.24836E+09 4.31391E+10 8.23367E+08
 -1        33 2.68617E+11-1.00664E+08 1.02036E+11-5.37856E+09 2.36367E+10 8.46851E+08
 -1        34 8.01118E+10-6.72376E+07 3.04170E+10-5.42384E+09 3.72791E+09 8.58182E+08
 -1        35-1.08847E+11 9.72648E+07-4.13248E+10-5.40201E+09-1.63022E+10 8.57250E+08
 -1        36-2.95723E+11 2.82682E+08-1.12268E+11-5.30236E+09-3.61679E+10 8.44103E+08
 -1        37-4.78013E+11 3.10976E+08-1.81527E+11-5.13879E+09-5.55865E+10 8.18963E+08
 -1        38-6.53177E+11 6.02723E+08-2.47978E+11-4.89317E+09-7.42824E+10 7.82206E+08
 -1        39-8.18928E+11 5.28507E+08-3.10992E+11-4.60316E+09-9.19907E+10 7.34373E+08
 -1        40-9.72917E+11 6.96091E+08-3.69444E+11-4.21484E+09-1.08461E+11 6.76151E+08
 -1        41-1.11308E+12 8.77082E+08-4.22637E+11-3.80530E+09-1.23459E+11 6.08368E+08
 -1        42-1.23753E+12 8.76437E+08-4.69930E+11-3.31565E+09-1.36774E+11 5.31988E+08
 -1        43-1.34451E+12 1.14176E+09-5.10481E+11-2.80734E+09-1.48218E+11 4.48087E+08
 -1        44-1.43270E+12 7.71264E+08-5.44131E+11-2.24105E+09-1.57629E+11 3.57847E+08
 -1        45-1.50064E+12 1.39582E+09-5.69712E+11-1.63825E+09-1.64873E+11 2.62531E+08
 -1        46-1.54772E+12 9.81681E+08-5.87761E+11-1.05454E+09-1.69847E+11 1.63477E+08
 -1        47-1.57308E+12 1.07091E+09-5.97364E+11-3.89572E+08-1.72481E+11 6.20721E+07
 -1        48-1.57644E+12 1.28068E+09-5.98561E+11 2.15679E+08-1.72736E+11-4.02691E+07
 -1        49-1.55784E+12 1.08838E+09-5.91567E+11 8.62409E+08-1.70606E+11-1.42115E+08
 -1        50-1.51746E+12 1.14104E+09-5.76202E+11 1.46162E+09-1.66121E+11-2.42044E+08
 -1        51-1.45594E+12 1.01798E+09-5.52869E+11 2.07448E+09-1.59341E+11-3.38662E+08
 -1        52-1.37407E+12 1.12870E+09-5.21716E+11 2.62551E+09-1.50359E+11-4.30622E+08
 -1        53-1.27310E+12 7.99961E+08-4.83473E+11 3.16368E+09-1.39299E+11-5.16640E+08
 -1        54-1.15431E+12 8.98560E+08-4.38296E+11 3.65060E+09-1.26313E+11-5.95517E+08
 -1        55-1.01947E+12 6.67160E+08-3.87147E+11 4.08561E+09-1.11582E+11-6.66153E+08
 -1        56-8.70376E+11 6.98889E+08-3.30477E+11 4.46871E+09-9.53088E+10-7.27562E+08
 -1        57-7.09162E+11 5.29783E+08-2.69280E+11 4.77564E+09-7.77193E+10-7.78890E+08
 -1        58-5.38043E+11 3.59571E+08-2.04320E+11 5.03237E+09-5.90572E+10-8.19418E+08
 -1        59-3.59379E+11 3.10676E+08-1.36446E+11 5.20763E+09-3.95814E+10-8.48581E+08
 -1        60-1.75696E+11 8.42177E+07-6.67325E+10 5.31791E+09-1.95620E+10-8.65971E+08
 -1        61 1.05052E+10 2.74413E+07 4.00242E+09 5.35212E+09 7.23156E+08-8.71341E+08
 -1        62 1.96594E+11-1.55145E+08 7.46469E+10 5.30881E+09 2.09925E+10-8.64613E+08
 -1        63 3.80010E+11-3.08543E+08 1.44287E+11 5.19765E+09 4.09646E+10-8.45878E+08
 -1        64 5.58227E+11-3.16547E+08 2.12006E+11 5.01095E+09 6.03619E+10-8.15395E+08
 -1        65 7.28710E+11-5.86455E+08 2.76687E+11 4.74868E+09 7.89151E+10-7.73579E+08
 -1        66 8.89161E+11-6.77729E+08 3.37624E+11 4.43644E+09 9.63663E+10-7.21009E+08
 -1        67 1.03734E+12-7.23281E+08 3.93913E+11 4.04905E+09 1.12473E+11-6.58412E+08
 -1        68 1.17118E+12-7.49023E+08 4.44764E+11 3.61035E+09 1.27011E+11-5.86652E+08
 -1        69 1.28879E+12-1.04107E+09 4.89346E+11 3.11070E+09 1.39777E+11-5.06719E+08
 -1        70 1.38864E+12-9.74903E+08 5.27314E+11 2.59521E+09 1.50595E+11-4.19719E+08
 -1        71 1.46928E+12-1.04748E+09 5.57929E+11 2.01035E+09 1.59312E+11-3.26855E+08
 -1        72 1.52959E+12-1.22744E+09 5.80779E+11 1.43090E+09 1.65808E+11-2.29410E+08
 -1        73 1.56884E+12-9.99563E+08 5.95778E+11 8.08306E+08 1.69990E+11-1.28731E+08
 -1        74 1.58635E+12-1.21774E+09 6.02348E+11 1.80785E+08 1.71799E+11-2.62078E+07
 -1        75 1.58202E+12-1.00110E+09 6.00788E+11-4.46900E+08 1.71209E+11 7.67445E+07
 -1        76 1.55581E+12-1.26030E+09 5.90728E+11-1.07890E+09 1.68227E+11 1.78705E+08
 -1        77 1.50822E+12-1.05463E+09 5.72723E+11-1.66632E+09 1.62892E+11 2.78269E+08
 -1        78 1.43985E+12-1.02942E+09 5.46750E+11-2.26639E+09 1.55275E+11 3.74063E+08
 -1        79 1.35168E+12-9.82648E+08 5.13266E+11-2.80094E+09 1.45481E+11 4.64772E+08
 -1        80 1.24498E+12-9.19497E+08 4.72744E+11-3.32614E+09 1.33643E+11 5.49150E+08
 -1        81 1.12125E+12-8.57706E+08 4.25748E+11-3.77167E+09 1.19922E+11 6.26041E+08
 -1        82 9.82277E+11-4.73025E+08 3.73085E+11-4.19892E+09 1.04505E+11 6.94394E+08
 -1        83 8.29889E+11-7.47283E+08 3.15074E+11-4.55081E+09 8.76017E+10 7.53278E+08
 -1        84 6.66424E+11-4.45963E+08 2.53072E+11-4.82723E+09 6.94436E+10 8.01903E+08
 -1        85 4.94085E+11-3.10903E+08 1.87634E+11-5.05215E+09 5.02774E+10 8.39614E+08
 -1        86 3.15328E+11-2.43577E+08 1.19732E+11-5.19459E+09 3.03637E+10 8.65918E+08
 -1        87 1.32728E+11-1.41771E+07 5.04311E+10-5.26927E+09 9.97296E+09 8.80479E+08
 -1        88-5.11713E+10 2.56459E+07-1.94354E+10-5.26886E+09-1.06188E+10 8.83132E+08
 -1        89-2.33693E+11 2.18143E+08-8.87205E+10-5.18740E+09-3.11335E+10 8.73879E+08
 -1        90-4.12246E+11 3.92834E+08-1.56504E+11-5.03878E+09-5.12951E+10 8.52890E+08
 -1        91-5.84289E+11 3.70832E+08-2.21889E+11-4.81411E+09-7.08335E+10 8.20512E+08
 -1        92-7.47250E+11 6.88950E+08-2.83693E+11-4.51216E+09-8.94885E+10 7.77247E+08
 -1        93-8.98859E+11 6.41740E+08-3.41322E+11-4.16226E+09-1.07014E+11 7.23759E+08
 -1        94-1.03677E+12 9.48456E+08-3.93613E+11-3.72687E+09-1.23180E+11 6.60864E+08
 -1        95-1.15905E+12 8.19183E+08-4.40127E+11-3.26989E+09-1.37779E+11 5.89514E+08
 -1        96-1.26372E+12 9.52535E+08-4.79853E+11-2.71266E+09-1.50625E+11 5.10790E+08
 -1        97-1.34918E+12 1.16897E+09-5.12245E+11-2.16043E+09-1.61561E+11 4.25885E+08
 -1        98-1.41410E+12 1.07252E+09-5.36949E+11-1.53758E+09-1.70457E+11 3.36094E+08
 -1        99-1.45722E+12 1.35681E+09-5.53229E+11-9.14591E+08-1.77215E+11 2.42791E+08
 -1       100-1.47787E+12 9.30803E+08-5.61235E+11-2.53536E+08-1.81769E+11 1.47418E+08
 -1       101-1.47519E+12 1.49600E+09-5.60003E+11 4.31198E+08-1.84090E+11 5.14587E+07
 -1       102-1.44919E+12 1.10502E+09-5.50272E+11 1.07607E+09-1.84180E+11-4.35714E+07
 -1       103-1.39965E+12 1.12613E+09-5.31438E+11 1.78036E+09-1.82079E+11-1.36144E+08
 -1       104-1.32687E+12 1.32071E+09-5.03709E+11 2.41660E+09-1.77862E+11-2.24746E+08
 -1       105-1.23148E+12 1.08679E+09-4.67550E+11 3.06849E+09-1.71640E+11-3.07884E+08
 -1       106-1.11417E+12 1.11729E+09-4.22961E+11 3.66911E+09-1.63556E+11-3.84111E+08
 -1       107-9.76028E+11 1.03427E+09-3.70498E+11 4.26063E+09-1.53789E+11-4.52039E+08
 -1       108-8.18269E+11 9.95110E+08-3.10564E+11 4.78826E+09-1.42547E+11-5.10354E+08
 -1       109-6.42369E+11 7.18520E+08-2.43827E+11 5.29843E+09-1.30070E+11-5.57827E+08
 -1       110-4.49818E+11 8.75672E+08-1.70598E+11 5.74732E+09-1.16622E+11-5.93328E+08
 -1       111-2.42445E+11 6.94770E+08-9.18651E+10 6.14159E+09-1.02497E+11-6.15838E+08
 -1       112-2.19947E+10 5.30628E+08-8.15637E+09 6.48891E+09-8.80072E+10-6.24446E+08
 -1       113 2.09718E+11 5.93294E+08 7.99185E+10 6.78501E+09-7.34870E+10-6.18364E+08
 -1       114 4.50737E+11 1.61780E+08 1.71341E+11 7.01770E+09-5.92869E+10-5.96922E+08
 -1       115 6.99488E+11 7.98410E+08 2.66109E+11 7.22800E+09-4.57720E+10-5.59571E+08
 -1       116 9.53704E+11-1.11708E+09 3.61983E+11 7.32895E+09-3.33187E+10-5.05867E+08
 -1       117 1.21337E+12 4.70313E+09 4.62867E+11 7.51509E+09-2.23125E+10-4.35509E+08
 -1       118 1.47185E+12-1.59498E+10 5.53244E+11 7.32019E+09-1.31453E+10-3.48168E+08
 -1       119 1.74622E+12 5.59255E+10 6.84816E+11 8.22569E+09-6.21302E+09-2.44038E+08
 -1       120 1.97235E+12-1.92594E+11 6.76307E+11 5.17857E+09-1.91679E+09-1.21845E+08
 -1       121 2.05115E+12 6.78435E+11 1.03724E+12 1.59671E+10-4.78495E+08-5.58067E+07
 -1       122 5.28446E+09 1.54513E+09 2.59524E+09 8.60925E+06 2.30039E+11 1.23585E+09
 -1       123 1.97941E+10 1.45392E+09 8.07424E+09 8.47930E+08 2.15627E+11 1.23522E+09
 -1       124 6.16448E+10 1.24329E+09 2.38975E+10 1.58114E+09 1.86832E+11 1.23261E+09
 -1       125 1.27344E+11 1.06904E+09 4.87969E+10 2.20975E+09 1.58137E+11 1.22649E+09
 -1       126 2.13209E+11 8.03636E+08 8.13249E+10 2.73394E+09 1.29641E+11 1.21544E+09
 -1       127 3.15651E+11 7.38816E+08 1.20228E+11 3.15980E+09 1.01472E+11 1.19828E+09
 -1       128 4.31016E+11 4.75328E+08 1.63967E+11 3.47019E+09 7.37851E+10 1.17404E+09
 -1       129 5.55805E+11 2.09801E+08 2.11285E+11 3.70027E+09 4.67539E+10 1.14199E+09
 -1       130 6.86626E+11 3.20497E+08 2.61040E+11 3.81756E+09 2.05668E+10 1.10163E+09
 -1       131 8.20010E+11-4.50679E+07 3.11587E+11 3.83364E+09-4.57849E+09 1.05269E+09
 -1       132 9.52846E+11-2.63898E+08 3.61981E+11 3.77923E+09-2.84808E+10 9.95090E+08
 -1       133 1.08208E+12-3.75552E+08 4.11047E+11 3.63265E+09-5.09396E+10 9.28976E+08
 -1       134 1.20482E+12-5.24946E+08 4.57632E+11 3.41383E+09-7.17597E+10 8.54675E+08
 -1       135 1.31846E+12-4.27918E+08 5.00853E+11 3.10964E+09-9.07557E+10 7.72694E+08
 -1       136 1.42047E+12-8.21562E+08 5.39467E+11 2.73577E+09-1.07756E+11 6.83703E+08
 -1       137 1.50880E+12-9.02497E+08 5.73002E+11 2.32925E+09-1.22606E+11 5.88523E+08
 -1       138 1.58154E+12-7.81217E+08 6.00689E+11 1.84850E+09-1.35173E+11 4.88113E+08
 -1       139 1.63700E+12-1.04370E+09 6.21663E+11 1.33339E+09-1.45348E+11 3.83536E+08
 -1       140 1.67400E+12-8.68424E+08 6.35791E+11 7.86370E+08-1.53045E+11 2.75953E+08
 -1       141 1.69143E+12-1.20417E+09 6.42284E+11 2.05123E+08-1.58210E+11 1.66601E+08
 -1       142 1.68877E+12-1.03152E+09 6.41339E+11-3.59703E+08-1.60815E+11 5.67673E+07
 -1       143 1.66558E+12-1.08147E+09 6.32509E+11-9.69244E+08-1.60866E+11-5.22250E+07
 -1       144 1.62190E+12-1.05044E+09 6.15924E+11-1.53524E+09-1.58398E+11-1.59046E+08
 -1       145 1.55803E+12-1.07709E+09 5.91643E+11-2.12517E+09-1.53475E+11-2.62372E+08
 -1       146 1.47461E+12-1.05306E+09 5.59952E+11-2.64914E+09-1.46196E+11-3.60915E+08
 -1       147 1.37262E+12-5.97058E+08 5.21370E+11-3.19193E+09-1.36687E+11-4.53430E+08
 -1       148 1.25307E+12-1.07317E+09 4.75760E+11-3.67136E+09-1.25101E+11-5.38746E+08
 -1       149 1.11771E+12-7.02666E+08 4.24463E+11-4.09033E+09-1.11619E+11-6.15783E+08
 -1       150 9.68078E+11-6.31750E+08 3.67630E+11-4.48342E+09-9.64471E+10-6.83557E+08
 -1       151 8.06155E+11-5.57436E+08 3.06127E+11-4.79606E+09-7.98105E+10-7.41209E+08
 -1       152 6.34072E+11-4.03608E+08 2.40794E+11-5.06369E+09-6.19544E+10-7.88008E+08
 -1       153 4.54085E+11-3.05635E+08 1.72436E+11-5.24836E+09-4.31391E+10-8.23367E+08
 -1       154 2.68617E+11-1.00664E+08 1.02036E+11-5.37856E+09-2.36367E+10-8.46851E+08
 -1       155 8.01118E+10-6.72378E+07 3.04170E+10-5.42384E+09-3.72791E+09-8.58182E+08
 -1       156-1.08847E+11 9.72647E+07-4.13248E+10-5.40201E+09 1.63022E+10-8.57250E+08
 -1       157-2.95723E+11 2.82682E+08-1.12268E+11-5.30236E+09 3.61679E+10-8.44103E+08
 -1       158-4.78013E+11 3.10976E+08-1.81527E+11-5.13879E+09 5.55865E+10-8.18963E+08
 -1       159-6.53177E+11 6.02723E+08-2.47978E+11-4.89317E+09 7.42824E+10-7.82206E+08
 -1       160-8.18928E+11 5.28506E+08-3.10992E+11-4.60316E+09 9.19907E+10-7.34373E+08
 -1       161-9.72917E+11 6.96090E+08-3.69444E+11-4.21484E+09 1.08461E+11-6.76151E+08
 -1       162-1.11308E+12 8.77082E+08-4.22637E+11-3.80530E+09 1.23459E+11-6.08368E+08
 -1       163-1.23753E+12 8.76437E+08-4.69930E+11-3.31565E+09 1.36774E+11-5.31988E+08
 -1       164-1.34451E+12 1.14176E+09-5.10481E+11-2.80734E+09 1.48218E+11-4.48087E+08
 -1       165-1.43270E+12 7.71263E+08-5.44131E+11-2.24105E+09 1.57629E+11-3.57847E+08
 -1       166-1.50064E+12 1.39582E+09-5.69712E+11-1.63825E+09 1.64873E+11-2.62531E+08
 -1       167-1.54772E+12 9.81681E+08-5.87761E+11-1.05454E+09 1.69847E+11-1.63477E+08
 -1       168-1.57308E+12 1.07091E+09-5.97364E+11-3.89572E+08 1.72481E+11-6.20721E+07
 -1       169-1.57644E+12 1.28068E+09-5.98561E+11 2.15679E+08 1.72736E+11 4.02691E+07
 -1       170-1.55784E+12 1.08838E+09-5.91567E+11 8.62409E+08 1.70606E+11 1.42115E+08
 -1       171-1.51746E+12 1.14104E+09-5.76202E+11 1.46162E+09 1.66121E+11 2.42044E+08
 -1       172-1.45594E+12 1.01798E+09-5.52869E+11 2.07448E+09 1.59341E+11 3.38662E+08
 -1       173-1.37407E+12 1.12870E+09-5.21716E+11 2.62551E+09 1.50359E+11 4.30622E+08
 -1       174-1.27310E+12 7.99962E+08-4.83473E+11 3.16368E+09 1.39299E+11 5.16640E+08
 -1       175-1.15431E+12 8.98561E+08-4.38296E+11 3.65060E+09 1.26313E+11 5.95517E+08
 -1       176-1.01947E+12 6.67160E+08-3.87147E+11 4.08561E+09 1.11582E+11 6.66153E+08
 -1       177-8.70376E+11 6.98889E+08-3.30477E+11 4.46871E+09 9.53088E+10 7.27562E+08
 -1       178-7.09162E+11 5.29783E+08-2.69280E+11 4.77564E+09 7.77193E+10 7.78890E+08
 -1       179-5.38043E+11 3.59571E+08-2.04320E+11 5.03237E+09 5.90572E+10 8.19418E+08
 -1       180-3.59379E+11 3.10676E+08-1.36446E+11 5.20763E+09 3.95814E+10 8.48581E+08
 -1       181-1.75696E+11 8.42176E+07-6.67325E+10 5.31791E+09 1.95620E+10 8.65971E+08
 -1       182 1.05052E+10 2.74409E+07 4.00242E+09 5.35212E+09-7.23155E+08 8.71341E+08
 -1       183 1.96594E+11-1.55145E+08 7.46469E+10 5.30881E+09-2.09925E+10 8.64613E+08
 -1       184 3.80010E+11-3.08544E+08 1.44287E+11 5.19765E+09-4.09646E+10 8.45878E+08
 -1       185 5.58227E+11-3.16547E+08 2.12006E+11 5.01095E+09-6.03619E+10 8.15395E+08
 -1       186 7.28710E+11-5.86455E+08 2.76687E+11 4.74868E+09-7.89151E+10 7.73579E+08
 -1       187 8.89161E+11-6.77729E+08 3.37624E+11 4.43644E+09-9.63663E+10 7.21009E+08
 -1       188 1.03734E+12-7.23281E+08 3.93913E+11 4.04905E+09-1.12473E+11 6.58412E+08
 -1       189 1.17118E+12-7.49022E+08 4.44764E+11 3.61035E+09-1.27011E+11 5.86652E+08
 -1       190 1.28879E+12-1.04107E+09 4.89346E+11 3.11070E+09-1.39777E+11 5.06719E+08
 -1       191 1.38864E+12-9.74903E+08 5.27314E+11 2.59521E+09-1.50595E+11 4.19719E+08
 -1       192 1.46928E+12-1.04748E+09 5.57929E+11 2.01035E+09-1.59312E+11 3.26855E+08
 -1       193 1.52959E+12-1.22744E+09 5.80779E+11 1.43090E+09-1.65808E+11 2.29410E+08
 -1       194 1.56884E+12-9.99563E+08 5.95778E+11 8.08307E+08-1.69990E+11 1.28731E+08
 -1       195 1.58635E+12-1.21774E+09 6.02348E+11 1.80785E+08-1.71799E+11 2.62078E+07
 -1       196 1.58202E+12-1.00110E+09 6.00788E+11-4.46900E+08-1.71209E+11-7.67445E+07
 -1       197 1.55581E+12-1.26030E+09 5.90728E+11-1.07890E+09-1.68227E+11-1.78705E+08
 -1       198 1.50822E+12-1.05463E+09 5.72723E+11-1.66632E+09-1.62892E+11-2.78269E+08
 -1       199 1.43985E+12-1.02942E+09 5.46750E+11-2.26639E+09-1.55275E+11-3.74063E+08
 -1       200 1.35168E+12-9.82647E+08 5.13266E+11-2.80094E+09-1.45481E+11-4.64772E+08
 -1       201 1.24498E+12-9.19497E+08 4.72744E+11-3.32614E+09-1.33643E+11-5.49150E+08
 -1       202 1.12125E+12-8.57706E+08 4.25748E+11-3.77167E+09-1.19922E+11-6.26041E+08
 -1       203 9.82277E+11-4.73025E+08 3.73085E+11-4.19892E+09-1.04505E+11-6.94394E+08
 -1       204 8.29889E+11-7.47283E+08 3.15074E+11-4.55081E+09-8.76017E+10-7.53278E+08
 -1       205 6.66424E+11-4.45964E+08 2.53072E+11-4.82723E+09-6.94436E+10-8.01903E+08
 -1       206 4.94085E+11-3.10904E+08 1.87634E+11-5.05215E+09-5.02774E+10-8.39614E+08
 -1       207 3.15328E+11-2.43578E+08 1.19732E+11-5.19459E+09-3.03637E+10-8.65918E+08
 -1       208 1.32728E+11-1.41775E+07 5.04311E+10-5.26927E+09-9.97295E+09-8.80479E+08
 -1       209-5.11713E+10 2.56455E+07-1.94354E+10-5.26886E+09 1.06188E+10-8.83132E+08
 -1       210-2.33693E+11 2.18143E+08-8.87205E+10-5.18740E+09 3.11336E+10-8.73879E+08
 -1       211-4.12246E+11 3.92834E+08-1.56504E+11-5.03878E+09 5.12951E+10-8.52890E+08
 -1       212-5.84289E+11 3.70831E+08-2.21889E+11-4.81411E+09 7.08335E+10-8.20512E+08
 -1       213-7.47250E+11 6.88949E+08-2.83693E+11-4.51216E+09 8.94885E+10-7.77247E+08
 -1       214-8.98859E+11 6.41739E+08-3.41322E+11-4.16226E+09 1.07014E+11-7.23759E+08
 -1       215-1.03677E+12 9.48455E+08-3.93613E+11-3.72687E+09 1.23180E+11-6.60864E+08
 -1       216-1.15905E+12 8.19183E+08-4.40127E+11-3.26989E+09 1.37779E+11-5.89514E+08
 -1       217-1.26372E+12 9.52535E+08-4.79853E+11-2.71266E+09 1.50625E+11-5.10790E+08
 -1       218-1.34918E+12 1.16897E+09-5.12245E+11-2.16043E+09 1.61561E+11-4.25885E+08
 -1       219-1.41410E+12 1.07252E+09-5.36949E+11-1.53758E+09 1.70457E+11-3.36094E+08
 -1       220-1.45722E+12 1.35681E+09-5.53229E+11-9.14591E+08 1.77215E+11-2.42791E+08
 -1       221-1.47787E+12 9.30804E+08-5.61235E+11-2.53537E+08 1.81769E+11-1.47418E+08
 -1       222-1.47519E+12 1.49600E+09-5.60003E+11 4.31198E+08 1.84090E+11-5.14587E+07
 -1       223-1.44919E+12 1.10503E+09-5.50272E+11 1.07607E+09 1.84180E+11 4.35714E+07
 -1       224-1.39965E+12 1.12613E+09-5.31438E+11 1.78036E+09 1.82079E+11 1.36144E+08
 -1       225-1.32687E+12 1.32071E+09-5.03709E+11 2.41660E+09 1.77862E+11 2.24746E+08
 -1       226-1.23148E+12 1.08679E+09-4.67550E+11 3.06849E+09 1.71640E+11 3.07884E+08
 -1       227-1.11417E+12 1.11729E+09-4.22961E+11 3.66911E+09 1.63556E+11 3.84111E+08
 -1       228-9.76028E+11 1.03427E+09-3.70498E+11 4.26063E+09 1.53789E+11 4.52039E+08
 -1       229-8.18269E+11 9.95111E+08-3.10564E+11 4.78826E+09 1.42547E+11 5.10355E+08
 -1       230-6.42369E+11 7.18521E+08-2.43827E+11 5.29843E+09 1.30070E+11 5.57827E+08
 -1       231-4.49818E+11 8.75672E+08-1.70598E+11 5.74732E+09 1.16622E+11 5.93328E+08
 -1       232-2.42445E+11 6.94770E+08-9.18651E+10 6.14159E+09 1.02497E+11 6.15838E+08
 -1       233-2.19947E+10 5.30628E+08-8.15637E+09 6.48891E+09 8.80072E+10 6.24446E+08
 -1       234 2.09718E+11 5.93294E+08 7.99185E+10 6.78501E+09 7.34870E+10 6.18364E+08
 -1       235 4.50737E+11 1.61779E+08 1.71341E+11 7.01770E+09 5.92869E+10 5.96922E+08
 -1       236 6.99488E+11 7.98410E+08 2.66109E+11 7.22800E+09 4.57720E+10 5.59571E+08
 -1       237 9.53704E+11-1.11708E+09 3.61983E+11 7.32895E+09 3.33187E+10 5.05867E+08
 -1       238 1.21337E+12 4.70313E+09 4.62867E+11 7.51509E+09 2.23125E+10 4.35509E+08
 -1       239 1.47185E+12-1.59498E+10 5.53244E+11 7.32019E+09 1.31453E+10 3.48168E+08
 -1       240 1.74622E+12 5.59255E+10 6.84816E+11 8.22569E+09 6.21302E+09 2.44038E+08
 -1       241 1.97235E+12-1.92594E+11 6.76307E+11 5.17857E+09 1.91679E+09 1.21845E+08
 -1       242 2.05115E+12 6.78435E+11 1.03724E+12 1.59671E+10 4.78495E+08 5.58067E+07
 -1       243 2.20226E+05 6.15011E+04 1.07052E+05 8.22998E+06-2.30039E+11-4.94308E+04
 -1       244 7.94387E+05 5.70086E+04 3.23524E+05 8.46780E+08-2.15627E+11-4.94055E+04
 -1       245 2.46728E+06 4.94606E+04 9.56356E+05 1.58157E+09-1.86832E+11-4.93006E+04
 -1       246 5.09572E+06 4.20024E+04 1.95233E+06 2.20944E+09-1.58137E+11-4.90558E+04
 -1       247 8.52950E+06 3.19649E+04 3.25335E+06 2.73362E+09-1.29641E+11-4.86139E+04
 -1       248 1.26275E+07 2.90308E+04 4.80949E+06 3.15102E+09-1.01472E+11-4.79273E+04
 -1       249 1.72413E+07 1.90278E+04 6.55892E+06 3.47844E+09-7.37851E+10-4.69573E+04
 -1       250 2.22332E+07 7.97431E+03 8.45165E+06 3.68580E+09-4.67539E+10-4.56753E+04
 -1       251 2.74652E+07 1.30171E+04 1.04417E+07 3.81411E+09-2.05668E+10-4.40612E+04
 -1       252 3.28010E+07-1.94827E+03 1.24636E+07 3.85095E+09 4.57849E+09-4.21036E+04
 -1       253 3.81138E+07-1.02355E+04 1.44794E+07 3.77899E+09 2.84808E+10-3.98000E+04
 -1       254 4.32832E+07-1.49504E+04 1.64419E+07 3.63208E+09 5.09396E+10-3.71556E+04
 -1       255 4.81926E+07-2.07288E+04 1.83053E+07 3.39990E+09 7.17597E+10-3.41835E+04
 -1       256 5.27384E+07-1.68795E+04 2.00342E+07 3.10786E+09 9.07557E+10-3.09043E+04
 -1       257 5.68185E+07-3.23379E+04 2.15787E+07 2.75092E+09 1.07756E+11-2.73448E+04
 -1       258 6.03521E+07-3.58518E+04 2.29202E+07 2.31181E+09 1.22606E+11-2.35376E+04
 -1       259 6.32608E+07-3.06582E+04 2.40275E+07 1.84767E+09 1.35173E+11-1.95212E+04
 -1       260 6.54800E+07-4.16414E+04 2.48666E+07 1.33278E+09 1.45348E+11-1.53381E+04
 -1       261 6.69594E+07-3.38579E+04 2.54317E+07 7.85993E+08 1.53045E+11-1.10349E+04
 -1       262 6.76571E+07-4.79739E+04 2.56915E+07 2.24435E+08 1.58210E+11-6.66116E+03
 -1       263 6.75502E+07-4.06164E+04 2.56536E+07-3.79551E+08 1.60815E+11-2.26830E+03
 -1       264 6.66231E+07-4.27922E+04 2.53005E+07-9.49432E+08 1.60866E+11 2.09130E+03
 -1       265 6.48762E+07-4.15601E+04 2.46372E+07-1.55353E+09 1.58398E+11 6.36396E+03
 -1       266 6.23211E+07-4.24478E+04 2.36659E+07-2.10684E+09 1.53475E+11 1.04968E+04
 -1       267 5.89851E+07-4.19441E+04 2.23984E+07-2.68188E+09 1.46196E+11 1.44382E+04
 -1       268 5.49047E+07-2.29282E+04 2.08551E+07-3.17466E+09 1.36687E+11 1.81385E+04
 -1       269 5.01241E+07-4.31088E+04 1.90308E+07-3.65578E+09 1.25101E+11 2.15514E+04
 -1       270 4.47086E+07-2.74254E+04 1.69788E+07-4.10225E+09 1.11619E+11 2.46330E+04
 -1       271 3.87244E+07-2.52922E+04 1.47056E+07-4.47132E+09 9.64471E+10 2.73436E+04
 -1       272 3.22469E+07-2.18310E+04 1.22455E+07-4.80424E+09 7.98105E+10 2.96493E+04
 -1       273 2.53642E+07-1.61463E+04 9.63225E+06-5.05529E+09 6.19544E+10 3.15212E+04
 -1       274 1.81645E+07-1.20333E+04 6.89793E+06-5.25670E+09 4.31391E+10 3.29353E+04
 -1       275 1.07462E+07-4.02210E+03 4.08203E+06-5.37004E+09 2.36367E+10 3.38745E+04
 -1       276 3.20588E+06-2.67963E+03 1.21721E+06-5.42355E+09 3.72791E+09 3.43277E+04
 -1       277-4.35219E+06 3.76639E+03-1.65241E+06-5.39976E+09-1.63022E+10 3.42903E+04
 -1       278-1.18273E+07 1.12640E+04-4.49009E+06-5.30457E+09-3.61679E+10 3.37647E+04
 -1       279-1.91188E+07 1.22484E+04-7.26048E+06-5.13198E+09-5.55865E+10 3.27590E+04
 -1       280-2.61253E+07 2.38906E+04-9.91853E+06-4.89974E+09-7.42824E+10 3.12886E+04
 -1       281-3.27556E+07 2.09204E+04-1.24392E+07-4.58245E+09-9.19907E+10 2.93752E+04
 -1       282-3.89146E+07 2.72600E+04-1.47772E+07-4.23507E+09-1.08461E+11 2.70461E+04
 -1       283-4.45220E+07 3.51300E+04-1.69050E+07-3.79237E+09-1.23459E+11 2.43348E+04
 -1       284-4.94992E+07 3.40692E+04-1.87967E+07-3.32873E+09-1.36774E+11 2.12801E+04
 -1       285-5.37799E+07 4.57660E+04-2.04190E+07-2.79086E+09-1.48218E+11 1.79241E+04
 -1       286-5.73058E+07 2.97157E+04-2.17649E+07-2.24054E+09-1.57629E+11 1.43145E+04
 -1       287-6.00251E+07 5.59546E+04-2.27883E+07-1.65557E+09-1.64873E+11 1.05022E+04
 -1       288-6.19075E+07 3.82185E+04-2.35103E+07-1.01715E+09-1.69847E+11 6.53996E+03
 -1       289-6.29228E+07 4.26030E+04-2.38945E+07-4.26958E+08-1.72481E+11 2.48391E+03
 -1       290-6.30572E+07 5.06277E+04-2.39425E+07 2.34690E+08-1.72736E+11-1.60925E+03
 -1       291-6.23135E+07 4.29049E+04-2.36628E+07 8.43858E+08-1.70606E+11-5.68306E+03
 -1       292-6.06989E+07 4.52933E+04-2.30484E+07 1.47870E+09-1.66121E+11-9.68007E+03
 -1       293-5.82375E+07 3.99418E+04-2.21151E+07 2.05687E+09-1.59341E+11-1.35446E+04
 -1       294-5.49638E+07 4.49929E+04-2.08691E+07 2.64153E+09-1.50359E+11-1.72230E+04
 -1       295-5.09244E+07 3.11769E+04-1.93394E+07 3.16194E+09-1.39299E+11-2.06638E+04
 -1       296-4.61741E+07 3.59620E+04-1.75325E+07 3.64941E+09-1.26313E+11-2.38187E+04
 -1       297-4.07801E+07 2.59406E+04-1.54866E+07 4.08356E+09-1.11582E+11-2.66436E+04
 -1       298-3.48172E+07 2.79192E+04-1.32199E+07 4.45772E+09-9.53088E+10-2.91001E+04
 -1       299-2.83682E+07 2.07374E+04-1.07720E+07 4.78270E+09-7.77193E+10-3.11531E+04
 -1       300-2.15241E+07 1.43584E+04-8.17370E+06 5.02506E+09-5.90572E+10-3.27739E+04
 -1       301-1.43774E+07 1.22152E+04-5.45877E+06 5.21058E+09-3.95814E+10-3.39404E+04
 -1       302-7.03049E+06 3.35917E+03-2.67031E+06 5.31571E+09-1.95620E+10-3.46362E+04
 -1       303 4.17663E+05 1.00048E+03 1.59089E+05 5.34986E+09 7.23156E+08-3.48511E+04
 -1       304 7.86082E+06-6.09510E+03 2.98479E+06 5.30987E+09 2.09925E+10-3.45816E+04
 -1       305 1.51978E+07-1.23394E+04 5.77049E+06 5.19213E+09 4.09646E+10-3.38319E+04
 -1       306 2.23261E+07-1.23344E+04 8.47924E+06 5.00885E+09 6.03619E+10-3.26127E+04
 -1       307 2.91458E+07-2.33673E+04 1.10665E+07 4.75597E+09 7.89151E+10-3.09404E+04
 -1       308 3.55637E+07-2.66712E+04 1.35041E+07 4.42494E+09 9.63663E+10-2.88375E+04
 -1       309 4.14910E+07-2.86716E+04 1.57557E+07 4.04766E+09 1.12473E+11-2.63332E+04
 -1       310 4.68448E+07-2.94596E+04 1.77898E+07 3.60845E+09 1.27011E+11-2.34628E+04
 -1       311 5.15495E+07-4.11753E+04 1.95732E+07 3.12558E+09 1.39777E+11-2.02657E+04
 -1       312 5.55440E+07-3.86302E+04 2.10920E+07 2.57828E+09 1.50595E+11-1.67858E+04
 -1       313 5.87693E+07-4.11617E+04 2.23167E+07 2.02675E+09 1.59312E+11-1.30714E+04
 -1       314 6.11829E+07-4.88744E+04 2.32309E+07 1.41256E+09 1.65808E+11-9.17385E+03
 -1       315 6.27520E+07-3.89974E+04 2.38310E+07 8.08451E+08 1.69990E+11-5.14676E+03
 -1       316 6.34537E+07-4.85764E+04 2.40940E+07 1.80215E+08 1.71799E+11-1.04611E+03
 -1       317 6.32802E+07-3.90722E+04 2.40316E+07-4.45735E+08 1.71209E+11 3.07167E+03
 -1       318 6.22329E+07-5.02865E+04 2.36294E+07-1.06130E+09 1.68227E+11 7.15003E+03
 -1       319 6.03292E+07-4.13190E+04 2.29094E+07-1.68370E+09 1.62892E+11 1.11324E+04
 -1       320 5.75950E+07-4.08795E+04 2.18706E+07-2.24891E+09 1.55275E+11 1.49642E+04
 -1       321 5.40687E+07-3.88147E+04 2.05314E+07-2.81541E+09 1.45481E+11 1.85925E+04
 -1       322 4.98010E+07-3.62776E+04 1.89106E+07-3.31188E+09 1.33643E+11 2.19673E+04
 -1       323 4.48523E+07-3.40306E+04 1.70309E+07-3.79544E+09 1.19922E+11 2.50425E+04
 -1       324 3.92933E+07-1.83573E+04 1.49245E+07-4.18536E+09 1.04505E+11 2.77764E+04
 -1       325 3.31987E+07-2.98670E+04 1.26042E+07-4.53998E+09 8.76017E+10 3.01317E+04
 -1       326 2.66599E+07-1.74042E+04 1.01242E+07-4.83378E+09 6.94436E+10 3.20765E+04
 -1       327 1.97669E+07-1.23975E+04 7.50673E+06-5.04522E+09 5.02774E+10 3.35850E+04
 -1       328 1.26166E+07-9.55671E+03 4.79070E+06-5.19723E+09 3.03637E+10 3.46370E+04
 -1       329 5.31292E+06-5.36567E+02 2.01871E+06-5.26649E+09 9.97296E+09 3.52192E+04
 -1       330-2.04308E+06 9.88829E+02-7.75995E+05-5.26543E+09-1.06188E+10 3.53251E+04
 -1       331-9.34371E+06 8.63638E+03-3.54733E+06-5.19062E+09-3.11335E+10 3.49549E+04
 -1       332-1.64860E+07 1.55194E+04-6.25880E+06-5.03291E+09-5.12951E+10 3.41155E+04
 -1       333-2.33677E+07 1.46211E+04-8.87416E+06-4.81209E+09-7.08335E+10 3.28201E+04
 -1       334-2.98861E+07 2.72970E+04-1.13464E+07-4.51970E+09-8.94885E+10 3.10893E+04
 -1       335-3.59510E+07 2.54859E+04-1.36517E+07-4.15100E+09-1.07014E+11 2.89498E+04
 -1       336-4.14671E+07 3.71987E+04-1.57434E+07-3.73756E+09-1.23180E+11 2.64339E+04
 -1       337-4.63596E+07 3.28226E+04-1.76042E+07-3.24226E+09-1.37779E+11 2.35799E+04
 -1       338-5.05452E+07 3.67943E+04-1.91932E+07-2.74049E+09-1.50625E+11 2.04310E+04
 -1       339-5.39663E+07 4.73698E+04-2.04892E+07-2.14445E+09-1.61561E+11 1.70352E+04
 -1       340-5.65603E+07 4.09187E+04-2.14774E+07-1.55343E+09-1.70457E+11 1.34436E+04
 -1       341-5.82894E+07 5.54328E+04-2.21289E+07-8.97642E+08-1.77215E+11 9.71157E+03
 -1       342-5.91116E+07 3.46073E+04-2.24493E+07-2.52934E+08-1.81769E+11 5.89693E+03
 -1       343-5.90095E+07 6.14589E+04-2.24003E+07 4.13760E+08-1.84090E+11 2.05850E+03
 -1       344-5.79653E+07 4.11417E+04-2.20112E+07 1.10936E+09-1.84180E+11-1.74261E+03
 -1       345-5.59893E+07 4.70313E+04-2.12581E+07 1.74668E+09-1.82079E+11-5.44521E+03
 -1       346-5.30732E+07 4.93532E+04-2.01491E+07 2.43175E+09-1.77862E+11-8.98898E+03
 -1       347-4.92645E+07 4.61556E+04-1.87030E+07 3.05410E+09-1.71640E+11-1.23144E+04
 -1       348-4.45654E+07 4.03088E+04-1.69195E+07 3.68077E+09-1.63556E+11-1.53633E+04
 -1       349-3.90488E+07 4.53429E+04-1.48213E+07 4.24855E+09-1.53789E+11-1.80801E+04
 -1       350-3.27286E+07 3.39455E+04-1.24240E+07 4.80534E+09-1.42547E+11-2.04125E+04
 -1       351-2.57054E+07 3.46634E+04-9.75488E+06 5.28751E+09-1.30070E+11-2.23112E+04
 -1       352-1.79891E+07 2.69611E+04-6.82562E+06 5.74115E+09-1.16622E+11-2.37310E+04
 -1       353-9.71228E+06 3.67034E+04-3.67672E+06 6.14315E+09-1.02497E+11-2.46308E+04
 -1       354-8.73278E+05 9.78210E+03-3.28128E+05 6.48730E+09-8.80072E+10-2.49747E+04
 -1       355 8.36936E+06 3.67895E+04 3.19434E+06 6.78122E+09-7.34870E+10-2.47314E+04
 -1       356 1.80405E+07-9.55436E+03 6.85174E+06 7.02147E+09-5.92869E+10-2.38739E+04
 -1       357 2.79542E+07 5.02735E+04 1.06417E+07 7.20910E+09-4.57720E+10-2.23797E+04
 -1       358 3.81649E+07-6.56174E+04 1.44777E+07 7.34799E+09-3.33187E+10-2.02311E+04
 -1       359 4.85037E+07 2.09484E+05 1.85110E+07 7.49925E+09-2.23125E+10-1.74167E+04
 -1       360 5.88905E+07-6.54715E+05 2.21296E+07 7.31805E+09-1.31453E+10-1.39230E+04
 -1       361 6.98420E+07 2.23646E+06 2.73898E+07 8.24398E+09-6.21302E+09-9.75661E+03
 -1       362 7.87993E+07-7.67146E+06 2.70286E+07 5.16822E+09-1.91679E+09-4.87219E+03
 -1       363 8.22671E+07 2.71003E+07 4.15596E+07 1.59874E+10-4.78495E+08-2.23493E+03
 -1       364 2.20133E+05 6.13595E+04 1.06971E+05 8.22992E+06 2.30039E+11 4.94329E+04
 -1       365 7.94329E+05 5.69060E+04 3.23476E+05 8.46780E+08 2.15627E+11 4.94076E+04
 -1       366 2.46737E+06 4.95882E+04 9.56452E+05 1.58157E+09 1.86832E+11 4.93027E+04
 -1       367 5.09565E+06 4.19310E+04 1.95228E+06 2.20944E+09 1.58137E+11 4.90579E+04
 -1       368 8.52956E+06 3.20817E+04 3.25343E+06 2.73362E+09 1.29641E+11 4.86159E+04
 -1       369 1.26275E+07 2.89453E+04 4.80943E+06 3.15102E+09 1.01472E+11 4.79294E+04
 -1       370 1.72412E+07 1.89856E+04 6.55888E+06 3.47844E+09 7.37851E+10 4.69594E+04
 -1       371 2.22333E+07 8.05842E+03 8.45172E+06 3.68580E+09 4.67539E+10 4.56773E+04
 -1       372 2.74652E+07 1.30049E+04 1.04417E+07 3.81411E+09 2.05668E+10 4.40632E+04
 -1       373 3.28009E+07-2.09411E+03 1.24635E+07 3.85095E+09-4.57849E+09 4.21056E+04
 -1       374 3.81137E+07-1.03491E+04 1.44793E+07 3.77899E+09-2.84808E+10 3.98020E+04
 -1       375 4.32832E+07-1.49116E+04 1.64420E+07 3.63208E+09-5.09396E+10 3.71575E+04
 -1       376 4.81927E+07-2.06047E+04 1.83054E+07 3.39990E+09-7.17597E+10 3.41855E+04
 -1       377 5.27384E+07-1.69679E+04 2.00341E+07 3.10786E+09-9.07557E+10 3.09062E+04
 -1       378 5.68184E+07-3.24442E+04 2.15787E+07 2.75092E+09-1.07756E+11 2.73467E+04
 -1       379 6.03520E+07-3.59567E+04 2.29201E+07 2.31181E+09-1.22606E+11 2.35396E+04
 -1       380 6.32609E+07-3.04799E+04 2.40276E+07 1.84767E+09-1.35173E+11 1.95231E+04
 -1       381 6.54800E+07-4.15967E+04 2.48666E+07 1.33278E+09-1.45348E+11 1.53400E+04
 -1       382 6.69593E+07-3.39158E+04 2.54317E+07 7.85993E+08-1.53045E+11 1.10368E+04
 -1       383 6.76571E+07-4.79799E+04 2.56915E+07 2.24435E+08-1.58210E+11 6.66303E+03
 -1       384 6.75502E+07-4.05245E+04 2.56537E+07-3.79551E+08-1.60815E+11 2.27014E+03
 -1       385 6.66231E+07-4.28400E+04 2.53005E+07-9.49432E+08-1.60866E+11-2.08949E+03
 -1       386 6.48762E+07-4.15900E+04 2.46371E+07-1.55353E+09-1.58398E+11-6.36219E+03
 -1       387 6.23212E+07-4.23166E+04 2.36660E+07-2.10684E+09-1.53475E+11-1.04951E+04
 -1       388 5.89850E+07-4.20471E+04 2.23983E+07-2.68188E+09-1.46196E+11-1.44365E+04
 -1       389 5.49047E+07-2.29913E+04 2.08550E+07-3.17466E+09-1.36687E+11-1.81368E+04
 -1       390 5.01242E+07-4.28796E+04 1.90309E+07-3.65578E+09-1.25101E+11-2.15497E+04
 -1       391 4.47087E+07-2.73220E+04 1.69789E+07-4.10225E+09-1.11619E+11-2.46314E+04
 -1       392 3.87243E+07-2.53895E+04 1.47056E+07-4.47132E+09-9.64471E+10-2.73420E+04
 -1       393 3.22469E+07-2.17858E+04 1.22455E+07-4.80424E+09-7.98105E+10-2.96478E+04
 -1       394 2.53642E+07-1.61086E+04 9.63228E+06-5.05529E+09-6.19544E+10-3.15197E+04
 -1       395 1.81645E+07-1.19982E+04 6.89794E+06-5.25670E+09-4.31391E+10-3.29338E+04
 -1       396 1.07462E+07-4.06220E+03 4.08200E+06-5.37004E+09-2.36367E+10-3.38731E+04
 -1       397 3.20592E+06-2.56637E+03 1.21728E+06-5.42355E+09-3.72791E+09-3.43264E+04
 -1       398-4.35223E+06 3.74865E+03-1.65241E+06-5.39976E+09 1.63022E+10-3.42890E+04
 -1       399-1.18273E+07 1.12603E+04-4.49009E+06-5.30457E+09 3.61679E+10-3.37634E+04
 -1       400-1.91188E+07 1.22554E+04-7.26047E+06-5.13198E+09 5.55865E+10-3.27578E+04
 -1       401-2.61253E+07 2.38629E+04-9.91855E+06-4.89974E+09 7.42824E+10-3.12874E+04
 -1       402-3.27556E+07 2.09392E+04-1.24392E+07-4.58245E+09 9.19907E+10-2.93740E+04
 -1       403-3.89147E+07 2.72395E+04-1.47772E+07-4.23507E+09 1.08461E+11-2.70449E+04
 -1       404-4.45221E+07 3.50213E+04-1.69051E+07-3.79237E+09 1.23459E+11-2.43337E+04
 -1       405-4.94992E+07 3.40755E+04-1.87967E+07-3.32873E+09 1.36774E+11-2.12790E+04
 -1       406-5.37798E+07 4.58612E+04-2.04189E+07-2.79086E+09 1.48218E+11-1.79231E+04
 -1       407-5.73058E+07 2.96714E+04-2.17649E+07-2.24054E+09 1.57629E+11-1.43135E+04
 -1       408-6.00251E+07 5.59301E+04-2.27883E+07-1.65557E+09 1.64873E+11-1.05012E+04
 -1       409-6.19075E+07 3.82325E+04-2.35103E+07-1.01715E+09 1.69847E+11-6.53905E+03
 -1       410-6.29229E+07 4.26459E+04-2.38945E+07-4.26959E+08 1.72481E+11-2.48305E+03
 -1       411-6.30573E+07 5.05396E+04-2.39425E+07 2.34690E+08 1.72736E+11 1.61006E+03
 -1       412-6.23135E+07 4.29439E+04-2.36628E+07 8.43857E+08 1.70606E+11 5.68381E+03
 -1       413-6.06990E+07 4.52479E+04-2.30484E+07 1.47870E+09 1.66121E+11 9.68076E+03
 -1       414-5.82376E+07 3.99200E+04-2.21151E+07 2.05687E+09 1.59341E+11 1.35453E+04
 -1       415-5.49638E+07 4.50637E+04-2.08691E+07 2.64153E+09 1.50359E+11 1.72236E+04
 -1       416-5.09245E+07 3.10980E+04-1.93395E+07 3.16194E+09 1.39299E+11 2.06644E+04
 -1       417-4.61742E+07 3.59151E+04-1.75325E+07 3.64941E+09 1.26313E+11 2.38192E+04
 -1       418-4.07801E+07 2.59645E+04-1.54866E+07 4.08356E+09 1.11582E+11 2.66441E+04
 -1       419-3.48172E+07 2.79796E+04-1.32199E+07 4.45772E+09 9.53088E+10 2.91005E+04
 -1       420-2.83683E+07 2.06280E+04-1.07721E+07 4.78270E+09 7.77193E+10 3.11535E+04
 -1       421-2.15241E+07 1.43370E+04-8.17372E+06 5.02506E+09 5.90572E+10 3.27743E+04
 -1       422-1.43774E+07 1.22319E+04-5.45874E+06 5.21058E+09 3.95814E+10 3.39408E+04
 -1       423-7.03049E+06 3.40914E+03-2.67029E+06 5.31571E+09 1.95620E+10 3.46366E+04
 -1       424 4.17600E+05 9.40773E+02 1.59049E+05 5.34986E+09-7.23155E+08 3.48513E+04
 -1       425 7.86088E+06-5.95351E+03 2.98488E+06 5.30987E+09-2.09925E+10 3.45819E+04
 -1       426 1.51978E+07-1.23563E+04 5.77047E+06 5.19213E+09-4.09646E+10 3.38321E+04
 -1       427 2.23261E+07-1.23317E+04 8.47924E+06 5.00885E+09-6.03619E+10 3.26128E+04
 -1       428 2.91458E+07-2.33604E+04 1.10665E+07 4.75597E+09-7.89151E+10 3.09405E+04
 -1       429 3.55637E+07-2.66707E+04 1.35041E+07 4.42494E+09-9.63663E+10 2.88376E+04
 -1       430 4.14910E+07-2.86606E+04 1.57557E+07 4.04766E+09-1.12473E+11 2.63332E+04
 -1       431 4.68447E+07-2.94903E+04 1.77898E+07 3.60845E+09-1.27011E+11 2.34629E+04
 -1       432 5.15495E+07-4.11972E+04 1.95732E+07 3.12558E+09-1.39777E+11 2.02658E+04
 -1       433 5.55441E+07-3.85634E+04 2.10921E+07 2.57828E+09-1.50595E+11 1.67858E+04
 -1       434 5.87693E+07-4.11968E+04 2.23167E+07 2.02675E+09-1.59312E+11 1.30714E+04
 -1       435 6.11829E+07-4.89069E+04 2.32309E+07 1.41256E+09-1.65808E+11 9.17387E+03
 -1       436 6.27520E+07-3.90590E+04 2.38309E+07 8.08451E+08-1.69990E+11 5.14677E+03
 -1       437 6.34537E+07-4.86221E+04 2.40939E+07 1.80215E+08-1.71799E+11 1.04612E+03
 -1       438 6.32803E+07-3.89822E+04 2.40317E+07-4.45735E+08-1.71209E+11-3.07166E+03
 -1       439 6.22329E+07-5.02559E+04 2.36294E+07-1.06130E+09-1.68227E+11-7.15003E+03
 -1       440 6.03292E+07-4.13400E+04 2.29094E+07-1.68370E+09-1.62892E+11-1.11324E+04
 -1       441 5.75950E+07-4.08596E+04 2.18706E+07-2.24891E+09-1.55275E+11-1.49642E+04
 -1       442 5.40687E+07-3.87376E+04 2.05314E+07-2.81541E+09-1.45481E+11-1.85924E+04
 -1       443 4.98010E+07-3.62915E+04 1.89106E+07-3.31188E+09-1.33643E+11-2.19672E+04
 -1       444 4.48523E+07-3.40577E+04 1.70309E+07-3.79544E+09-1.19922E+11-2.50424E+04
 -1       445 3.92933E+07-1.83415E+04 1.49245E+07-4.18536E+09-1.04505E+11-2.77763E+04
 -1       446 3.31988E+07-2.98254E+04 1.26042E+07-4.53998E+09-8.76017E+10-3.01316E+04
 -1       447 2.66599E+07-1.74239E+04 1.01241E+07-4.83378E+09-6.94436E+10-3.20764E+04
 -1       448 1.97670E+07-1.23695E+04 7.50674E+06-5.04522E+09-5.02774E+10-3.35849E+04
 -1       449 1.26166E+07-9.58612E+03 4.79067E+06-5.19723E+09-3.03637E+10-3.46369E+04
 -1       450 5.31290E+06-5.73491E+02 2.01868E+06-5.26649E+09-9.97295E+09-3.52191E+04
 -1       451-2.04307E+06 1.00222E+03-7.75984E+05-5.26543E+09 1.06188E+10-3.53250E+04
 -1       452-9.34371E+06 8.64526E+03-3.54732E+06-5.19062E+09 3.11336E+10-3.49549E+04
 -1       453-1.64860E+07 1.55568E+04-6.25876E+06-5.03291E+09 5.12951E+10-3.41155E+04
 -1       454-2.33677E+07 1.45830E+04-8.87419E+06-4.81209E+09 7.08335E+10-3.28200E+04
 -1       455-2.98862E+07 2.71928E+04-1.13464E+07-4.51970E+09 8.94885E+10-3.10892E+04
 -1       456-3.59510E+07 2.55205E+04-1.36517E+07-4.15100E+09 1.07014E+11-2.89497E+04
 -1       457-4.14671E+07 3.72092E+04-1.57434E+07-3.73756E+09 1.23180E+11-2.64339E+04
 -1       458-4.63596E+07 3.28539E+04-1.76042E+07-3.24226E+09 1.37779E+11-2.35798E+04
 -1       459-5.05452E+07 3.68139E+04-1.91932E+07-2.74049E+09 1.50625E+11-2.04309E+04
 -1       460-5.39664E+07 4.73633E+04-2.04892E+07-2.14445E+09 1.61561E+11-1.70351E+04
 -1       461-5.65604E+07 4.08871E+04-2.14774E+07-1.55343E+09 1.70457E+11-1.34436E+04
 -1       462-5.82895E+07 5.53762E+04-2.21290E+07-8.97643E+08 1.77215E+11-9.71158E+03
 -1       463-5.91116E+07 3.46181E+04-2.24493E+07-2.52935E+08 1.81769E+11-5.89696E+03
 -1       464-5.90095E+07 6.14737E+04-2.24003E+07 4.13760E+08 1.84090E+11-2.05855E+03
 -1       465-5.79653E+07 4.10986E+04-2.20112E+07 1.10936E+09 1.84180E+11 1.74255E+03
 -1       466-5.59893E+07 4.70696E+04-2.12580E+07 1.74668E+09 1.82079E+11 5.44514E+03
 -1       467-5.30732E+07 4.93454E+04-2.01491E+07 2.43175E+09 1.77862E+11 8.98890E+03
 -1       468-4.92645E+07 4.61823E+04-1.87030E+07 3.05410E+09 1.71640E+11 1.23143E+04
 -1       469-4.45654E+07 4.02981E+04-1.69195E+07 3.68077E+09 1.63556E+11 1.53632E+04
 -1       470-3.90488E+07 4.53635E+04-1.48213E+07 4.24855E+09 1.53789E+11 1.80800E+04
 -1       471-3.27286E+07 3.39435E+04-1.24240E+07 4.80534E+09 1.42547E+11 2.04124E+04
 -1       472-2.57054E+07 3.46790E+04-9.75487E+06 5.28751E+09 1.30070E+11 2.23111E+04
 -1       473-1.79891E+07 2.69584E+04-6.82563E+06 5.74115E+09 1.16622E+11 2.37309E+04
 -1       474-9.71228E+06 3.66875E+04-3.67673E+06 6.14315E+09 1.02497E+11 2.46307E+04
 -1       475-8.73254E+05 9.79165E+03-3.28116E+05 6.48730E+09 8.80072E+10 2.49747E+04
 -1       476 8.36939E+06 3.68101E+04 3.19436E+06 6.78122E+09 7.34870E+10 2.47314E+04
 -1       477 1.80405E+07-9.56435E+03 6.85174E+06 7.02147E+09 5.92869E+10 2.38738E+04
 -1       478 2.79542E+07 5.02673E+04 1.06417E+07 7.20910E+09 4.57720E+10 2.23797E+04
 -1       479 3.81649E+07-6.56115E+04 1.44777E+07 7.34799E+09 3.33187E+10 2.02310E+04
 -1       480 4.85037E+07 2.09481E+05 1.85110E+07 7.49925E+09 2.23125E+10 1.74167E+04
 -1       481 5.88905E+07-6.54726E+05 2.21296E+07 7.31805E+09 1.31453E+10 1.39230E+04
 -1       482 6.98420E+07 2.23646E+06 2.73898E+07 8.24398E+09 6.21302E+09 9.75660E+03
 -1       483 7.87993E+07-7.67146E+06 2.70286E+07 5.16822E+09 1.91679E+09 4.87218E+03
 -1       484 8.22671E+07 2.71003E+07 4.15596E+07 1.59874E+10 4.78495E+08 2.23492E+03
 -1       485-5.28451E+09-1.54501E+09-2.59522E+09 8.62300E+06-2.30039E+11 1.23575E+09
 -1       486-1.97941E+10-1.45381E+09-8.07421E+09 8.47963E+08-2.15627E+11 1.23512E+09
 -1       487-6.16448E+10-1.24319E+09-2.38975E+10 1.58121E+09-1.86832E+11 1.23251E+09
 -1       488-1.27344E+11-1.06896E+09-4.87969E+10 2.20984E+09-1.58137E+11 1.22639E+09
 -1       489-2.13209E+11-8.03577E+08-8.13249E+10 2.73405E+09-1.29641E+11 1.21535E+09
 -1       490-3.15651E+11-7.38762E+08-1.20228E+11 3.15992E+09-1.01472E+11 1.19819E+09
 -1       491-4.31016E+11-4.75293E+08-1.63967E+11 3.47033E+09-7.37851E+10 1.17394E+09
 -1       492-5.55805E+11-2.09787E+08-2.11285E+11 3.70042E+09-4.67539E+10 1.14190E+09
 -1       493-6.86626E+11-3.20472E+08-2.61040E+11 3.81771E+09-2.05668E+10 1.10154E+09
 -1       494-8.20010E+11 4.50632E+07-3.11587E+11 3.83380E+09 4.57849E+09 1.05260E+09
 -1       495-9.52846E+11 2.63877E+08-3.61981E+11 3.77938E+09 2.84808E+10 9.95010E+08
 -1       496-1.08208E+12 3.75523E+08-4.11047E+11 3.63280E+09 5.09396E+10 9.28902E+08
 -1       497-1.20482E+12 5.24906E+08-4.57632E+11 3.41396E+09 7.17597E+10 8.54606E+08
 -1       498-1.31846E+12 4.27886E+08-5.00853E+11 3.10977E+09 9.07557E+10 7.72632E+08
 -1       499-1.42047E+12 8.21500E+08-5.39467E+11 2.73588E+09 1.07756E+11 6.83648E+08
 -1       500-1.50880E+12 9.02428E+08-5.73002E+11 2.32934E+09 1.22606E+11 5.88476E+08
 -1       501-1.58154E+12 7.81159E+08-6.00689E+11 1.84858E+09 1.35173E+11 4.88074E+08
 -1       502-1.63700E+12 1.04362E+09-6.21663E+11 1.33345E+09 1.45348E+11 3.83505E+08
 -1       503-1.67400E+12 8.68360E+08-6.35791E+11 7.86402E+08 1.53045E+11 2.75931E+08
 -1       504-1.69143E+12 1.20408E+09-6.42284E+11 2.05131E+08 1.58210E+11 1.66587E+08
 -1       505-1.68877E+12 1.03144E+09-6.41339E+11-3.59717E+08 1.60815E+11 5.67627E+07
 -1       506-1.66558E+12 1.08139E+09-6.32509E+11-9.69282E+08 1.60866E+11-5.22208E+07
 -1       507-1.62190E+12 1.05036E+09-6.15924E+11-1.53530E+09 1.58398E+11-1.59033E+08
 -1       508-1.55803E+12 1.07701E+09-5.91643E+11-2.12525E+09 1.53475E+11-2.62351E+08
 -1       509-1.47461E+12 1.05298E+09-5.59952E+11-2.64925E+09 1.46196E+11-3.60886E+08
 -1       510-1.37262E+12 5.97015E+08-5.21370E+11-3.19206E+09 1.36687E+11-4.53393E+08
 -1       511-1.25307E+12 1.07308E+09-4.75760E+11-3.67151E+09 1.25101E+11-5.38703E+08
 -1       512-1.11771E+12 7.02613E+08-4.24463E+11-4.09050E+09 1.11619E+11-6.15734E+08
 -1       513-9.68078E+11 6.31701E+08-3.67630E+11-4.48360E+09 9.64471E+10-6.83503E+08
 -1       514-8.06155E+11 5.57394E+08-3.06127E+11-4.79625E+09 7.98105E+10-7.41150E+08
 -1       515-6.34072E+11 4.03576E+08-2.40794E+11-5.06389E+09 6.19544E+10-7.87945E+08
 -1       516-4.54085E+11 3.05612E+08-1.72436E+11-5.24857E+09 4.31391E+10-8.23301E+08
 -1       517-2.68617E+11 1.00656E+08-1.02036E+11-5.37878E+09 2.36367E+10-8.46783E+08
 -1       518-8.01118E+10 6.72324E+07-3.04170E+10-5.42406E+09 3.72791E+09-8.58113E+08
 -1       519 1.08847E+11-9.72577E+07 4.13248E+10-5.40223E+09-1.63022E+10-8.57181E+08
 -1       520 2.95723E+11-2.82660E+08 1.12268E+11-5.30257E+09-3.61679E+10-8.44036E+08
 -1       521 4.78013E+11-3.10953E+08 1.81527E+11-5.13900E+09-5.55865E+10-8.18897E+08
 -1       522 6.53177E+11-6.02677E+08 2.47978E+11-4.89336E+09-7.42824E+10-7.82144E+08
 -1       523 8.18928E+11-5.28467E+08 3.10992E+11-4.60334E+09-9.19907E+10-7.34314E+08
 -1       524 9.72917E+11-6.96039E+08 3.69444E+11-4.21500E+09-1.08461E+11-6.76097E+08
 -1       525 1.11308E+12-8.77015E+08 4.22637E+11-3.80546E+09-1.23459E+11-6.08319E+08
 -1       526 1.23753E+12-8.76373E+08 4.69930E+11-3.31578E+09-1.36774E+11-5.31946E+08
 -1       527 1.34451E+12-1.14167E+09 5.10481E+11-2.80745E+09-1.48218E+11-4.48051E+08
 -1       528 1.43270E+12-7.71208E+08 5.44131E+11-2.24114E+09-1.57629E+11-3.57818E+08
 -1       529 1.50064E+12-1.39571E+09 5.69712E+11-1.63832E+09-1.64873E+11-2.62510E+08
 -1       530 1.54772E+12-9.81609E+08 5.87761E+11-1.05458E+09-1.69847E+11-1.63464E+08
 -1       531 1.57308E+12-1.07083E+09 5.97364E+11-3.89588E+08-1.72481E+11-6.20671E+07
 -1       532 1.57644E+12-1.28058E+09 5.98561E+11 2.15686E+08-1.72736E+11 4.02659E+07
 -1       533 1.55784E+12-1.08830E+09 5.91567E+11 8.62442E+08-1.70606E+11 1.42104E+08
 -1       534 1.51746E+12-1.14095E+09 5.76202E+11 1.46168E+09-1.66121E+11 2.42025E+08
 -1       535 1.45594E+12-1.01790E+09 5.52869E+11 2.07456E+09-1.59341E+11 3.38635E+08
 -1       536 1.37407E+12-1.12861E+09 5.21716E+11 2.62561E+09-1.50359E+11 4.30587E+08
 -1       537 1.27310E+12-7.99902E+08 4.83473E+11 3.16380E+09-1.39299E+11 5.16599E+08
 -1       538 1.15431E+12-8.98492E+08 4.38296E+11 3.65074E+09-1.26313E+11 5.95469E+08
 -1       539 1.01947E+12-6.67111E+08 3.87147E+11 4.08577E+09-1.11582E+11 6.66100E+08
 -1       540 8.70376E+11-6.98836E+08 3.30477E+11 4.46888E+09-9.53088E+10 7.27504E+08
 -1       541 7.09162E+11-5.29744E+08 2.69280E+11 4.77583E+09-7.77193E+10 7.78828E+08
 -1       542 5.38043E+11-3.59544E+08 2.04320E+11 5.03257E+09-5.90572E+10 8.19353E+08
 -1       543 3.59379E+11-3.10653E+08 1.36446E+11 5.20784E+09-3.95814E+10 8.48514E+08
 -1       544 1.75696E+11-8.42115E+07 6.67325E+10 5.31812E+09-1.95620E+10 8.65902E+08
 -1       545-1.05052E+10-2.74393E+07-4.00242E+09 5.35233E+09 7.23156E+08 8.71271E+08
 -1       546-1.96594E+11 1.55134E+08-7.46469E+10 5.30902E+09 2.09925E+10 8.64544E+08
 -1       547-3.80010E+11 3.08520E+08-1.44287E+11 5.19786E+09 4.09646E+10 8.45811E+08
 -1       548-5.58227E+11 3.16524E+08-2.12006E+11 5.01115E+09 6.03619E+10 8.15330E+08
 -1       549-7.28710E+11 5.86410E+08-2.76687E+11 4.74887E+09 7.89151E+10 7.73517E+08
 -1       550-8.89161E+11 6.77678E+08-3.37624E+11 4.43661E+09 9.63663E+10 7.20952E+08
 -1       551-1.03734E+12 7.23227E+08-3.93913E+11 4.04922E+09 1.12473E+11 6.58360E+08
 -1       552-1.17118E+12 7.48967E+08-4.44764E+11 3.61049E+09 1.27011E+11 5.86605E+08
 -1       553-1.28879E+12 1.04099E+09-4.89346E+11 3.11082E+09 1.39777E+11 5.06678E+08
 -1       554-1.38864E+12 9.74830E+08-5.27314E+11 2.59531E+09 1.50595E+11 4.19685E+08
 -1       555-1.46928E+12 1.04740E+09-5.57929E+11 2.01043E+09 1.59312E+11 3.26829E+08
 -1       556-1.52959E+12 1.22735E+09-5.80779E+11 1.43096E+09 1.65808E+11 2.29392E+08
 -1       557-1.56884E+12 9.99490E+08-5.95778E+11 8.08340E+08 1.69990E+11 1.28721E+08
 -1       558-1.58635E+12 1.21764E+09-6.02348E+11 1.80794E+08 1.71799E+11 2.62057E+07
 -1       559-1.58202E+12 1.00103E+09-6.00788E+11-4.46916E+08 1.71209E+11-7.67384E+07
 -1       560-1.55581E+12 1.26020E+09-5.90728E+11-1.07894E+09 1.68227E+11-1.78691E+08
 -1       561-1.50822E+12 1.05455E+09-5.72723E+11-1.66638E+09 1.62892E+11-2.78247E+08
 -1       562-1.43985E+12 1.02934E+09-5.46750E+11-2.26648E+09 1.55275E+11-3.74033E+08
 -1       563-1.35168E+12 9.82574E+08-5.13266E+11-2.80105E+09 1.45481E+11-4.64735E+08
 -1       564-1.24498E+12 9.19428E+08-4.72744E+11-3.32627E+09 1.33643E+11-5.49106E+08
 -1       565-1.12125E+12 8.57641E+08-4.25748E+11-3.77182E+09 1.19922E+11-6.25991E+08
 -1       566-9.82277E+11 4.72991E+08-3.73085E+11-4.19909E+09 1.04505E+11-6.94338E+08
 -1       567-8.29889E+11 7.47225E+08-3.15074E+11-4.55099E+09 8.76017E+10-7.53218E+08
 -1       568-6.66424E+11 4.45930E+08-2.53072E+11-4.82742E+09 6.94436E+10-8.01839E+08
 -1       569-4.94085E+11 3.10880E+08-1.87634E+11-5.05235E+09 5.02774E+10-8.39547E+08
 -1       570-3.15328E+11 2.43559E+08-1.19732E+11-5.19480E+09 3.03637E+10-8.65848E+08
 -1       571-1.32728E+11 1.41762E+07-5.04311E+10-5.26948E+09 9.97296E+09-8.80409E+08
 -1       572 5.11713E+10-2.56442E+07 1.94354E+10-5.26907E+09-1.06188E+10-8.83062E+08
 -1       573 2.33693E+11-2.18127E+08 8.87205E+10-5.18761E+09-3.11335E+10-8.73809E+08
 -1       574 4.12246E+11-3.92805E+08 1.56504E+11-5.03898E+09-5.12951E+10-8.52822E+08
 -1       575 5.84289E+11-3.70804E+08 2.21889E+11-4.81431E+09-7.08335E+10-8.20447E+08
 -1       576 7.47250E+11-6.88897E+08 2.83693E+11-4.51234E+09-8.94885E+10-7.77184E+08
 -1       577 8.98858E+11-6.41691E+08 3.41322E+11-4.16243E+09-1.07014E+11-7.23701E+08
 -1       578 1.03677E+12-9.48385E+08 3.93613E+11-3.72702E+09-1.23180E+11-6.60811E+08
 -1       579 1.15905E+12-8.19121E+08 4.40127E+11-3.27003E+09-1.37779E+11-5.89467E+08
 -1       580 1.26372E+12-9.52466E+08 4.79853E+11-2.71276E+09-1.50625E+11-5.10749E+08
 -1       581 1.34918E+12-1.16888E+09 5.12245E+11-2.16052E+09-1.61561E+11-4.25851E+08
 -1       582 1.41410E+12-1.07244E+09 5.36949E+11-1.53764E+09-1.70457E+11-3.36067E+08
 -1       583 1.45722E+12-1.35670E+09 5.53229E+11-9.14631E+08-1.77215E+11-2.42772E+08
 -1       584 1.47787E+12-9.30738E+08 5.61235E+11-2.53547E+08-1.81769E+11-1.47406E+08
 -1       585 1.47519E+12-1.49589E+09 5.60003E+11 4.31211E+08-1.84090E+11-5.14546E+07
 -1       586 1.44919E+12-1.10495E+09 5.50272E+11 1.07612E+09-1.84180E+11 4.35680E+07
 -1       587 1.39965E+12-1.12604E+09 5.31438E+11 1.78042E+09-1.82079E+11 1.36133E+08
 -1       588 1.32687E+12-1.32061E+09 5.03709E+11 2.41669E+09-1.77862E+11 2.24728E+08
 -1       589 1.23148E+12-1.08670E+09 4.67550E+11 3.06861E+09-1.71640E+11 3.07859E+08
 -1       590 1.11417E+12-1.11721E+09 4.22961E+11 3.66926E+09-1.63556E+11 3.84080E+08
 -1       591 9.76028E+11-1.03418E+09 3.70498E+11 4.26080E+09-1.53789E+11 4.52003E+08
 -1       592 8.18269E+11-9.95046E+08 3.10564E+11 4.78845E+09-1.42547E+11 5.10314E+08
 -1       593 6.42369E+11-7.18454E+08 2.43827E+11 5.29864E+09-1.30070E+11 5.57783E+08
 -1       594 4.49818E+11-8.75621E+08 1.70598E+11 5.74755E+09-1.16622E+11 5.93281E+08
 -1       595 2.42445E+11-6.94699E+08 9.18651E+10 6.14183E+09-1.02497E+11 6.15789E+08
 -1       596 2.19947E+10-5.30611E+08 8.15636E+09 6.48918E+09-8.80072E+10 6.24396E+08
 -1       597-2.09718E+11-5.93222E+08-7.99184E+10 6.78527E+09-7.34870E+10 6.18315E+08
 -1       598-4.50737E+11-1.61800E+08-1.71341E+11 7.01799E+09-5.92869E+10 5.96874E+08
 -1       599-6.99488E+11-7.98311E+08-2.66109E+11 7.22827E+09-4.57720E+10 5.59526E+08
 -1       600-9.53704E+11 1.11695E+09-3.61983E+11 7.32926E+09-3.33187E+10 5.05827E+08
 -1       601-1.21337E+12-4.70271E+09-4.62867E+11 7.51537E+09-2.23125E+10 4.35474E+08
 -1       602-1.47185E+12 1.59485E+10-5.53244E+11 7.32051E+09-1.31453E+10 3.48140E+08
 -1       603-1.74622E+12-5.59210E+10-6.84814E+11 8.22597E+09-6.21302E+09 2.44019E+08
 -1       604-1.97235E+12 1.92578E+11-6.76311E+11 5.17891E+09-1.91679E+09 1.21836E+08
 -1       605-2.05114E+12-6.78381E+11-1.03722E+12 1.59654E+10-4.78495E+08 5.58022E+07
 -1       606-5.28451E+09-1.54501E+09-2.59522E+09 8.62294E+06 2.30039E+11-1.23575E+09
 -1       607-1.97941E+10-1.45381E+09-8.07421E+09 8.47963E+08 2.15627E+11-1.23512E+09
 -1       608-6.16448E+10-1.24319E+09-2.38975E+10 1.58121E+09 1.86832E+11-1.23251E+09
 -1       609-1.27344E+11-1.06896E+09-4.87968E+10 2.20984E+09 1.58137E+11-1.22639E+09
 -1       610-2.13209E+11-8.03575E+08-8.13249E+10 2.73405E+09 1.29641E+11-1.21535E+09
 -1       611-3.15651E+11-7.38760E+08-1.20228E+11 3.15992E+09 1.01472E+11-1.19819E+09
 -1       612-4.31016E+11-4.75292E+08-1.63967E+11 3.47033E+09 7.37851E+10-1.17394E+09
 -1       613-5.55805E+11-2.09786E+08-2.11285E+11 3.70042E+09 4.67539E+10-1.14190E+09
 -1       614-6.86626E+11-3.20471E+08-2.61040E+11 3.81771E+09 2.05668E+10-1.10154E+09
 -1       615-8.20010E+11 4.50639E+07-3.11587E+11 3.83380E+09-4.57849E+09-1.05260E+09
 -1       616-9.52846E+11 2.63878E+08-3.61981E+11 3.77938E+09-2.84808E+10-9.95010E+08
 -1       617-1.08208E+12 3.75523E+08-4.11047E+11 3.63280E+09-5.09396E+10-9.28902E+08
 -1       618-1.20482E+12 5.24907E+08-4.57632E+11 3.41396E+09-7.17597E+10-8.54606E+08
 -1       619-1.31846E+12 4.27887E+08-5.00853E+11 3.10976E+09-9.07557E+10-7.72632E+08
 -1       620-1.42047E+12 8.21500E+08-5.39467E+11 2.73588E+09-1.07756E+11-6.83648E+08
 -1       621-1.50880E+12 9.02429E+08-5.73002E+11 2.32934E+09-1.22606E+11-5.88476E+08
 -1       622-1.58154E+12 7.81159E+08-6.00689E+11 1.84858E+09-1.35173E+11-4.88074E+08
 -1       623-1.63700E+12 1.04362E+09-6.21663E+11 1.33345E+09-1.45348E+11-3.83505E+08
 -1       624-1.67400E+12 8.68360E+08-6.35791E+11 7.86402E+08-1.53045E+11-2.75931E+08
 -1       625-1.69143E+12 1.20408E+09-6.42284E+11 2.05131E+08-1.58210E+11-1.66587E+08
 -1       626-1.68877E+12 1.03144E+09-6.41339E+11-3.59717E+08-1.60815E+11-5.67628E+07
 -1       627-1.66558E+12 1.08139E+09-6.32509E+11-9.69282E+08-1.60866E+11 5.22208E+07
 -1       628-1.62190E+12 1.05036E+09-6.15924E+11-1.53530E+09-1.58398E+11 1.59033E+08
 -1       629-1.55803E+12 1.07701E+09-5.91643E+11-2.12525E+09-1.53475E+11 2.62351E+08
 -1       630-1.47461E+12 1.05298E+09-5.59952E+11-2.64925E+09-1.46196E+11 3.60886E+08
 -1       631-1.37262E+12 5.97016E+08-5.21370E+11-3.19206E+09-1.36687E+11 4.53393E+08
 -1       632-1.25307E+12 1.07308E+09-4.75760E+11-3.67151E+09-1.25101E+11 5.38703E+08
 -1       633-1.11771E+12 7.02614E+08-4.24463E+11-4.09050E+09-1.11619E+11 6.15734E+08
 -1       634-9.68078E+11 6.31701E+08-3.67630E+11-4.48360E+09-9.64471E+10 6.83503E+08
 -1       635-8.06155E+11 5.57395E+08-3.06127E+11-4.79625E+09-7.98105E+10 7.41150E+08
 -1       636-6.34072E+11 4.03577E+08-2.40794E+11-5.06389E+09-6.19544E+10 7.87945E+08
 -1       637-4.54085E+11 3.05612E+08-1.72436E+11-5.24857E+09-4.31391E+10 8.23301E+08
 -1       638-2.68617E+11 1.00656E+08-1.02036E+11-5.37878E+09-2.36367E+10 8.46783E+08
 -1       639-8.01118E+10 6.72327E+07-3.04170E+10-5.42406E+09-3.72791E+09 8.58113E+08
 -1       640 1.08847E+11-9.72576E+07 4.13248E+10-5.40223E+09 1.63022E+10 8.57181E+08
 -1       641 2.95723E+11-2.82660E+08 1.12268E+11-5.30257E+09 3.61679E+10 8.44036E+08
 -1       642 4.78013E+11-3.10953E+08 1.81527E+11-5.13900E+09 5.55865E+10 8.18897E+08
 -1       643 6.53177E+11-6.02677E+08 2.47978E+11-4.89336E+09 7.42824E+10 7.82144E+08
 -1       644 8.18928E+11-5.28467E+08 3.10992E+11-4.60334E+09 9.19907E+10 7.34314E+08
 -1       645 9.72917E+11-6.96039E+08 3.69444E+11-4.21500E+09 1.08461E+11 6.76097E+08
 -1       646 1.11308E+12-8.77015E+08 4.22637E+11-3.80546E+09 1.23459E+11 6.08319E+08
 -1       647 1.23753E+12-8.76372E+08 4.69930E+11-3.31578E+09 1.36774E+11 5.31946E+08
 -1       648 1.34451E+12-1.14167E+09 5.10481E+11-2.80745E+09 1.48218E+11 4.48051E+08
 -1       649 1.43270E+12-7.71207E+08 5.44131E+11-2.24114E+09 1.57629E+11 3.57818E+08
 -1       650 1.50064E+12-1.39571E+09 5.69712E+11-1.63832E+09 1.64873E+11 2.62510E+08
 -1       651 1.54772E+12-9.81608E+08 5.87761E+11-1.05458E+09 1.69847E+11 1.63464E+08
 -1       652 1.57308E+12-1.07083E+09 5.97364E+11-3.89589E+08 1.72481E+11 6.20672E+07
 -1       653 1.57644E+12-1.28058E+09 5.98561E+11 2.15686E+08 1.72736E+11-4.02659E+07
 -1       654 1.55784E+12-1.08830E+09 5.91567E+11 8.62442E+08 1.70606E+11-1.42104E+08
 -1       655 1.51746E+12-1.14095E+09 5.76202E+11 1.46168E+09 1.66121E+11-2.42025E+08
 -1       656 1.45594E+12-1.01790E+09 5.52869E+11 2.07456E+09 1.59341E+11-3.38635E+08
 -1       657 1.37407E+12-1.12861E+09 5.21716E+11 2.62561E+09 1.50359E+11-4.30587E+08
 -1       658 1.27310E+12-7.99903E+08 4.83473E+11 3.16381E+09 1.39299E+11-5.16599E+08
 -1       659 1.15431E+12-8.98492E+08 4.38296E+11 3.65074E+09 1.26313E+11-5.95469E+08
 -1       660 1.01947E+12-6.67111E+08 3.87147E+11 4.08577E+09 1.11582E+11-6.66100E+08
 -1       661 8.70376E+11-6.98836E+08 3.30477E+11 4.46888E+09 9.53088E+10-7.27504E+08
 -1       662 7.09162E+11-5.29744E+08 2.69280E+11 4.77583E+09 7.77193E+10-7.78828E+08
 -1       663 5.38043E+11-3.59543E+08 2.04320E+11 5.03257E+09 5.90572E+10-8.19353E+08
 -1       664 3.59379E+11-3.10653E+08 1.36446E+11 5.20784E+09 3.95814E+10-8.48514E+08
 -1       665 1.75696E+11-8.42113E+07 6.67325E+10 5.31812E+09 1.95620E+10-8.65902E+08
 -1       666-1.05052E+10-2.74390E+07-4.00242E+09 5.35233E+09-7.23155E+08-8.71271E+08
 -1       667-1.96594E+11 1.55134E+08-7.46469E+10 5.30902E+09-2.09925E+10-8.64544E+08
 -1       668-3.80010E+11 3.08520E+08-1.44287E+11 5.19786E+09-4.09646E+10-8.45811E+08
 -1       669-5.58227E+11 3.16524E+08-2.12006E+11 5.01115E+09-6.03619E+10-8.15330E+08
 -1       670-7.28710E+11 5.86410E+08-2.76687E+11 4.74887E+09-7.89151E+10-7.73517E+08
 -1       671-8.89161E+11 6.77678E+08-3.37624E+11 4.43661E+09-9.63663E+10-7.20952E+08
 -1       672-1.03734E+12 7.23227E+08-3.93913E+11 4.04922E+09-1.12473E+11-6.58360E+08
 -1       673-1.17118E+12 7.48966E+08-4.44764E+11 3.61049E+09-1.27011E+11-5.86605E+08
 -1       674-1.28879E+12 1.04099E+09-4.89346E+11 3.11082E+09-1.39777E+11-5.06678E+08
 -1       675-1.38864E+12 9.74829E+08-5.27314E+11 2.59531E+09-1.50595E+11-4.19685E+08
 -1       676-1.46928E+12 1.04740E+09-5.57929E+11 2.01043E+09-1.59312E+11-3.26829E+08
 -1       677-1.52959E+12 1.22735E+09-5.80779E+11 1.43096E+09-1.65808E+11-2.29392E+08
 -1       678-1.56884E+12 9.99490E+08-5.95778E+11 8.08340E+08-1.69990E+11-1.28721E+08
 -1       679-1.58635E+12 1.21764E+09-6.02348E+11 1.80794E+08-1.71799E+11-2.62057E+07
 -1       680-1.58202E+12 1.00103E+09-6.00788E+11-4.46916E+08-1.71209E+11 7.67384E+07
 -1       681-1.55581E+12 1.26020E+09-5.90728E+11-1.07894E+09-1.68227E+11 1.78691E+08
 -1       682-1.50822E+12 1.05455E+09-5.72723E+11-1.66638E+09-1.62892E+11 2.78247E+08
 -1       683-1.43985E+12 1.02934E+09-5.46750E+11-2.26648E+09-1.55275E+11 3.74033E+08
 -1       684-1.35168E+12 9.82574E+08-5.13266E+11-2.80105E+09-1.45481E+11 4.64735E+08
 -1       685-1.24498E+12 9.19428E+08-4.72744E+11-3.32627E+09-1.33643E+11 5.49106E+08
 -1       686-1.12125E+12 8.57641E+08-4.25748E+11-3.77182E+09-1.19922E+11 6.25991E+08
 -1       687-9.82277E+11 4.72991E+08-3.73085E+11-4.19909E+09-1.04505E+11 6.94338E+08
 -1       688-8.29889E+11 7.47225E+08-3.15074E+11-4.55099E+09-8.76017E+10 7.53218E+08
 -1       689-6.66424E+11 4.45931E+08-2.53072E+11-4.82742E+09-6.94436E+10 8.01839E+08
 -1       690-4.94085E+11 3.10880E+08-1.87634E+11-5.05235E+09-5.02774E+10 8.39547E+08
 -1       691-3.15328E+11 2.43559E+08-1.19732E+11-5.19480E+09-3.03637E+10 8.65848E+08
 -1       692-1.32728E+11 1.41766E+07-5.04311E+10-5.26948E+09-9.97295E+09 8.80409E+08
 -1       693 5.11713E+10-2.56437E+07 1.94354E+10-5.26907E+09 1.06188E+10 8.83062E+08
 -1       694 2.33693E+11-2.18126E+08 8.87205E+10-5.18761E+09 3.11336E+10 8.73809E+08
 -1       695 4.12246E+11-3.92804E+08 1.56504E+11-5.03898E+09 5.12951E+10 8.52822E+08
 -1       696 5.84289E+11-3.70804E+08 2.21889E+11-4.81431E+09 7.08335E+10 8.20447E+08
 -1       697 7.47250E+11-6.88897E+08 2.83693E+11-4.51234E+09 8.94885E+10 7.77184E+08
 -1       698 8.98858E+11-6.41691E+08 3.41322E+11-4.16243E+09 1.07014E+11 7.23701E+08
 -1       699 1.03677E+12-9.48384E+08 3.93613E+11-3.72702E+09 1.23180E+11 6.60811E+08
 -1       700 1.15905E+12-8.19121E+08 4.40127E+11-3.27003E+09 1.37779E+11 5.89467E+08
 -1       701 1.26372E+12-9.52466E+08 4.79853E+11-2.71276E+09 1.50625E+11 5.10749E+08
 -1       702 1.34918E+12-1.16888E+09 5.12245E+11-2.16052E+09 1.61561E+11 4.25851E+08
 -1       703 1.41410E+12-1.07244E+09 5.36949E+11-1.53764E+09 1.70457E+11 3.36067E+08
 -1       704 1.45722E+12-1.35670E+09 5.53229E+11-9.14631E+08 1.77215E+11 2.42772E+08
 -1       705 1.47787E+12-9.30739E+08 5.61235E+11-2.53547E+08 1.81769E+11 1.47406E+08
 -1       706 1.47519E+12-1.49589E+09 5.60003E+11 4.31211E+08 1.84090E+11 5.14546E+07
 -1       707 1.44919E+12-1.10495E+09 5.50272E+11 1.07612E+09 1.84180E+11-4.35680E+07
 -1       708 1.39965E+12-1.12604E+09 5.31438E+11 1.78042E+09 1.82079E+11-1.36133E+08
 -1       709 1.32687E+12-1.32061E+09 5.03709E+11 2.41669E+09 1.77862E+11-2.24728E+08
 -1       710 1.23148E+12-1.08670E+09 4.67550E+11 3.06861E+09 1.71640E+11-3.07859E+08
 -1       711 1.11417E+12-1.11721E+09 4.22961E+11 3.66926E+09 1.63556E+11-3.84080E+08
 -1       712 9.76028E+11-1.03418E+09 3.70498E+11 4.26080E+09 1.53789E+11-4.52003E+08
 -1       713 8.18269E+11-9.95047E+08 3.10564E+11 4.78845E+09 1.42547E+11-5.10314E+08
 -1       714 6.42369E+11-7.18455E+08 2.43827E+11 5.29864E+09 1.30070E+11-5.57783E+08
 -1       715 4.49818E+11-8.75621E+08 1.70598E+11 5.74755E+09 1.16622E+11-5.93281E+08
 -1       716 2.42445E+11-6.94699E+08 9.18651E+10 6.14183E+09 1.02497E+11-6.15789E+08
 -1       717 2.19947E+10-5.30611E+08 8.15636E+09 6.48918E+09 8.80072E+10-6.24396E+08
 -1       718-2.09718E+11-5.93222E+08-7.99184E+10 6.78527E+09 7.34870E+10-6.18315E+08
 -1       719-4.50737E+11-1.61800E+08-1.71341E+11 7.01799E+09 5.92869E+10-5.96874E+08
 -1       720-6.99488E+11-7.98311E+08-2.66109E+11 7.22827E+09 4.57720E+10-5.59526E+08
 -1       721-9.53704E+11 1.11695E+09-3.61983E+11 7.32926E+09 3.33187E+10-5.05827E+08
 -1       722-1.21337E+12-4.70271E+09-4.62867E+11 7.51537E+09 2.23125E+10-4.35474E+08
 -1       723-1.47185E+12 1.59485E+10-5.53244E+11 7.32051E+09 1.31453E+10-3.48140E+08
 -1       724-1.74622E+12-5.59210E+10-6.84814E+11 8.22597E+09 6.21302E+09-2.44019E+08
 -1       725-1.97235E+12 1.92578E+11-6.76311E+11 5.17891E+09 1.91679E+09-1.21836E+08
 -1       726-2.05114E+12-6.78381E+11-1.03722E+12 1.59654E+10 4.78495E+08-5.58022E+07
 -1       727 5.28446E+09 1.54513E+09 2.59524E+09 8.60932E+06-2.30039E+11-1.23585E+09
 -3
    1PSTEP                        19           1           1          
    1PGM                1.000000E+00                                  
    1PGK                2.166874E+07                                  
    1PHID                         -1                                  
    1PSUBC                         0                                  
    1PMODE                         5                                  
  100CL  105 740.8613878         726                     2    5MODAL      1
 -4  TOSTRAIN    6    1
 -5  EXX         1    4    1    1
 -5  EYY         1    4    2    2
 -5  EZZ         1    4    3    3
 -5  EXY         1    4    1    2
 -5  EYZ         1    4    2    3
 -5  EZX         1    4    3    1
 -1         2 3.36595E+00-1.90136E+00-4.66831E-09 2.43526E-01-6.19281E+01-3.54757E-01
 -1         3 1.08411E+01-6.50630E+00-1.39223E-08 4.54105E-01-5.36584E+01-3.54005E-01
 -1         4 2.25587E+01-1.37075E+01-2.33240E-08 6.34643E-01-4.54172E+01-3.52248E-01
 -1         5 3.78773E+01-2.31258E+01-3.37683E-08 7.85190E-01-3.72330E+01-3.49076E-01
 -1         6 5.61255E+01-3.43174E+01-3.64208E-08 9.07496E-01-2.91428E+01-3.44147E-01
 -1         7 7.66968E+01-4.69549E+01-3.53502E-08 9.96641E-01-2.11911E+01-3.37185E-01
 -1         8 9.89462E+01-6.06211E+01-3.84227E-08 1.06272E+00-1.34278E+01-3.27980E-01
 -1         9 1.22229E+02-7.48787E+01-3.83070E-08 1.09641E+00-5.90680E+00-3.16390E-01
 -1        10 1.46020E+02-8.95009E+01-3.38613E-08 1.10103E+00 1.31495E+00-3.02333E-01
 -1        11 1.69697E+02-1.04037E+02-2.90918E-08 1.08540E+00 8.17971E+00-2.85791E-01
 -1        12 1.92721E+02-1.18161E+02-2.64953E-08 1.04330E+00 1.46299E+01-2.66803E-01
 -1        13 2.14593E+02-1.31583E+02-2.26300E-08 9.80454E-01 2.06095E+01-2.45463E-01
 -1        14 2.34818E+02-1.43968E+02-1.76999E-08 8.93091E-01 2.60651E+01-2.21918E-01
 -1        15 2.53025E+02-1.55171E+02-1.35538E-08 7.85716E-01 3.09476E+01-1.96360E-01
 -1        16 2.68763E+02-1.64826E+02-7.39313E-09 6.68961E-01 3.52126E+01-1.69024E-01
 -1        17 2.81702E+02-1.72743E+02 9.66421E-10 5.30892E-01 3.88219E+01-1.40186E-01
 -1        18 2.91605E+02-1.78842E+02 6.36201E-09 3.82952E-01 4.17440E+01-1.10152E-01
 -1        19 2.98175E+02-1.82849E+02 8.34332E-09 2.25846E-01 4.39546E+01-7.92539E-02
 -1        20 3.01314E+02-1.84810E+02 8.65680E-09 5.89114E-02 4.54379E+01-4.78479E-02
 -1        21 3.00822E+02-1.84489E+02 6.45561E-09-1.03307E-01 4.61863E+01-1.63036E-02
 -1        22 2.96698E+02-1.81968E+02 1.84906E-10-2.78368E-01 4.62009E+01 1.49991E-02
 -1        23 2.88918E+02-1.77196E+02-7.24891E-09-4.40922E-01 4.54919E+01 4.56781E-02
 -1        24 2.77548E+02-1.70230E+02-1.33378E-08-6.10350E-01 4.40783E+01 7.53536E-02
 -1        25 2.62691E+02-1.61121E+02-1.61129E-08-7.60836E-01 4.19877E+01 1.03655E-01
 -1        26 2.44480E+02-1.49909E+02-1.57989E-08-9.16726E-01 3.92566E+01 1.30225E-01
 -1        27 2.23245E+02-1.36947E+02-1.61179E-08-1.05442E+00 3.59291E+01 1.54728E-01
 -1        28 1.99101E+02-1.22108E+02-1.76808E-08-1.17475E+00 3.20572E+01 1.76853E-01
 -1        29 1.72449E+02-1.05765E+02-1.83041E-08-1.28764E+00 2.76997E+01 1.96318E-01
 -1        30 1.43608E+02-8.80800E+01-1.81469E-08-1.37743E+00 2.29216E+01 2.12876E-01
 -1        31 1.12950E+02-6.92721E+01-1.47265E-08-1.45430E+00 1.77934E+01 2.26316E-01
 -1        32 8.08898E+01-4.96116E+01-1.10807E-08-1.50733E+00 1.23896E+01 2.36472E-01
 -1        33 4.78421E+01-2.93338E+01-7.94884E-09-1.54473E+00 6.78849E+00 2.43216E-01
 -1        34 1.42724E+01-8.75508E+00-4.49235E-09-1.55773E+00 1.07066E+00 2.46470E-01
 -1        35-1.93924E+01 1.18965E+01-4.09599E-09-1.55146E+00-4.68200E+00 2.46203E-01
 -1        36-5.26887E+01 3.23245E+01-3.18683E-09-1.52284E+00-1.03874E+01 2.42427E-01
 -1        37-8.51511E+01 5.22239E+01-2.70057E-09-1.47587E+00-1.59645E+01 2.35207E-01
 -1        38-1.16373E+02 7.13926E+01-6.04512E-09-1.40532E+00-2.13340E+01 2.24650E-01
 -1        39-1.45880E+02 8.94688E+01-1.11766E-08-1.32203E+00-2.64198E+01 2.10913E-01
 -1        40-1.73318E+02 1.06305E+02-1.80688E-08-1.21050E+00-3.11500E+01 1.94191E-01
 -1        41-1.98296E+02 1.21634E+02-2.38931E-08-1.09289E+00-3.54576E+01 1.74724E-01
 -1        42-2.20456E+02 1.35216E+02-2.56774E-08-9.52257E-01-3.92817E+01 1.52787E-01
 -1        43-2.39534E+02 1.46938E+02-2.54738E-08-8.06269E-01-4.25684E+01 1.28691E-01
 -1        44-2.55197E+02 1.56497E+02-2.21674E-08-6.43630E-01-4.52711E+01 1.02774E-01
 -1        45-2.67363E+02 1.64023E+02-1.71063E-08-4.70507E-01-4.73516E+01 7.53992E-02
 -1        46-2.75701E+02 1.69087E+02-1.06448E-08-3.02865E-01-4.87802E+01 4.69507E-02
 -1        47-2.80227E+02 1.71871E+02-6.29929E-10-1.11885E-01-4.95367E+01 1.78272E-02
 -1        48-2.80848E+02 1.72275E+02 8.47139E-09 6.19433E-02-4.96099E+01-1.15653E-02
 -1        49-2.77515E+02 1.70211E+02 1.25432E-08 2.47685E-01-4.89983E+01-4.08156E-02
 -1        50-2.70331E+02 1.65814E+02 1.50220E-08 4.19779E-01-4.77101E+01-6.95153E-02
 -1        51-2.59362E+02 1.59077E+02 1.89698E-08 5.95792E-01-4.57629E+01-9.72641E-02
 -1        52-2.44796E+02 1.50162E+02 2.09320E-08 7.54049E-01-4.31832E+01-1.23675E-01
 -1        53-2.26781E+02 1.39084E+02 1.70296E-08 9.08611E-01-4.00067E+01-1.48379E-01
 -1        54-2.05640E+02 1.26137E+02 1.16392E-08 1.04846E+00-3.62772E+01-1.71033E-01
 -1        55-1.81605E+02 1.11380E+02 6.04915E-09 1.17339E+00-3.20464E+01-1.91320E-01
 -1        56-1.55059E+02 9.51141E+01 7.28119E-10 1.28342E+00-2.73728E+01-2.08956E-01
 -1        57-1.26334E+02 7.74897E+01-2.93197E-09 1.37157E+00-2.23210E+01-2.23698E-01
 -1        58-9.58456E+01 5.87840E+01-7.26894E-09 1.44530E+00-1.69613E+01-2.35338E-01
 -1        59-6.40265E+01 3.92766E+01-1.02270E-08 1.49564E+00-1.13678E+01-2.43713E-01
 -1        60-3.12944E+01 1.91898E+01-8.68027E-09 1.52731E+00-5.61823E+00-2.48708E-01
 -1        61 1.86762E+00-1.14162E+00-8.31558E-09 1.53713E+00 2.07691E-01-2.50250E-01
 -1        62 3.50234E+01-2.14832E+01-9.40461E-09 1.52470E+00 6.02906E+00-2.48318E-01
 -1        63 6.77001E+01-4.15279E+01-8.26077E-09 1.49277E+00 1.17651E+01-2.42937E-01
 -1        64 9.94350E+01-6.09792E+01-6.06895E-09 1.43915E+00 1.73360E+01-2.34182E-01
 -1        65 1.29821E+02-7.96332E+01-1.28179E-09 1.36383E+00 2.26645E+01-2.22173E-01
 -1        66 1.58402E+02-9.71605E+01 6.57487E-09 1.27415E+00 2.76765E+01-2.07074E-01
 -1        67 1.84792E+02-1.13340E+02 1.33523E-08 1.16289E+00 3.23023E+01-1.89097E-01
 -1        68 2.08627E+02-1.27952E+02 1.71885E-08 1.03690E+00 3.64776E+01-1.68487E-01
 -1        69 2.29602E+02-1.40840E+02 1.70033E-08 8.93395E-01 4.01442E+01-1.45530E-01
 -1        70 2.47375E+02-1.51725E+02 1.13992E-08 7.45346E-01 4.32510E+01-1.20544E-01
 -1        71 2.61741E+02-1.60538E+02 5.84555E-09 5.77375E-01 4.57546E+01-9.38731E-02
 -1        72 2.72500E+02-1.67153E+02 3.66609E-09 4.10957E-01 4.76201E+01-6.58867E-02
 -1        73 2.79463E+02-1.71395E+02 9.74592E-10 2.32146E-01 4.88212E+01-3.69717E-02
 -1        74 2.82605E+02-1.73345E+02-2.48130E-09 5.19216E-02 4.93409E+01-7.52689E-03
 -1        75 2.81811E+02-1.72834E+02-5.95940E-10-1.28350E-01 4.91715E+01 2.20411E-02
 -1        76 2.77172E+02-1.70019E+02 4.61292E-09-3.09860E-01 4.83150E+01 5.13242E-02
 -1        77 2.68676E+02-1.64789E+02 6.82150E-09-4.78568E-01 4.67826E+01 7.99191E-02
 -1        78 2.56498E+02-1.57323E+02 7.13194E-09-6.50909E-01 4.45952E+01 1.07431E-01
 -1        79 2.40794E+02-1.47693E+02 7.04772E-09-8.04434E-01 4.17824E+01 1.33483E-01
 -1        80 2.21787E+02-1.36036E+02 6.08028E-09-9.55270E-01 3.83824E+01 1.57716E-01
 -1        81 1.99748E+02-1.22521E+02 4.77124E-09-1.08323E+00 3.44416E+01 1.79800E-01
 -1        82 1.74960E+02-1.07286E+02 1.85436E-09-1.20593E+00 3.00138E+01 1.99430E-01
 -1        83 1.47855E+02-9.07041E+01-1.53300E-09-1.30700E+00 2.51593E+01 2.16342E-01
 -1        84 1.18715E+02-7.28105E+01-5.85967E-09-1.38638E+00 1.99443E+01 2.30307E-01
 -1        85 8.80129E+01-5.39779E+01-9.60744E-09-1.45098E+00 1.44397E+01 2.41138E-01
 -1        86 5.61753E+01-3.44571E+01-1.13828E-08-1.49189E+00 8.72049E+00 2.48692E-01
 -1        87 2.36356E+01-1.44879E+01-1.38715E-08-1.51334E+00 2.86424E+00 2.52874E-01
 -1        88-9.11459E+00 5.58922E+00-1.53048E-08-1.51322E+00-3.04974E+00 2.53636E-01
 -1        89-4.16362E+01 2.55432E+01-1.64464E-08-1.48983E+00-8.94158E+00 2.50979E-01
 -1        90-7.34493E+01 4.50610E+01-1.81146E-08-1.44714E+00-1.47320E+01 2.44951E-01
 -1        91-1.04082E+02 6.38332E+01-1.79885E-08-1.38262E+00-2.03434E+01 2.35652E-01
 -1        92-1.33134E+02 8.16748E+01-1.68381E-08-1.29590E+00-2.57012E+01 2.23226E-01
 -1        93-1.60125E+02 9.82124E+01-1.50600E-08-1.19540E+00-3.07345E+01 2.07864E-01
 -1        94-1.84716E+02 1.13318E+02-9.82369E-09-1.07036E+00-3.53775E+01 1.89801E-01
 -1        95-2.06475E+02 1.26640E+02-3.06698E-09-9.39116E-01-3.95703E+01 1.69309E-01
 -1        96-2.25128E+02 1.38088E+02 1.85902E-09-7.79077E-01-4.32598E+01 1.46699E-01
 -1        97-2.40369E+02 1.47453E+02 3.35226E-09-6.20478E-01-4.64005E+01 1.22315E-01
 -1        98-2.51917E+02 1.54520E+02 3.79202E-09-4.41594E-01-4.89554E+01 9.65266E-02
 -1        99-2.59628E+02 1.59277E+02 9.12349E-09-2.62671E-01-5.08962E+01 6.97298E-02
 -1       100-2.63257E+02 1.61455E+02 1.74505E-08-7.28158E-02-5.22043E+01 4.23386E-02
 -1       101-2.62842E+02 1.61263E+02 2.43900E-08 1.23840E-01-5.28707E+01 1.47790E-02
 -1       102-2.58170E+02 1.58356E+02 2.83850E-08 3.09050E-01-5.28965E+01-1.25138E-02
 -1       103-2.49351E+02 1.52953E+02 2.97502E-08 5.11320E-01-5.22932E+01-3.91007E-02
 -1       104-2.36413E+02 1.45045E+02 2.94098E-08 6.94049E-01-5.10821E+01-6.45472E-02
 -1       105-2.19402E+02 1.34593E+02 3.01350E-08 8.81274E-01-4.92951E+01-8.84246E-02
 -1       106-1.98517E+02 1.21796E+02 3.29182E-08 1.05377E+00-4.69735E+01-1.10317E-01
 -1       107-1.73909E+02 1.06704E+02 3.52710E-08 1.22366E+00-4.41684E+01-1.29826E-01
 -1       108-1.45813E+02 8.94800E+01 3.32177E-08 1.37519E+00-4.09397E+01-1.46574E-01
 -1       109-1.14462E+02 7.02338E+01 2.49495E-08 1.52171E+00-3.73561E+01-1.60209E-01
 -1       110-8.01922E+01 4.92474E+01 1.41496E-08 1.65064E+00-3.34940E+01-1.70404E-01
 -1       111-4.32467E+01 2.65833E+01 3.27551E-09 1.76387E+00-2.94372E+01-1.76869E-01
 -1       112-3.97440E+00 2.49491E+00-4.86908E-09 1.86362E+00-2.52757E+01-1.79341E-01
 -1       113 3.72787E+01-2.27823E+01-8.02857E-09 1.94866E+00-2.11055E+01-1.77595E-01
 -1       114 8.02425E+01-4.91629E+01-1.09607E-08 2.01549E+00-1.70272E+01-1.71436E-01
 -1       115 1.24467E+02-7.61974E+01-1.57143E-08 2.07589E+00-1.31457E+01-1.60709E-01
 -1       116 1.69943E+02-1.04283E+02-2.05498E-08 2.10488E+00-9.56916E+00-1.45286E-01
 -1       117 2.15544E+02-1.31585E+02-2.49546E-08 2.15834E+00-6.40816E+00-1.25079E-01
 -1       118 2.63826E+02-1.63473E+02-2.87866E-08 2.10236E+00-3.77535E+00-9.99940E-02
 -1       119 3.04836E+02-1.80618E+02-3.21634E-08 2.36243E+00-1.78438E+00-7.00880E-02
 -1       120 3.72225E+02-2.49549E+02-4.09650E-08 1.48729E+00-5.50504E-01-3.49941E-02
 -1       121 2.91195E+02-1.03050E+02-4.83815E-08 4.58578E+00-1.37424E-01-1.60277E-02
 -1       122 7.72344E-01-3.01593E-01 6.17635E-10 2.47258E-03 6.60673E+01 3.54937E-01
 -1       123 3.36595E+00-1.90136E+00 4.66831E-09 2.43526E-01 6.19281E+01 3.54757E-01
 -1       124 1.08411E+01-6.50630E+00 1.39223E-08 4.54106E-01 5.36584E+01 3.54005E-01
 -1       125 2.25587E+01-1.37075E+01 2.33240E-08 6.34643E-01 4.54172E+01 3.52248E-01
 -1       126 3.78773E+01-2.31258E+01 3.37683E-08 7.85190E-01 3.72330E+01 3.49076E-01
 -1       127 5.61255E+01-3.43174E+01 3.64208E-08 9.07496E-01 2.91428E+01 3.44147E-01
 -1       128 7.66968E+01-4.69549E+01 3.53502E-08 9.96641E-01 2.11911E+01 3.37185E-01
 -1       129 9.89462E+01-6.06211E+01 3.84227E-08 1.06272E+00 1.34278E+01 3.27980E-01
 -1       130 1.22229E+02-7.48787E+01 3.83070E-08 1.09641E+00 5.90680E+00 3.16390E-01
 -1       131 1.46020E+02-8.95009E+01 3.38613E-08 1.10103E+00-1.31495E+00 3.02333E-01
 -1       132 1.69697E+02-1.04037E+02 2.90918E-08 1.08540E+00-8.17971E+00 2.85791E-01
 -1       133 1.92721E+02-1.18161E+02 2.64953E-08 1.04330E+00-1.46299E+01 2.66803E-01
 -1       134 2.14593E+02-1.31583E+02 2.26300E-08 9.80454E-01-2.06095E+01 2.45463E-01
 -1       135 2.34818E+02-1.43968E+02 1.76999E-08 8.93091E-01-2.60651E+01 2.21918E-01
 -1       136 2.53025E+02-1.55171E+02 1.35538E-08 7.85716E-01-3.09476E+01 1.96360E-01
 -1       137 2.68763E+02-1.64826E+02 7.39313E-09 6.68961E-01-3.52126E+01 1.69024E-01
 -1       138 2.81702E+02-1.72743E+02-9.66421E-10 5.30892E-01-3.88219E+01 1.40186E-01
 -1       139 2.91605E+02-1.78842E+02-6.36201E-09 3.82952E-01-4.17440E+01 1.10152E-01
 -1       140 2.98175E+02-1.82849E+02-8.34332E-09 2.25846E-01-4.39546E+01 7.92539E-02
 -1       141 3.01314E+02-1.84810E+02-8.65680E-09 5.89114E-02-4.54379E+01 4.78479E-02
 -1       142 3.00822E+02-1.84489E+02-6.45561E-09-1.03307E-01-4.61863E+01 1.63036E-02
 -1       143 2.96698E+02-1.81968E+02-1.84906E-10-2.78368E-01-4.62009E+01-1.49991E-02
 -1       144 2.88918E+02-1.77196E+02 7.24891E-09-4.40922E-01-4.54919E+01-4.56781E-02
 -1       145 2.77548E+02-1.70230E+02 1.33378E-08-6.10349E-01-4.40783E+01-7.53536E-02
 -1       146 2.62691E+02-1.61121E+02 1.61129E-08-7.60836E-01-4.19877E+01-1.03655E-01
 -1       147 2.44480E+02-1.49909E+02 1.57989E-08-9.16726E-01-3.92566E+01-1.30225E-01
 -1       148 2.23245E+02-1.36947E+02 1.61179E-08-1.05442E+00-3.59291E+01-1.54728E-01
 -1       149 1.99101E+02-1.22108E+02 1.76808E-08-1.17475E+00-3.20572E+01-1.76853E-01
 -1       150 1.72449E+02-1.05765E+02 1.83041E-08-1.28764E+00-2.76997E+01-1.96318E-01
 -1       151 1.43608E+02-8.80800E+01 1.81469E-08-1.37743E+00-2.29216E+01-2.12876E-01
 -1       152 1.12950E+02-6.92721E+01 1.47265E-08-1.45430E+00-1.77934E+01-2.26316E-01
 -1       153 8.08898E+01-4.96116E+01 1.10807E-08-1.50733E+00-1.23896E+01-2.36472E-01
 -1       154 4.78421E+01-2.93338E+01 7.94884E-09-1.54473E+00-6.78849E+00-2.43216E-01
 -1       155 1.42724E+01-8.75508E+00 4.49235E-09-1.55773E+00-1.07066E+00-2.46470E-01
 -1       156-1.93924E+01 1.18965E+01 4.09599E-09-1.55146E+00 4.68200E+00-2.46203E-01
 -1       157-5.26887E+01 3.23245E+01 3.18683E-09-1.52284E+00 1.03874E+01-2.42427E-01
 -1       158-8.51511E+01 5.22239E+01 2.70057E-09-1.47587E+00 1.59645E+01-2.35207E-01
 -1       159-1.16373E+02 7.13926E+01 6.04512E-09-1.40532E+00 2.13340E+01-2.24650E-01
 -1       160-1.45880E+02 8.94688E+01 1.11766E-08-1.32203E+00 2.64198E+01-2.10913E-01
 -1       161-1.73318E+02 1.06305E+02 1.80688E-08-1.21050E+00 3.11500E+01-1.94191E-01
 -1       162-1.98296E+02 1.21634E+02 2.38931E-08-1.09289E+00 3.54576E+01-1.74724E-01
 -1       163-2.20456E+02 1.35216E+02 2.56774E-08-9.52257E-01 3.92817E+01-1.52787E-01
 -1       164-2.39534E+02 1.46938E+02 2.54738E-08-8.06269E-01 4.25684E+01-1.28691E-01
 -1       165-2.55197E+02 1.56497E+02 2.21674E-08-6.43630E-01 4.52711E+01-1.02774E-01
 -1       166-2.67363E+02 1.64023E+02 1.71063E-08-4.70507E-01 4.73516E+01-7.53992E-02
 -1       167-2.75701E+02 1.69087E+02 1.06448E-08-3.02865E-01 4.87802E+01-4.69507E-02
 -1       168-2.80227E+02 1.71871E+02 6.29929E-10-1.11885E-01 4.95367E+01-1.78272E-02
 -1       169-2.80848E+02 1.72275E+02-8.47139E-09 6.19432E-02 4.96099E+01 1.15653E-02
 -1       170-2.77515E+02 1.70211E+02-1.25432E-08 2.47684E-01 4.89983E+01 4.08156E-02
 -1       171-2.70331E+02 1.65814E+02-1.50220E-08 4.19779E-01 4.77101E+01 6.95153E-02
 -1       172-2.59362E+02 1.59077E+02-1.89698E-08 5.95792E-01 4.57629E+01 9.72641E-02
 -1       173-2.44796E+02 1.50162E+02-2.09320E-08 7.54049E-01 4.31832E+01 1.23675E-01
 -1       174-2.26781E+02 1.39084E+02-1.70296E-08 9.08611E-01 4.00067E+01 1.48379E-01
 -1       175-2.05640E+02 1.26137E+02-1.16392E-08 1.04846E+00 3.62772E+01 1.71033E-01
 -1       176-1.81605E+02 1.11380E+02-6.04915E-09 1.17339E+00 3.20464E+01 1.91320E-01
 -1       177-1.55059E+02 9.51141E+01-7.28119E-10 1.28342E+00 2.73728E+01 2.08956E-01
 -1       178-1.26334E+02 7.74897E+01 2.93197E-09 1.37157E+00 2.23210E+01 2.23698E-01
 -1       179-9.58456E+01 5.87840E+01 7.26894E-09 1.44530E+00 1.69613E+01 2.35338E-01
 -1       180-6.40265E+01 3.92766E+01 1.02270E-08 1.49564E+00 1.13678E+01 2.43713E-01
 -1       181-3.12944E+01 1.91898E+01 8.68027E-09 1.52731E+00 5.61823E+00 2.48708E-01
 -1       182 1.86762E+00-1.14162E+00 8.31558E-09 1.53713E+00-2.07691E-01 2.50250E-01
 -1       183 3.50234E+01-2.14832E+01 9.40461E-09 1.52470E+00-6.02906E+00 2.48318E-01
 -1       184 6.77001E+01-4.15279E+01 8.26077E-09 1.49277E+00-1.17651E+01 2.42937E-01
 -1       185 9.94350E+01-6.09792E+01 6.06895E-09 1.43915E+00-1.73360E+01 2.34182E-01
 -1       186 1.29821E+02-7.96332E+01 1.28179E-09 1.36383E+00-2.26645E+01 2.22173E-01
 -1       187 1.58402E+02-9.71605E+01-6.57487E-09 1.27415E+00-2.76765E+01 2.07074E-01
 -1       188 1.84792E+02-1.13340E+02-1.33523E-08 1.16289E+00-3.23023E+01 1.89097E-01
 -1       189 2.08627E+02-1.27952E+02-1.71885E-08 1.03690E+00-3.64776E+01 1.68487E-01
 -1       190 2.29602E+02-1.40840E+02-1.70033E-08 8.93395E-01-4.01442E+01 1.45530E-01
 -1       191 2.47375E+02-1.51725E+02-1.13992E-08 7.45346E-01-4.32510E+01 1.20544E-01
 -1       192 2.61741E+02-1.60538E+02-5.84555E-09 5.77375E-01-4.57546E+01 9.38731E-02
 -1       193 2.72500E+02-1.67153E+02-3.66609E-09 4.10957E-01-4.76201E+01 6.58867E-02
 -1       194 2.79463E+02-1.71395E+02-9.74592E-10 2.32146E-01-4.88212E+01 3.69717E-02
 -1       195 2.82605E+02-1.73345E+02 2.48130E-09 5.19216E-02-4.93409E+01 7.52689E-03
 -1       196 2.81811E+02-1.72834E+02 5.95940E-10-1.28350E-01-4.91715E+01-2.20411E-02
 -1       197 2.77172E+02-1.70019E+02-4.61292E-09-3.09860E-01-4.83150E+01-5.13242E-02
 -1       198 2.68676E+02-1.64789E+02-6.82150E-09-4.78568E-01-4.67826E+01-7.99191E-02
 -1       199 2.56498E+02-1.57323E+02-7.13194E-09-6.50909E-01-4.45952E+01-1.07431E-01
 -1       200 2.40794E+02-1.47693E+02-7.04772E-09-8.04434E-01-4.17824E+01-1.33483E-01
 -1       201 2.21787E+02-1.36036E+02-6.08028E-09-9.55270E-01-3.83824E+01-1.57716E-01
 -1       202 1.99748E+02-1.22521E+02-4.77124E-09-1.08323E+00-3.44416E+01-1.79799E-01
 -1       203 1.74960E+02-1.07286E+02-1.85436E-09-1.20593E+00-3.00138E+01-1.99430E-01
 -1       204 1.47855E+02-9.07041E+01 1.53300E-09-1.30700E+00-2.51593E+01-2.16342E-01
 -1       205 1.18715E+02-7.28105E+01 5.85967E-09-1.38638E+00-1.99443E+01-2.30307E-01
 -1       206 8.80129E+01-5.39779E+01 9.60744E-09-1.45098E+00-1.44397E+01-2.41138E-01
 -1       207 5.61753E+01-3.44571E+01 1.13828E-08-1.49189E+00-8.72049E+00-2.48692E-01
 -1       208 2.36356E+01-1.44879E+01 1.38715E-08-1.51334E+00-2.86424E+00-2.52874E-01
 -1       209-9.11459E+00 5.58922E+00 1.53048E-08-1.51322E+00 3.04974E+00-2.53636E-01
 -1       210-4.16362E+01 2.55432E+01 1.64464E-08-1.48983E+00 8.94158E+00-2.50979E-01
 -1       211-7.34493E+01 4.50610E+01 1.81146E-08-1.44714E+00 1.47320E+01-2.44951E-01
 -1       212-1.04082E+02 6.38332E+01 1.79885E-08-1.38262E+00 2.03434E+01-2.35652E-01
 -1       213-1.33134E+02 8.16748E+01 1.68381E-08-1.29590E+00 2.57012E+01-2.23226E-01
 -1       214-1.60125E+02 9.82124E+01 1.50600E-08-1.19540E+00 3.07345E+01-2.07864E-01
 -1       215-1.84716E+02 1.13318E+02 9.82369E-09-1.07036E+00 3.53775E+01-1.89801E-01
 -1       216-2.06475E+02 1.26640E+02 3.06698E-09-9.39116E-01 3.95703E+01-1.69309E-01
 -1       217-2.25128E+02 1.38088E+02-1.85902E-09-7.79077E-01 4.32598E+01-1.46699E-01
 -1       218-2.40369E+02 1.47453E+02-3.35226E-09-6.20478E-01 4.64005E+01-1.22315E-01
 -1       219-2.51917E+02 1.54520E+02-3.79202E-09-4.41594E-01 4.89554E+01-9.65266E-02
 -1       220-2.59628E+02 1.59277E+02-9.12349E-09-2.62671E-01 5.08962E+01-6.97298E-02
 -1       221-2.63257E+02 1.61455E+02-1.74505E-08-7.28159E-02 5.22043E+01-4.23386E-02
 -1       222-2.62842E+02 1.61263E+02-2.43900E-08 1.23840E-01 5.28707E+01-1.47790E-02
 -1       223-2.58170E+02 1.58356E+02-2.83850E-08 3.09050E-01 5.28965E+01 1.25138E-02
 -1       224-2.49351E+02 1.52953E+02-2.97502E-08 5.11320E-01 5.22932E+01 3.91007E-02
 -1       225-2.36413E+02 1.45045E+02-2.94098E-08 6.94049E-01 5.10821E+01 6.45472E-02
 -1       226-2.19402E+02 1.34593E+02-3.01350E-08 8.81274E-01 4.92951E+01 8.84246E-02
 -1       227-1.98517E+02 1.21796E+02-3.29182E-08 1.05377E+00 4.69735E+01 1.10317E-01
 -1       228-1.73909E+02 1.06704E+02-3.52710E-08 1.22366E+00 4.41684E+01 1.29826E-01
 -1       229-1.45813E+02 8.94800E+01-3.32177E-08 1.37519E+00 4.09397E+01 1.46574E-01
 -1       230-1.14462E+02 7.02338E+01-2.49495E-08 1.52171E+00 3.73561E+01 1.60209E-01
 -1       231-8.01922E+01 4.92474E+01-1.41496E-08 1.65064E+00 3.34940E+01 1.70404E-01
 -1       232-4.32467E+01 2.65833E+01-3.27551E-09 1.76387E+00 2.94372E+01 1.76869E-01
 -1       233-3.97440E+00 2.49491E+00 4.86908E-09 1.86362E+00 2.52757E+01 1.79341E-01
 -1       234 3.72787E+01-2.27823E+01 8.02857E-09 1.94866E+00 2.11055E+01 1.77595E-01
 -1       235 8.02425E+01-4.91629E+01 1.09607E-08 2.01549E+00 1.70272E+01 1.71436E-01
 -1       236 1.24467E+02-7.61974E+01 1.57143E-08 2.07589E+00 1.31457E+01 1.60709E-01
 -1       237 1.69943E+02-1.04283E+02 2.05498E-08 2.10488E+00 9.56916E+00 1.45286E-01
 -1       238 2.15544E+02-1.31585E+02 2.49546E-08 2.15834E+00 6.40816E+00 1.25079E-01
 -1       239 2.63826E+02-1.63473E+02 2.87866E-08 2.10236E+00 3.77535E+00 9.99940E-02
 -1       240 3.04836E+02-1.80618E+02 3.21634E-08 2.36243E+00 1.78438E+00 7.00880E-02
 -1       241 3.72225E+02-2.49549E+02 4.09650E-08 1.48729E+00 5.50504E-01 3.49941E-02
 -1       242 2.91195E+02-1.03050E+02 4.83815E-08 4.58578E+00 1.37424E-01 1.60277E-02
 -1       243 3.25026E-05-1.30831E-05-7.95314E-10 2.36366E-03-6.60673E+01-1.41966E-05
 -1       244 1.35231E-04-7.65447E-05-1.34857E-09 2.43196E-01-6.19281E+01-1.41893E-05
 -1       245 4.33938E-04-2.60463E-04-1.48598E-09 4.54229E-01-5.36584E+01-1.41592E-05
 -1       246 9.02783E-04-5.48649E-04 2.94188E-11 6.34553E-01-4.54172E+01-1.40889E-05
 -1       247 1.51531E-03-9.25186E-04-6.04787E-10 7.85097E-01-3.72330E+01-1.39619E-05
 -1       248 2.24534E-03-1.37295E-03-3.73427E-10 9.04975E-01-2.91428E+01-1.37648E-05
 -1       249 3.06799E-03-1.87826E-03 7.42719E-10 9.99011E-01-2.11911E+01-1.34862E-05
 -1       250 3.95808E-03-2.42503E-03-1.49815E-09 1.05857E+00-1.34278E+01-1.31180E-05
 -1       251 4.88915E-03-2.99513E-03-1.34666E-09 1.09541E+00-5.90680E+00-1.26544E-05
 -1       252 5.84090E-03-3.58012E-03 4.15340E-10 1.10600E+00 1.31495E+00-1.20922E-05
 -1       253 6.78783E-03-4.16142E-03-1.61190E-10 1.08533E+00 8.17971E+00-1.14306E-05
 -1       254 7.70884E-03-4.72644E-03-8.82522E-10 1.04314E+00 1.46299E+01-1.06711E-05
 -1       255 8.58365E-03-5.26325E-03-8.68293E-10 9.76453E-01 2.06095E+01-9.81753E-06
 -1       256 9.39269E-03-5.75868E-03 1.89255E-10 8.92581E-01 2.60651E+01-8.87574E-06
 -1       257 1.01209E-02-6.20672E-03-3.29755E-11 7.90066E-01 3.09476E+01-7.85344E-06
 -1       258 1.07505E-02-6.59299E-03-7.51117E-10 6.63953E-01 3.52126E+01-6.76003E-06
 -1       259 1.12679E-02-6.90951E-03 1.86066E-10 5.30653E-01 3.88219E+01-5.60651E-06
 -1       260 1.16642E-02-7.15366E-03 4.79321E-10 3.82777E-01 4.17440E+01-4.40512E-06
 -1       261 1.19268E-02-7.31373E-03-5.13829E-10 2.25738E-01 4.39546E+01-3.16922E-06
 -1       262 1.20526E-02-7.39239E-03-8.17699E-10 6.44580E-02 4.54379E+01-1.91309E-06
 -1       263 1.20327E-02-7.37941E-03-4.02657E-10-1.09007E-01 4.61863E+01-6.51459E-07
 -1       264 1.18679E-02-7.27862E-03-9.71800E-10-2.72678E-01 4.62009E+01 6.00622E-07
 -1       265 1.15567E-02-7.08775E-03-7.72786E-10-4.46174E-01 4.54919E+01 1.82773E-06
 -1       266 1.11018E-02-6.80905E-03-3.79966E-10-6.05087E-01 4.40783E+01 3.01470E-06
 -1       267 1.05077E-02-6.44489E-03-8.13781E-10-7.70239E-01 4.19877E+01 4.14666E-06
 -1       268 9.77909E-03-5.99618E-03-9.36401E-10-9.11765E-01 3.92566E+01 5.20940E-06
 -1       269 8.93002E-03-5.47803E-03-1.57480E-09-1.04994E+00 3.59291E+01 6.18957E-06
 -1       270 7.96401E-03-4.88422E-03-1.26229E-09-1.17817E+00 3.20572E+01 7.07461E-06
 -1       271 6.89820E-03-4.23074E-03-8.50750E-10-1.28417E+00 2.76997E+01 7.85310E-06
 -1       272 5.74441E-03-3.52319E-03-1.79385E-09-1.37978E+00 2.29216E+01 8.51531E-06
 -1       273 4.51823E-03-2.77103E-03-1.44756E-09-1.45188E+00 1.77934E+01 9.05292E-06
 -1       274 3.23576E-03-1.98455E-03-9.58853E-10-1.50973E+00 1.23896E+01 9.45905E-06
 -1       275 1.91396E-03-1.17352E-03-9.75620E-10-1.54228E+00 6.78849E+00 9.72879E-06
 -1       276 5.71146E-04-3.50354E-04-1.27620E-09-1.55765E+00 1.07066E+00 9.85895E-06
 -1       277-7.75381E-04 4.75653E-04-1.59678E-09-1.55081E+00-4.68200E+00 9.84821E-06
 -1       278-2.10725E-03 1.29279E-03-1.14177E-09-1.52348E+00-1.03874E+01 9.69726E-06
 -1       279-3.40571E-03 2.08873E-03-9.92513E-10-1.47391E+00-1.59645E+01 9.40842E-06
 -1       280-4.65459E-03 2.85547E-03-7.84348E-10-1.40721E+00-2.13340E+01 8.98611E-06
 -1       281-5.83489E-03 3.57855E-03-3.01332E-10-1.31608E+00-2.64198E+01 8.43659E-06
 -1       282-6.93229E-03 4.25185E-03-1.08219E-09-1.21632E+00-3.11500E+01 7.76766E-06
 -1       283-7.93162E-03 4.86522E-03-1.25187E-09-1.08917E+00-3.54576E+01 6.98899E-06
 -1       284-8.81776E-03 5.40822E-03-1.39926E-10-9.56015E-01-3.92817E+01 6.11166E-06
 -1       285-9.58128E-03 5.87749E-03-5.77053E-10-8.01536E-01-4.25684E+01 5.14782E-06
 -1       286-1.02074E-02 6.25943E-03-1.29757E-09-6.43485E-01-4.52711E+01 4.11113E-06
 -1       287-1.06944E-02 6.56088E-03-1.28116E-09-4.75480E-01-4.73516E+01 3.01624E-06
 -1       288-1.10277E-02 6.76316E-03-1.39075E-09-2.92126E-01-4.87802E+01 1.87828E-06
 -1       289-1.12090E-02 6.87475E-03-1.21954E-09-1.22623E-01-4.95367E+01 7.13381E-07
 -1       290-1.12338E-02 6.89084E-03-1.25969E-09 6.74033E-02-4.96099E+01-4.62179E-07
 -1       291-1.11005E-02 6.80830E-03-1.23324E-09 2.42357E-01-4.89983E+01-1.63218E-06
 -1       292-1.08133E-02 6.63252E-03-1.47891E-09 4.24684E-01-4.77101E+01-2.78012E-06
 -1       293-1.03744E-02 6.36294E-03-1.59093E-09 5.90735E-01-4.57629E+01-3.89002E-06
 -1       294-9.79201E-03 6.00656E-03-1.29194E-09 7.58650E-01-4.31832E+01-4.94645E-06
 -1       295-9.07123E-03 5.56325E-03-1.29664E-09 9.08113E-01-4.00067E+01-5.93467E-06
 -1       296-8.22589E-03 5.04567E-03-1.13727E-09 1.04811E+00-3.62772E+01-6.84075E-06
 -1       297-7.26432E-03 4.45521E-03-1.59246E-09 1.17280E+00-3.20464E+01-7.65207E-06
 -1       298-6.20276E-03 3.80479E-03-1.82672E-09 1.28026E+00-2.73728E+01-8.35758E-06
 -1       299-5.05363E-03 3.09969E-03-3.22984E-10 1.37359E+00-2.23210E+01-8.94719E-06
 -1       300-3.83424E-03 2.35162E-03-3.32685E-10 1.44320E+00-1.69613E+01-9.41269E-06
 -1       301-2.56143E-03 1.57127E-03-1.80405E-09 1.49648E+00-1.13678E+01-9.74773E-06
 -1       302-1.25225E-03 7.67880E-04-7.97632E-10 1.52668E+00-5.61823E+00-9.94756E-06
 -1       303 7.42621E-05-4.54038E-05-7.09864E-10 1.53648E+00 2.07691E-01-1.00093E-05
 -1       304 1.40040E-03-8.58986E-04-1.28568E-09 1.52500E+00 6.02906E+00-9.93187E-06
 -1       305 2.70754E-03-1.66083E-03-6.53268E-10 1.49118E+00 1.17651E+01-9.71656E-06
 -1       306 3.97684E-03-2.43879E-03-1.23348E-09 1.43855E+00 1.73360E+01-9.36639E-06
 -1       307 5.19238E-03-3.18502E-03-1.20022E-09 1.36592E+00 2.26645E+01-8.88611E-06
 -1       308 6.33555E-03-3.88604E-03-4.02890E-10 1.27085E+00 2.76765E+01-8.28216E-06
 -1       309 7.39121E-03-4.53328E-03-8.36224E-10 1.16249E+00 3.23023E+01-7.56290E-06
 -1       310 8.34461E-03-5.11771E-03-1.37347E-09 1.03635E+00 3.64776E+01-6.73854E-06
 -1       311 9.18364E-03-5.63326E-03-1.16411E-09 8.97668E-01 4.01442E+01-5.82033E-06
 -1       312 9.89464E-03-6.06875E-03-2.83286E-10 7.40484E-01 4.32510E+01-4.82088E-06
 -1       313 1.04692E-02-6.42119E-03 7.47925E-11 5.82085E-01 4.57546E+01-3.75412E-06
 -1       314 1.08998E-02-6.68598E-03-4.14166E-10 4.05688E-01 4.76201E+01-2.63474E-06
 -1       315 1.11782E-02-6.85547E-03-2.98804E-10 2.32188E-01 4.88212E+01-1.47815E-06
 -1       316 1.13042E-02-6.93376E-03 2.17819E-10 5.17579E-02 4.93409E+01-3.00444E-07
 -1       317 1.12722E-02-6.91313E-03 3.37189E-10-1.28015E-01 4.91715E+01 8.82185E-07
 -1       318 1.10870E-02-6.80082E-03-2.53241E-10-3.04806E-01 4.83150E+01 2.05350E-06
 -1       319 1.07470E-02-6.59146E-03-8.00967E-11-4.83560E-01 4.67826E+01 3.19724E-06
 -1       320 1.02601E-02-6.29298E-03 3.30850E-10-6.45888E-01 4.45952E+01 4.29773E-06
 -1       321 9.63195E-03-5.90777E-03 2.16906E-11-8.08589E-01 4.17824E+01 5.33977E-06
 -1       322 8.87174E-03-5.44155E-03-1.04022E-10-9.51175E-01 3.83824E+01 6.30901E-06
 -1       323 7.99031E-03-4.90107E-03 5.87735E-10-1.09005E+00 3.44416E+01 7.19222E-06
 -1       324 6.99874E-03-4.29159E-03 2.57967E-10-1.20204E+00 3.00138E+01 7.97740E-06
 -1       325 5.91478E-03-3.62851E-03-3.51023E-11-1.30389E+00 2.51593E+01 8.65385E-06
 -1       326 4.74908E-03-2.91266E-03 4.34318E-10-1.38827E+00 1.99443E+01 9.21239E-06
 -1       327 3.52114E-03-2.15950E-03 1.92585E-10-1.44899E+00 1.44397E+01 9.64563E-06
 -1       328 2.24762E-03-1.37864E-03 8.02185E-10-1.49265E+00 8.72049E+00 9.94777E-06
 -1       329 9.46101E-04-5.79928E-04 2.80578E-10-1.51254E+00 2.86424E+00 1.01150E-05
 -1       330-3.63908E-04 2.23150E-04-1.40309E-10-1.51224E+00-3.04974E+00 1.01454E-05
 -1       331-1.66473E-03 1.02128E-03 1.56232E-10-1.49075E+00-8.94158E+00 1.00391E-05
 -1       332-2.93727E-03 1.80199E-03-6.60447E-10-1.44545E+00-1.47320E+01 9.79801E-06
 -1       333-4.16255E-03 2.55287E-03 4.89127E-10-1.38204E+00-2.03434E+01 9.42595E-06
 -1       334-5.32464E-03 3.26652E-03 1.05018E-09-1.29806E+00-2.57012E+01 8.92887E-06
 -1       335-6.40438E-03 3.92810E-03 5.50612E-11-1.19217E+00-3.07345E+01 8.31440E-06
 -1       336-7.38789E-03 4.53219E-03-1.03614E-10-1.07343E+00-3.53775E+01 7.59185E-06
 -1       337-8.25859E-03 5.06536E-03-7.69358E-10-9.31179E-01-3.95703E+01 6.77216E-06
 -1       338-9.00432E-03 5.52287E-03-1.15706E-09-7.87070E-01-4.32598E+01 5.86780E-06
 -1       339-9.61466E-03 5.89812E-03-3.21298E-10-6.15887E-01-4.64005E+01 4.89252E-06
 -1       340-1.00759E-02 6.18007E-03-7.01095E-10-4.46145E-01-4.89554E+01 3.86100E-06
 -1       341-1.03853E-02 6.37136E-03-1.07380E-09-2.57804E-01-5.08962E+01 2.78917E-06
 -1       342-1.05295E-02 6.45738E-03-3.50866E-10-7.26430E-02-5.22043E+01 1.69360E-06
 -1       343-1.05142E-02 6.45102E-03-2.19352E-10 1.18832E-01-5.28707E+01 5.91204E-07
 -1       344-1.03261E-02 6.33345E-03-3.40989E-11 3.18609E-01-5.28965E+01-5.00478E-07
 -1       345-9.97484E-03 6.11884E-03 7.02350E-12 5.01649E-01-5.22932E+01-1.56387E-06
 -1       346-9.45584E-03 5.80100E-03 2.56824E-10 6.98402E-01-5.10821E+01-2.58164E-06
 -1       347-8.77730E-03 5.38477E-03 3.75639E-10 8.77141E-01-4.92951E+01-3.53671E-06
 -1       348-7.93992E-03 4.87088E-03-4.09024E-10 1.05712E+00-4.69735E+01-4.41234E-06
 -1       349-6.95815E-03 4.26971E-03-3.32946E-10 1.22019E+00-4.41684E+01-5.19263E-06
 -1       350-5.83152E-03 3.57793E-03 3.14746E-11 1.38010E+00-4.09397E+01-5.86248E-06
 -1       351-4.58100E-03 2.81156E-03 1.93266E-10 1.51858E+00-3.73561E+01-6.40779E-06
 -1       352-3.20617E-03 1.96807E-03 8.84631E-10 1.64886E+00-3.34940E+01-6.81555E-06
 -1       353-1.73342E-03 1.06650E-03 7.42588E-10 1.76432E+00-2.94372E+01-7.07399E-06
 -1       354-1.56568E-04 9.70481E-05 1.56922E-10 1.86316E+00-2.52757E+01-7.17277E-06
 -1       355 1.48627E-03-9.06851E-04 1.62384E-10 1.94757E+00-2.11055E+01-7.10288E-06
 -1       356 3.21341E-03-1.97057E-03 4.08371E-10 2.01657E+00-1.70272E+01-6.85660E-06
 -1       357 4.97216E-03-3.04186E-03 3.44906E-10 2.07046E+00-1.31457E+01-6.42747E-06
 -1       358 6.80297E-03-4.17686E-03-2.56637E-11 2.11035E+00-9.56916E+00-5.81038E-06
 -1       359 8.61393E-03-5.25622E-03 1.31142E-10 2.15379E+00-6.40816E+00-5.00209E-06
 -1       360 1.05578E-02-6.54368E-03 4.13619E-10 2.10175E+00-3.77535E+00-3.99871E-06
 -1       361 1.21923E-02-7.22407E-03 1.99898E-10 2.36768E+00-1.78438E+00-2.80211E-06
 -1       362 1.48686E-02-9.96588E-03 1.65104E-10 1.48432E+00-5.50504E-01-1.39930E-06
 -1       363 1.16912E-02-4.15272E-03 2.05235E-10 4.59158E+00-1.37424E-01-6.41873E-07
 -1       364 3.25010E-05-1.30989E-05 7.95314E-10 2.36364E-03 6.60673E+01 1.41972E-05
 -1       365 1.35231E-04-7.65577E-05 1.34857E-09 2.43196E-01 6.19281E+01 1.41899E-05
 -1       366 4.33939E-04-2.60450E-04 1.48598E-09 4.54229E-01 5.36584E+01 1.41598E-05
 -1       367 9.02779E-04-5.48654E-04-2.94188E-11 6.34554E-01 4.54172E+01 1.40895E-05
 -1       368 1.51531E-03-9.25173E-04 6.04787E-10 7.85097E-01 3.72330E+01 1.39625E-05
 -1       369 2.24534E-03-1.37296E-03 3.73427E-10 9.04975E-01 2.91428E+01 1.37654E-05
 -1       370 3.06798E-03-1.87826E-03-7.42719E-10 9.99011E-01 2.11911E+01 1.34868E-05
 -1       371 3.95808E-03-2.42503E-03 1.49815E-09 1.05857E+00 1.34278E+01 1.31186E-05
 -1       372 4.88915E-03-2.99513E-03 1.34666E-09 1.09541E+00 5.90680E+00 1.26550E-05
 -1       373 5.84090E-03-3.58014E-03-4.15340E-10 1.10600E+00-1.31495E+00 1.20928E-05
 -1       374 6.78783E-03-4.16143E-03 1.61190E-10 1.08533E+00-8.17971E+00 1.14312E-05
 -1       375 7.70884E-03-4.72643E-03 8.82522E-10 1.04314E+00-1.46299E+01 1.06717E-05
 -1       376 8.58365E-03-5.26324E-03 8.68293E-10 9.76453E-01-2.06095E+01 9.81809E-06
 -1       377 9.39268E-03-5.75869E-03-1.89255E-10 8.92581E-01-2.60651E+01 8.87630E-06
 -1       378 1.01209E-02-6.20673E-03 3.29755E-11 7.90066E-01-3.09476E+01 7.85400E-06
 -1       379 1.07505E-02-6.59300E-03 7.51117E-10 6.63953E-01-3.52126E+01 6.76058E-06
 -1       380 1.12679E-02-6.90949E-03-1.86066E-10 5.30653E-01-3.88219E+01 5.60706E-06
 -1       381 1.16642E-02-7.15365E-03-4.79321E-10 3.82777E-01-4.17440E+01 4.40566E-06
 -1       382 1.19268E-02-7.31373E-03 5.13829E-10 2.25738E-01-4.39546E+01 3.16977E-06
 -1       383 1.20526E-02-7.39239E-03 8.17699E-10 6.44580E-02-4.54379E+01 1.91363E-06
 -1       384 1.20327E-02-7.37940E-03 4.02657E-10-1.09007E-01-4.61863E+01 6.51987E-07
 -1       385 1.18679E-02-7.27862E-03 9.71800E-10-2.72678E-01-4.62009E+01-6.00104E-07
 -1       386 1.15567E-02-7.08775E-03 7.72786E-10-4.46174E-01-4.54919E+01-1.82723E-06
 -1       387 1.11018E-02-6.80904E-03 3.79966E-10-6.05087E-01-4.40783E+01-3.01420E-06
 -1       388 1.05077E-02-6.44490E-03 8.13781E-10-7.70239E-01-4.19877E+01-4.14617E-06
 -1       389 9.77909E-03-5.99619E-03 9.36401E-10-9.11765E-01-3.92566E+01-5.20892E-06
 -1       390 8.93002E-03-5.47801E-03 1.57480E-09-1.04994E+00-3.59291E+01-6.18909E-06
 -1       391 7.96401E-03-4.88420E-03 1.26229E-09-1.17817E+00-3.20572E+01-7.07415E-06
 -1       392 6.89819E-03-4.23075E-03 8.50750E-10-1.28417E+00-2.76997E+01-7.85264E-06
 -1       393 5.74440E-03-3.52319E-03 1.79385E-09-1.37978E+00-2.29216E+01-8.51487E-06
 -1       394 4.51822E-03-2.77102E-03 1.44756E-09-1.45188E+00-1.77934E+01-9.05249E-06
 -1       395 3.23576E-03-1.98454E-03 9.58853E-10-1.50973E+00-1.23896E+01-9.45863E-06
 -1       396 1.91395E-03-1.17352E-03 9.75620E-10-1.54228E+00-6.78849E+00-9.72839E-06
 -1       397 5.71140E-04-3.50340E-04 1.27620E-09-1.55765E+00-1.07066E+00-9.85856E-06
 -1       398-7.75387E-04 4.75653E-04 1.59678E-09-1.55081E+00 4.68200E+00-9.84783E-06
 -1       399-2.10725E-03 1.29279E-03 1.14177E-09-1.52348E+00 1.03874E+01-9.69689E-06
 -1       400-3.40571E-03 2.08873E-03 9.92513E-10-1.47391E+00 1.59645E+01-9.40806E-06
 -1       401-4.65460E-03 2.85547E-03 7.84348E-10-1.40721E+00 2.13340E+01-8.98576E-06
 -1       402-5.83490E-03 3.57856E-03 3.01332E-10-1.31608E+00 2.64198E+01-8.43625E-06
 -1       403-6.93229E-03 4.25185E-03 1.08219E-09-1.21632E+00 3.11500E+01-7.76732E-06
 -1       404-7.93163E-03 4.86521E-03 1.25187E-09-1.08917E+00 3.54576E+01-6.98866E-06
 -1       405-8.81777E-03 5.40823E-03 1.39926E-10-9.56015E-01 3.92817E+01-6.11135E-06
 -1       406-9.58128E-03 5.87750E-03 5.77053E-10-8.01536E-01 4.25684E+01-5.14752E-06
 -1       407-1.02074E-02 6.25943E-03 1.29757E-09-6.43485E-01 4.52711E+01-4.11084E-06
 -1       408-1.06945E-02 6.56088E-03 1.28116E-09-4.75480E-01 4.73516E+01-3.01596E-06
 -1       409-1.10277E-02 6.76317E-03 1.39075E-09-2.92126E-01 4.87802E+01-1.87802E-06
 -1       410-1.12090E-02 6.87476E-03 1.21954E-09-1.22623E-01 4.95367E+01-7.13134E-07
 -1       411-1.12338E-02 6.89083E-03 1.25969E-09 6.74032E-02 4.96099E+01 4.62410E-07
 -1       412-1.11005E-02 6.80831E-03 1.23324E-09 2.42357E-01 4.89983E+01 1.63239E-06
 -1       413-1.08133E-02 6.63252E-03 1.47891E-09 4.24683E-01 4.77101E+01 2.78032E-06
 -1       414-1.03744E-02 6.36294E-03 1.59093E-09 5.90735E-01 4.57629E+01 3.89021E-06
 -1       415-9.79202E-03 6.00657E-03 1.29194E-09 7.58650E-01 4.31832E+01 4.94662E-06
 -1       416-9.07123E-03 5.56325E-03 1.29664E-09 9.08113E-01 4.00067E+01 5.93483E-06
 -1       417-8.22590E-03 5.04567E-03 1.13727E-09 1.04811E+00 3.62772E+01 6.84089E-06
 -1       418-7.26432E-03 4.45521E-03 1.59246E-09 1.17280E+00 3.20464E+01 7.65221E-06
 -1       419-6.20276E-03 3.80480E-03 1.82672E-09 1.28026E+00 2.73728E+01 8.35770E-06
 -1       420-5.05364E-03 3.09969E-03 3.22984E-10 1.37359E+00 2.23210E+01 8.94731E-06
 -1       421-3.83425E-03 2.35162E-03 3.32685E-10 1.44320E+00 1.69613E+01 9.41280E-06
 -1       422-2.56143E-03 1.57127E-03 1.80405E-09 1.49648E+00 1.13678E+01 9.74782E-06
 -1       423-1.25225E-03 7.67888E-04 7.97632E-10 1.52668E+00 5.61823E+00 9.94765E-06
 -1       424 7.42568E-05-4.54081E-05 7.09864E-10 1.53648E+00-2.07691E-01 1.00093E-05
 -1       425 1.40039E-03-8.58969E-04 1.28568E-09 1.52500E+00-6.02906E+00 9.93195E-06
 -1       426 2.70754E-03-1.66083E-03 6.53268E-10 1.49118E+00-1.17651E+01 9.71662E-06
 -1       427 3.97683E-03-2.43879E-03 1.23348E-09 1.43855E+00-1.73360E+01 9.36644E-06
 -1       428 5.19238E-03-3.18502E-03 1.20022E-09 1.36592E+00-2.26645E+01 8.88615E-06
 -1       429 6.33554E-03-3.88604E-03 4.02890E-10 1.27085E+00-2.76765E+01 8.28220E-06
 -1       430 7.39121E-03-4.53328E-03 8.36224E-10 1.16249E+00-3.23023E+01 7.56293E-06
 -1       431 8.34461E-03-5.11771E-03 1.37347E-09 1.03635E+00-3.64776E+01 6.73856E-06
 -1       432 9.18364E-03-5.63326E-03 1.16411E-09 8.97668E-01-4.01442E+01 5.82034E-06
 -1       433 9.89463E-03-6.06874E-03 2.83286E-10 7.40484E-01-4.32510E+01 4.82089E-06
 -1       434 1.04692E-02-6.42120E-03-7.47925E-11 5.82085E-01-4.57546E+01 3.75413E-06
 -1       435 1.08998E-02-6.68598E-03 4.14166E-10 4.05688E-01-4.76201E+01 2.63474E-06
 -1       436 1.11782E-02-6.85548E-03 2.98804E-10 2.32188E-01-4.88212E+01 1.47816E-06
 -1       437 1.13042E-02-6.93376E-03-2.17819E-10 5.17579E-02-4.93409E+01 3.00446E-07
 -1       438 1.12722E-02-6.91312E-03-3.37189E-10-1.28015E-01-4.91715E+01-8.82184E-07
 -1       439 1.10870E-02-6.80082E-03 2.53241E-10-3.04806E-01-4.83150E+01-2.05350E-06
 -1       440 1.07470E-02-6.59146E-03 8.00967E-11-4.83560E-01-4.67826E+01-3.19724E-06
 -1       441 1.02601E-02-6.29298E-03-3.30850E-10-6.45888E-01-4.45952E+01-4.29773E-06
 -1       442 9.63195E-03-5.90776E-03-2.16906E-11-8.08589E-01-4.17824E+01-5.33976E-06
 -1       443 8.87174E-03-5.44156E-03 1.04022E-10-9.51175E-01-3.83824E+01-6.30901E-06
 -1       444 7.99031E-03-4.90108E-03-5.87735E-10-1.09005E+00-3.44416E+01-7.19221E-06
 -1       445 6.99875E-03-4.29159E-03-2.57967E-10-1.20204E+00-3.00138E+01-7.97738E-06
 -1       446 5.91478E-03-3.62850E-03 3.51023E-11-1.30389E+00-2.51593E+01-8.65383E-06
 -1       447 4.74908E-03-2.91267E-03-4.34318E-10-1.38827E+00-1.99443E+01-9.21237E-06
 -1       448 3.52114E-03-2.15949E-03-1.92585E-10-1.44899E+00-1.44397E+01-9.64561E-06
 -1       449 2.24762E-03-1.37864E-03-8.02185E-10-1.49265E+00-8.72049E+00-9.94775E-06
 -1       450 9.46101E-04-5.79932E-04-2.80578E-10-1.51254E+00-2.86424E+00-1.01150E-05
 -1       451-3.63907E-04 2.23151E-04 1.40309E-10-1.51224E+00 3.04974E+00-1.01454E-05
 -1       452-1.66473E-03 1.02128E-03-1.56232E-10-1.49075E+00 8.94158E+00-1.00391E-05
 -1       453-2.93727E-03 1.80199E-03 6.60447E-10-1.44545E+00 1.47320E+01-9.79799E-06
 -1       454-4.16255E-03 2.55286E-03-4.89127E-10-1.38204E+00 2.03434E+01-9.42592E-06
 -1       455-5.32464E-03 3.26651E-03-1.05018E-09-1.29806E+00 2.57012E+01-8.92885E-06
 -1       456-6.40438E-03 3.92810E-03-5.50612E-11-1.19217E+00 3.07345E+01-8.31438E-06
 -1       457-7.38789E-03 4.53220E-03 1.03614E-10-1.07343E+00 3.53775E+01-7.59183E-06
 -1       458-8.25859E-03 5.06537E-03 7.69358E-10-9.31179E-01 3.95703E+01-6.77214E-06
 -1       459-9.00432E-03 5.52287E-03 1.15706E-09-7.87070E-01 4.32598E+01-5.86778E-06
 -1       460-9.61466E-03 5.89812E-03 3.21298E-10-6.15887E-01 4.64005E+01-4.89251E-06
 -1       461-1.00759E-02 6.18007E-03 7.01095E-10-4.46145E-01 4.89554E+01-3.86100E-06
 -1       462-1.03853E-02 6.37136E-03 1.07380E-09-2.57804E-01 5.08962E+01-2.78917E-06
 -1       463-1.05295E-02 6.45739E-03 3.50866E-10-7.26431E-02 5.22043E+01-1.69361E-06
 -1       464-1.05142E-02 6.45103E-03 2.19352E-10 1.18832E-01 5.28707E+01-5.91217E-07
 -1       465-1.03261E-02 6.33344E-03 3.40989E-11 3.18609E-01 5.28965E+01 5.00462E-07
 -1       466-9.97484E-03 6.11884E-03-7.02350E-12 5.01649E-01 5.22932E+01 1.56385E-06
 -1       467-9.45584E-03 5.80100E-03-2.56824E-10 6.98402E-01 5.10821E+01 2.58162E-06
 -1       468-8.77730E-03 5.38477E-03-3.75639E-10 8.77141E-01 4.92951E+01 3.53668E-06
 -1       469-7.93992E-03 4.87088E-03 4.09024E-10 1.05712E+00 4.69735E+01 4.41231E-06
 -1       470-6.95815E-03 4.26971E-03 3.32946E-10 1.22019E+00 4.41684E+01 5.19260E-06
 -1       471-5.83152E-03 3.57793E-03-3.14746E-11 1.38010E+00 4.09397E+01 5.86245E-06
 -1       472-4.58100E-03 2.81157E-03-1.93266E-10 1.51858E+00 3.73561E+01 6.40776E-06
 -1       473-3.20617E-03 1.96807E-03-8.84631E-10 1.64886E+00 3.34940E+01 6.81553E-06
 -1       474-1.73342E-03 1.06650E-03-7.42588E-10 1.76432E+00 2.94372E+01 7.07397E-06
 -1       475-1.56564E-04 9.70473E-05-1.56922E-10 1.86316E+00 2.52757E+01 7.17275E-06
 -1       476 1.48627E-03-9.06850E-04-1.62384E-10 1.94757E+00 2.11055E+01 7.10287E-06
 -1       477 3.21341E-03-1.97057E-03-4.08371E-10 2.01657E+00 1.70272E+01 6.85659E-06
 -1       478 4.97216E-03-3.04187E-03-3.44906E-10 2.07046E+00 1.31457E+01 6.42746E-06
 -1       479 6.80297E-03-4.17686E-03 2.56637E-11 2.11035E+00 9.56916E+00 5.81037E-06
 -1       480 8.61393E-03-5.25622E-03-1.31142E-10 2.15379E+00 6.40816E+00 5.00209E-06
 -1       481 1.05578E-02-6.54368E-03-4.13619E-10 2.10175E+00 3.77535E+00 3.99871E-06
 -1       482 1.21923E-02-7.22407E-03-1.99898E-10 2.36768E+00 1.78438E+00 2.80210E-06
 -1       483 1.48686E-02-9.96588E-03-1.65104E-10 1.48432E+00 5.50504E-01 1.39929E-06
 -1       484 1.16912E-02-4.15272E-03-2.05235E-10 4.59158E+00 1.37424E-01 6.41872E-07
 -1       485-7.72367E-01 3.01620E-01-9.72993E-10 2.47653E-03-6.60673E+01 3.54908E-01
 -1       486-3.36597E+00 1.90138E+00 1.97117E-09 2.43536E-01-6.19281E+01 3.54729E-01
 -1       487-1.08411E+01 6.50632E+00 1.09503E-08 4.54123E-01-5.36584E+01 3.53977E-01
 -1       488-2.25588E+01 1.37075E+01 2.33828E-08 6.34668E-01-4.54172E+01 3.52220E-01
 -1       489-3.78773E+01 2.31258E+01 3.25587E-08 7.85221E-01-3.72330E+01 3.49048E-01
 -1       490-5.61255E+01 3.43174E+01 3.56739E-08 9.07532E-01-2.91428E+01 3.44120E-01
 -1       491-7.66968E+01 4.69549E+01 3.68357E-08 9.96680E-01-2.11911E+01 3.37158E-01
 -1       492-9.89462E+01 6.06211E+01 3.54264E-08 1.06276E+00-1.34278E+01 3.27953E-01
 -1       493-1.22229E+02 7.48787E+01 3.56137E-08 1.09645E+00-5.90680E+00 3.16364E-01
 -1       494-1.46020E+02 8.95009E+01 3.46920E-08 1.10107E+00 1.31495E+00 3.02309E-01
 -1       495-1.69697E+02 1.04037E+02 2.87694E-08 1.08544E+00 8.17971E+00 2.85768E-01
 -1       496-1.92721E+02 1.18161E+02 2.47302E-08 1.04334E+00 1.46299E+01 2.66781E-01
 -1       497-2.14593E+02 1.31583E+02 2.08934E-08 9.80493E-01 2.06095E+01 2.45444E-01
 -1       498-2.34818E+02 1.43968E+02 1.80784E-08 8.93127E-01 2.60651E+01 2.21901E-01
 -1       499-2.53025E+02 1.55171E+02 1.34878E-08 7.85747E-01 3.09476E+01 1.96344E-01
 -1       500-2.68763E+02 1.64826E+02 5.89090E-09 6.68988E-01 3.52126E+01 1.69011E-01
 -1       501-2.81702E+02 1.72743E+02-5.94289E-10 5.30913E-01 3.88219E+01 1.40175E-01
 -1       502-2.91605E+02 1.78842E+02-5.40337E-09 3.82967E-01 4.17440E+01 1.10143E-01
 -1       503-2.98175E+02 1.82849E+02-9.37098E-09 2.25855E-01 4.39546E+01 7.92476E-02
 -1       504-3.01314E+02 1.84810E+02-1.02922E-08 5.89139E-02 4.54379E+01 4.78440E-02
 -1       505-3.00822E+02 1.84489E+02-7.26092E-09-1.03311E-01 4.61863E+01 1.63023E-02
 -1       506-2.96698E+02 1.81968E+02-2.12851E-09-2.78379E-01 4.62009E+01-1.49979E-02
 -1       507-2.88918E+02 1.77196E+02 5.70334E-09-4.40939E-01 4.54919E+01-4.56744E-02
 -1       508-2.77548E+02 1.70230E+02 1.25779E-08-6.10374E-01 4.40783E+01-7.53476E-02
 -1       509-2.62691E+02 1.61121E+02 1.44853E-08-7.60867E-01 4.19877E+01-1.03647E-01
 -1       510-2.44480E+02 1.49909E+02 1.39260E-08-9.16762E-01 3.92566E+01-1.30215E-01
 -1       511-2.23245E+02 1.36947E+02 1.29683E-08-1.05446E+00 3.59291E+01-1.54716E-01
 -1       512-1.99101E+02 1.22108E+02 1.51562E-08-1.17479E+00 3.20572E+01-1.76839E-01
 -1       513-1.72449E+02 1.05765E+02 1.66026E-08-1.28769E+00 2.76997E+01-1.96303E-01
 -1       514-1.43608E+02 8.80800E+01 1.45592E-08-1.37749E+00 2.29216E+01-2.12859E-01
 -1       515-1.12950E+02 6.92721E+01 1.18314E-08-1.45435E+00 1.77934E+01-2.26298E-01
 -1       516-8.08898E+01 4.96116E+01 9.16296E-09-1.50739E+00 1.23896E+01-2.36453E-01
 -1       517-4.78421E+01 2.93337E+01 5.99760E-09-1.54479E+00 6.78849E+00-2.43197E-01
 -1       518-1.42724E+01 8.75508E+00 1.93994E-09-1.55779E+00 1.07066E+00-2.46451E-01
 -1       519 1.93924E+01-1.18965E+01 9.02417E-10-1.55152E+00-4.68200E+00-2.46183E-01
 -1       520 5.26887E+01-3.23245E+01 9.03294E-10-1.52290E+00-1.03874E+01-2.42408E-01
 -1       521 8.51511E+01-5.22239E+01 7.15541E-10-1.47592E+00-1.59645E+01-2.35188E-01
 -1       522 1.16373E+02-7.13926E+01 4.47642E-09-1.40538E+00-2.13340E+01-2.24632E-01
 -1       523 1.45880E+02-8.94688E+01 1.05740E-08-1.32208E+00-2.64198E+01-2.10896E-01
 -1       524 1.73318E+02-1.06305E+02 1.59045E-08-1.21055E+00-3.11500E+01-1.94176E-01
 -1       525 1.98296E+02-1.21634E+02 2.13894E-08-1.09293E+00-3.54576E+01-1.74710E-01
 -1       526 2.20456E+02-1.35216E+02 2.53976E-08-9.52295E-01-3.92817E+01-1.52775E-01
 -1       527 2.39534E+02-1.46938E+02 2.43197E-08-8.06302E-01-4.25684E+01-1.28681E-01
 -1       528 2.55197E+02-1.56496E+02 1.95723E-08-6.43656E-01-4.52711E+01-1.02766E-01
 -1       529 2.67363E+02-1.64023E+02 1.45440E-08-4.70526E-01-4.73516E+01-7.53932E-02
 -1       530 2.75701E+02-1.69087E+02 7.86332E-09-3.02877E-01-4.87802E+01-4.69470E-02
 -1       531 2.80227E+02-1.71871E+02-1.80914E-09-1.11890E-01-4.95367E+01-1.78257E-02
 -1       532 2.80848E+02-1.72275E+02-1.09908E-08 6.19453E-02-4.96099E+01 1.15644E-02
 -1       533 2.77515E+02-1.70211E+02-1.50097E-08 2.47694E-01-4.89983E+01 4.08123E-02
 -1       534 2.70331E+02-1.65813E+02-1.79798E-08 4.19795E-01-4.77101E+01 6.95098E-02
 -1       535 2.59362E+02-1.59077E+02-2.21516E-08 5.95816E-01-4.57629E+01 9.72563E-02
 -1       536 2.44796E+02-1.50161E+02-2.35159E-08 7.54078E-01-4.31832E+01 1.23665E-01
 -1       537 2.26781E+02-1.39084E+02-1.96229E-08 9.08647E-01-4.00067E+01 1.48368E-01
 -1       538 2.05640E+02-1.26137E+02-1.39138E-08 1.04850E+00-3.62772E+01 1.71019E-01
 -1       539 1.81605E+02-1.11380E+02-9.23406E-09 1.17344E+00-3.20464E+01 1.91304E-01
 -1       540 1.55059E+02-9.51141E+01-4.38157E-09 1.28347E+00-2.73728E+01 2.08940E-01
 -1       541 1.26334E+02-7.74897E+01 2.28600E-09 1.37162E+00-2.23210E+01 2.23680E-01
 -1       542 9.58456E+01-5.87840E+01 6.60357E-09 1.44536E+00-1.69613E+01 2.35319E-01
 -1       543 6.40265E+01-3.92766E+01 6.61891E-09 1.49570E+00-1.13678E+01 2.43694E-01
 -1       544 3.12944E+01-1.91898E+01 7.08501E-09 1.52737E+00-5.61823E+00 2.48688E-01
 -1       545-1.86762E+00 1.14162E+00 6.89585E-09 1.53719E+00 2.07691E-01 2.50230E-01
 -1       546-3.50234E+01 2.14832E+01 6.83325E-09 1.52476E+00 6.02906E+00 2.48298E-01
 -1       547-6.77001E+01 4.15279E+01 6.95423E-09 1.49283E+00 1.17651E+01 2.42918E-01
 -1       548-9.94350E+01 6.09792E+01 3.60198E-09 1.43921E+00 1.73360E+01 2.34163E-01
 -1       549-1.29821E+02 7.96332E+01-1.11864E-09 1.36388E+00 2.26645E+01 2.22155E-01
 -1       550-1.58402E+02 9.71604E+01-7.38065E-09 1.27420E+00 2.76765E+01 2.07058E-01
 -1       551-1.84792E+02 1.13340E+02-1.50247E-08 1.16294E+00 3.23023E+01 1.89081E-01
 -1       552-2.08627E+02 1.27952E+02-1.99354E-08 1.03694E+00 3.64776E+01 1.68473E-01
 -1       553-2.29602E+02 1.40840E+02-1.93315E-08 8.93431E-01 4.01442E+01 1.45518E-01
 -1       554-2.47375E+02 1.51725E+02-1.19657E-08 7.45376E-01 4.32510E+01 1.20534E-01
 -1       555-2.61741E+02 1.60538E+02-5.69597E-09 5.77398E-01 4.57546E+01 9.38656E-02
 -1       556-2.72500E+02 1.67153E+02-4.49442E-09 4.10974E-01 4.76201E+01 6.58815E-02
 -1       557-2.79463E+02 1.71395E+02-1.57220E-09 2.32156E-01 4.88212E+01 3.69687E-02
 -1       558-2.82605E+02 1.73345E+02 2.91694E-09 5.19242E-02 4.93409E+01 7.52629E-03
 -1       559-2.81811E+02 1.72834E+02 1.27032E-09-1.28355E-01 4.91715E+01-2.20393E-02
 -1       560-2.77172E+02 1.70019E+02-5.11940E-09-3.09872E-01 4.83150E+01-5.13201E-02
 -1       561-2.68676E+02 1.64789E+02-6.98170E-09-4.78586E-01 4.67826E+01-7.99127E-02
 -1       562-2.56498E+02 1.57323E+02-6.47024E-09-6.50935E-01 4.45952E+01-1.07423E-01
 -1       563-2.40794E+02 1.47693E+02-7.00434E-09-8.04465E-01 4.17824E+01-1.33472E-01
 -1       564-2.21787E+02 1.36036E+02-6.28832E-09-9.55307E-01 3.83824E+01-1.57704E-01
 -1       565-1.99748E+02 1.22521E+02-3.59577E-09-1.08327E+00 3.44416E+01-1.79785E-01
 -1       566-1.74960E+02 1.07286E+02-1.33842E-09-1.20598E+00 3.00138E+01-1.99414E-01
 -1       567-1.47855E+02 9.07040E+01 1.46279E-09-1.30705E+00 2.51593E+01-2.16325E-01
 -1       568-1.18715E+02 7.28105E+01 6.72830E-09-1.38644E+00 1.99443E+01-2.30289E-01
 -1       569-8.80129E+01 5.39779E+01 9.99261E-09-1.45104E+00 1.44397E+01-2.41119E-01
 -1       570-5.61753E+01 3.44571E+01 1.29872E-08-1.49195E+00 8.72049E+00-2.48672E-01
 -1       571-2.36356E+01 1.44879E+01 1.44327E-08-1.51340E+00 2.86424E+00-2.52854E-01
 -1       572 9.11459E+00-5.58921E+00 1.50241E-08-1.51328E+00-3.04974E+00-2.53616E-01
 -1       573 4.16362E+01-2.55432E+01 1.67589E-08-1.48988E+00-8.94158E+00-2.50959E-01
 -1       574 7.34493E+01-4.50610E+01 1.67938E-08-1.44720E+00-1.47320E+01-2.44931E-01
 -1       575 1.04082E+02-6.38332E+01 1.89668E-08-1.38267E+00-2.03434E+01-2.35633E-01
 -1       576 1.33134E+02-8.16748E+01 1.89385E-08-1.29595E+00-2.57012E+01-2.23208E-01
 -1       577 1.60125E+02-9.82124E+01 1.51701E-08-1.19545E+00-3.07345E+01-2.07848E-01
 -1       578 1.84716E+02-1.13318E+02 9.61646E-09-1.07040E+00-3.53775E+01-1.89785E-01
 -1       579 2.06475E+02-1.26640E+02 1.52826E-09-9.39154E-01-3.95703E+01-1.69295E-01
 -1       580 2.25128E+02-1.38088E+02-4.17315E-09-7.79108E-01-4.32598E+01-1.46688E-01
 -1       581 2.40369E+02-1.47453E+02-3.99485E-09-6.20504E-01-4.64005E+01-1.22305E-01
 -1       582 2.51917E+02-1.54520E+02-5.19421E-09-4.41612E-01-4.89554E+01-9.65189E-02
 -1       583 2.59628E+02-1.59277E+02-1.12711E-08-2.62683E-01-5.08962E+01-6.97243E-02
 -1       584 2.63257E+02-1.61455E+02-1.81522E-08-7.28190E-02-5.22043E+01-4.23352E-02
 -1       585 2.62842E+02-1.61263E+02-2.48287E-08 1.23844E-01-5.28707E+01-1.47778E-02
 -1       586 2.58170E+02-1.58356E+02-2.84532E-08 3.09062E-01-5.28965E+01 1.25128E-02
 -1       587 2.49351E+02-1.52953E+02-2.97361E-08 5.11339E-01-5.22932E+01 3.90976E-02
 -1       588 2.36413E+02-1.45045E+02-2.88961E-08 6.94077E-01-5.10821E+01 6.45420E-02
 -1       589 2.19402E+02-1.34593E+02-2.93837E-08 8.81308E-01-4.92951E+01 8.84175E-02
 -1       590 1.98517E+02-1.21796E+02-3.37362E-08 1.05381E+00-4.69735E+01 1.10308E-01
 -1       591 1.73909E+02-1.06704E+02-3.59369E-08 1.22370E+00-4.41684E+01 1.29816E-01
 -1       592 1.45813E+02-8.94800E+01-3.31548E-08 1.37525E+00-4.09397E+01 1.46563E-01
 -1       593 1.14462E+02-7.02338E+01-2.45630E-08 1.52177E+00-3.73561E+01 1.60196E-01
 -1       594 8.01922E+01-4.92474E+01-1.23804E-08 1.65070E+00-3.34940E+01 1.70391E-01
 -1       595 4.32467E+01-2.65832E+01-1.79034E-09 1.76394E+00-2.94372E+01 1.76855E-01
 -1       596 3.97439E+00-2.49491E+00 5.18292E-09 1.86370E+00-2.52757E+01 1.79327E-01
 -1       597-3.72787E+01 2.27823E+01 8.35333E-09 1.94873E+00-2.11055E+01 1.77581E-01
 -1       598-8.02425E+01 4.91629E+01 1.17774E-08 2.01557E+00-1.70272E+01 1.71423E-01
 -1       599-1.24467E+02 7.61974E+01 1.64041E-08 2.07597E+00-1.31457E+01 1.60696E-01
 -1       600-1.69943E+02 1.04283E+02 2.04985E-08 2.10497E+00-9.56916E+00 1.45274E-01
 -1       601-2.15544E+02 1.31585E+02 2.52169E-08 2.15842E+00-6.40816E+00 1.25069E-01
 -1       602-2.63826E+02 1.63473E+02 2.96138E-08 2.10246E+00-3.77535E+00 9.99860E-02
 -1       603-3.04837E+02 1.80619E+02 3.25632E-08 2.36251E+00-1.78438E+00 7.00824E-02
 -1       604-3.72222E+02 2.49546E+02 4.12952E-08 1.48739E+00-5.50504E-01 3.49913E-02
 -1       605-2.91199E+02 1.03058E+02 4.87920E-08 4.58528E+00-1.37424E-01 1.60264E-02
 -1       606-7.72367E-01 3.01620E-01 9.72993E-10 2.47652E-03 6.60673E+01-3.54908E-01
 -1       607-3.36597E+00 1.90138E+00-1.97117E-09 2.43536E-01 6.19281E+01-3.54729E-01
 -1       608-1.08411E+01 6.50632E+00-1.09503E-08 4.54124E-01 5.36584E+01-3.53977E-01
 -1       609-2.25588E+01 1.37075E+01-2.33828E-08 6.34668E-01 4.54172E+01-3.52220E-01
 -1       610-3.78773E+01 2.31258E+01-3.25587E-08 7.85221E-01 3.72330E+01-3.49048E-01
 -1       611-5.61255E+01 3.43174E+01-3.56739E-08 9.07532E-01 2.91428E+01-3.44120E-01
 -1       612-7.66968E+01 4.69549E+01-3.68357E-08 9.96680E-01 2.11911E+01-3.37158E-01
 -1       613-9.89462E+01 6.06211E+01-3.54264E-08 1.06276E+00 1.34278E+01-3.27953E-01
 -1       614-1.22229E+02 7.48787E+01-3.56137E-08 1.09645E+00 5.90680E+00-3.16364E-01
 -1       615-1.46020E+02 8.95009E+01-3.46920E-08 1.10107E+00-1.31495E+00-3.02309E-01
 -1       616-1.69697E+02 1.04037E+02-2.87694E-08 1.08544E+00-8.17971E+00-2.85768E-01
 -1       617-1.92721E+02 1.18161E+02-2.47302E-08 1.04334E+00-1.46299E+01-2.66781E-01
 -1       618-2.14593E+02 1.31583E+02-2.08934E-08 9.80493E-01-2.06095E+01-2.45444E-01
 -1       619-2.34818E+02 1.43968E+02-1.80784E-08 8.93127E-01-2.60651E+01-2.21901E-01
 -1       620-2.53025E+02 1.55171E+02-1.34878E-08 7.85747E-01-3.09476E+01-1.96344E-01
 -1       621-2.68763E+02 1.64826E+02-5.89090E-09 6.68988E-01-3.52126E+01-1.69011E-01
 -1       622-2.81702E+02 1.72743E+02 5.94289E-10 5.30913E-01-3.88219E+01-1.40175E-01
 -1       623-2.91605E+02 1.78842E+02 5.40337E-09 3.82967E-01-4.17440E+01-1.10143E-01
 -1       624-2.98175E+02 1.82849E+02 9.37098E-09 2.25855E-01-4.39546E+01-7.92476E-02
 -1       625-3.01314E+02 1.84810E+02 1.02922E-08 5.89139E-02-4.54379E+01-4.78440E-02
 -1       626-3.00822E+02 1.84489E+02 7.26092E-09-1.03311E-01-4.61863E+01-1.63023E-02
 -1       627-2.96698E+02 1.81968E+02 2.12851E-09-2.78379E-01-4.62009E+01 1.49979E-02
 -1       628-2.88918E+02 1.77196E+02-5.70334E-09-4.40939E-01-4.54919E+01 4.56744E-02
 -1       629-2.77548E+02 1.70230E+02-1.25779E-08-6.10374E-01-4.40783E+01 7.53476E-02
 -1       630-2.62691E+02 1.61121E+02-1.44853E-08-7.60867E-01-4.19877E+01 1.03647E-01
 -1       631-2.44480E+02 1.49909E+02-1.39260E-08-9.16762E-01-3.92566E+01 1.30215E-01
 -1       632-2.23245E+02 1.36947E+02-1.29683E-08-1.05446E+00-3.59291E+01 1.54716E-01
 -1       633-1.99101E+02 1.22108E+02-1.51562E-08-1.17479E+00-3.20572E+01 1.76839E-01
 -1       634-1.72449E+02 1.05765E+02-1.66026E-08-1.28769E+00-2.76997E+01 1.96303E-01
 -1       635-1.43608E+02 8.80800E+01-1.45592E-08-1.37749E+00-2.29216E+01 2.12859E-01
 -1       636-1.12950E+02 6.92721E+01-1.18314E-08-1.45435E+00-1.77934E+01 2.26298E-01
 -1       637-8.08898E+01 4.96116E+01-9.16296E-09-1.50739E+00-1.23896E+01 2.36453E-01
 -1       638-4.78421E+01 2.93337E+01-5.99760E-09-1.54479E+00-6.78849E+00 2.43197E-01
 -1       639-1.42724E+01 8.75508E+00-1.93994E-09-1.55779E+00-1.07066E+00 2.46451E-01
 -1       640 1.93924E+01-1.18965E+01-9.02417E-10-1.55152E+00 4.68200E+00 2.46183E-01
 -1       641 5.26887E+01-3.23245E+01-9.03294E-10-1.52290E+00 1.03874E+01 2.42408E-01
 -1       642 8.51511E+01-5.22239E+01-7.15541E-10-1.47592E+00 1.59645E+01 2.35188E-01
 -1       643 1.16373E+02-7.13926E+01-4.47642E-09-1.40538E+00 2.13340E+01 2.24632E-01
 -1       644 1.45880E+02-8.94688E+01-1.05740E-08-1.32208E+00 2.64198E+01 2.10896E-01
 -1       645 1.73318E+02-1.06305E+02-1.59045E-08-1.21055E+00 3.11500E+01 1.94176E-01
 -1       646 1.98296E+02-1.21634E+02-2.13894E-08-1.09293E+00 3.54576E+01 1.74710E-01
 -1       647 2.20456E+02-1.35216E+02-2.53976E-08-9.52295E-01 3.92817E+01 1.52775E-01
 -1       648 2.39534E+02-1.46938E+02-2.43197E-08-8.06302E-01 4.25684E+01 1.28681E-01
 -1       649 2.55197E+02-1.56496E+02-1.95723E-08-6.43656E-01 4.52711E+01 1.02766E-01
 -1       650 2.67363E+02-1.64023E+02-1.45440E-08-4.70526E-01 4.73516E+01 7.53932E-02
 -1       651 2.75701E+02-1.69087E+02-7.86332E-09-3.02877E-01 4.87802E+01 4.69470E-02
 -1       652 2.80227E+02-1.71871E+02 1.80914E-09-1.11890E-01 4.95367E+01 1.78257E-02
 -1       653 2.80848E+02-1.72275E+02 1.09908E-08 6.19452E-02 4.96099E+01-1.15644E-02
 -1       654 2.77515E+02-1.70211E+02 1.50097E-08 2.47694E-01 4.89983E+01-4.08123E-02
 -1       655 2.70331E+02-1.65813E+02 1.79798E-08 4.19795E-01 4.77101E+01-6.95098E-02
 -1       656 2.59362E+02-1.59077E+02 2.21516E-08 5.95816E-01 4.57629E+01-9.72563E-02
 -1       657 2.44796E+02-1.50161E+02 2.35159E-08 7.54078E-01 4.31832E+01-1.23665E-01
 -1       658 2.26781E+02-1.39084E+02 1.96229E-08 9.08647E-01 4.00067E+01-1.48368E-01
 -1       659 2.05640E+02-1.26137E+02 1.39138E-08 1.04850E+00 3.62772E+01-1.71019E-01
 -1       660 1.81605E+02-1.11380E+02 9.23406E-09 1.17344E+00 3.20464E+01-1.91304E-01
 -1       661 1.55059E+02-9.51141E+01 4.38157E-09 1.28347E+00 2.73728E+01-2.08940E-01
 -1       662 1.26334E+02-7.74897E+01-2.28600E-09 1.37162E+00 2.23210E+01-2.23680E-01
 -1       663 9.58456E+01-5.87840E+01-6.60357E-09 1.44536E+00 1.69613E+01-2.35319E-01
 -1       664 6.40265E+01-3.92766E+01-6.61891E-09 1.49570E+00 1.13678E+01-2.43694E-01
 -1       665 3.12944E+01-1.91898E+01-7.08501E-09 1.52737E+00 5.61823E+00-2.48688E-01
 -1       666-1.86762E+00 1.14162E+00-6.89585E-09 1.53719E+00-2.07691E-01-2.50230E-01
 -1       667-3.50234E+01 2.14832E+01-6.83325E-09 1.52476E+00-6.02906E+00-2.48298E-01
 -1       668-6.77001E+01 4.15279E+01-6.95423E-09 1.49283E+00-1.17651E+01-2.42918E-01
 -1       669-9.94350E+01 6.09792E+01-3.60198E-09 1.43921E+00-1.73360E+01-2.34163E-01
 -1       670-1.29821E+02 7.96332E+01 1.11864E-09 1.36388E+00-2.26645E+01-2.22155E-01
 -1       671-1.58402E+02 9.71604E+01 7.38065E-09 1.27420E+00-2.76765E+01-2.07058E-01
 -1       672-1.84792E+02 1.13340E+02 1.50247E-08 1.16294E+00-3.23023E+01-1.89081E-01
 -1       673-2.08627E+02 1.27952E+02 1.99354E-08 1.03694E+00-3.64776E+01-1.68473E-01
 -1       674-2.29602E+02 1.40840E+02 1.93315E-08 8.93431E-01-4.01442E+01-1.45518E-01
 -1       675-2.47375E+02 1.51725E+02 1.19657E-08 7.45376E-01-4.32510E+01-1.20534E-01
 -1       676-2.61741E+02 1.60538E+02 5.69597E-09 5.77398E-01-4.57546E+01-9.38656E-02
 -1       677-2.72500E+02 1.67153E+02 4.49442E-09 4.10974E-01-4.76201E+01-6.58815E-02
 -1       678-2.79463E+02 1.71395E+02 1.57220E-09 2.32156E-01-4.88212E+01-3.69687E-02
 -1       679-2.82605E+02 1.73345E+02-2.91694E-09 5.19242E-02-4.93409E+01-7.52629E-03
 -1       680-2.81811E+02 1.72834E+02-1.27032E-09-1.28355E-01-4.91715E+01 2.20393E-02
 -1       681-2.77172E+02 1.70019E+02 5.11940E-09-3.09872E-01-4.83150E+01 5.13201E-02
 -1       682-2.68676E+02 1.64789E+02 6.98170E-09-4.78586E-01-4.67826E+01 7.99127E-02
 -1       683-2.56498E+02 1.57323E+02 6.47024E-09-6.50935E-01-4.45952E+01 1.07423E-01
 -1       684-2.40794E+02 1.47693E+02 7.00434E-09-8.04465E-01-4.17824E+01 1.33472E-01
 -1       685-2.21787E+02 1.36036E+02 6.28832E-09-9.55307E-01-3.83824E+01 1.57704E-01
 -1       686-1.99748E+02 1.22521E+02 3.59577E-09-1.08327E+00-3.44416E+01 1.79785E-01
 -1       687-1.74960E+02 1.07286E+02 1.33842E-09-1.20598E+00-3.00138E+01 1.99414E-01
 -1       688-1.47855E+02 9.07040E+01-1.46279E-09-1.30705E+00-2.51593E+01 2.16325E-01
 -1       689-1.18715E+02 7.28105E+01-6.72830E-09-1.38644E+00-1.99443E+01 2.30289E-01
 -1       690-8.80129E+01 5.39779E+01-9.99261E-09-1.45104E+00-1.44397E+01 2.41119E-01
 -1       691-5.61753E+01 3.44571E+01-1.29872E-08-1.49195E+00-8.72049E+00 2.48672E-01
 -1       692-2.36356E+01 1.44879E+01-1.44327E-08-1.51340E+00-2.86424E+00 2.52854E-01
 -1       693 9.11459E+00-5.58921E+00-1.50241E-08-1.51328E+00 3.04974E+00 2.53616E-01
 -1       694 4.16362E+01-2.55432E+01-1.67589E-08-1.48988E+00 8.94158E+00 2.50959E-01
 -1       695 7.34493E+01-4.50610E+01-1.67938E-08-1.44720E+00 1.47320E+01 2.44931E-01
 -1       696 1.04082E+02-6.38332E+01-1.89668E-08-1.38267E+00 2.03434E+01 2.35633E-01
 -1       697 1.33134E+02-8.16748E+01-1.89385E-08-1.29595E+00 2.57012E+01 2.23208E-01
 -1       698 1.60125E+02-9.82124E+01-1.51701E-08-1.19545E+00 3.07345E+01 2.07848E-01
 -1       699 1.84716E+02-1.13318E+02-9.61646E-09-1.07040E+00 3.53775E+01 1.89785E-01
 -1       700 2.06475E+02-1.26640E+02-1.52826E-09-9.39154E-01 3.95703E+01 1.69295E-01
 -1       701 2.25128E+02-1.38088E+02 4.17315E-09-7.79108E-01 4.32598E+01 1.46688E-01
 -1       702 2.40369E+02-1.47453E+02 3.99485E-09-6.20504E-01 4.64005E+01 1.22305E-01
 -1       703 2.51917E+02-1.54520E+02 5.19421E-09-4.41612E-01 4.89554E+01 9.65189E-02
 -1       704 2.59628E+02-1.59277E+02 1.12711E-08-2.62683E-01 5.08962E+01 6.97243E-02
 -1       705 2.63257E+02-1.61455E+02 1.81522E-08-7.28190E-02 5.22043E+01 4.23352E-02
 -1       706 2.62842E+02-1.61263E+02 2.48287E-08 1.23844E-01 5.28707E+01 1.47778E-02
 -1       707 2.58170E+02-1.58356E+02 2.84532E-08 3.09062E-01 5.28965E+01-1.25128E-02
 -1       708 2.49351E+02-1.52953E+02 2.97361E-08 5.11339E-01 5.22932E+01-3.90976E-02
 -1       709 2.36413E+02-1.45045E+02 2.88961E-08 6.94077E-01 5.10821E+01-6.45420E-02
 -1       710 2.19402E+02-1.34593E+02 2.93837E-08 8.81308E-01 4.92951E+01-8.84175E-02
 -1       711 1.98517E+02-1.21796E+02 3.37362E-08 1.05381E+00 4.69735E+01-1.10308E-01
 -1       712 1.73909E+02-1.06704E+02 3.59369E-08 1.22370E+00 4.41684E+01-1.29816E-01
 -1       713 1.45813E+02-8.94800E+01 3.31548E-08 1.37525E+00 4.09397E+01-1.46563E-01
 -1       714 1.14462E+02-7.02338E+01 2.45630E-08 1.52177E+00 3.73561E+01-1.60196E-01
 -1       715 8.01922E+01-4.92474E+01 1.23804E-08 1.65070E+00 3.34940E+01-1.70391E-01
 -1       716 4.32467E+01-2.65832E+01 1.79034E-09 1.76394E+00 2.94372E+01-1.76855E-01
 -1       717 3.97439E+00-2.49491E+00-5.18292E-09 1.86370E+00 2.52757E+01-1.79327E-01
 -1       718-3.72787E+01 2.27823E+01-8.35333E-09 1.94873E+00 2.11055E+01-1.77581E-01
 -1       719-8.02425E+01 4.91629E+01-1.17774E-08 2.01557E+00 1.70272E+01-1.71423E-01
 -1       720-1.24467E+02 7.61974E+01-1.64041E-08 2.07597E+00 1.31457E+01-1.60696E-01
 -1       721-1.69943E+02 1.04283E+02-2.04985E-08 2.10497E+00 9.56916E+00-1.45274E-01
 -1       722-2.15544E+02 1.31585E+02-2.52169E-08 2.15842E+00 6.40816E+00-1.25069E-01
 -1       723-2.63826E+02 1.63473E+02-2.96138E-08 2.10246E+00 3.77535E+00-9.99860E-02
 -1       724-3.04837E+02 1.80619E+02-3.25632E-08 2.36251E+00 1.78438E+00-7.00824E-02
 -1       725-3.72222E+02 2.49546E+02-4.12952E-08 1.48739E+00 5.50504E-01-3.49913E-02
 -1       726-2.91199E+02 1.03058E+02-4.87920E-08 4.58528E+00 1.37424E-01-1.60264E-02
 -1       727 7.72344E-01-3.01593E-01-6.17635E-10 2.47260E-03-6.60673E+01-3.54937E-01
 -3
    1PSTEP                        20           1           1          
    1PGM                1.000000E+00                                  
    1PGK                2.166874E+07                                  
    1PHID                         -1                                  
    1PSUBC                         0                                  
    1PMODE                         5                                  
  100CL  105 740.8613878         726                     2    5MODAL      1
 -4  ERROR       1    1
 -5  STR(%)      1    1    0    0
 -1         2 2.22475E+00
 -1         3 4.76912E+00
 -1         4 3.13214E+01
 -1         5 7.24328E+01
 -1         6 8.40240E+01
 -1         7 8.40672E+01
 -1         8 8.41099E+01
 -1         9 8.41132E+01
 -1        10 8.41132E+01
 -1        11 8.41028E+01
 -1        12 8.41028E+01
 -1        13 8.40990E+01
 -1        14 8.41029E+01
 -1        15 8.41029E+01
 -1        16 8.41020E+01
 -1        17 8.41020E+01
 -1        18 8.40926E+01
 -1        19 8.41025E+01
 -1        20 8.41025E+01
 -1        21 8.41105E+01
 -1        22 8.41105E+01
 -1        23 8.41108E+01
 -1        24 8.41108E+01
 -1        25 8.41090E+01
 -1        26 8.41090E+01
 -1        27 8.40822E+01
 -1        28 8.40950E+01
 -1        29 8.40950E+01
 -1        30 8.40774E+01
 -1        31 8.40774E+01
 -1        32 8.40051E+01
 -1        33 8.39870E+01
 -1        34 9.18115E+01
 -1        35 9.18115E+01
 -1        36 8.39482E+01
 -1        37 8.40568E+01
 -1        38 8.40568E+01
 -1        39 8.41022E+01
 -1        40 8.41022E+01
 -1        41 8.41006E+01
 -1        42 8.41006E+01
 -1        43 8.40913E+01
 -1        44 8.40978E+01
 -1        45 8.40978E+01
 -1        46 8.41207E+01
 -1        47 8.41207E+01
 -1        48 8.41103E+01
 -1        49 8.41103E+01
 -1        50 8.41061E+01
 -1        51 8.41061E+01
 -1        52 8.40957E+01
 -1        53 8.40957E+01
 -1        54 8.40793E+01
 -1        55 8.40798E+01
 -1        56 8.40798E+01
 -1        57 8.40601E+01
 -1        58 8.40601E+01
 -1        59 8.39799E+01
 -1        60 8.38639E+01
 -1        61 8.31280E+01
 -1        62 8.38877E+01
 -1        63 8.40141E+01
 -1        64 8.40607E+01
 -1        65 8.40607E+01
 -1        66 8.40845E+01
 -1        67 8.40845E+01
 -1        68 8.40954E+01
 -1        69 8.40954E+01
 -1        70 8.41049E+01
 -1        71 8.41049E+01
 -1        72 8.40981E+01
 -1        73 8.40981E+01
 -1        74 8.40878E+01
 -1        75 8.40972E+01
 -1        76 8.40972E+01
 -1        77 8.41057E+01
 -1        78 8.41057E+01
 -1        79 8.41042E+01
 -1        80 8.41042E+01
 -1        81 8.40996E+01
 -1        82 8.40996E+01
 -1        83 8.40659E+01
 -1        84 8.40527E+01
 -1        85 8.40527E+01
 -1        86 8.39632E+01
 -1        87 8.37892E+01
 -1        88 8.35002E+01
 -1        89 8.39205E+01
 -1        90 8.40237E+01
 -1        91 8.40643E+01
 -1        92 8.40643E+01
 -1        93 8.40962E+01
 -1        94 8.40962E+01
 -1        95 8.41137E+01
 -1        96 8.41137E+01
 -1        97 8.41046E+01
 -1        98 8.41046E+01
 -1        99 8.40911E+01
 -1       100 8.40945E+01
 -1       101 8.40945E+01
 -1       102 8.41139E+01
 -1       103 8.41139E+01
 -1       104 8.40988E+01
 -1       105 8.40988E+01
 -1       106 8.40842E+01
 -1       107 8.40842E+01
 -1       108 8.40441E+01
 -1       109 8.40441E+01
 -1       110 8.39221E+01
 -1       111 8.32454E+01
 -1       112 5.78707E+01
 -1       113 8.38306E+01
 -1       114 8.39850E+01
 -1       115 8.41656E+01
 -1       116 8.41656E+01
 -1       117 8.45038E+01
 -1       118 8.45038E+01
 -1       119 8.74380E+01
 -1       120 8.74380E+01
 -1       121 7.38413E+01
 -1       122 5.56931E-01
 -1       123 2.22475E+00
 -1       124 4.76912E+00
 -1       125 3.13214E+01
 -1       126 7.24328E+01
 -1       127 8.40240E+01
 -1       128 8.40672E+01
 -1       129 8.41099E+01
 -1       130 8.41132E+01
 -1       131 8.41132E+01
 -1       132 8.41028E+01
 -1       133 8.41028E+01
 -1       134 8.40990E+01
 -1       135 8.41029E+01
 -1       136 8.41029E+01
 -1       137 8.41020E+01
 -1       138 8.41020E+01
 -1       139 8.40926E+01
 -1       140 8.41025E+01
 -1       141 8.41025E+01
 -1       142 8.41105E+01
 -1       143 8.41105E+01
 -1       144 8.41108E+01
 -1       145 8.41108E+01
 -1       146 8.41090E+01
 -1       147 8.41090E+01
 -1       148 8.40822E+01
 -1       149 8.40950E+01
 -1       150 8.40950E+01
 -1       151 8.40774E+01
 -1       152 8.40774E+01
 -1       153 8.40051E+01
 -1       154 8.39870E+01
 -1       155 9.18115E+01
 -1       156 9.18115E+01
 -1       157 8.39482E+01
 -1       158 8.40568E+01
 -1       159 8.40568E+01
 -1       160 8.41022E+01
 -1       161 8.41022E+01
 -1       162 8.41006E+01
 -1       163 8.41006E+01
 -1       164 8.40913E+01
 -1       165 8.40978E+01
 -1       166 8.40978E+01
 -1       167 8.41207E+01
 -1       168 8.41207E+01
 -1       169 8.41103E+01
 -1       170 8.41103E+01
 -1       171 8.41061E+01
 -1       172 8.41061E+01
 -1       173 8.40957E+01
 -1       174 8.40957E+01
 -1       175 8.40793E+01
 -1       176 8.40798E+01
 -1       177 8.40798E+01
 -1       178 8.40601E+01
 -1       179 8.40601E+01
 -1       180 8.39799E+01
 -1       181 8.38639E+01
 -1       182 8.31280E+01
 -1       183 8.38877E+01
 -1       184 8.40141E+01
 -1       185 8.40607E+01
 -1       186 8.40607E+01
 -1       187 8.40845E+01
 -1       188 8.40845E+01
 -1       189 8.40954E+01
 -1       190 8.40954E+01
 -1       191 8.41049E+01
 -1       192 8.41049E+01
 -1       193 8.40981E+01
 -1       194 8.40981E+01
 -1       195 8.40878E+01
 -1       196 8.40972E+01
 -1       197 8.40972E+01
 -1       198 8.41057E+01
 -1       199 8.41057E+01
 -1       200 8.41042E+01
 -1       201 8.41042E+01
 -1       202 8.40996E+01
 -1       203 8.40996E+01
 -1       204 8.40659E+01
 -1       205 8.40527E+01
 -1       206 8.40527E+01
 -1       207 8.39632E+01
 -1       208 8.37892E+01
 -1       209 8.35002E+01
 -1       210 8.39205E+01
 -1       211 8.40237E+01
 -1       212 8.40643E+01
 -1       213 8.40643E+01
 -1       214 8.40962E+01
 -1       215 8.40962E+01
 -1       216 8.41137E+01
 -1       217 8.41137E+01
 -1       218 8.41046E+01
 -1       219 8.41046E+01
 -1       220 8.40911E+01
 -1       221 8.40945E+01
 -1       222 8.40945E+01
 -1       223 8.41139E+01
 -1       224 8.41139E+01
 -1       225 8.40988E+01
 -1       226 8.40988E+01
 -1       227 8.40842E+01
 -1       228 8.40842E+01
 -1       229 8.40441E+01
 -1       230 8.40441E+01
 -1       231 8.39221E+01
 -1       232 8.32454E+01
 -1       233 5.78707E+01
 -1       234 8.38306E+01
 -1       235 8.39850E+01
 -1       236 8.41656E+01
 -1       237 8.41656E+01
 -1       238 8.45038E+01
 -1       239 8.45038E+01
 -1       240 8.74380E+01
 -1       241 8.74380E+01
 -1       242 7.38413E+01
 -1       243 5.56931E-01
 -1       244 2.22475E+00
 -1       245 4.76920E+00
 -1       246 3.13214E+01
 -1       247 7.24342E+01
 -1       248 8.40342E+01
 -1       249 8.40775E+01
 -1       250 8.41202E+01
 -1       251 8.41236E+01
 -1       252 8.41236E+01
 -1       253 8.41132E+01
 -1       254 8.41132E+01
 -1       255 8.41093E+01
 -1       256 8.41132E+01
 -1       257 8.41132E+01
 -1       258 8.41124E+01
 -1       259 8.41124E+01
 -1       260 8.41030E+01
 -1       261 8.41129E+01
 -1       262 8.41129E+01
 -1       263 8.41208E+01
 -1       264 8.41208E+01
 -1       265 8.41212E+01
 -1       266 8.41212E+01
 -1       267 8.41193E+01
 -1       268 8.41193E+01
 -1       269 8.40926E+01
 -1       270 8.41053E+01
 -1       271 8.41053E+01
 -1       272 8.40877E+01
 -1       273 8.40877E+01
 -1       274 8.40154E+01
 -1       275 8.39973E+01
 -1       276 9.18146E+01
 -1       277 9.18146E+01
 -1       278 8.39585E+01
 -1       279 8.40671E+01
 -1       280 8.40671E+01
 -1       281 8.41125E+01
 -1       282 8.41125E+01
 -1       283 8.41109E+01
 -1       284 8.41109E+01
 -1       285 8.41017E+01
 -1       286 8.41081E+01
 -1       287 8.41081E+01
 -1       288 8.41311E+01
 -1       289 8.41311E+01
 -1       290 8.41207E+01
 -1       291 8.41207E+01
 -1       292 8.41165E+01
 -1       293 8.41165E+01
 -1       294 8.41060E+01
 -1       295 8.41060E+01
 -1       296 8.40896E+01
 -1       297 8.40902E+01
 -1       298 8.40902E+01
 -1       299 8.40704E+01
 -1       300 8.40704E+01
 -1       301 8.39902E+01
 -1       302 8.38742E+01
 -1       303 8.31379E+01
 -1       304 8.38980E+01
 -1       305 8.40245E+01
 -1       306 8.40710E+01
 -1       307 8.40710E+01
 -1       308 8.40948E+01
 -1       309 8.40948E+01
 -1       310 8.41058E+01
 -1       311 8.41058E+01
 -1       312 8.41153E+01
 -1       313 8.41153E+01
 -1       314 8.41084E+01
 -1       315 8.41084E+01
 -1       316 8.40982E+01
 -1       317 8.41076E+01
 -1       318 8.41076E+01
 -1       319 8.41160E+01
 -1       320 8.41160E+01
 -1       321 8.41146E+01
 -1       322 8.41146E+01
 -1       323 8.41100E+01
 -1       324 8.41100E+01
 -1       325 8.40762E+01
 -1       326 8.40630E+01
 -1       327 8.40630E+01
 -1       328 8.39735E+01
 -1       329 8.37994E+01
 -1       330 8.35103E+01
 -1       331 8.39308E+01
 -1       332 8.40340E+01
 -1       333 8.40747E+01
 -1       334 8.40747E+01
 -1       335 8.41065E+01
 -1       336 8.41065E+01
 -1       337 8.41241E+01
 -1       338 8.41241E+01
 -1       339 8.41150E+01
 -1       340 8.41150E+01
 -1       341 8.41014E+01
 -1       342 8.41048E+01
 -1       343 8.41048E+01
 -1       344 8.41243E+01
 -1       345 8.41243E+01
 -1       346 8.41092E+01
 -1       347 8.41092E+01
 -1       348 8.40946E+01
 -1       349 8.40946E+01
 -1       350 8.40544E+01
 -1       351 8.40544E+01
 -1       352 8.39323E+01
 -1       353 8.32541E+01
 -1       354 5.78711E+01
 -1       355 8.38406E+01
 -1       356 8.39954E+01
 -1       357 8.41759E+01
 -1       358 8.41759E+01
 -1       359 8.45141E+01
 -1       360 8.45141E+01
 -1       361 8.74484E+01
 -1       362 8.74484E+01
 -1       363 7.38512E+01
 -1       364 5.56931E-01
 -1       365 2.22475E+00
 -1       366 4.76920E+00
 -1       367 3.13214E+01
 -1       368 7.24342E+01
 -1       369 8.40342E+01
 -1       370 8.40775E+01
 -1       371 8.41202E+01
 -1       372 8.41236E+01
 -1       373 8.41236E+01
 -1       374 8.41132E+01
 -1       375 8.41132E+01
 -1       376 8.41093E+01
 -1       377 8.41132E+01
 -1       378 8.41132E+01
 -1       379 8.41124E+01
 -1       380 8.41124E+01
 -1       381 8.41030E+01
 -1       382 8.41129E+01
 -1       383 8.41129E+01
 -1       384 8.41208E+01
 -1       385 8.41208E+01
 -1       386 8.41212E+01
 -1       387 8.41212E+01
 -1       388 8.41193E+01
 -1       389 8.41193E+01
 -1       390 8.40926E+01
 -1       391 8.41053E+01
 -1       392 8.41053E+01
 -1       393 8.40877E+01
 -1       394 8.40877E+01
 -1       395 8.40154E+01
 -1       396 8.39973E+01
 -1       397 9.18146E+01
 -1       398 9.18146E+01
 -1       399 8.39585E+01
 -1       400 8.40671E+01
 -1       401 8.40671E+01
 -1       402 8.41125E+01
 -1       403 8.41125E+01
 -1       404 8.41109E+01
 -1       405 8.41109E+01
 -1       406 8.41017E+01
 -1       407 8.41081E+01
 -1       408 8.41081E+01
 -1       409 8.41311E+01
 -1       410 8.41311E+01
 -1       411 8.41207E+01
 -1       412 8.41207E+01
 -1       413 8.41165E+01
 -1       414 8.41165E+01
 -1       415 8.41060E+01
 -1       416 8.41060E+01
 -1       417 8.40896E+01
 -1       418 8.40902E+01
 -1       419 8.40902E+01
 -1       420 8.40704E+01
 -1       421 8.40704E+01
 -1       422 8.39902E+01
 -1       423 8.38742E+01
 -1       424 8.31379E+01
 -1       425 8.38980E+01
 -1       426 8.40245E+01
 -1       427 8.40710E+01
 -1       428 8.40710E+01
 -1       429 8.40948E+01
 -1       430 8.40948E+01
 -1       431 8.41058E+01
 -1       432 8.41058E+01
 -1       433 8.41153E+01
 -1       434 8.41153E+01
 -1       435 8.41084E+01
 -1       436 8.41084E+01
 -1       437 8.40982E+01
 -1       438 8.41076E+01
 -1       439 8.41076E+01
 -1       440 8.41160E+01
 -1       441 8.41160E+01
 -1       442 8.41146E+01
 -1       443 8.41146E+01
 -1       444 8.41100E+01
 -1       445 8.41100E+01
 -1       446 8.40762E+01
 -1       447 8.40630E+01
 -1       448 8.40630E+01
 -1       449 8.39735E+01
 -1       450 8.37994E+01
 -1       451 8.35103E+01
 -1       452 8.39308E+01
 -1       453 8.40340E+01
 -1       454 8.40747E+01
 -1       455 8.40747E+01
 -1       456 8.41065E+01
 -1       457 8.41065E+01
 -1       458 8.41241E+01
 -1       459 8.41241E+01
 -1       460 8.41150E+01
 -1       461 8.41150E+01
 -1       462 8.41014E+01
 -1       463 8.41048E+01
 -1       464 8.41048E+01
 -1       465 8.41243E+01
 -1       466 8.41243E+01
 -1       467 8.41092E+01
 -1       468 8.41092E+01
 -1       469 8.40946E+01
 -1       470 8.40946E+01
 -1       471 8.40544E+01
 -1       472 8.40544E+01
 -1       473 8.39323E+01
 -1       474 8.32541E+01
 -1       475 5.78711E+01
 -1       476 8.38406E+01
 -1       477 8.39954E+01
 -1       478 8.41759E+01
 -1       479 8.41759E+01
 -1       480 8.45141E+01
 -1       481 8.45141E+01
 -1       482 8.74484E+01
 -1       483 8.74484E+01
 -1       484 7.38512E+01
 -1       485 5.56911E-01
 -1       486 2.22473E+00
 -1       487 4.76920E+00
 -1       488 3.13214E+01
 -1       489 7.24342E+01
 -1       490 8.40342E+01
 -1       491 8.40775E+01
 -1       492 8.41202E+01
 -1       493 8.41236E+01
 -1       494 8.41236E+01
 -1       495 8.41132E+01
 -1       496 8.41132E+01
 -1       497 8.41093E+01
 -1       498 8.41132E+01
 -1       499 8.41132E+01
 -1       500 8.41124E+01
 -1       501 8.41124E+01
 -1       502 8.41030E+01
 -1       503 8.41129E+01
 -1       504 8.41129E+01
 -1       505 8.41208E+01
 -1       506 8.41208E+01
 -1       507 8.41212E+01
 -1       508 8.41212E+01
 -1       509 8.41193E+01
 -1       510 8.41193E+01
 -1       511 8.40926E+01
 -1       512 8.41053E+01
 -1       513 8.41053E+01
 -1       514 8.40877E+01
 -1       515 8.40877E+01
 -1       516 8.40154E+01
 -1       517 8.39973E+01
 -1       518 9.18146E+01
 -1       519 9.18146E+01
 -1       520 8.39585E+01
 -1       521 8.40671E+01
 -1       522 8.40671E+01
 -1       523 8.41125E+01
 -1       524 8.41125E+01
 -1       525 8.41109E+01
 -1       526 8.41109E+01
 -1       527 8.41017E+01
 -1       528 8.41081E+01
 -1       529 8.41081E+01
 -1       530 8.41311E+01
 -1       531 8.41311E+01
 -1       532 8.41207E+01
 -1       533 8.41207E+01
 -1       534 8.41165E+01
 -1       535 8.41165E+01
 -1       536 8.41060E+01
 -1       537 8.41060E+01
 -1       538 8.40896E+01
 -1       539 8.40902E+01
 -1       540 8.40902E+01
 -1       541 8.40704E+01
 -1       542 8.40704E+01
 -1       543 8.39902E+01
 -1       544 8.38742E+01
 -1       545 8.31379E+01
 -1       546 8.38980E+01
 -1       547 8.40245E+01
 -1       548 8.40710E+01
 -1       549 8.40710E+01
 -1       550 8.40948E+01
 -1       551 8.40948E+01
 -1       552 8.41058E+01
 -1       553 8.41058E+01
 -1       554 8.41153E+01
 -1       555 8.41153E+01
 -1       556 8.41084E+01
 -1       557 8.41084E+01
 -1       558 8.40982E+01
 -1       559 8.41076E+01
 -1       560 8.41076E+01
 -1       561 8.41160E+01
 -1       562 8.41160E+01
 -1       563 8.41146E+01
 -1       564 8.41146E+01
 -1       565 8.41100E+01
 -1       566 8.41100E+01
 -1       567 8.40762E+01
 -1       568 8.40630E+01
 -1       569 8.40630E+01
 -1       570 8.39735E+01
 -1       571 8.37994E+01
 -1       572 8.35103E+01
 -1       573 8.39308E+01
 -1       574 8.40340E+01
 -1       575 8.40747E+01
 -1       576 8.40747E+01
 -1       577 8.41065E+01
 -1       578 8.41065E+01
 -1       579 8.41241E+01
 -1       580 8.41241E+01
 -1       581 8.41150E+01
 -1       582 8.41150E+01
 -1       583 8.41014E+01
 -1       584 8.41048E+01
 -1       585 8.41048E+01
 -1       586 8.41243E+01
 -1       587 8.41243E+01
 -1       588 8.41092E+01
 -1       589 8.41092E+01
 -1       590 8.40946E+01
 -1       591 8.40946E+01
 -1       592 8.40544E+01
 -1       593 8.40544E+01
 -1       594 8.39323E+01
 -1       595 8.32541E+01
 -1       596 5.78711E+01
 -1       597 8.38406E+01
 -1       598 8.39954E+01
 -1       599 8.41759E+01
 -1       600 8.41759E+01
 -1       601 8.45141E+01
 -1       602 8.45141E+01
 -1       603 8.74484E+01
 -1       604 8.74484E+01
 -1       605 7.38512E+01
 -1       606 5.56911E-01
 -1       607 2.22473E+00
 -1       608 4.76920E+00
 -1       609 3.13214E+01
 -1       610 7.24342E+01
 -1       611 8.40342E+01
 -1       612 8.40775E+01
 -1       613 8.41202E+01
 -1       614 8.41236E+01
 -1       615 8.41236E+01
 -1       616 8.41132E+01
 -1       617 8.41132E+01
 -1       618 8.41093E+01
 -1       619 8.41132E+01
 -1       620 8.41132E+01
 -1       621 8.41124E+01
 -1       622 8.41124E+01
 -1       623 8.41030E+01
 -1       624 8.41129E+01
 -1       625 8.41129E+01
 -1       626 8.41208E+01
 -1       627 8.41208E+01
 -1       628 8.41212E+01
 -1       629 8.41212E+01
 -1       630 8.41193E+01
 -1       631 8.41193E+01
 -1       632 8.40926E+01
 -1       633 8.41053E+01
 -1       634 8.41053E+01
 -1       635 8.40877E+01
 -1       636 8.40877E+01
 -1       637 8.40154E+01
 -1       638 8.39973E+01
 -1       639 9.18146E+01
 -1       640 9.18146E+01
 -1       641 8.39585E+01
 -1       642 8.40671E+01
 -1       643 8.40671E+01
 -1       644 8.41125E+01
 -1       645 8.41125E+01
 -1       646 8.41109E+01
 -1       647 8.41109E+01
 -1       648 8.41017E+01
 -1       649 8.41081E+01
 -1       650 8.41081E+01
 -1       651 8.41311E+01
 -1       652 8.41311E+01
 -1       653 8.41207E+01
 -1       654 8.41207E+01
 -1       655 8.41165E+01
 -1       656 8.41165E+01
 -1       657 8.41060E+01
 -1       658 8.41060E+01
 -1       659 8.40896E+01
 -1       660 8.40902E+01
 -1       661 8.40902E+01
 -1       662 8.40704E+01
 -1       663 8.40704E+01
 -1       664 8.39902E+01
 -1       665 8.38742E+01
 -1       666 8.31379E+01
 -1       667 8.38980E+01
 -1       668 8.40245E+01
 -1       669 8.40710E+01
 -1       670 8.40710E+01
 -1       671 8.40948E+01
 -1       672 8.40948E+01
 -1       673 8.41058E+01
 -1       674 8.41058E+01
 -1       675 8.41153E+01
 -1       676 8.41153E+01
 -1       677 8.41084E+01
 -1       678 8.41084E+01
 -1       679 8.40982E+01
 -1       680 8.41076E+01
 -1       681 8.41076E+01
 -1       682 8.41160E+01
 -1       683 8.41160E+01
 -1       684 8.41146E+01
 -1       685 8.41146E+01
 -1       686 8.41100E+01
 -1       687 8.41100E+01
 -1       688 8.40762E+01
 -1       689 8.40630E+01
 -1       690 8.40630E+01
 -1       691 8.39735E+01
 -1       692 8.37994E+01
 -1       693 8.35103E+01
 -1       694 8.39308E+01
 -1       695 8.40340E+01
 -1       696 8.40747E+01
 -1       697 8.40747E+01
 -1       698 8.41065E+01
 -1       699 8.41065E+01
 -1       700 8.41241E+01
 -1       701 8.41241E+01
 -1       702 8.41150E+01
 -1       703 8.41150E+01
 -1       704 8.41014E+01
 -1       705 8.41048E+01
 -1       706 8.41048E+01
 -1       707 8.41243E+01
 -1       708 8.41243E+01
 -1       709 8.41092E+01
 -1       710 8.41092E+01
 -1       711 8.40946E+01
 -1       712 8.40946E+01
 -1       713 8.40544E+01
 -1       714 8.40544E+01
 -1       715 8.39323E+01
 -1       716 8.32541E+01
 -1       717 5.78711E+01
 -1       718 8.38406E+01
 -1       719 8.39954E+01
 -1       720 8.41759E+01
 -1       721 8.41759E+01
 -1       722 8.45141E+01
 -1       723 8.45141E+01
 -1       724 8.74484E+01
 -1       725 8.74484E+01
 -1       726 7.38512E+01
 -1       727 5.56931E-01
 -3
 9999
