    1C
    1UUSER                                                              
    1UDATE              06.may.2022                                     
    1UTIME              16:50:44                                        
    1UHOST                                                              
    1UPGM               CalculiX                                        
    1UVERSION           Version 2.16                             
    1UCOMPILETIME       Tue 20 Jul 2021 11:34:44 AM CDT                    
    1UDIR                                                               
    1UDBN                                                               
    1UMAT    1ACETATO                                                   
    2C                            52                                     1
 -1         1 6.60000E-02 2.99750E-02 1.60000E-01
 -1         2 6.30833E-02 2.99750E-02 1.60000E-01
 -1         3 6.01666E-02 2.99750E-02 1.60000E-01
 -1         4 5.72499E-02 2.99750E-02 1.60000E-01
 -1         5 5.43333E-02 2.99750E-02 1.60000E-01
 -1         6 5.14166E-02 2.99750E-02 1.60000E-01
 -1         7 4.84999E-02 2.99750E-02 1.60000E-01
 -1         8 4.55832E-02 2.99750E-02 1.60000E-01
 -1         9 4.26665E-02 2.99750E-02 1.60000E-01
 -1        10 3.97498E-02 2.99750E-02 1.60000E-01
 -1        11 3.68332E-02 2.99750E-02 1.60000E-01
 -1        12 3.39165E-02 2.99750E-02 1.60000E-01
 -1        13 3.09998E-02 2.99750E-02 1.60000E-01
 -1        14 6.60000E-02 2.99750E-02 0.00000E+00
 -1        15 6.30833E-02 2.99750E-02 0.00000E+00
 -1        16 6.01666E-02 2.99750E-02 0.00000E+00
 -1        17 5.72499E-02 2.99750E-02 0.00000E+00
 -1        18 5.43333E-02 2.99750E-02 0.00000E+00
 -1        19 5.14166E-02 2.99750E-02 0.00000E+00
 -1        20 4.84999E-02 2.99750E-02 0.00000E+00
 -1        21 4.55832E-02 2.99750E-02 0.00000E+00
 -1        22 4.26665E-02 2.99750E-02 0.00000E+00
 -1        23 3.97498E-02 2.99750E-02 0.00000E+00
 -1        24 3.68332E-02 2.99750E-02 0.00000E+00
 -1        25 3.39165E-02 2.99750E-02 0.00000E+00
 -1        26 3.09998E-02 2.99750E-02 0.00000E+00
 -1        27 6.60000E-02 3.00250E-02 1.60000E-01
 -1        28 6.30833E-02 3.00250E-02 1.60000E-01
 -1        29 6.01666E-02 3.00250E-02 1.60000E-01
 -1        30 5.72499E-02 3.00250E-02 1.60000E-01
 -1        31 5.43333E-02 3.00250E-02 1.60000E-01
 -1        32 5.14166E-02 3.00250E-02 1.60000E-01
 -1        33 4.84999E-02 3.00250E-02 1.60000E-01
 -1        34 4.55832E-02 3.00250E-02 1.60000E-01
 -1        35 4.26665E-02 3.00250E-02 1.60000E-01
 -1        36 3.97498E-02 3.00250E-02 1.60000E-01
 -1        37 3.68332E-02 3.00250E-02 1.60000E-01
 -1        38 3.39165E-02 3.00250E-02 1.60000E-01
 -1        39 3.09998E-02 3.00250E-02 1.60000E-01
 -1        40 6.60000E-02 3.00250E-02 0.00000E+00
 -1        41 6.30833E-02 3.00250E-02 0.00000E+00
 -1        42 6.01666E-02 3.00250E-02 0.00000E+00
 -1        43 5.72499E-02 3.00250E-02 0.00000E+00
 -1        44 5.43333E-02 3.00250E-02 0.00000E+00
 -1        45 5.14166E-02 3.00250E-02 0.00000E+00
 -1        46 4.84999E-02 3.00250E-02 0.00000E+00
 -1        47 4.55832E-02 3.00250E-02 0.00000E+00
 -1        48 4.26665E-02 3.00250E-02 0.00000E+00
 -1        49 3.97498E-02 3.00250E-02 0.00000E+00
 -1        50 3.68332E-02 3.00250E-02 0.00000E+00
 -1        51 3.39165E-02 3.00250E-02 0.00000E+00
 -1        52 3.09998E-02 3.00250E-02 0.00000E+00
 -3
    3C                            12                                     1
 -1         1    1    0    1
 -2        27        28        41        40         1         2        15        14
 -1         2    1    0    1
 -2        28        29        42        41         2         3        16        15
 -1         3    1    0    1
 -2        29        30        43        42         3         4        17        16
 -1         4    1    0    1
 -2        30        31        44        43         4         5        18        17
 -1         5    1    0    1
 -2        31        32        45        44         5         6        19        18
 -1         6    1    0    1
 -2        32        33        46        45         6         7        20        19
 -1         7    1    0    1
 -2        33        34        47        46         7         8        21        20
 -1         8    1    0    1
 -2        34        35        48        47         8         9        22        21
 -1         9    1    0    1
 -2        35        36        49        48         9        10        23        22
 -1        10    1    0    1
 -2        36        37        50        49        10        11        24        23
 -1        11    1    0    1
 -2        37        38        51        50        11        12        25        24
 -1        12    1    0    1
 -2        38        39        52        51        12        13        26        25
 -3
    1PSTEP                         1           1           1          
    1PGM                1.000000E+00                                  
    1PGK                6.952197E+03                                  
    1PHID                         -1                                  
    1PSUBC                         0                                  
    1PMODE                         1                                  
  100CL  101 13.27031299          52                     2    1MODAL      1
 -4  DISP        4    1
 -5  D1          1    2    1    0
 -5  D2          1    2    2    0
 -5  D3          1    2    3    0
 -5  ALL         1    2    0    0    1ALL
 -1         1 9.99480E-02 1.01446E+02 0.00000E+00
 -1         2 9.98639E-02 8.97895E+01 0.00000E+00
 -1         3 9.92948E-02 7.81716E+01 0.00000E+00
 -1         4 9.78104E-02 6.66735E+01 0.00000E+00
 -1         5 9.50398E-02 5.54236E+01 0.00000E+00
 -1         6 9.06700E-02 4.45902E+01 0.00000E+00
 -1         7 8.44449E-02 3.43749E+01 0.00000E+00
 -1         8 7.61622E-02 2.50059E+01 0.00000E+00
 -1         9 6.56698E-02 1.67321E+01 0.00000E+00
 -1        10 5.28606E-02 9.81764E+00 0.00000E+00
 -1        11 3.76667E-02 4.53672E+00 0.00000E+00
 -1        12 2.00514E-02 1.16972E+00 0.00000E+00
 -1        13 0.00000E+00 0.00000E+00 0.00000E+00
 -1        14 9.99480E-02 1.01446E+02 0.00000E+00
 -1        15 9.98639E-02 8.97895E+01 0.00000E+00
 -1        16 9.92948E-02 7.81716E+01 0.00000E+00
 -1        17 9.78104E-02 6.66735E+01 0.00000E+00
 -1        18 9.50398E-02 5.54236E+01 0.00000E+00
 -1        19 9.06700E-02 4.45902E+01 0.00000E+00
 -1        20 8.44449E-02 3.43749E+01 0.00000E+00
 -1        21 7.61622E-02 2.50059E+01 0.00000E+00
 -1        22 6.56698E-02 1.67321E+01 0.00000E+00
 -1        23 5.28606E-02 9.81764E+00 0.00000E+00
 -1        24 3.76667E-02 4.53672E+00 0.00000E+00
 -1        25 2.00514E-02 1.16972E+00 0.00000E+00
 -1        26 0.00000E+00 0.00000E+00 0.00000E+00
 -1        27-9.99480E-02 1.01446E+02 0.00000E+00
 -1        28-9.98639E-02 8.97895E+01 0.00000E+00
 -1        29-9.92948E-02 7.81716E+01 0.00000E+00
 -1        30-9.78104E-02 6.66735E+01 0.00000E+00
 -1        31-9.50398E-02 5.54236E+01 0.00000E+00
 -1        32-9.06700E-02 4.45902E+01 0.00000E+00
 -1        33-8.44449E-02 3.43749E+01 0.00000E+00
 -1        34-7.61622E-02 2.50059E+01 0.00000E+00
 -1        35-6.56698E-02 1.67321E+01 0.00000E+00
 -1        36-5.28606E-02 9.81764E+00 0.00000E+00
 -1        37-3.76667E-02 4.53672E+00 0.00000E+00
 -1        38-2.00514E-02 1.16972E+00 0.00000E+00
 -1        39 0.00000E+00 0.00000E+00 0.00000E+00
 -1        40-9.99480E-02 1.01446E+02 0.00000E+00
 -1        41-9.98639E-02 8.97895E+01 0.00000E+00
 -1        42-9.92948E-02 7.81716E+01 0.00000E+00
 -1        43-9.78104E-02 6.66735E+01 0.00000E+00
 -1        44-9.50398E-02 5.54236E+01 0.00000E+00
 -1        45-9.06700E-02 4.45902E+01 0.00000E+00
 -1        46-8.44449E-02 3.43749E+01 0.00000E+00
 -1        47-7.61622E-02 2.50059E+01 0.00000E+00
 -1        48-6.56698E-02 1.67321E+01 0.00000E+00
 -1        49-5.28606E-02 9.81764E+00 0.00000E+00
 -1        50-3.76667E-02 4.53672E+00 0.00000E+00
 -1        51-2.00514E-02 1.16972E+00 0.00000E+00
 -1        52 0.00000E+00 0.00000E+00 0.00000E+00
 -3
    1PSTEP                         2           1           1          
    1PGM                1.000000E+00                                  
    1PGK                6.952197E+03                                  
    1PHID                         -1                                  
    1PSUBC                         0                                  
    1PMODE                         1                                  
  100CL  101 13.27031299          52                     2    1MODAL      1
 -4  STRESS      6    1
 -5  SXX         1    4    1    1
 -5  SYY         1    4    2    2
 -5  SZZ         1    4    3    3
 -5  SXY         1    4    1    2
 -5  SYZ         1    4    2    3
 -5  SZX         1    4    3    1
 -1         1 1.62029E+08 2.31041E+04 6.15797E+07 2.73482E+04-7.39210E+07-1.39568E+00
 -1         2 6.28904E+08 2.17064E+04 2.38992E+08 2.72237E+06-6.94208E+07-1.49118E+00
 -1         3 1.97690E+09 1.89010E+04 7.51230E+08 5.08895E+06-6.04495E+07-1.59282E+00
 -1         4 4.09639E+09 1.61257E+04 1.55663E+09 7.12956E+06-5.15769E+07-1.82287E+00
 -1         5 6.87423E+09 1.33878E+04 2.61221E+09 8.84871E+06-4.29012E+07-1.73825E+00
 -1         6 1.01999E+10 1.07627E+04 3.87596E+09 1.02556E+07-3.45518E+07-1.25075E+00
 -1         7 1.39670E+10 8.30144E+03 5.30745E+09 1.13650E+07-2.66838E+07-7.84959E-01
 -1         8 1.80753E+10 6.04281E+03 6.86861E+09 1.21972E+07-1.94727E+07-2.05828E-01
 -1         9 2.24330E+10 4.07036E+03 8.52453E+09 1.27796E+07-1.31104E+07 2.19399E-01
 -1        10 2.69591E+10 2.43192E+03 1.02445E+10 1.31467E+07-7.80027E+06 3.72377E-01
 -1        11 3.15861E+10 1.17927E+03 1.20027E+10 1.33407E+07-3.75382E+06 3.52738E-01
 -1        12 3.62626E+10 3.88945E+02 1.37798E+10 1.34115E+07-1.18737E+06 2.26782E-01
 -1        13 3.86078E+10 1.13197E+02 1.46710E+10 1.34203E+07-3.01407E+05-8.52979E-03
 -1        14 1.62029E+08 2.31022E+04 6.15797E+07 2.75685E+04 7.39193E+07-1.39570E+00
 -1        15 6.28904E+08 2.16752E+04 2.38992E+08 2.72239E+06 6.94195E+07-1.49119E+00
 -1        16 1.97690E+09 1.88774E+04 7.51230E+08 5.08910E+06 6.04485E+07-1.59283E+00
 -1        17 4.09639E+09 1.61004E+04 1.55663E+09 7.12924E+06 5.15761E+07-1.82288E+00
 -1        18 6.87423E+09 1.34284E+04 2.61221E+09 8.84828E+06 4.29008E+07-1.73826E+00
 -1        19 1.01999E+10 1.08364E+04 3.87596E+09 1.02556E+07 3.45518E+07-1.25076E+00
 -1        20 1.39670E+10 8.37913E+03 5.30745E+09 1.13649E+07 2.66840E+07-7.84964E-01
 -1        21 1.80753E+10 6.12706E+03 6.86861E+09 1.21974E+07 1.94730E+07-2.05832E-01
 -1        22 2.24330E+10 4.11754E+03 8.52453E+09 1.27798E+07 1.31107E+07 2.19396E-01
 -1        23 2.69591E+10 2.44408E+03 1.02445E+10 1.31469E+07 7.80047E+06 3.72374E-01
 -1        24 3.15861E+10 1.16514E+03 1.20027E+10 1.33408E+07 3.75392E+06 3.52736E-01
 -1        25 3.62626E+10 3.54087E+02 1.37798E+10 1.34116E+07 1.18740E+06 2.26781E-01
 -1        26 3.86078E+10 7.27219E+01 1.46710E+10 1.34195E+07 3.01407E+05-8.53010E-03
 -1        27-1.62029E+08-2.31249E+04-6.15797E+07 2.73481E+04-7.39210E+07 9.08514E-01
 -1        28-6.28904E+08-2.16940E+04-2.38992E+08 2.72237E+06-6.94208E+07 1.01994E+00
 -1        29-1.97690E+09-1.89078E+04-7.51230E+08 5.08895E+06-6.04495E+07 1.16355E+00
 -1        30-4.09639E+09-1.61275E+04-1.55663E+09 7.12956E+06-5.15769E+07 1.46188E+00
 -1        31-6.87423E+09-1.33828E+04-2.61221E+09 8.84871E+06-4.29012E+07 1.46147E+00
 -1        32-1.01999E+10-1.07537E+04-3.87596E+09 1.02556E+07-3.45518E+07 1.04834E+00
 -1        33-1.39670E+10-8.29076E+03-5.30745E+09 1.13650E+07-2.66838E+07 6.30500E-01
 -1        34-1.80753E+10-6.04095E+03-6.86861E+09 1.21972E+07-1.94727E+07 7.52130E-02
 -1        35-2.24330E+10-4.07455E+03-8.52453E+09 1.27796E+07-1.31104E+07-3.31224E-01
 -1        36-2.69591E+10-2.43329E+03-1.02445E+10 1.31467E+07-7.80027E+06-4.59555E-01
 -1        37-3.15861E+10-1.18119E+03-1.20027E+10 1.33407E+07-3.75382E+06-4.12389E-01
 -1        38-3.62626E+10-3.86356E+02-1.37798E+10 1.34115E+07-1.18737E+06-2.58460E-01
 -1        39-3.86078E+10-1.17287E+02-1.46710E+10 1.34203E+07-3.01407E+05-8.53705E-03
 -1        40-1.62029E+08-2.30741E+04-6.15797E+07 2.75686E+04 7.39193E+07 9.08501E-01
 -1        41-6.28904E+08-2.16984E+04-2.38992E+08 2.72239E+06 6.94195E+07 1.01993E+00
 -1        42-1.97690E+09-1.88764E+04-7.51230E+08 5.08910E+06 6.04485E+07 1.16354E+00
 -1        43-4.09639E+09-1.61152E+04-1.55663E+09 7.12924E+06 5.15761E+07 1.46187E+00
 -1        44-6.87423E+09-1.34261E+04-2.61221E+09 8.84828E+06 4.29008E+07 1.46146E+00
 -1        45-1.01999E+10-1.08363E+04-3.87596E+09 1.02556E+07 3.45518E+07 1.04833E+00
 -1        46-1.39670E+10-8.38510E+03-5.30745E+09 1.13649E+07 2.66840E+07 6.30494E-01
 -1        47-1.80753E+10-6.12575E+03-6.86861E+09 1.21974E+07 1.94730E+07 7.52087E-02
 -1        48-2.24330E+10-4.12578E+03-8.52453E+09 1.27798E+07 1.31107E+07-3.31227E-01
 -1        49-2.69591E+10-2.44003E+03-1.02445E+10 1.31469E+07 7.80047E+06-4.59558E-01
 -1        50-3.15861E+10-1.16610E+03-1.20027E+10 1.33408E+07 3.75392E+06-4.12390E-01
 -1        51-3.62626E+10-3.54762E+02-1.37798E+10 1.34116E+07 1.18740E+06-2.58461E-01
 -1        52-3.86078E+10-7.35329E+01-1.46710E+10 1.34195E+07 3.01407E+05-8.53733E-03
 -3
    1PSTEP                         3           1           1          
    1PGM                1.000000E+00                                  
    1PGK                6.952197E+03                                  
    1PHID                         -1                                  
    1PSUBC                         0                                  
    1PMODE                         1                                  
  100CL  101 13.27031299          52                     2    1MODAL      1
 -4  TOSTRAIN    6    1
 -5  EXX         1    4    1    1
 -5  EYY         1    4    2    2
 -5  EZZ         1    4    3    3
 -5  EXY         1    4    1    2
 -5  EYZ         1    4    2    3
 -5  EZX         1    4    3    1
 -1         1 2.88491E-02-1.76791E-02-1.32304E-10 7.85443E-06-2.12302E-02-4.00841E-10
 -1         2 1.11983E-01-6.86324E-02-8.62113E-11 7.81867E-04-1.99377E-02-4.28268E-10
 -1         3 3.52014E-01-2.15748E-01 1.78263E-10 1.46155E-03-1.73612E-02-4.57458E-10
 -1         4 7.29419E-01-4.47062E-01 2.67314E-10 2.04762E-03-1.48129E-02-5.23529E-10
 -1         5 1.22406E+00-7.50226E-01 1.65793E-10 2.54136E-03-1.23213E-02-4.99228E-10
 -1         6 1.81624E+00-1.11318E+00 1.58723E-10 2.94540E-03-9.92331E-03-3.59216E-10
 -1         7 2.48702E+00-1.52430E+00 2.57754E-12 3.26405E-03-7.66360E-03-2.25441E-10
 -1         8 3.21857E+00-1.97267E+00-5.61539E-11 3.50304E-03-5.59258E-03-5.91139E-11
 -1         9 3.99452E+00-2.44825E+00 6.36839E-11 3.67030E-03-3.76532E-03 6.30117E-11
 -1        10 4.80046E+00-2.94222E+00 9.23561E-11 3.77575E-03-2.24024E-03 1.06947E-10
 -1        11 5.62436E+00-3.44719E+00 9.56009E-11 3.83146E-03-1.07810E-03 1.01307E-10
 -1        12 6.45708E+00-3.95756E+00 1.16553E-10 3.85178E-03-3.41014E-04 6.51319E-11
 -1        13 6.87469E+00-4.21352E+00 1.05629E-10 3.85434E-03-8.65645E-05-2.44976E-12
 -1        14 2.88491E-02-1.76791E-02 1.32304E-10 7.91770E-06 2.12297E-02-4.00845E-10
 -1        15 1.11983E-01-6.86324E-02 8.62113E-11 7.81873E-04 1.99373E-02-4.28272E-10
 -1        16 3.52014E-01-2.15748E-01-1.78263E-10 1.46159E-03 1.73609E-02-4.57461E-10
 -1        17 7.29419E-01-4.47062E-01-2.67314E-10 2.04752E-03 1.48127E-02-5.23532E-10
 -1        18 1.22406E+00-7.50226E-01-1.65793E-10 2.54123E-03 1.23212E-02-4.99230E-10
 -1        19 1.81624E+00-1.11318E+00-1.58723E-10 2.94541E-03 9.92331E-03-3.59218E-10
 -1        20 2.48702E+00-1.52430E+00-2.57754E-12 3.26401E-03 7.66366E-03-2.25442E-10
 -1        21 3.21857E+00-1.97267E+00 5.61539E-11 3.50309E-03 5.59267E-03-5.91151E-11
 -1        22 3.99452E+00-2.44825E+00-6.36839E-11 3.67038E-03 3.76540E-03 6.30108E-11
 -1        23 4.80046E+00-2.94222E+00-9.23561E-11 3.77580E-03 2.24030E-03 1.06946E-10
 -1        24 5.62436E+00-3.44719E+00-9.56009E-11 3.83149E-03 1.07813E-03 1.01306E-10
 -1        25 6.45708E+00-3.95756E+00-1.16553E-10 3.85182E-03 3.41023E-04 6.51316E-11
 -1        26 6.87469E+00-4.21352E+00-1.05629E-10 3.85410E-03 8.65645E-05-2.44985E-12
 -1        27-2.88491E-02 1.76791E-02-1.32304E-10 7.85439E-06-2.12302E-02 2.60926E-10
 -1        28-1.11983E-01 6.86324E-02-8.62113E-11 7.81867E-04-1.99377E-02 2.92929E-10
 -1        29-3.52014E-01 2.15748E-01 1.78263E-10 1.46155E-03-1.73612E-02 3.34171E-10
 -1        30-7.29419E-01 4.47062E-01 2.67314E-10 2.04762E-03-1.48129E-02 4.19853E-10
 -1        31-1.22406E+00 7.50226E-01 1.65793E-10 2.54136E-03-1.23213E-02 4.19735E-10
 -1        32-1.81624E+00 1.11318E+00 1.58723E-10 2.94540E-03-9.92331E-03 3.01083E-10
 -1        33-2.48702E+00 1.52430E+00 2.57754E-12 3.26405E-03-7.66360E-03 1.81080E-10
 -1        34-3.21857E+00 1.97267E+00-5.61539E-11 3.50304E-03-5.59258E-03 2.16012E-11
 -1        35-3.99452E+00 2.44825E+00 6.36839E-11 3.67030E-03-3.76532E-03-9.51277E-11
 -1        36-4.80046E+00 2.94222E+00 9.23561E-11 3.77575E-03-2.24024E-03-1.31985E-10
 -1        37-5.62436E+00 3.44719E+00 9.56009E-11 3.83146E-03-1.07810E-03-1.18438E-10
 -1        38-6.45708E+00 3.95756E+00 1.16553E-10 3.85178E-03-3.41014E-04-7.42299E-11
 -1        39-6.87469E+00 4.21352E+00 1.05629E-10 3.85434E-03-8.65645E-05-2.45185E-12
 -1        40-2.88491E-02 1.76791E-02 1.32304E-10 7.91774E-06 2.12297E-02 2.60922E-10
 -1        41-1.11983E-01 6.86324E-02 8.62113E-11 7.81873E-04 1.99373E-02 2.92925E-10
 -1        42-3.52014E-01 2.15748E-01-1.78263E-10 1.46159E-03 1.73609E-02 3.34168E-10
 -1        43-7.29419E-01 4.47062E-01-2.67314E-10 2.04752E-03 1.48127E-02 4.19851E-10
 -1        44-1.22406E+00 7.50226E-01-1.65793E-10 2.54123E-03 1.23212E-02 4.19733E-10
 -1        45-1.81624E+00 1.11318E+00-1.58723E-10 2.94541E-03 9.92331E-03 3.01081E-10
 -1        46-2.48702E+00 1.52430E+00-2.57754E-12 3.26401E-03 7.66366E-03 1.81078E-10
 -1        47-3.21857E+00 1.97267E+00 5.61539E-11 3.50309E-03 5.59267E-03 2.16000E-11
 -1        48-3.99452E+00 2.44825E+00-6.36839E-11 3.67038E-03 3.76540E-03-9.51286E-11
 -1        49-4.80046E+00 2.94222E+00-9.23561E-11 3.77580E-03 2.24030E-03-1.31985E-10
 -1        50-5.62436E+00 3.44719E+00-9.56009E-11 3.83149E-03 1.07813E-03-1.18439E-10
 -1        51-6.45708E+00 3.95756E+00-1.16553E-10 3.85182E-03 3.41023E-04-7.42301E-11
 -1        52-6.87469E+00 4.21352E+00-1.05629E-10 3.85410E-03 8.65645E-05-2.45193E-12
 -3
    1PSTEP                         4           1           1          
    1PGM                1.000000E+00                                  
    1PGK                6.952197E+03                                  
    1PHID                         -1                                  
    1PSUBC                         0                                  
    1PMODE                         1                                  
  100CL  101 13.27031299          52                     2    1MODAL      1
 -4  ERROR       1    1
 -5  STR(%)      1    1    0    0
 -1         1 7.91135E+01
 -1         2 1.20252E+02
 -1         3 1.21371E+02
 -1         4 1.21483E+02
 -1         5 1.21504E+02
 -1         6 1.21509E+02
 -1         7 1.21511E+02
 -1         8 1.21512E+02
 -1         9 1.21512E+02
 -1        10 1.21512E+02
 -1        11 1.21512E+02
 -1        12 1.21512E+02
 -1        13 1.21512E+02
 -1        14 7.91135E+01
 -1        15 1.20252E+02
 -1        16 1.21371E+02
 -1        17 1.21483E+02
 -1        18 1.21504E+02
 -1        19 1.21509E+02
 -1        20 1.21511E+02
 -1        21 1.21512E+02
 -1        22 1.21512E+02
 -1        23 1.21512E+02
 -1        24 1.21512E+02
 -1        25 1.21512E+02
 -1        26 1.21512E+02
 -1        27 7.91135E+01
 -1        28 1.20252E+02
 -1        29 1.21371E+02
 -1        30 1.21483E+02
 -1        31 1.21504E+02
 -1        32 1.21509E+02
 -1        33 1.21511E+02
 -1        34 1.21512E+02
 -1        35 1.21512E+02
 -1        36 1.21512E+02
 -1        37 1.21512E+02
 -1        38 1.21512E+02
 -1        39 1.21512E+02
 -1        40 7.91135E+01
 -1        41 1.20252E+02
 -1        42 1.21371E+02
 -1        43 1.21483E+02
 -1        44 1.21504E+02
 -1        45 1.21509E+02
 -1        46 1.21511E+02
 -1        47 1.21512E+02
 -1        48 1.21512E+02
 -1        49 1.21512E+02
 -1        50 1.21512E+02
 -1        51 1.21512E+02
 -1        52 1.21512E+02
 -3
    1PSTEP                         5           1           1          
    1PGM                1.000000E+00                                  
    1PGK                2.773737E+05                                  
    1PHID                         -1                                  
    1PSUBC                         0                                  
    1PMODE                         2                                  
  100CL  102 83.82099360          52                     2    2MODAL      1
 -4  DISP        4    1
 -5  D1          1    2    1    0
 -5  D2          1    2    2    0
 -5  D3          1    2    3    0
 -5  ALL         1    2    0    0    1ALL
 -1         1 3.50187E-01 1.01805E+02 0.00000E+00
 -1         2 3.47065E-01 6.11310E+01 0.00000E+00
 -1         3 3.27975E-01 2.17524E+01 0.00000E+00
 -1         4 2.84441E-01-1.39731E+01 0.00000E+00
 -1         5 2.15667E-01-4.31470E+01 0.00000E+00
 -1         6 1.27495E-01-6.31654E+01 0.00000E+00
 -1         7 3.07971E-02-7.23994E+01 0.00000E+00
 -1         8-6.05607E-02-7.06630E+01 0.00000E+00
 -1         9-1.31948E-01-5.94328E+01 0.00000E+00
 -1        10-1.70058E-01-4.18150E+01 0.00000E+00
 -1        11-1.64537E-01-2.22961E+01 0.00000E+00
 -1        12-1.08827E-01-6.34891E+00 0.00000E+00
 -1        13 0.00000E+00 0.00000E+00 0.00000E+00
 -1        14 3.50187E-01 1.01805E+02 0.00000E+00
 -1        15 3.47065E-01 6.11310E+01 0.00000E+00
 -1        16 3.27975E-01 2.17524E+01 0.00000E+00
 -1        17 2.84441E-01-1.39731E+01 0.00000E+00
 -1        18 2.15667E-01-4.31470E+01 0.00000E+00
 -1        19 1.27495E-01-6.31654E+01 0.00000E+00
 -1        20 3.07971E-02-7.23994E+01 0.00000E+00
 -1        21-6.05607E-02-7.06630E+01 0.00000E+00
 -1        22-1.31948E-01-5.94328E+01 0.00000E+00
 -1        23-1.70058E-01-4.18150E+01 0.00000E+00
 -1        24-1.64537E-01-2.22961E+01 0.00000E+00
 -1        25-1.08827E-01-6.34891E+00 0.00000E+00
 -1        26 0.00000E+00 0.00000E+00 0.00000E+00
 -1        27-3.50187E-01 1.01805E+02 0.00000E+00
 -1        28-3.47065E-01 6.11310E+01 0.00000E+00
 -1        29-3.27975E-01 2.17524E+01 0.00000E+00
 -1        30-2.84441E-01-1.39731E+01 0.00000E+00
 -1        31-2.15667E-01-4.31470E+01 0.00000E+00
 -1        32-1.27495E-01-6.31654E+01 0.00000E+00
 -1        33-3.07971E-02-7.23994E+01 0.00000E+00
 -1        34 6.05607E-02-7.06630E+01 0.00000E+00
 -1        35 1.31948E-01-5.94328E+01 0.00000E+00
 -1        36 1.70058E-01-4.18150E+01 0.00000E+00
 -1        37 1.64537E-01-2.22961E+01 0.00000E+00
 -1        38 1.08827E-01-6.34891E+00 0.00000E+00
 -1        39 0.00000E+00 0.00000E+00 0.00000E+00
 -1        40-3.50187E-01 1.01805E+02 0.00000E+00
 -1        41-3.47065E-01 6.11310E+01 0.00000E+00
 -1        42-3.27975E-01 2.17524E+01 0.00000E+00
 -1        43-2.84441E-01-1.39731E+01 0.00000E+00
 -1        44-2.15667E-01-4.31470E+01 0.00000E+00
 -1        45-1.27495E-01-6.31654E+01 0.00000E+00
 -1        46-3.07971E-02-7.23994E+01 0.00000E+00
 -1        47 6.05607E-02-7.06630E+01 0.00000E+00
 -1        48 1.31948E-01-5.94328E+01 0.00000E+00
 -1        49 1.70058E-01-4.18150E+01 0.00000E+00
 -1        50 1.64537E-01-2.22961E+01 0.00000E+00
 -1        51 1.08827E-01-6.34891E+00 0.00000E+00
 -1        52 0.00000E+00 0.00000E+00 0.00000E+00
 -3
    1PSTEP                         6           1           1          
    1PGM                1.000000E+00                                  
    1PGK                2.773737E+05                                  
    1PHID                         -1                                  
    1PSUBC                         0                                  
    1PMODE                         2                                  
  100CL  102 83.82099360          52                     2    2MODAL      1
 -4  STRESS      6    1
 -5  SXX         1    4    1    1
 -5  SYY         1    4    2    2
 -5  SZZ         1    4    3    3
 -5  SXY         1    4    1    2
 -5  SYZ         1    4    2    3
 -5  SZX         1    4    3    1
 -1         1 6.01200E+09 7.85299E+05 2.28486E+09 3.80996E+06-2.51303E+09-3.18761E-02
 -1         2 2.13843E+10 5.91581E+05 8.12625E+09 9.53698E+07-1.89306E+09-9.37591E-02
 -1         3 6.02896E+10 2.15620E+05 2.29101E+10 1.41551E+08-6.90030E+08-7.96418E-02
 -1         4 1.08122E+11-1.24221E+05 4.10862E+10 1.44973E+08 3.97493E+08 3.34373E-02
 -1         5 1.51096E+11-4.01342E+05 5.74161E+10 1.11354E+08 1.28436E+09-9.37169E-02
 -1         6 1.77978E+11-5.91752E+05 6.76313E+10 4.96537E+07 1.89372E+09-2.66009E-01
 -1         7 1.81044E+11-6.80475E+05 6.87966E+10-2.86799E+07 2.17771E+09-5.36529E-01
 -1         8 1.56677E+11-6.66101E+05 5.95371E+10-1.11111E+08 2.13172E+09-1.12708E+00
 -1         9 1.05415E+11-5.62841E+05 4.00574E+10-1.85816E+08 1.80115E+09-1.45328E+00
 -1        10 3.13741E+10-4.00186E+05 1.19220E+10-2.43574E+08 1.28056E+09-1.26805E+00
 -1        11-5.89481E+10-2.20773E+05-2.24004E+10-2.79498E+08 7.06388E+08-8.73154E-01
 -1        12-1.58403E+11-7.66853E+04-6.01932E+10-2.94385E+08 2.45277E+08-4.57844E-01
 -1        13-2.09541E+11-2.04426E+04-7.96255E+10-2.96316E+08 6.53023E+07-1.39708E-02
 -1        14 6.01200E+09 7.85299E+05 2.28486E+09 3.81011E+06 2.51303E+09-3.24982E-02
 -1        15 2.13843E+10 5.91560E+05 8.12625E+09 9.53697E+07 1.89306E+09-9.43742E-02
 -1        16 6.02896E+10 2.15631E+05 2.29101E+10 1.41551E+08 6.90029E+08-8.02189E-02
 -1        17 1.08122E+11-1.24207E+05 4.10862E+10 1.44973E+08-3.97494E+08 3.29139E-02
 -1        18 1.51096E+11-4.01367E+05 5.74161E+10 1.11354E+08-1.28436E+09-9.42014E-02
 -1        19 1.77978E+11-5.91794E+05 6.76313E+10 4.96538E+07-1.89372E+09-2.66450E-01
 -1        20 1.81044E+11-6.80561E+05 6.87966E+10-2.86795E+07-2.17771E+09-5.36909E-01
 -1        21 1.56677E+11-6.66185E+05 5.95371E+10-1.11112E+08-2.13172E+09-1.12740E+00
 -1        22 1.05415E+11-5.62850E+05 4.00574E+10-1.85817E+08-1.80115E+09-1.45352E+00
 -1        23 3.13741E+10-4.00153E+05 1.19220E+10-2.43574E+08-1.28057E+09-1.26822E+00
 -1        24-5.89481E+10-2.20710E+05-2.24004E+10-2.79498E+08-7.06388E+08-8.73262E-01
 -1        25-1.58403E+11-7.66119E+04-6.01932E+10-2.94385E+08-2.45277E+08-4.57890E-01
 -1        26-2.09541E+11-2.03671E+04-7.96255E+10-2.96315E+08-6.53023E+07-1.39853E-02
 -1        27-6.01200E+09-7.85316E+05-2.28486E+09 3.80996E+06-2.51303E+09-8.51814E-01
 -1        28-2.13843E+10-5.91569E+05-8.12625E+09 9.53698E+07-1.89306E+09-7.76636E-01
 -1        29-6.02896E+10-2.15633E+05-2.29101E+10 1.41551E+08-6.90030E+08-7.61747E-01
 -1        30-1.08122E+11 1.24202E+05-4.10862E+10 1.44973E+08 3.97493E+08-8.29716E-01
 -1        31-1.51096E+11 4.01342E+05-5.74161E+10 1.11354E+08 1.28436E+09-6.55613E-01
 -1        32-1.77978E+11 5.91755E+05-6.76313E+10 4.96537E+07 1.89372E+09-4.52380E-01
 -1        33-1.81044E+11 6.80478E+05-6.87966E+10-2.86799E+07 2.17771E+09-1.15142E-01
 -1        34-1.56677E+11 6.66102E+05-5.95371E+10-1.11111E+08 2.13172E+09 6.05280E-01
 -1        35-1.05415E+11 5.62831E+05-4.00574E+10-1.85816E+08 1.80115E+09 1.07028E+00
 -1        36-3.13741E+10 4.00190E+05-1.19220E+10-2.43574E+08 1.28056E+09 9.97983E-01
 -1        37 5.89481E+10 2.20772E+05 2.24004E+10-2.79498E+08 7.06388E+08 7.07538E-01
 -1        38 1.58403E+11 7.66782E+04 6.01932E+10-2.94385E+08 2.45277E+08 3.87988E-01
 -1        39 2.09541E+11 2.04436E+04 7.96255E+10-2.96316E+08 6.53023E+07-1.39378E-02
 -1        40-6.01200E+09-7.85303E+05-2.28486E+09 3.81011E+06 2.51303E+09-8.52437E-01
 -1        41-2.13843E+10-5.91573E+05-8.12625E+09 9.53697E+07 1.89306E+09-7.77251E-01
 -1        42-6.02896E+10-2.15637E+05-2.29101E+10 1.41551E+08 6.90029E+08-7.62326E-01
 -1        43-1.08122E+11 1.24227E+05-4.10862E+10 1.44973E+08-3.97494E+08-8.30238E-01
 -1        44-1.51096E+11 4.01368E+05-5.74161E+10 1.11354E+08-1.28436E+09-6.56098E-01
 -1        45-1.77978E+11 5.91805E+05-6.76313E+10 4.96538E+07-1.89372E+09-4.52821E-01
 -1        46-1.81044E+11 6.80561E+05-6.87966E+10-2.86795E+07-2.17771E+09-1.15521E-01
 -1        47-1.56677E+11 6.66207E+05-5.95371E+10-1.11112E+08-2.13172E+09 6.04961E-01
 -1        48-1.05415E+11 5.62864E+05-4.00574E+10-1.85817E+08-1.80115E+09 1.07004E+00
 -1        49-3.13741E+10 4.00142E+05-1.19220E+10-2.43574E+08-1.28057E+09 9.97814E-01
 -1        50 5.89481E+10 2.20713E+05 2.24004E+10-2.79498E+08-7.06388E+08 7.07430E-01
 -1        51 1.58403E+11 7.66142E+04 6.01932E+10-2.94385E+08-2.45277E+08 3.87942E-01
 -1        52 2.09541E+11 2.03726E+04 7.96255E+10-2.96315E+08-6.53023E+07-1.39521E-02
 -3
    1PSTEP                         7           1           1          
    1PGM                1.000000E+00                                  
    1PGK                2.773737E+05                                  
    1PHID                         -1                                  
    1PSUBC                         0                                  
    1PMODE                         2                                  
  100CL  102 83.82099360          52                     2    2MODAL      1
 -4  TOSTRAIN    6    1
 -5  EXX         1    4    1    1
 -5  EYY         1    4    2    2
 -5  EZZ         1    4    3    3
 -5  EXY         1    4    1    2
 -5  EYZ         1    4    2    3
 -5  EZX         1    4    3    1
 -1         1 1.07044E+00-6.55988E-01-1.97845E-10 1.09422E-03-7.21745E-01-9.15485E-12
 -1         2 3.80772E+00-2.33370E+00 8.66721E-11 2.73903E-02-5.43690E-01-2.69277E-11
 -1         3 1.07354E+01-6.57974E+00 2.59966E-10 4.06537E-02-1.98177E-01-2.28732E-11
 -1         4 1.92526E+01-1.18000E+01-7.52275E-11 4.16363E-02 1.14160E-01 9.60321E-12
 -1         5 2.69048E+01-1.64901E+01-1.27287E-10 3.19810E-02 3.68870E-01-2.69156E-11
 -1         6 3.16916E+01-1.94239E+01 2.74631E-10 1.42606E-02 5.43878E-01-7.63981E-11
 -1         7 3.22377E+01-1.97586E+01 6.83235E-10-8.23689E-03 6.25440E-01-1.54092E-10
 -1         8 2.78987E+01-1.70993E+01 7.41151E-10-3.19113E-02 6.12232E-01-3.23699E-10
 -1         9 1.87707E+01-1.15047E+01 4.03698E-10-5.33665E-02 5.17291E-01-4.17382E-10
 -1        10 5.58665E+00-3.42412E+00 2.34947E-10-6.99547E-02 3.67779E-01-3.64185E-10
 -1        11-1.04965E+01 6.43334E+00 1.99688E-10-8.02722E-02 2.02875E-01-2.50771E-10
 -1        12-2.82060E+01 1.72875E+01 2.14710E-10-8.45476E-02 7.04437E-02-1.31493E-10
 -1        13-3.73118E+01 2.28685E+01 3.13010E-10-8.51023E-02 1.87549E-02-4.01242E-12
 -1        14 1.07044E+00-6.55988E-01 1.97845E-10 1.09427E-03 7.21745E-01-9.33350E-12
 -1        15 3.80772E+00-2.33370E+00-8.66721E-11 2.73903E-02 5.43689E-01-2.71043E-11
 -1        16 1.07354E+01-6.57974E+00-2.59966E-10 4.06537E-02 1.98177E-01-2.30389E-11
 -1        17 1.92526E+01-1.18000E+01 7.52275E-11 4.16364E-02-1.14161E-01 9.45291E-12
 -1        18 2.69048E+01-1.64901E+01 1.27287E-10 3.19810E-02-3.68870E-01-2.70547E-11
 -1        19 3.16916E+01-1.94239E+01-2.74631E-10 1.42606E-02-5.43878E-01-7.65246E-11
 -1        20 3.22377E+01-1.97586E+01-6.83235E-10-8.23678E-03-6.25440E-01-1.54201E-10
 -1        21 2.78987E+01-1.70993E+01-7.41151E-10-3.19114E-02-6.12232E-01-3.23791E-10
 -1        22 1.87707E+01-1.15047E+01-4.03698E-10-5.33667E-02-5.17292E-01-4.17452E-10
 -1        23 5.58665E+00-3.42412E+00-2.34947E-10-6.99548E-02-3.67779E-01-3.64234E-10
 -1        24-1.04965E+01 6.43334E+00-1.99688E-10-8.02722E-02-2.02875E-01-2.50802E-10
 -1        25-2.82060E+01 1.72875E+01-2.14710E-10-8.45476E-02-7.04437E-02-1.31506E-10
 -1        26-3.73118E+01 2.28685E+01-3.13010E-10-8.51019E-02-1.87549E-02-4.01660E-12
 -1        27-1.07044E+00 6.55988E-01-1.97845E-10 1.09422E-03-7.21745E-01-2.44642E-10
 -1        28-3.80772E+00 2.33370E+00 8.66721E-11 2.73903E-02-5.43690E-01-2.23050E-10
 -1        29-1.07354E+01 6.57974E+00 2.59966E-10 4.06537E-02-1.98177E-01-2.18774E-10
 -1        30-1.92526E+01 1.18000E+01-7.52275E-11 4.16363E-02 1.14160E-01-2.38295E-10
 -1        31-2.69048E+01 1.64901E+01-1.27287E-10 3.19810E-02 3.68870E-01-1.88293E-10
 -1        32-3.16916E+01 1.94239E+01 2.74631E-10 1.42606E-02 5.43878E-01-1.29924E-10
 -1        33-3.22377E+01 1.97586E+01 6.83235E-10-8.23689E-03 6.25440E-01-3.30689E-11
 -1        34-2.78987E+01 1.70993E+01 7.41151E-10-3.19113E-02 6.12232E-01 1.73837E-10
 -1        35-1.87707E+01 1.15047E+01 4.03698E-10-5.33665E-02 5.17291E-01 3.07386E-10
 -1        36-5.58665E+00 3.42412E+00 2.34947E-10-6.99547E-02 3.67779E-01 2.86622E-10
 -1        37 1.04965E+01-6.43334E+00 1.99688E-10-8.02722E-02 2.02875E-01 2.03206E-10
 -1        38 2.82060E+01-1.72875E+01 2.14710E-10-8.45476E-02 7.04437E-02 1.11430E-10
 -1        39 3.73118E+01-2.28685E+01 3.13010E-10-8.51023E-02 1.87549E-02-4.00295E-12
 -1        40-1.07044E+00 6.55988E-01 1.97845E-10 1.09427E-03 7.21745E-01-2.44821E-10
 -1        41-3.80772E+00 2.33370E+00-8.66721E-11 2.73903E-02 5.43689E-01-2.23227E-10
 -1        42-1.07354E+01 6.57974E+00-2.59966E-10 4.06537E-02 1.98177E-01-2.18941E-10
 -1        43-1.92526E+01 1.18000E+01 7.52275E-11 4.16364E-02-1.14161E-01-2.38445E-10
 -1        44-2.69048E+01 1.64901E+01 1.27287E-10 3.19810E-02-3.68870E-01-1.88432E-10
 -1        45-3.16916E+01 1.94239E+01-2.74631E-10 1.42606E-02-5.43878E-01-1.30051E-10
 -1        46-3.22377E+01 1.97586E+01-6.83235E-10-8.23678E-03-6.25440E-01-3.31778E-11
 -1        47-2.78987E+01 1.70993E+01-7.41151E-10-3.19114E-02-6.12232E-01 1.73745E-10
 -1        48-1.87707E+01 1.15047E+01-4.03698E-10-5.33667E-02-5.17292E-01 3.07316E-10
 -1        49-5.58665E+00 3.42412E+00-2.34947E-10-6.99548E-02-3.67779E-01 2.86573E-10
 -1        50 1.04965E+01-6.43334E+00-1.99688E-10-8.02722E-02-2.02875E-01 2.03174E-10
 -1        51 2.82060E+01-1.72875E+01-2.14710E-10-8.45476E-02-7.04437E-02 1.11417E-10
 -1        52 3.73118E+01-2.28685E+01-3.13010E-10-8.51019E-02-1.87549E-02-4.00706E-12
 -3
    1PSTEP                         8           1           1          
    1PGM                1.000000E+00                                  
    1PGK                2.773737E+05                                  
    1PHID                         -1                                  
    1PSUBC                         0                                  
    1PMODE                         2                                  
  100CL  102 83.82099360          52                     2    2MODAL      1
 -4  ERROR       1    1
 -5  STR(%)      1    1    0    0
 -1         1 8.39915E+01
 -1         2 1.21073E+02
 -1         3 1.21510E+02
 -1         4 1.21510E+02
 -1         5 1.21494E+02
 -1         6 1.21476E+02
 -1         7 1.21464E+02
 -1         8 1.21452E+02
 -1         9 1.21431E+02
 -1        10 1.21340E+02
 -1        11 1.21503E+02
 -1        12 1.21511E+02
 -1        13 1.21511E+02
 -1        14 8.39915E+01
 -1        15 1.21073E+02
 -1        16 1.21510E+02
 -1        17 1.21510E+02
 -1        18 1.21494E+02
 -1        19 1.21476E+02
 -1        20 1.21464E+02
 -1        21 1.21452E+02
 -1        22 1.21431E+02
 -1        23 1.21340E+02
 -1        24 1.21503E+02
 -1        25 1.21511E+02
 -1        26 1.21511E+02
 -1        27 8.39915E+01
 -1        28 1.21073E+02
 -1        29 1.21510E+02
 -1        30 1.21510E+02
 -1        31 1.21494E+02
 -1        32 1.21476E+02
 -1        33 1.21464E+02
 -1        34 1.21452E+02
 -1        35 1.21431E+02
 -1        36 1.21340E+02
 -1        37 1.21503E+02
 -1        38 1.21511E+02
 -1        39 1.21511E+02
 -1        40 8.39915E+01
 -1        41 1.21073E+02
 -1        42 1.21510E+02
 -1        43 1.21510E+02
 -1        44 1.21494E+02
 -1        45 1.21476E+02
 -1        46 1.21464E+02
 -1        47 1.21452E+02
 -1        48 1.21431E+02
 -1        49 1.21340E+02
 -1        50 1.21503E+02
 -1        51 1.21511E+02
 -1        52 1.21511E+02
 -3
    1PSTEP                         9           1           1          
    1PGM                1.000000E+00                                  
    1PGK                2.226146E+06                                  
    1PHID                         -1                                  
    1PSUBC                         0                                  
    1PMODE                         3                                  
  100CL  103 237.4635298          52                     2    3MODAL      1
 -4  DISP        4    1
 -5  D1          1    2    1    0
 -5  D2          1    2    2    0
 -5  D3          1    2    3    0
 -5  ALL         1    2    0    0    1ALL
 -1         1 5.84557E-01 1.02121E+02 0.00000E+00
 -1         2 5.61194E-01 3.52836E+01 0.00000E+00
 -1         3 4.33937E-01-2.27683E+01 0.00000E+00
 -1         4 1.92461E-01-5.93100E+01 0.00000E+00
 -1         5-9.55694E-02-6.49621E+01 0.00000E+00
 -1         6-3.27702E-01-4.02697E+01 0.00000E+00
 -1         7-4.17182E-01 3.18463E+00 0.00000E+00
 -1         8-3.33435E-01 4.69733E+01 0.00000E+00
 -1         9-1.17815E-01 7.32977E+01 0.00000E+00
 -1        10 1.30524E-01 7.25560E+01 0.00000E+00
 -1        11 2.91329E-01 4.79460E+01 0.00000E+00
 -1        12 2.65253E-01 1.54758E+01 0.00000E+00
 -1        13 0.00000E+00 0.00000E+00 0.00000E+00
 -1        14 5.84557E-01 1.02121E+02 0.00000E+00
 -1        15 5.61194E-01 3.52836E+01 0.00000E+00
 -1        16 4.33937E-01-2.27683E+01 0.00000E+00
 -1        17 1.92461E-01-5.93100E+01 0.00000E+00
 -1        18-9.55694E-02-6.49621E+01 0.00000E+00
 -1        19-3.27702E-01-4.02697E+01 0.00000E+00
 -1        20-4.17182E-01 3.18463E+00 0.00000E+00
 -1        21-3.33435E-01 4.69733E+01 0.00000E+00
 -1        22-1.17815E-01 7.32977E+01 0.00000E+00
 -1        23 1.30524E-01 7.25560E+01 0.00000E+00
 -1        24 2.91329E-01 4.79460E+01 0.00000E+00
 -1        25 2.65253E-01 1.54758E+01 0.00000E+00
 -1        26 0.00000E+00 0.00000E+00 0.00000E+00
 -1        27-5.84557E-01 1.02121E+02 0.00000E+00
 -1        28-5.61194E-01 3.52836E+01 0.00000E+00
 -1        29-4.33937E-01-2.27683E+01 0.00000E+00
 -1        30-1.92461E-01-5.93100E+01 0.00000E+00
 -1        31 9.55694E-02-6.49621E+01 0.00000E+00
 -1        32 3.27702E-01-4.02697E+01 0.00000E+00
 -1        33 4.17182E-01 3.18463E+00 0.00000E+00
 -1        34 3.33435E-01 4.69733E+01 0.00000E+00
 -1        35 1.17815E-01 7.32977E+01 0.00000E+00
 -1        36-1.30524E-01 7.25560E+01 0.00000E+00
 -1        37-2.91329E-01 4.79460E+01 0.00000E+00
 -1        38-2.65253E-01 1.54758E+01 0.00000E+00
 -1        39 0.00000E+00 0.00000E+00 0.00000E+00
 -1        40-5.84557E-01 1.02121E+02 0.00000E+00
 -1        41-5.61194E-01 3.52836E+01 0.00000E+00
 -1        42-4.33937E-01-2.27683E+01 0.00000E+00
 -1        43-1.92461E-01-5.93100E+01 0.00000E+00
 -1        44 9.55694E-02-6.49621E+01 0.00000E+00
 -1        45 3.27702E-01-4.02697E+01 0.00000E+00
 -1        46 4.17182E-01 3.18463E+00 0.00000E+00
 -1        47 3.33435E-01 4.69733E+01 0.00000E+00
 -1        48 1.17815E-01 7.32977E+01 0.00000E+00
 -1        49-1.30524E-01 7.25560E+01 0.00000E+00
 -1        50-2.91329E-01 4.79460E+01 0.00000E+00
 -1        51-2.65253E-01 1.54758E+01 0.00000E+00
 -1        52 0.00000E+00 0.00000E+00 0.00000E+00
 -3
    1PSTEP                        10           1           1          
    1PGM                1.000000E+00                                  
    1PGK                2.226146E+06                                  
    1PHID                         -1                                  
    1PSUBC                         0                                  
    1PMODE                         3                                  
  100CL  103 237.4635298          52                     2    3MODAL      1
 -4  STRESS      6    1
 -5  SXX         1    4    1    1
 -5  SYY         1    4    2    2
 -5  SZZ         1    4    3    3
 -5  SXY         1    4    1    2
 -5  SYZ         1    4    2    3
 -5  SZX         1    4    3    1
 -1         1 4.49882E+10 5.31721E+06 1.70975E+10 5.02565E+07-1.70153E+10-7.80614E-01
 -1         2 1.45007E+11 2.85350E+06 5.51037E+10 6.67302E+08-9.13140E+09-8.23774E-01
 -1         3 3.54986E+11-1.48963E+06 1.34894E+11 7.01387E+08 4.76689E+09-7.53067E-01
 -1         4 5.09764E+11-4.20576E+06 1.93709E+11 2.88626E+08 1.34587E+10-3.75161E-01
 -1         5 5.00770E+11-4.65169E+06 1.90291E+11-3.22681E+08 1.48857E+10-3.01637E-01
 -1         6 3.09622E+11-2.88419E+06 1.17655E+11-8.38257E+08 9.22959E+09-4.05560E-01
 -1         7 5.51930E+09 2.51584E+05 2.09743E+09-1.02130E+09-8.05187E+08-1.53699E-01
 -1         8-2.88206E+11 3.42150E+06-1.09517E+11-7.80287E+08-1.09491E+10 1.83325E-01
 -1         9-4.46660E+11 5.34139E+06-1.69729E+11-1.99765E+08-1.70928E+10 3.14706E-01
 -1        10-3.93888E+11 5.32518E+06-1.49675E+11 5.01928E+08-1.70409E+10 1.69695E-01
 -1        11-1.29705E+11 3.62134E+06-4.92865E+10 1.07385E+09-1.15885E+10 1.35845E-02
 -1        12 2.80470E+11 1.42164E+06 1.06579E+11 1.35540E+09-4.54931E+09-1.72621E-03
 -1        13 5.10730E+11 4.00558E+05 1.94078E+11 1.39574E+09-1.28183E+09-2.59726E-02
 -1        14 4.49882E+10 5.31722E+06 1.70975E+10 5.02566E+07 1.70153E+10-7.83141E-01
 -1        15 1.45007E+11 2.85351E+06 5.51037E+10 6.67302E+08 9.13140E+09-8.26246E-01
 -1        16 3.54986E+11-1.48960E+06 1.34894E+11 7.01387E+08-4.76689E+09-7.55302E-01
 -1        17 5.09764E+11-4.20574E+06 1.93709E+11 2.88626E+08-1.34587E+10-3.77149E-01
 -1        18 5.00770E+11-4.65170E+06 1.90291E+11-3.22681E+08-1.48857E+10-3.03512E-01
 -1        19 3.09622E+11-2.88420E+06 1.17655E+11-8.38257E+08-9.22959E+09-4.07155E-01
 -1        20 5.51930E+09 2.51661E+05 2.09743E+09-1.02130E+09 8.05187E+08-1.54878E-01
 -1        21-2.88206E+11 3.42153E+06-1.09517E+11-7.80287E+08 1.09491E+10 1.82358E-01
 -1        22-4.46660E+11 5.34138E+06-1.69729E+11-1.99765E+08 1.70928E+10 3.13744E-01
 -1        23-3.93888E+11 5.32517E+06-1.49675E+11 5.01928E+08 1.70409E+10 1.68825E-01
 -1        24-1.29705E+11 3.62133E+06-4.92865E+10 1.07385E+09 1.15885E+10 1.29620E-02
 -1        25 2.80470E+11 1.42163E+06 1.06579E+11 1.35540E+09 4.54931E+09-1.96767E-03
 -1        26 5.10730E+11 4.00555E+05 1.94078E+11 1.39574E+09 1.28183E+09-2.59539E-02
 -1        27-4.49882E+10-5.31717E+06-1.70975E+10 5.02565E+07-1.70153E+10 5.85150E-01
 -1        28-1.45007E+11-2.85350E+06-5.51037E+10 6.67302E+08-9.13140E+09 6.50910E-01
 -1        29-3.54986E+11 1.48965E+06-1.34894E+11 7.01387E+08 4.76689E+09 6.26386E-01
 -1        30-5.09764E+11 4.20577E+06-1.93709E+11 2.88626E+08 1.34587E+10 2.85256E-01
 -1        31-5.00770E+11 4.65168E+06-1.90291E+11-3.22681E+08 1.48857E+10 2.18780E-01
 -1        32-3.09622E+11 2.88420E+06-1.17655E+11-8.38257E+08 9.22959E+09 3.07567E-01
 -1        33-5.51930E+09-2.51592E+05-2.09743E+09-1.02130E+09-8.05187E+08 3.10416E-02
 -1        34 2.88206E+11-3.42149E+06 1.09517E+11-7.80287E+08-1.09491E+10-3.46934E-01
 -1        35 4.46660E+11-5.34137E+06 1.69729E+11-1.99765E+08-1.70928E+10-5.02240E-01
 -1        36 3.93888E+11-5.32519E+06 1.49675E+11 5.01928E+08-1.70409E+10-3.35901E-01
 -1        37 1.29705E+11-3.62135E+06 4.92865E+10 1.07385E+09-1.15885E+10-1.46059E-01
 -1        38-2.80470E+11-1.42163E+06-1.06579E+11 1.35540E+09-4.54931E+09-8.35547E-02
 -1        39-5.10730E+11-4.00578E+05-1.94078E+11 1.39574E+09-1.28183E+09-2.60466E-02
 -1        40-4.49882E+10-5.31713E+06-1.70975E+10 5.02566E+07 1.70153E+10 5.82625E-01
 -1        41-1.45007E+11-2.85351E+06-5.51037E+10 6.67302E+08 9.13140E+09 6.48438E-01
 -1        42-3.54986E+11 1.48961E+06-1.34894E+11 7.01387E+08-4.76689E+09 6.24148E-01
 -1        43-5.09764E+11 4.20571E+06-1.93709E+11 2.88626E+08-1.34587E+10 2.83270E-01
 -1        44-5.00770E+11 4.65170E+06-1.90291E+11-3.22681E+08-1.48857E+10 2.16905E-01
 -1        45-3.09622E+11 2.88416E+06-1.17655E+11-8.38257E+08-9.22959E+09 3.05972E-01
 -1        46-5.51930E+09-2.51624E+05-2.09743E+09-1.02130E+09 8.05187E+08 2.98632E-02
 -1        47 2.88206E+11-3.42155E+06 1.09517E+11-7.80287E+08 1.09491E+10-3.47901E-01
 -1        48 4.46660E+11-5.34138E+06 1.69729E+11-1.99765E+08 1.70928E+10-5.03201E-01
 -1        49 3.93888E+11-5.32515E+06 1.49675E+11 5.01928E+08 1.70409E+10-3.36771E-01
 -1        50 1.29705E+11-3.62133E+06 4.92865E+10 1.07385E+09 1.15885E+10-1.46681E-01
 -1        51-2.80470E+11-1.42163E+06-1.06579E+11 1.35540E+09 4.54931E+09-8.37966E-02
 -1        52-5.10730E+11-4.00566E+05-1.94078E+11 1.39574E+09 1.28183E+09-2.60271E-02
 -3
    1PSTEP                        11           1           1          
    1PGM                1.000000E+00                                  
    1PGK                2.226146E+06                                  
    1PHID                         -1                                  
    1PSUBC                         0                                  
    1PMODE                         3                                  
  100CL  103 237.4635298          52                     2    3MODAL      1
 -4  TOSTRAIN    6    1
 -5  EXX         1    4    1    1
 -5  EYY         1    4    2    2
 -5  EZZ         1    4    3    3
 -5  EXY         1    4    1    2
 -5  EYZ         1    4    2    3
 -5  EZX         1    4    3    1
 -1         1 8.01022E+00-4.90890E+00-1.92493E-10 1.44337E-02-4.88682E+00-2.24193E-10
 -1         2 2.58203E+01-1.58250E+01 1.68014E-10 1.91650E-01-2.62254E+00-2.36588E-10
 -1         3 6.32105E+01-3.87421E+01 2.04867E-10 2.01439E-01 1.36905E+00-2.16281E-10
 -1         4 9.07714E+01-5.56346E+01-1.53828E-10 8.28936E-02 3.86534E+00-1.07747E-10
 -1         5 8.91698E+01-5.46530E+01 4.97055E-11-9.26743E-02 4.27519E+00-8.66304E-11
 -1         6 5.51329E+01-3.37915E+01 5.42146E-11-2.40748E-01 2.65074E+00-1.16477E-10
 -1         7 9.82764E-01-6.02311E-01-2.02079E-10-2.93319E-01-2.31250E-01-4.41424E-11
 -1         8-5.13195E+01 3.14543E+01-2.86695E-10-2.24099E-01-3.14459E+00 5.26510E-11
 -1         9-7.95348E+01 4.87477E+01-7.51200E-11-5.73727E-02-4.90906E+00 9.03838E-11
 -1        10-7.01381E+01 4.29884E+01 2.45287E-10 1.44154E-01-4.89416E+00 4.87364E-11
 -1        11-2.30962E+01 1.41562E+01 3.32810E-10 3.08412E-01-3.32823E+00 3.90149E-12
 -1        12 4.99416E+01-3.06092E+01 2.85933E-10 3.89271E-01-1.30656E+00-4.95769E-13
 -1        13 9.09429E+01-5.57391E+01 1.97977E-10 4.00857E-01-3.68143E-01-7.45934E-12
 -1        14 8.01022E+00-4.90890E+00 1.92493E-10 1.44337E-02 4.88682E+00-2.24919E-10
 -1        15 2.58203E+01-1.58250E+01-1.68014E-10 1.91650E-01 2.62254E+00-2.37299E-10
 -1        16 6.32105E+01-3.87421E+01-2.04867E-10 2.01439E-01-1.36905E+00-2.16923E-10
 -1        17 9.07714E+01-5.56346E+01 1.53828E-10 8.28937E-02-3.86534E+00-1.08317E-10
 -1        18 8.91698E+01-5.46530E+01-4.97055E-11-9.26742E-02-4.27519E+00-8.71690E-11
 -1        19 5.51329E+01-3.37915E+01-5.42146E-11-2.40748E-01-2.65074E+00-1.16935E-10
 -1        20 9.82764E-01-6.02311E-01 2.02079E-10-2.93319E-01 2.31250E-01-4.44811E-11
 -1        21-5.13195E+01 3.14543E+01 2.86695E-10-2.24099E-01 3.14459E+00 5.23735E-11
 -1        22-7.95348E+01 4.87477E+01 7.51200E-11-5.73726E-02 4.90906E+00 9.01075E-11
 -1        23-7.01381E+01 4.29884E+01-2.45287E-10 1.44154E-01 4.89416E+00 4.84866E-11
 -1        24-2.30962E+01 1.41562E+01-3.32810E-10 3.08412E-01 3.32823E+00 3.72269E-12
 -1        25 4.99416E+01-3.06092E+01-2.85933E-10 3.89271E-01 1.30656E+00-5.65118E-13
 -1        26 9.09429E+01-5.57391E+01-1.97977E-10 4.00857E-01 3.68143E-01-7.45398E-12
 -1        27-8.01022E+00 4.90890E+00-1.92493E-10 1.44337E-02-4.88682E+00 1.68056E-10
 -1        28-2.58203E+01 1.58250E+01 1.68014E-10 1.91650E-01-2.62254E+00 1.86942E-10
 -1        29-6.32105E+01 3.87421E+01 2.04867E-10 2.01439E-01 1.36905E+00 1.79899E-10
 -1        30-9.07714E+01 5.56346E+01-1.53828E-10 8.28936E-02 3.86534E+00 8.19256E-11
 -1        31-8.91698E+01 5.46530E+01 4.97055E-11-9.26743E-02 4.27519E+00 6.28337E-11
 -1        32-5.51329E+01 3.37915E+01 5.42146E-11-2.40748E-01 2.65074E+00 8.83335E-11
 -1        33-9.82764E-01 6.02311E-01-2.02079E-10-2.93319E-01-2.31250E-01 8.91517E-12
 -1        34 5.13195E+01-3.14543E+01-2.86695E-10-2.24099E-01-3.14459E+00-9.96398E-11
 -1        35 7.95348E+01-4.87477E+01-7.51200E-11-5.73727E-02-4.90906E+00-1.44244E-10
 -1        36 7.01381E+01-4.29884E+01 2.45287E-10 1.44154E-01-4.89416E+00-9.64710E-11
 -1        37 2.30962E+01-1.41562E+01 3.32810E-10 3.08412E-01-3.32823E+00-4.19482E-11
 -1        38-4.99416E+01 3.06092E+01 2.85933E-10 3.89271E-01-1.30656E+00-2.39970E-11
 -1        39-9.09429E+01 5.57391E+01 1.97977E-10 4.00857E-01-3.68143E-01-7.48062E-12
 -1        40-8.01022E+00 4.90890E+00 1.92493E-10 1.44337E-02 4.88682E+00 1.67330E-10
 -1        41-2.58203E+01 1.58250E+01-1.68014E-10 1.91650E-01 2.62254E+00 1.86232E-10
 -1        42-6.32105E+01 3.87421E+01-2.04867E-10 2.01439E-01-1.36905E+00 1.79256E-10
 -1        43-9.07714E+01 5.56346E+01 1.53828E-10 8.28937E-02-3.86534E+00 8.13554E-11
 -1        44-8.91698E+01 5.46530E+01-4.97055E-11-9.26742E-02-4.27519E+00 6.22953E-11
 -1        45-5.51329E+01 3.37915E+01-5.42146E-11-2.40748E-01-2.65074E+00 8.78755E-11
 -1        46-9.82764E-01 6.02311E-01 2.02079E-10-2.93319E-01 2.31250E-01 8.57673E-12
 -1        47 5.13195E+01-3.14543E+01 2.86695E-10-2.24099E-01 3.14459E+00-9.99175E-11
 -1        48 7.95348E+01-4.87477E+01 7.51200E-11-5.73726E-02 4.90906E+00-1.44520E-10
 -1        49 7.01381E+01-4.29884E+01-2.45287E-10 1.44154E-01 4.89416E+00-9.67209E-11
 -1        50 2.30962E+01-1.41562E+01-3.32810E-10 3.08412E-01 3.32823E+00-4.21270E-11
 -1        51-4.99416E+01 3.06092E+01-2.85933E-10 3.89271E-01 1.30656E+00-2.40665E-11
 -1        52-9.09429E+01 5.57391E+01-1.97977E-10 4.00857E-01 3.68143E-01-7.47502E-12
 -3
    1PSTEP                        12           1           1          
    1PGM                1.000000E+00                                  
    1PGK                2.226146E+06                                  
    1PHID                         -1                                  
    1PSUBC                         0                                  
    1PMODE                         3                                  
  100CL  103 237.4635298          52                     2    3MODAL      1
 -4  ERROR       1    1
 -5  STR(%)      1    1    0    0
 -1         1 8.89920E+01
 -1         2 1.21500E+02
 -1         3 1.21500E+02
 -1         4 1.21314E+02
 -1         5 1.21202E+02
 -1         6 1.21214E+02
 -1         7 1.21214E+02
 -1         8 1.21005E+02
 -1         9 1.21005E+02
 -1        10 1.20953E+02
 -1        11 1.20619E+02
 -1        12 1.21507E+02
 -1        13 1.21507E+02
 -1        14 8.89920E+01
 -1        15 1.21500E+02
 -1        16 1.21500E+02
 -1        17 1.21314E+02
 -1        18 1.21202E+02
 -1        19 1.21214E+02
 -1        20 1.21214E+02
 -1        21 1.21005E+02
 -1        22 1.21005E+02
 -1        23 1.20953E+02
 -1        24 1.20619E+02
 -1        25 1.21507E+02
 -1        26 1.21507E+02
 -1        27 8.89920E+01
 -1        28 1.21500E+02
 -1        29 1.21500E+02
 -1        30 1.21314E+02
 -1        31 1.21202E+02
 -1        32 1.21214E+02
 -1        33 1.21214E+02
 -1        34 1.21005E+02
 -1        35 1.21005E+02
 -1        36 1.20953E+02
 -1        37 1.20619E+02
 -1        38 1.21507E+02
 -1        39 1.21507E+02
 -1        40 8.89920E+01
 -1        41 1.21500E+02
 -1        42 1.21500E+02
 -1        43 1.21314E+02
 -1        44 1.21202E+02
 -1        45 1.21214E+02
 -1        46 1.21214E+02
 -1        47 1.21005E+02
 -1        48 1.21005E+02
 -1        49 1.20953E+02
 -1        50 1.20619E+02
 -1        51 1.21507E+02
 -1        52 1.21507E+02
 -3
    1PSTEP                        13           1           1          
    1PGM                1.000000E+00                                  
    1PGK                8.803955E+06                                  
    1PHID                         -1                                  
    1PSUBC                         0                                  
    1PMODE                         4                                  
  100CL  104 472.2359349          52                     2    4MODAL      1
 -4  DISP        4    1
 -5  D1          1    2    1    0
 -5  D2          1    2    2    0
 -5  D3          1    2    3    0
 -5  ALL         1    2    0    0    1ALL
 -1         1-8.33658E-01-1.01971E+02 0.00000E+00
 -1         2-7.48327E-01-9.68397E+00 0.00000E+00
 -1         3-3.47589E-01 5.42489E+01 0.00000E+00
 -1         4 2.21330E-01 6.16141E+01 0.00000E+00
 -1         5 5.75223E-01 1.51436E+01 0.00000E+00
 -1         6 4.60195E-01-4.52617E+01 0.00000E+00
 -1         7-2.41084E-02-7.07027E+01 0.00000E+00
 -1         8-4.94064E-01-4.04731E+01 0.00000E+00
 -1         9-5.81897E-01 2.22974E+01 0.00000E+00
 -1        10-2.27491E-01 6.95161E+01 0.00000E+00
 -1        11 2.65398E-01 6.73040E+01 0.00000E+00
 -1        12 4.44082E-01 2.59118E+01 0.00000E+00
 -1        13 0.00000E+00 0.00000E+00 0.00000E+00
 -1        14-8.33658E-01-1.01971E+02 0.00000E+00
 -1        15-7.48327E-01-9.68397E+00 0.00000E+00
 -1        16-3.47589E-01 5.42489E+01 0.00000E+00
 -1        17 2.21330E-01 6.16141E+01 0.00000E+00
 -1        18 5.75223E-01 1.51436E+01 0.00000E+00
 -1        19 4.60195E-01-4.52617E+01 0.00000E+00
 -1        20-2.41084E-02-7.07027E+01 0.00000E+00
 -1        21-4.94064E-01-4.04731E+01 0.00000E+00
 -1        22-5.81897E-01 2.22974E+01 0.00000E+00
 -1        23-2.27491E-01 6.95161E+01 0.00000E+00
 -1        24 2.65398E-01 6.73040E+01 0.00000E+00
 -1        25 4.44082E-01 2.59118E+01 0.00000E+00
 -1        26 0.00000E+00 0.00000E+00 0.00000E+00
 -1        27 8.33658E-01-1.01971E+02 0.00000E+00
 -1        28 7.48327E-01-9.68397E+00 0.00000E+00
 -1        29 3.47589E-01 5.42489E+01 0.00000E+00
 -1        30-2.21330E-01 6.16141E+01 0.00000E+00
 -1        31-5.75223E-01 1.51436E+01 0.00000E+00
 -1        32-4.60195E-01-4.52617E+01 0.00000E+00
 -1        33 2.41084E-02-7.07027E+01 0.00000E+00
 -1        34 4.94064E-01-4.04731E+01 0.00000E+00
 -1        35 5.81897E-01 2.22974E+01 0.00000E+00
 -1        36 2.27491E-01 6.95161E+01 0.00000E+00
 -1        37-2.65398E-01 6.73040E+01 0.00000E+00
 -1        38-4.44082E-01 2.59118E+01 0.00000E+00
 -1        39 0.00000E+00 0.00000E+00 0.00000E+00
 -1        40 8.33658E-01-1.01971E+02 0.00000E+00
 -1        41 7.48327E-01-9.68397E+00 0.00000E+00
 -1        42 3.47589E-01 5.42489E+01 0.00000E+00
 -1        43-2.21330E-01 6.16141E+01 0.00000E+00
 -1        44-5.75223E-01 1.51436E+01 0.00000E+00
 -1        45-4.60195E-01-4.52617E+01 0.00000E+00
 -1        46 2.41084E-02-7.07027E+01 0.00000E+00
 -1        47 4.94064E-01-4.04731E+01 0.00000E+00
 -1        48 5.81897E-01 2.22974E+01 0.00000E+00
 -1        49 2.27491E-01 6.95161E+01 0.00000E+00
 -1        50-2.65398E-01 6.73040E+01 0.00000E+00
 -1        51-4.44082E-01 2.59118E+01 0.00000E+00
 -1        52 0.00000E+00 0.00000E+00 0.00000E+00
 -3
    1PSTEP                        14           1           1          
    1PGM                1.000000E+00                                  
    1PGK                8.803955E+06                                  
    1PHID                         -1                                  
    1PSUBC                         0                                  
    1PMODE                         4                                  
  100CL  104 472.2359349          52                     2    4MODAL      1
 -4  STRESS      6    1
 -5  SXX         1    4    1    1
 -5  SYY         1    4    2    2
 -5  SZZ         1    4    3    3
 -5  SXY         1    4    1    2
 -5  SYZ         1    4    2    3
 -5  SZX         1    4    3    1
 -1         1-1.64309E+11-1.70817E+07-6.24440E+10-2.74455E+08 5.46624E+10 1.00169E+00
 -1         2-4.67952E+11-4.47531E+06-1.77823E+11-2.22519E+09 1.43213E+10 1.02238E+00
 -1         3-9.33502E+11 1.39211E+07-3.54725E+11-1.15028E+09-4.45483E+10 9.10927E-01
 -1         4-8.88400E+11 1.63500E+07-3.37586E+11 1.31354E+09-5.23210E+10 3.54050E-01
 -1         5-2.29957E+11 3.98217E+06-8.73823E+10 2.92969E+09-1.27431E+10-1.39393E-01
 -1         6 5.76981E+11-1.22479E+07 2.19248E+11 2.31222E+09 3.91942E+10-2.09112E-01
 -1         7 9.18674E+11-1.90778E+07 3.49089E+11-9.42232E+07 6.10502E+10-4.22024E-01
 -1         8 5.36989E+11-1.08860E+07 2.04052E+11-2.40524E+09 3.48362E+10-9.16604E-01
 -1         9-2.56631E+11 6.12034E+06-9.75176E+10-2.79076E+09-1.95854E+10-1.33565E+00
 -1        10-8.15697E+11 1.90323E+07-3.09958E+11-9.05794E+08-6.09044E+10-1.40843E+00
 -1        11-6.46527E+11 1.88758E+07-2.45673E+11 1.87851E+09-6.04037E+10-1.14764E+00
 -1        12 2.55510E+11 8.84910E+06 9.70971E+10 3.66556E+09-2.83178E+10-5.93288E-01
 -1        13 8.55057E+11 2.68267E+06 3.24923E+11 3.95551E+09-8.58490E+09-5.25129E-02
 -1        14-1.64309E+11-1.70817E+07-6.24440E+10-2.74455E+08-5.46624E+10 1.01165E+00
 -1        15-4.67952E+11-4.47535E+06-1.77823E+11-2.22519E+09-1.43213E+10 1.03219E+00
 -1        16-9.33502E+11 1.39210E+07-3.54725E+11-1.15028E+09 4.45483E+10 9.19993E-01
 -1        17-8.88400E+11 1.63500E+07-3.37586E+11 1.31354E+09 5.23210E+10 3.62534E-01
 -1        18-2.29957E+11 3.98212E+06-8.73823E+10 2.92969E+09 1.27431E+10-1.30934E-01
 -1        19 5.76981E+11-1.22479E+07 2.19248E+11 2.31222E+09-3.91942E+10-2.01458E-01
 -1        20 9.18674E+11-1.90779E+07 3.49089E+11-9.42229E+07-6.10502E+10-4.16255E-01
 -1        21 5.36989E+11-1.08861E+07 2.04052E+11-2.40524E+09-3.48362E+10-9.12506E-01
 -1        22-2.56631E+11 6.12029E+06-9.75176E+10-2.79076E+09 1.95854E+10-1.33293E+00
 -1        23-8.15697E+11 1.90323E+07-3.09958E+11-9.05795E+08 6.09044E+10-1.40663E+00
 -1        24-6.46527E+11 1.88758E+07-2.45673E+11 1.87851E+09 6.04037E+10-1.14615E+00
 -1        25 2.55510E+11 8.84918E+06 9.70971E+10 3.66556E+09 2.83178E+10-5.92273E-01
 -1        26 8.55057E+11 2.68276E+06 3.24923E+11 3.95552E+09 8.58490E+09-5.17401E-02
 -1        27 1.64309E+11 1.70816E+07 6.24440E+10-2.74455E+08 5.46624E+10-1.63662E+00
 -1        28 4.67952E+11 4.47534E+06 1.77823E+11-2.22519E+09 1.43213E+10-1.68935E+00
 -1        29 9.33502E+11-1.39211E+07 3.54725E+11-1.15028E+09-4.45483E+10-1.64537E+00
 -1        30 8.88400E+11-1.63500E+07 3.37586E+11 1.31354E+09-5.23210E+10-1.12324E+00
 -1        31 2.29957E+11-3.98216E+06 8.73823E+10 2.92969E+09-1.27431E+10-6.34858E-01
 -1        32-5.76981E+11 1.22479E+07-2.19248E+11 2.31222E+09 3.91942E+10-5.77200E-01
 -1        33-9.18674E+11 1.90778E+07-3.49089E+11-9.42232E+07 6.10502E+10-3.39682E-01
 -1        34-5.36989E+11 1.08860E+07-2.04052E+11-2.40524E+09 3.48362E+10 2.20860E-01
 -1        35 2.56631E+11-6.12035E+06 9.75176E+10-2.79076E+09-1.95854E+10 7.32847E-01
 -1        36 8.15697E+11-1.90322E+07 3.09958E+11-9.05794E+08-6.09044E+10 9.27117E-01
 -1        37 6.46527E+11-1.88757E+07 2.45673E+11 1.87851E+09-6.04037E+10 7.95548E-01
 -1        38-2.55510E+11-8.84909E+06-9.70971E+10 3.66556E+09-2.83178E+10 3.97663E-01
 -1        39-8.55057E+11-2.68270E+06-3.24923E+11 3.95551E+09-8.58490E+09-5.26324E-02
 -1        40 1.64309E+11 1.70816E+07 6.24440E+10-2.74455E+08-5.46624E+10-1.62665E+00
 -1        41 4.67952E+11 4.47530E+06 1.77823E+11-2.22519E+09-1.43213E+10-1.67954E+00
 -1        42 9.33502E+11-1.39210E+07 3.54725E+11-1.15028E+09 4.45483E+10-1.63631E+00
 -1        43 8.88400E+11-1.63499E+07 3.37586E+11 1.31354E+09 5.23210E+10-1.11476E+00
 -1        44 2.29957E+11-3.98212E+06 8.73823E+10 2.92969E+09 1.27431E+10-6.26402E-01
 -1        45-5.76981E+11 1.22480E+07-2.19248E+11 2.31222E+09-3.91942E+10-5.69546E-01
 -1        46-9.18674E+11 1.90778E+07-3.49089E+11-9.42229E+07-6.10502E+10-3.33912E-01
 -1        47-5.36989E+11 1.08861E+07-2.04052E+11-2.40524E+09-3.48362E+10 2.24956E-01
 -1        48 2.56631E+11-6.12030E+06 9.75176E+10-2.79076E+09 1.95854E+10 7.35560E-01
 -1        49 8.15697E+11-1.90322E+07 3.09958E+11-9.05795E+08 6.09044E+10 9.28915E-01
 -1        50 6.46527E+11-1.88758E+07 2.45673E+11 1.87851E+09 6.04037E+10 7.97036E-01
 -1        51-2.55510E+11-8.84918E+06-9.70971E+10 3.66556E+09 2.83178E+10 3.98677E-01
 -1        52-8.55057E+11-2.68278E+06-3.24923E+11 3.95552E+09 8.58490E+09-5.18593E-02
 -3
    1PSTEP                        15           1           1          
    1PGM                1.000000E+00                                  
    1PGK                8.803955E+06                                  
    1PHID                         -1                                  
    1PSUBC                         0                                  
    1PMODE                         4                                  
  100CL  104 472.2359349          52                     2    4MODAL      1
 -4  TOSTRAIN    6    1
 -5  EXX         1    4    1    1
 -5  EYY         1    4    2    2
 -5  EZZ         1    4    3    3
 -5  EXY         1    4    1    2
 -5  EYZ         1    4    2    3
 -5  EZX         1    4    3    1
 -1         1-2.92558E+01 1.79291E+01 7.02961E-11-7.88237E-02 1.56991E+01 2.87686E-10
 -1         2-8.33251E+01 5.10697E+01-1.03185E-10-6.39077E-01 4.11310E+00 2.93628E-10
 -1         3-1.66225E+02 1.01881E+02-1.50932E-10-3.30361E-01-1.27943E+01 2.61619E-10
 -1         4-1.58194E+02 9.69596E+01-1.95377E-10 3.77249E-01-1.50266E+01 1.01684E-10
 -1         5-4.09477E+01 2.50974E+01-2.42793E-10 8.41409E-01-3.65983E+00-4.00337E-11
 -1         6 1.02741E+02-6.29717E+01 1.47920E-10 6.64070E-01 1.12566E+01-6.00572E-11
 -1         7 1.63585E+02-1.00264E+02 3.43241E-10-2.70610E-02 1.75337E+01-1.21206E-10
 -1         8 9.56198E+01-5.86069E+01 2.48992E-10-6.90787E-01 1.00050E+01-2.63249E-10
 -1         9-4.56976E+01 2.80089E+01 2.38934E-10-8.01507E-01-5.62495E+00-3.83600E-10
 -1        10-1.45249E+02 8.90256E+01 5.29137E-10-2.60145E-01-1.74918E+01-4.04503E-10
 -1        11-1.15126E+02 7.05629E+01 6.80279E-10 5.39510E-01-1.73480E+01-3.29604E-10
 -1        12 4.54963E+01-2.78838E+01 5.38749E-10 1.05275E+00-8.13290E+00-1.70393E-10
 -1        13 1.52255E+02-9.33173E+01 5.24721E-10 1.13603E+00-2.46559E+00-1.50817E-11
 -1        14-2.92558E+01 1.79291E+01-7.02961E-11-7.88237E-02-1.56991E+01 2.90548E-10
 -1        15-8.33251E+01 5.10697E+01 1.03185E-10-6.39077E-01-4.11310E+00 2.96446E-10
 -1        16-1.66225E+02 1.01881E+02 1.50932E-10-3.30361E-01 1.27943E+01 2.64223E-10
 -1        17-1.58194E+02 9.69596E+01 1.95377E-10 3.77249E-01 1.50266E+01 1.04120E-10
 -1        18-4.09477E+01 2.50974E+01 2.42793E-10 8.41409E-01 3.65983E+00-3.76044E-11
 -1        19 1.02741E+02-6.29717E+01-1.47920E-10 6.64070E-01-1.12566E+01-5.78590E-11
 -1        20 1.63585E+02-1.00264E+02-3.43241E-10-2.70609E-02-1.75337E+01-1.19549E-10
 -1        21 9.56198E+01-5.86069E+01-2.48992E-10-6.90787E-01-1.00050E+01-2.62072E-10
 -1        22-4.56976E+01 2.80089E+01-2.38934E-10-8.01507E-01 5.62495E+00-3.82820E-10
 -1        23-1.45249E+02 8.90256E+01-5.29137E-10-2.60145E-01 1.74918E+01-4.03986E-10
 -1        24-1.15126E+02 7.05629E+01-6.80279E-10 5.39510E-01 1.73480E+01-3.29176E-10
 -1        25 4.54963E+01-2.78838E+01-5.38749E-10 1.05275E+00 8.13290E+00-1.70101E-10
 -1        26 1.52255E+02-9.33173E+01-5.24721E-10 1.13603E+00 2.46559E+00-1.48598E-11
 -1        27 2.92558E+01-1.79291E+01 7.02961E-11-7.88237E-02 1.56991E+01-4.70038E-10
 -1        28 8.33251E+01-5.10697E+01-1.03185E-10-6.39077E-01 4.11310E+00-4.85184E-10
 -1        29 1.66225E+02-1.01881E+02-1.50932E-10-3.30361E-01-1.27943E+01-4.72553E-10
 -1        30 1.58194E+02-9.69596E+01-1.95377E-10 3.77249E-01-1.50266E+01-3.22597E-10
 -1        31 4.09477E+01-2.50974E+01-2.42793E-10 8.41409E-01-3.65983E+00-1.82332E-10
 -1        32-1.02741E+02 6.29717E+01 1.47920E-10 6.64070E-01 1.12566E+01-1.65772E-10
 -1        33-1.63585E+02 1.00264E+02 3.43241E-10-2.70610E-02 1.75337E+01-9.75569E-11
 -1        34-9.56198E+01 5.86069E+01 2.48992E-10-6.90787E-01 1.00050E+01 6.34313E-11
 -1        35 4.56976E+01-2.80089E+01 2.38934E-10-8.01507E-01-5.62495E+00 2.10474E-10
 -1        36 1.45249E+02-8.90256E+01 5.29137E-10-2.60145E-01-1.74918E+01 2.66269E-10
 -1        37 1.15126E+02-7.05629E+01 6.80279E-10 5.39510E-01-1.73480E+01 2.28482E-10
 -1        38-4.54963E+01 2.78838E+01 5.38749E-10 1.05275E+00-8.13290E+00 1.14209E-10
 -1        39-1.52255E+02 9.33173E+01 5.24721E-10 1.13603E+00-2.46559E+00-1.51161E-11
 -1        40 2.92558E+01-1.79291E+01-7.02961E-11-7.88237E-02-1.56991E+01-4.67176E-10
 -1        41 8.33251E+01-5.10697E+01 1.03185E-10-6.39077E-01-4.11310E+00-4.82365E-10
 -1        42 1.66225E+02-1.01881E+02 1.50932E-10-3.30361E-01 1.27943E+01-4.69949E-10
 -1        43 1.58194E+02-9.69596E+01 1.95377E-10 3.77249E-01 1.50266E+01-3.20160E-10
 -1        44 4.09477E+01-2.50974E+01 2.42793E-10 8.41409E-01 3.65983E+00-1.79903E-10
 -1        45-1.02741E+02 6.29717E+01-1.47920E-10 6.64070E-01-1.12566E+01-1.63574E-10
 -1        46-1.63585E+02 1.00264E+02-3.43241E-10-2.70609E-02-1.75337E+01-9.58999E-11
 -1        47-9.56198E+01 5.86069E+01-2.48992E-10-6.90787E-01-1.00050E+01 6.46076E-11
 -1        48 4.56976E+01-2.80089E+01-2.38934E-10-8.01507E-01 5.62495E+00 2.11253E-10
 -1        49 1.45249E+02-8.90256E+01-5.29137E-10-2.60145E-01 1.74918E+01 2.66785E-10
 -1        50 1.15126E+02-7.05629E+01-6.80279E-10 5.39510E-01 1.73480E+01 2.28909E-10
 -1        51-4.54963E+01 2.78838E+01-5.38749E-10 1.05275E+00 8.13290E+00 1.14500E-10
 -1        52-1.52255E+02 9.33173E+01-5.24721E-10 1.13603E+00 2.46559E+00-1.48940E-11
 -3
    1PSTEP                        16           1           1          
    1PGM                1.000000E+00                                  
    1PGK                8.803955E+06                                  
    1PHID                         -1                                  
    1PSUBC                         0                                  
    1PMODE                         4                                  
  100CL  104 472.2359349          52                     2    4MODAL      1
 -4  ERROR       1    1
 -5  STR(%)      1    1    0    0
 -1         1 9.45858E+01
 -1         2 1.21095E+02
 -1         3 1.21095E+02
 -1         4 1.20319E+02
 -1         5 1.20174E+02
 -1         6 1.19917E+02
 -1         7 1.19951E+02
 -1         8 1.20194E+02
 -1         9 1.20194E+02
 -1        10 1.19673E+02
 -1        11 1.19432E+02
 -1        12 1.21468E+02
 -1        13 1.21468E+02
 -1        14 9.45858E+01
 -1        15 1.21095E+02
 -1        16 1.21095E+02
 -1        17 1.20319E+02
 -1        18 1.20174E+02
 -1        19 1.19917E+02
 -1        20 1.19951E+02
 -1        21 1.20194E+02
 -1        22 1.20194E+02
 -1        23 1.19673E+02
 -1        24 1.19432E+02
 -1        25 1.21468E+02
 -1        26 1.21468E+02
 -1        27 9.45858E+01
 -1        28 1.21095E+02
 -1        29 1.21095E+02
 -1        30 1.20319E+02
 -1        31 1.20174E+02
 -1        32 1.19917E+02
 -1        33 1.19951E+02
 -1        34 1.20194E+02
 -1        35 1.20194E+02
 -1        36 1.19673E+02
 -1        37 1.19432E+02
 -1        38 1.21468E+02
 -1        39 1.21468E+02
 -1        40 9.45858E+01
 -1        41 1.21095E+02
 -1        42 1.21095E+02
 -1        43 1.20319E+02
 -1        44 1.20174E+02
 -1        45 1.19917E+02
 -1        46 1.19951E+02
 -1        47 1.20194E+02
 -1        48 1.20194E+02
 -1        49 1.19673E+02
 -1        50 1.19432E+02
 -1        51 1.21468E+02
 -1        52 1.21468E+02
 -3
    1PSTEP                        17           1           1          
    1PGM                1.000000E+00                                  
    1PGK                2.477289E+07                                  
    1PHID                         -1                                  
    1PSUBC                         0                                  
    1PMODE                         5                                  
  100CL  105 792.1519669          52                     2    5MODAL      1
 -4  DISP        4    1
 -5  D1          1    2    1    0
 -5  D2          1    2    2    0
 -5  D3          1    2    3    0
 -5  ALL         1    2    0    0    1ALL
 -1         1-1.08555E+00-1.00659E+02 0.00000E+00
 -1         2-8.66781E-01 1.32347E+01 0.00000E+00
 -1         3-1.16328E-02 6.44808E+01 0.00000E+00
 -1         4 7.32826E-01 2.24040E+01 0.00000E+00
 -1         5 5.29722E-01-5.12561E+01 0.00000E+00
 -1         6-3.42697E-01-6.21675E+01 0.00000E+00
 -1         7-7.91157E-01 3.98411E+00 0.00000E+00
 -1         8-2.54842E-01 6.50100E+01 0.00000E+00
 -1         9 6.01269E-01 4.47987E+01 0.00000E+00
 -1        10 7.18832E-01-3.22187E+01 0.00000E+00
 -1        11-2.32443E-02-7.28001E+01 0.00000E+00
 -1        12-6.12185E-01-3.57252E+01 0.00000E+00
 -1        13 0.00000E+00 0.00000E+00 0.00000E+00
 -1        14-1.08555E+00-1.00659E+02 0.00000E+00
 -1        15-8.66781E-01 1.32347E+01 0.00000E+00
 -1        16-1.16328E-02 6.44808E+01 0.00000E+00
 -1        17 7.32826E-01 2.24040E+01 0.00000E+00
 -1        18 5.29722E-01-5.12561E+01 0.00000E+00
 -1        19-3.42697E-01-6.21675E+01 0.00000E+00
 -1        20-7.91157E-01 3.98411E+00 0.00000E+00
 -1        21-2.54842E-01 6.50100E+01 0.00000E+00
 -1        22 6.01269E-01 4.47987E+01 0.00000E+00
 -1        23 7.18832E-01-3.22187E+01 0.00000E+00
 -1        24-2.32443E-02-7.28001E+01 0.00000E+00
 -1        25-6.12185E-01-3.57252E+01 0.00000E+00
 -1        26 0.00000E+00 0.00000E+00 0.00000E+00
 -1        27 1.08555E+00-1.00659E+02 0.00000E+00
 -1        28 8.66781E-01 1.32347E+01 0.00000E+00
 -1        29 1.16328E-02 6.44808E+01 0.00000E+00
 -1        30-7.32826E-01 2.24040E+01 0.00000E+00
 -1        31-5.29722E-01-5.12561E+01 0.00000E+00
 -1        32 3.42697E-01-6.21675E+01 0.00000E+00
 -1        33 7.91157E-01 3.98411E+00 0.00000E+00
 -1        34 2.54842E-01 6.50100E+01 0.00000E+00
 -1        35-6.01269E-01 4.47987E+01 0.00000E+00
 -1        36-7.18832E-01-3.22187E+01 0.00000E+00
 -1        37 2.32443E-02-7.28001E+01 0.00000E+00
 -1        38 6.12185E-01-3.57252E+01 0.00000E+00
 -1        39 0.00000E+00 0.00000E+00 0.00000E+00
 -1        40 1.08555E+00-1.00659E+02 0.00000E+00
 -1        41 8.66781E-01 1.32347E+01 0.00000E+00
 -1        42 1.16328E-02 6.44808E+01 0.00000E+00
 -1        43-7.32826E-01 2.24040E+01 0.00000E+00
 -1        44-5.29722E-01-5.12561E+01 0.00000E+00
 -1        45 3.42697E-01-6.21675E+01 0.00000E+00
 -1        46 7.91157E-01 3.98411E+00 0.00000E+00
 -1        47 2.54842E-01 6.50100E+01 0.00000E+00
 -1        48-6.01269E-01 4.47987E+01 0.00000E+00
 -1        49-7.18832E-01-3.22187E+01 0.00000E+00
 -1        50 2.32443E-02-7.28001E+01 0.00000E+00
 -1        51 6.12185E-01-3.57252E+01 0.00000E+00
 -1        52 0.00000E+00 0.00000E+00 0.00000E+00
 -3
    1PSTEP                        18           1           1          
    1PGM                1.000000E+00                                  
    1PGK                2.477289E+07                                  
    1PHID                         -1                                  
    1PSUBC                         0                                  
    1PMODE                         5                                  
  100CL  105 792.1519669          52                     2    5MODAL      1
 -4  STRESS      6    1
 -5  SXX         1    4    1    1
 -5  SYY         1    4    2    2
 -5  SZZ         1    4    3    3
 -5  SXY         1    4    1    2
 -5  SYZ         1    4    2    3
 -5  SZX         1    4    3    1
 -1         1-4.21245E+11-3.73755E+07-1.60087E+11-9.53127E+08 1.19604E+11 7.68059E-01
 -1         2-1.03388E+12 2.51135E+06-3.92873E+11-5.05156E+09-8.03647E+09 7.64735E-01
 -1         3-1.53995E+12 4.39747E+07-5.85164E+11 5.47597E+08-1.40722E+11 6.45647E-01
 -1         4-5.21165E+11 1.54053E+07-1.98037E+11 6.38461E+09-4.92977E+10 1.01347E-01
 -1         5 1.03541E+12-3.66682E+07 3.93441E+11 4.53443E+09 1.17341E+11-7.37186E-01
 -1         6 1.27161E+12-4.43310E+07 4.83195E+11-2.88681E+09 1.41862E+11-1.06106E+00
 -1         7-8.45795E+10 2.81295E+06-3.21391E+10-6.69558E+09-9.00179E+09-6.86665E-01
 -1         8-1.34049E+12 4.62605E+07-5.09369E+11-2.17008E+09-1.48037E+11-3.56326E-02
 -1         9-9.37358E+11 3.17548E+07-3.56184E+11 5.03761E+09-1.01617E+11 5.11304E-01
 -1        10 6.01218E+11-2.34994E+07 2.28454E+11 5.90228E+09 7.51997E+10 6.40689E-01
 -1        11 1.28137E+12-5.37983E+07 4.86898E+11-8.37779E+08 1.72158E+11 4.83326E-01
 -1        12-2.23983E+10-3.23105E+07-8.52363E+09-7.44741E+09 1.03396E+11 1.60683E-01
 -1        13-1.17873E+12-1.07040E+07-4.47923E+11-8.69053E+09 3.42535E+10 3.97380E-02
 -1        14-4.21245E+11-3.73755E+07-1.60087E+11-9.53127E+08-1.19604E+11 8.17386E-01
 -1        15-1.03388E+12 2.51134E+06-3.92873E+11-5.05156E+09 8.03646E+09 8.13906E-01
 -1        16-1.53995E+12 4.39747E+07-5.85164E+11 5.47598E+08 1.40722E+11 6.94045E-01
 -1        17-5.21165E+11 1.54052E+07-1.98037E+11 6.38461E+09 4.92977E+10 1.48122E-01
 -1        18 1.03541E+12-3.66683E+07 3.93441E+11 4.53443E+09-1.17341E+11-6.93814E-01
 -1        19 1.27161E+12-4.43310E+07 4.83195E+11-2.88681E+09-1.41862E+11-1.02109E+00
 -1        20-8.45795E+10 2.81306E+06-3.21391E+10-6.69558E+09 9.00179E+09-6.49864E-01
 -1        21-1.34049E+12 4.62606E+07-5.09369E+11-2.17008E+09 1.48037E+11-4.39823E-03
 -1        22-9.37358E+11 3.17548E+07-3.56184E+11 5.03761E+09 1.01617E+11 5.35502E-01
 -1        23 6.01218E+11-2.34994E+07 2.28454E+11 5.90228E+09-7.51997E+10 6.57853E-01
 -1        24 1.28137E+12-5.37983E+07 4.86898E+11-8.37779E+08-1.72158E+11 4.93531E-01
 -1        25-2.23983E+10-3.23105E+07-8.52363E+09-7.44741E+09-1.03396E+11 1.63697E-01
 -1        26-1.17873E+12-1.07040E+07-4.47923E+11-8.69053E+09-3.42535E+10 3.91202E-02
 -1        27 4.21245E+11 3.73754E+07 1.60087E+11-9.53127E+08 1.19604E+11 2.24934E-01
 -1        28 1.03388E+12-2.51135E+06 3.92873E+11-5.05156E+09-8.03647E+09 1.96613E-01
 -1        29 1.53995E+12-4.39747E+07 5.85164E+11 5.47597E+08-1.40722E+11 2.36554E-01
 -1        30 5.21165E+11-1.54053E+07 1.98037E+11 6.38461E+09-4.92977E+10 7.33581E-01
 -1        31-1.03541E+12 3.66683E+07-3.93441E+11 4.53443E+09 1.17341E+11 1.53207E+00
 -1        32-1.27161E+12 4.43310E+07-4.83195E+11-2.88681E+09 1.41862E+11 1.76764E+00
 -1        33 8.45795E+10-2.81296E+06 3.21391E+10-6.69558E+09-9.00179E+09 1.31371E+00
 -1        34 1.34049E+12-4.62605E+07 5.09369E+11-2.17008E+09-1.48037E+11 5.91570E-01
 -1        35 9.37358E+11-3.17547E+07 3.56184E+11 5.03761E+09-1.01617E+11-2.84115E-02
 -1        36-6.01218E+11 2.34994E+07-2.28454E+11 5.90228E+09 7.51997E+10-2.46566E-01
 -1        37-1.28137E+12 5.37983E+07-4.86898E+11-8.37779E+08 1.72158E+11-1.95164E-01
 -1        38 2.23983E+10 3.23105E+07 8.52363E+09-7.44741E+09 1.03396E+11-7.25882E-03
 -1        39 1.17873E+12 1.07040E+07 4.47923E+11-8.69053E+09 3.42535E+10 3.99062E-02
 -1        40 4.21245E+11 3.73755E+07 1.60087E+11-9.53127E+08-1.19604E+11 2.74255E-01
 -1        41 1.03388E+12-2.51134E+06 3.92873E+11-5.05156E+09 8.03646E+09 2.45782E-01
 -1        42 1.53995E+12-4.39747E+07 5.85164E+11 5.47598E+08 1.40722E+11 2.84952E-01
 -1        43 5.21165E+11-1.54052E+07 1.98037E+11 6.38461E+09 4.92977E+10 7.80354E-01
 -1        44-1.03541E+12 3.66683E+07-3.93441E+11 4.53443E+09-1.17341E+11 1.57545E+00
 -1        45-1.27161E+12 4.43310E+07-4.83195E+11-2.88681E+09-1.41862E+11 1.80761E+00
 -1        46 8.45795E+10-2.81304E+06 3.21391E+10-6.69558E+09 9.00179E+09 1.35051E+00
 -1        47 1.34049E+12-4.62606E+07 5.09369E+11-2.17008E+09 1.48037E+11 6.22805E-01
 -1        48 9.37358E+11-3.17548E+07 3.56184E+11 5.03761E+09 1.01617E+11-4.21206E-03
 -1        49-6.01218E+11 2.34994E+07-2.28454E+11 5.90228E+09-7.51997E+10-2.29403E-01
 -1        50-1.28137E+12 5.37984E+07-4.86898E+11-8.37779E+08-1.72158E+11-1.84959E-01
 -1        51 2.23983E+10 3.23105E+07 8.52363E+09-7.44741E+09-1.03396E+11-4.24213E-03
 -1        52 1.17873E+12 1.07040E+07 4.47923E+11-8.69053E+09-3.42535E+10 3.92874E-02
 -3
    1PSTEP                        19           1           1          
    1PGM                1.000000E+00                                  
    1PGK                2.477289E+07                                  
    1PHID                         -1                                  
    1PSUBC                         0                                  
    1PMODE                         5                                  
  100CL  105 792.1519669          52                     2    5MODAL      1
 -4  TOSTRAIN    6    1
 -5  EXX         1    4    1    1
 -5  EYY         1    4    2    2
 -5  EZZ         1    4    3    3
 -5  EXY         1    4    1    2
 -5  EYZ         1    4    2    3
 -5  EZX         1    4    3    1
 -1         1-7.50048E+01 4.59665E+01-1.82786E-10-2.73739E-01 3.43503E+01 2.20587E-10
 -1         2-1.84098E+02 1.12834E+02 9.55674E-11-1.45081E+00-2.30808E+00 2.19633E-10
 -1         3-2.74215E+02 1.68072E+02 6.48033E-11 1.57270E-01-4.04154E+01 1.85430E-10
 -1         4-9.28026E+01 5.68807E+01-4.90852E-10 1.83367E+00-1.41584E+01 2.91068E-11
 -1         5 1.84373E+02-1.13007E+02-1.59385E-10 1.30229E+00 3.37004E+01-2.11720E-10
 -1         6 2.26434E+02-1.38787E+02-4.93325E-11-8.29094E-01 4.07429E+01-3.04737E-10
 -1         7-1.50609E+01 9.23119E+00-5.27475E-10-1.92298E+00-2.58532E+00-1.97211E-10
 -1         8-2.38699E+02 1.46304E+02-5.79028E-10-6.23249E-01-4.25163E+01-1.02337E-11
 -1         9-1.66914E+02 1.02305E+02-3.42113E-10 1.44681E+00-2.91846E+01 1.46847E-10
 -1        10 1.07058E+02-6.56189E+01-4.83657E-10 1.69514E+00 2.15974E+01 1.84007E-10
 -1        11 2.28172E+02-1.39853E+02-5.58197E-10-2.40611E-01 4.94440E+01 1.38812E-10
 -1        12-3.98481E+00 2.43871E+00-2.99170E-10-2.13890E+00 2.96953E+01 4.61483E-11
 -1        13-2.09889E+02 1.28641E+02-3.85423E-10-2.49593E+00 9.83763E+00 1.14128E-11
 -1        14-7.50048E+01 4.59665E+01 1.82786E-10-2.73739E-01-3.43503E+01 2.34754E-10
 -1        15-1.84098E+02 1.12834E+02-9.55674E-11-1.45081E+00 2.30808E+00 2.33754E-10
 -1        16-2.74215E+02 1.68072E+02-6.48033E-11 1.57270E-01 4.04154E+01 1.99330E-10
 -1        17-9.28026E+01 5.68807E+01 4.90852E-10 1.83367E+00 1.41584E+01 4.25408E-11
 -1        18 1.84373E+02-1.13007E+02 1.59385E-10 1.30229E+00-3.37004E+01-1.99264E-10
 -1        19 2.26434E+02-1.38787E+02 4.93325E-11-8.29095E-01-4.07429E+01-2.93258E-10
 -1        20-1.50609E+01 9.23119E+00 5.27475E-10-1.92298E+00 2.58532E+00-1.86642E-10
 -1        21-2.38699E+02 1.46304E+02 5.79028E-10-6.23249E-01 4.25163E+01-1.26317E-12
 -1        22-1.66914E+02 1.02305E+02 3.42113E-10 1.44681E+00 2.91846E+01 1.53797E-10
 -1        23 1.07058E+02-6.56189E+01 4.83657E-10 1.69514E+00-2.15974E+01 1.88936E-10
 -1        24 2.28172E+02-1.39853E+02 5.58197E-10-2.40611E-01-4.94440E+01 1.41743E-10
 -1        25-3.98481E+00 2.43871E+00 2.99170E-10-2.13890E+00-2.96953E+01 4.70139E-11
 -1        26-2.09889E+02 1.28641E+02 3.85423E-10-2.49593E+00-9.83763E+00 1.12353E-11
 -1        27 7.50048E+01-4.59665E+01-1.82786E-10-2.73739E-01 3.43503E+01 6.46011E-11
 -1        28 1.84098E+02-1.12834E+02 9.55674E-11-1.45081E+00-2.30808E+00 5.64673E-11
 -1        29 2.74215E+02-1.68072E+02 6.48033E-11 1.57270E-01-4.04154E+01 6.79386E-11
 -1        30 9.28026E+01-5.68807E+01-4.90852E-10 1.83367E+00-1.41584E+01 2.10685E-10
 -1        31-1.84373E+02 1.13007E+02-1.59385E-10 1.30229E+00 3.37004E+01 4.40013E-10
 -1        32-2.26434E+02 1.38787E+02-4.93325E-11-8.29094E-01 4.07429E+01 5.07667E-10
 -1        33 1.50609E+01-9.23119E+00-5.27475E-10-1.92298E+00-2.58532E+00 3.77298E-10
 -1        34 2.38699E+02-1.46304E+02-5.79028E-10-6.23249E-01-4.25163E+01 1.69899E-10
 -1        35 1.66914E+02-1.02305E+02-3.42113E-10 1.44681E+00-2.91846E+01-8.15979E-12
 -1        36-1.07058E+02 6.56189E+01-4.83657E-10 1.69514E+00 2.15974E+01-7.08140E-11
 -1        37-2.28172E+02 1.39853E+02-5.58197E-10-2.40611E-01 4.94440E+01-5.60513E-11
 -1        38 3.98481E+00-2.43871E+00-2.99170E-10-2.13890E+00 2.96953E+01-2.08474E-12
 -1        39 2.09889E+02-1.28641E+02-3.85423E-10-2.49593E+00 9.83763E+00 1.14611E-11
 -1        40 7.50048E+01-4.59665E+01 1.82786E-10-2.73739E-01-3.43503E+01 7.87664E-11
 -1        41 1.84098E+02-1.12834E+02-9.55674E-11-1.45081E+00 2.30808E+00 7.05889E-11
 -1        42 2.74215E+02-1.68072E+02-6.48033E-11 1.57270E-01 4.04154E+01 8.18384E-11
 -1        43 9.28026E+01-5.68807E+01 4.90852E-10 1.83367E+00 1.41584E+01 2.24118E-10
 -1        44-1.84373E+02 1.13007E+02 1.59385E-10 1.30229E+00-3.37004E+01 4.52470E-10
 -1        45-2.26434E+02 1.38787E+02 4.93325E-11-8.29095E-01-4.07429E+01 5.19146E-10
 -1        46 1.50609E+01-9.23119E+00 5.27475E-10-1.92298E+00 2.58532E+00 3.87868E-10
 -1        47 2.38699E+02-1.46304E+02 5.79028E-10-6.23249E-01 4.25163E+01 1.78870E-10
 -1        48 1.66914E+02-1.02305E+02 3.42113E-10 1.44681E+00 2.91846E+01-1.20971E-12
 -1        49-1.07058E+02 6.56189E+01 4.83657E-10 1.69514E+00-2.15974E+01-6.58849E-11
 -1        50-2.28172E+02 1.39853E+02 5.58197E-10-2.40611E-01-4.94440E+01-5.31205E-11
 -1        51 3.98481E+00-2.43871E+00 2.99170E-10-2.13890E+00-2.96953E+01-1.21834E-12
 -1        52 2.09889E+02-1.28641E+02 3.85423E-10-2.49593E+00-9.83763E+00 1.12834E-11
 -3
    1PSTEP                        20           1           1          
    1PGM                1.000000E+00                                  
    1PGK                2.477289E+07                                  
    1PHID                         -1                                  
    1PSUBC                         0                                  
    1PMODE                         5                                  
  100CL  105 792.1519669          52                     2    5MODAL      1
 -4  ERROR       1    1
 -5  STR(%)      1    1    0    0
 -1         1 1.00366E+02
 -1         2 1.19122E+02
 -1         3 1.19122E+02
 -1         4 1.17948E+02
 -1         5 1.17270E+02
 -1         6 1.17277E+02
 -1         7 1.17338E+02
 -1         8 1.17362E+02
 -1         9 1.18196E+02
 -1        10 1.18196E+02
 -1        11 1.16645E+02
 -1        12 1.21187E+02
 -1        13 1.21187E+02
 -1        14 1.00366E+02
 -1        15 1.19122E+02
 -1        16 1.19122E+02
 -1        17 1.17948E+02
 -1        18 1.17270E+02
 -1        19 1.17277E+02
 -1        20 1.17338E+02
 -1        21 1.17362E+02
 -1        22 1.18196E+02
 -1        23 1.18196E+02
 -1        24 1.16645E+02
 -1        25 1.21187E+02
 -1        26 1.21187E+02
 -1        27 1.00366E+02
 -1        28 1.19122E+02
 -1        29 1.19122E+02
 -1        30 1.17948E+02
 -1        31 1.17270E+02
 -1        32 1.17277E+02
 -1        33 1.17338E+02
 -1        34 1.17362E+02
 -1        35 1.18196E+02
 -1        36 1.18196E+02
 -1        37 1.16645E+02
 -1        38 1.21187E+02
 -1        39 1.21187E+02
 -1        40 1.00366E+02
 -1        41 1.19122E+02
 -1        42 1.19122E+02
 -1        43 1.17948E+02
 -1        44 1.17270E+02
 -1        45 1.17277E+02
 -1        46 1.17338E+02
 -1        47 1.17362E+02
 -1        48 1.18196E+02
 -1        49 1.18196E+02
 -1        50 1.16645E+02
 -1        51 1.21187E+02
 -1        52 1.21187E+02
 -3
 9999
