    1C
    1UUSER                                                              
    1UDATE              06.may.2022                                     
    1UTIME              17:32:19                                        
    1UHOST                                                              
    1UPGM               CalculiX                                        
    1UVERSION           Version 2.16                             
    1UCOMPILETIME       Tue 20 Jul 2021 11:34:44 AM CDT                    
    1UDIR                                                               
    1UDBN                                                               
    1UMAT    1ACETATO                                                   
    2C                           244                                     1
 -1         1 6.60000E-02 2.99750E-02 1.60000E-01
 -1         2 6.54167E-02 2.99750E-02 1.60000E-01
 -1         3 6.48333E-02 2.99750E-02 1.60000E-01
 -1         4 6.42500E-02 2.99750E-02 1.60000E-01
 -1         5 6.36666E-02 2.99750E-02 1.60000E-01
 -1         6 6.30833E-02 2.99750E-02 1.60000E-01
 -1         7 6.25000E-02 2.99750E-02 1.60000E-01
 -1         8 6.19166E-02 2.99750E-02 1.60000E-01
 -1         9 6.13333E-02 2.99750E-02 1.60000E-01
 -1        10 6.07500E-02 2.99750E-02 1.60000E-01
 -1        11 6.01666E-02 2.99750E-02 1.60000E-01
 -1        12 5.95833E-02 2.99750E-02 1.60000E-01
 -1        13 5.90000E-02 2.99750E-02 1.60000E-01
 -1        14 5.84166E-02 2.99750E-02 1.60000E-01
 -1        15 5.78333E-02 2.99750E-02 1.60000E-01
 -1        16 5.72499E-02 2.99750E-02 1.60000E-01
 -1        17 5.66666E-02 2.99750E-02 1.60000E-01
 -1        18 5.60833E-02 2.99750E-02 1.60000E-01
 -1        19 5.54999E-02 2.99750E-02 1.60000E-01
 -1        20 5.49166E-02 2.99750E-02 1.60000E-01
 -1        21 5.43333E-02 2.99750E-02 1.60000E-01
 -1        22 5.37499E-02 2.99750E-02 1.60000E-01
 -1        23 5.31666E-02 2.99750E-02 1.60000E-01
 -1        24 5.25833E-02 2.99750E-02 1.60000E-01
 -1        25 5.19999E-02 2.99750E-02 1.60000E-01
 -1        26 5.14166E-02 2.99750E-02 1.60000E-01
 -1        27 5.08332E-02 2.99750E-02 1.60000E-01
 -1        28 5.02499E-02 2.99750E-02 1.60000E-01
 -1        29 4.96666E-02 2.99750E-02 1.60000E-01
 -1        30 4.90832E-02 2.99750E-02 1.60000E-01
 -1        31 4.84999E-02 2.99750E-02 1.60000E-01
 -1        32 4.79166E-02 2.99750E-02 1.60000E-01
 -1        33 4.73332E-02 2.99750E-02 1.60000E-01
 -1        34 4.67499E-02 2.99750E-02 1.60000E-01
 -1        35 4.61665E-02 2.99750E-02 1.60000E-01
 -1        36 4.55832E-02 2.99750E-02 1.60000E-01
 -1        37 4.49999E-02 2.99750E-02 1.60000E-01
 -1        38 4.44165E-02 2.99750E-02 1.60000E-01
 -1        39 4.38332E-02 2.99750E-02 1.60000E-01
 -1        40 4.32499E-02 2.99750E-02 1.60000E-01
 -1        41 4.26665E-02 2.99750E-02 1.60000E-01
 -1        42 4.20832E-02 2.99750E-02 1.60000E-01
 -1        43 4.14999E-02 2.99750E-02 1.60000E-01
 -1        44 4.09165E-02 2.99750E-02 1.60000E-01
 -1        45 4.03332E-02 2.99750E-02 1.60000E-01
 -1        46 3.97498E-02 2.99750E-02 1.60000E-01
 -1        47 3.91665E-02 2.99750E-02 1.60000E-01
 -1        48 3.85832E-02 2.99750E-02 1.60000E-01
 -1        49 3.79998E-02 2.99750E-02 1.60000E-01
 -1        50 3.74165E-02 2.99750E-02 1.60000E-01
 -1        51 3.68332E-02 2.99750E-02 1.60000E-01
 -1        52 3.62498E-02 2.99750E-02 1.60000E-01
 -1        53 3.56665E-02 2.99750E-02 1.60000E-01
 -1        54 3.50831E-02 2.99750E-02 1.60000E-01
 -1        55 3.44998E-02 2.99750E-02 1.60000E-01
 -1        56 3.39165E-02 2.99750E-02 1.60000E-01
 -1        57 3.33331E-02 2.99750E-02 1.60000E-01
 -1        58 3.27498E-02 2.99750E-02 1.60000E-01
 -1        59 3.21665E-02 2.99750E-02 1.60000E-01
 -1        60 3.15831E-02 2.99750E-02 1.60000E-01
 -1        61 3.09998E-02 2.99750E-02 1.60000E-01
 -1        62 6.60000E-02 2.99750E-02 0.00000E+00
 -1        63 6.54167E-02 2.99750E-02 0.00000E+00
 -1        64 6.48333E-02 2.99750E-02 0.00000E+00
 -1        65 6.42500E-02 2.99750E-02 0.00000E+00
 -1        66 6.36666E-02 2.99750E-02 0.00000E+00
 -1        67 6.30833E-02 2.99750E-02 0.00000E+00
 -1        68 6.25000E-02 2.99750E-02 0.00000E+00
 -1        69 6.19166E-02 2.99750E-02 0.00000E+00
 -1        70 6.13333E-02 2.99750E-02 0.00000E+00
 -1        71 6.07500E-02 2.99750E-02 0.00000E+00
 -1        72 6.01666E-02 2.99750E-02 0.00000E+00
 -1        73 5.95833E-02 2.99750E-02 0.00000E+00
 -1        74 5.90000E-02 2.99750E-02 0.00000E+00
 -1        75 5.84166E-02 2.99750E-02 0.00000E+00
 -1        76 5.78333E-02 2.99750E-02 0.00000E+00
 -1        77 5.72499E-02 2.99750E-02 0.00000E+00
 -1        78 5.66666E-02 2.99750E-02 0.00000E+00
 -1        79 5.60833E-02 2.99750E-02 0.00000E+00
 -1        80 5.54999E-02 2.99750E-02 0.00000E+00
 -1        81 5.49166E-02 2.99750E-02 0.00000E+00
 -1        82 5.43333E-02 2.99750E-02 0.00000E+00
 -1        83 5.37499E-02 2.99750E-02 0.00000E+00
 -1        84 5.31666E-02 2.99750E-02 0.00000E+00
 -1        85 5.25833E-02 2.99750E-02 0.00000E+00
 -1        86 5.19999E-02 2.99750E-02 0.00000E+00
 -1        87 5.14166E-02 2.99750E-02 0.00000E+00
 -1        88 5.08332E-02 2.99750E-02 0.00000E+00
 -1        89 5.02499E-02 2.99750E-02 0.00000E+00
 -1        90 4.96666E-02 2.99750E-02 0.00000E+00
 -1        91 4.90832E-02 2.99750E-02 0.00000E+00
 -1        92 4.84999E-02 2.99750E-02 0.00000E+00
 -1        93 4.79166E-02 2.99750E-02 0.00000E+00
 -1        94 4.73332E-02 2.99750E-02 0.00000E+00
 -1        95 4.67499E-02 2.99750E-02 0.00000E+00
 -1        96 4.61665E-02 2.99750E-02 0.00000E+00
 -1        97 4.55832E-02 2.99750E-02 0.00000E+00
 -1        98 4.49999E-02 2.99750E-02 0.00000E+00
 -1        99 4.44165E-02 2.99750E-02 0.00000E+00
 -1       100 4.38332E-02 2.99750E-02 0.00000E+00
 -1       101 4.32499E-02 2.99750E-02 0.00000E+00
 -1       102 4.26665E-02 2.99750E-02 0.00000E+00
 -1       103 4.20832E-02 2.99750E-02 0.00000E+00
 -1       104 4.14999E-02 2.99750E-02 0.00000E+00
 -1       105 4.09165E-02 2.99750E-02 0.00000E+00
 -1       106 4.03332E-02 2.99750E-02 0.00000E+00
 -1       107 3.97498E-02 2.99750E-02 0.00000E+00
 -1       108 3.91665E-02 2.99750E-02 0.00000E+00
 -1       109 3.85832E-02 2.99750E-02 0.00000E+00
 -1       110 3.79998E-02 2.99750E-02 0.00000E+00
 -1       111 3.74165E-02 2.99750E-02 0.00000E+00
 -1       112 3.68332E-02 2.99750E-02 0.00000E+00
 -1       113 3.62498E-02 2.99750E-02 0.00000E+00
 -1       114 3.56665E-02 2.99750E-02 0.00000E+00
 -1       115 3.50831E-02 2.99750E-02 0.00000E+00
 -1       116 3.44998E-02 2.99750E-02 0.00000E+00
 -1       117 3.39165E-02 2.99750E-02 0.00000E+00
 -1       118 3.33331E-02 2.99750E-02 0.00000E+00
 -1       119 3.27498E-02 2.99750E-02 0.00000E+00
 -1       120 3.21665E-02 2.99750E-02 0.00000E+00
 -1       121 3.15831E-02 2.99750E-02 0.00000E+00
 -1       122 3.09998E-02 2.99750E-02 0.00000E+00
 -1       123 6.60000E-02 3.00250E-02 1.60000E-01
 -1       124 6.54167E-02 3.00250E-02 1.60000E-01
 -1       125 6.48333E-02 3.00250E-02 1.60000E-01
 -1       126 6.42500E-02 3.00250E-02 1.60000E-01
 -1       127 6.36666E-02 3.00250E-02 1.60000E-01
 -1       128 6.30833E-02 3.00250E-02 1.60000E-01
 -1       129 6.25000E-02 3.00250E-02 1.60000E-01
 -1       130 6.19166E-02 3.00250E-02 1.60000E-01
 -1       131 6.13333E-02 3.00250E-02 1.60000E-01
 -1       132 6.07500E-02 3.00250E-02 1.60000E-01
 -1       133 6.01666E-02 3.00250E-02 1.60000E-01
 -1       134 5.95833E-02 3.00250E-02 1.60000E-01
 -1       135 5.90000E-02 3.00250E-02 1.60000E-01
 -1       136 5.84166E-02 3.00250E-02 1.60000E-01
 -1       137 5.78333E-02 3.00250E-02 1.60000E-01
 -1       138 5.72499E-02 3.00250E-02 1.60000E-01
 -1       139 5.66666E-02 3.00250E-02 1.60000E-01
 -1       140 5.60833E-02 3.00250E-02 1.60000E-01
 -1       141 5.54999E-02 3.00250E-02 1.60000E-01
 -1       142 5.49166E-02 3.00250E-02 1.60000E-01
 -1       143 5.43333E-02 3.00250E-02 1.60000E-01
 -1       144 5.37499E-02 3.00250E-02 1.60000E-01
 -1       145 5.31666E-02 3.00250E-02 1.60000E-01
 -1       146 5.25833E-02 3.00250E-02 1.60000E-01
 -1       147 5.19999E-02 3.00250E-02 1.60000E-01
 -1       148 5.14166E-02 3.00250E-02 1.60000E-01
 -1       149 5.08332E-02 3.00250E-02 1.60000E-01
 -1       150 5.02499E-02 3.00250E-02 1.60000E-01
 -1       151 4.96666E-02 3.00250E-02 1.60000E-01
 -1       152 4.90832E-02 3.00250E-02 1.60000E-01
 -1       153 4.84999E-02 3.00250E-02 1.60000E-01
 -1       154 4.79166E-02 3.00250E-02 1.60000E-01
 -1       155 4.73332E-02 3.00250E-02 1.60000E-01
 -1       156 4.67499E-02 3.00250E-02 1.60000E-01
 -1       157 4.61665E-02 3.00250E-02 1.60000E-01
 -1       158 4.55832E-02 3.00250E-02 1.60000E-01
 -1       159 4.49999E-02 3.00250E-02 1.60000E-01
 -1       160 4.44165E-02 3.00250E-02 1.60000E-01
 -1       161 4.38332E-02 3.00250E-02 1.60000E-01
 -1       162 4.32499E-02 3.00250E-02 1.60000E-01
 -1       163 4.26665E-02 3.00250E-02 1.60000E-01
 -1       164 4.20832E-02 3.00250E-02 1.60000E-01
 -1       165 4.14999E-02 3.00250E-02 1.60000E-01
 -1       166 4.09165E-02 3.00250E-02 1.60000E-01
 -1       167 4.03332E-02 3.00250E-02 1.60000E-01
 -1       168 3.97498E-02 3.00250E-02 1.60000E-01
 -1       169 3.91665E-02 3.00250E-02 1.60000E-01
 -1       170 3.85832E-02 3.00250E-02 1.60000E-01
 -1       171 3.79998E-02 3.00250E-02 1.60000E-01
 -1       172 3.74165E-02 3.00250E-02 1.60000E-01
 -1       173 3.68332E-02 3.00250E-02 1.60000E-01
 -1       174 3.62498E-02 3.00250E-02 1.60000E-01
 -1       175 3.56665E-02 3.00250E-02 1.60000E-01
 -1       176 3.50831E-02 3.00250E-02 1.60000E-01
 -1       177 3.44998E-02 3.00250E-02 1.60000E-01
 -1       178 3.39165E-02 3.00250E-02 1.60000E-01
 -1       179 3.33331E-02 3.00250E-02 1.60000E-01
 -1       180 3.27498E-02 3.00250E-02 1.60000E-01
 -1       181 3.21665E-02 3.00250E-02 1.60000E-01
 -1       182 3.15831E-02 3.00250E-02 1.60000E-01
 -1       183 3.09998E-02 3.00250E-02 1.60000E-01
 -1       184 6.60000E-02 3.00250E-02 0.00000E+00
 -1       185 6.54167E-02 3.00250E-02 0.00000E+00
 -1       186 6.48333E-02 3.00250E-02 0.00000E+00
 -1       187 6.42500E-02 3.00250E-02 0.00000E+00
 -1       188 6.36666E-02 3.00250E-02 0.00000E+00
 -1       189 6.30833E-02 3.00250E-02 0.00000E+00
 -1       190 6.25000E-02 3.00250E-02 0.00000E+00
 -1       191 6.19166E-02 3.00250E-02 0.00000E+00
 -1       192 6.13333E-02 3.00250E-02 0.00000E+00
 -1       193 6.07500E-02 3.00250E-02 0.00000E+00
 -1       194 6.01666E-02 3.00250E-02 0.00000E+00
 -1       195 5.95833E-02 3.00250E-02 0.00000E+00
 -1       196 5.90000E-02 3.00250E-02 0.00000E+00
 -1       197 5.84166E-02 3.00250E-02 0.00000E+00
 -1       198 5.78333E-02 3.00250E-02 0.00000E+00
 -1       199 5.72499E-02 3.00250E-02 0.00000E+00
 -1       200 5.66666E-02 3.00250E-02 0.00000E+00
 -1       201 5.60833E-02 3.00250E-02 0.00000E+00
 -1       202 5.54999E-02 3.00250E-02 0.00000E+00
 -1       203 5.49166E-02 3.00250E-02 0.00000E+00
 -1       204 5.43333E-02 3.00250E-02 0.00000E+00
 -1       205 5.37499E-02 3.00250E-02 0.00000E+00
 -1       206 5.31666E-02 3.00250E-02 0.00000E+00
 -1       207 5.25833E-02 3.00250E-02 0.00000E+00
 -1       208 5.19999E-02 3.00250E-02 0.00000E+00
 -1       209 5.14166E-02 3.00250E-02 0.00000E+00
 -1       210 5.08332E-02 3.00250E-02 0.00000E+00
 -1       211 5.02499E-02 3.00250E-02 0.00000E+00
 -1       212 4.96666E-02 3.00250E-02 0.00000E+00
 -1       213 4.90832E-02 3.00250E-02 0.00000E+00
 -1       214 4.84999E-02 3.00250E-02 0.00000E+00
 -1       215 4.79166E-02 3.00250E-02 0.00000E+00
 -1       216 4.73332E-02 3.00250E-02 0.00000E+00
 -1       217 4.67499E-02 3.00250E-02 0.00000E+00
 -1       218 4.61665E-02 3.00250E-02 0.00000E+00
 -1       219 4.55832E-02 3.00250E-02 0.00000E+00
 -1       220 4.49999E-02 3.00250E-02 0.00000E+00
 -1       221 4.44165E-02 3.00250E-02 0.00000E+00
 -1       222 4.38332E-02 3.00250E-02 0.00000E+00
 -1       223 4.32499E-02 3.00250E-02 0.00000E+00
 -1       224 4.26665E-02 3.00250E-02 0.00000E+00
 -1       225 4.20832E-02 3.00250E-02 0.00000E+00
 -1       226 4.14999E-02 3.00250E-02 0.00000E+00
 -1       227 4.09165E-02 3.00250E-02 0.00000E+00
 -1       228 4.03332E-02 3.00250E-02 0.00000E+00
 -1       229 3.97498E-02 3.00250E-02 0.00000E+00
 -1       230 3.91665E-02 3.00250E-02 0.00000E+00
 -1       231 3.85832E-02 3.00250E-02 0.00000E+00
 -1       232 3.79998E-02 3.00250E-02 0.00000E+00
 -1       233 3.74165E-02 3.00250E-02 0.00000E+00
 -1       234 3.68332E-02 3.00250E-02 0.00000E+00
 -1       235 3.62498E-02 3.00250E-02 0.00000E+00
 -1       236 3.56665E-02 3.00250E-02 0.00000E+00
 -1       237 3.50831E-02 3.00250E-02 0.00000E+00
 -1       238 3.44998E-02 3.00250E-02 0.00000E+00
 -1       239 3.39165E-02 3.00250E-02 0.00000E+00
 -1       240 3.33331E-02 3.00250E-02 0.00000E+00
 -1       241 3.27498E-02 3.00250E-02 0.00000E+00
 -1       242 3.21665E-02 3.00250E-02 0.00000E+00
 -1       243 3.15831E-02 3.00250E-02 0.00000E+00
 -1       244 3.09998E-02 3.00250E-02 0.00000E+00
 -3
    3C                            60                                     1
 -1         1    1    0    1
 -2       123       124       185       184         1         2        63        62
 -1         2    1    0    1
 -2       124       125       186       185         2         3        64        63
 -1         3    1    0    1
 -2       125       126       187       186         3         4        65        64
 -1         4    1    0    1
 -2       126       127       188       187         4         5        66        65
 -1         5    1    0    1
 -2       127       128       189       188         5         6        67        66
 -1         6    1    0    1
 -2       128       129       190       189         6         7        68        67
 -1         7    1    0    1
 -2       129       130       191       190         7         8        69        68
 -1         8    1    0    1
 -2       130       131       192       191         8         9        70        69
 -1         9    1    0    1
 -2       131       132       193       192         9        10        71        70
 -1        10    1    0    1
 -2       132       133       194       193        10        11        72        71
 -1        11    1    0    1
 -2       133       134       195       194        11        12        73        72
 -1        12    1    0    1
 -2       134       135       196       195        12        13        74        73
 -1        13    1    0    1
 -2       135       136       197       196        13        14        75        74
 -1        14    1    0    1
 -2       136       137       198       197        14        15        76        75
 -1        15    1    0    1
 -2       137       138       199       198        15        16        77        76
 -1        16    1    0    1
 -2       138       139       200       199        16        17        78        77
 -1        17    1    0    1
 -2       139       140       201       200        17        18        79        78
 -1        18    1    0    1
 -2       140       141       202       201        18        19        80        79
 -1        19    1    0    1
 -2       141       142       203       202        19        20        81        80
 -1        20    1    0    1
 -2       142       143       204       203        20        21        82        81
 -1        21    1    0    1
 -2       143       144       205       204        21        22        83        82
 -1        22    1    0    1
 -2       144       145       206       205        22        23        84        83
 -1        23    1    0    1
 -2       145       146       207       206        23        24        85        84
 -1        24    1    0    1
 -2       146       147       208       207        24        25        86        85
 -1        25    1    0    1
 -2       147       148       209       208        25        26        87        86
 -1        26    1    0    1
 -2       148       149       210       209        26        27        88        87
 -1        27    1    0    1
 -2       149       150       211       210        27        28        89        88
 -1        28    1    0    1
 -2       150       151       212       211        28        29        90        89
 -1        29    1    0    1
 -2       151       152       213       212        29        30        91        90
 -1        30    1    0    1
 -2       152       153       214       213        30        31        92        91
 -1        31    1    0    1
 -2       153       154       215       214        31        32        93        92
 -1        32    1    0    1
 -2       154       155       216       215        32        33        94        93
 -1        33    1    0    1
 -2       155       156       217       216        33        34        95        94
 -1        34    1    0    1
 -2       156       157       218       217        34        35        96        95
 -1        35    1    0    1
 -2       157       158       219       218        35        36        97        96
 -1        36    1    0    1
 -2       158       159       220       219        36        37        98        97
 -1        37    1    0    1
 -2       159       160       221       220        37        38        99        98
 -1        38    1    0    1
 -2       160       161       222       221        38        39       100        99
 -1        39    1    0    1
 -2       161       162       223       222        39        40       101       100
 -1        40    1    0    1
 -2       162       163       224       223        40        41       102       101
 -1        41    1    0    1
 -2       163       164       225       224        41        42       103       102
 -1        42    1    0    1
 -2       164       165       226       225        42        43       104       103
 -1        43    1    0    1
 -2       165       166       227       226        43        44       105       104
 -1        44    1    0    1
 -2       166       167       228       227        44        45       106       105
 -1        45    1    0    1
 -2       167       168       229       228        45        46       107       106
 -1        46    1    0    1
 -2       168       169       230       229        46        47       108       107
 -1        47    1    0    1
 -2       169       170       231       230        47        48       109       108
 -1        48    1    0    1
 -2       170       171       232       231        48        49       110       109
 -1        49    1    0    1
 -2       171       172       233       232        49        50       111       110
 -1        50    1    0    1
 -2       172       173       234       233        50        51       112       111
 -1        51    1    0    1
 -2       173       174       235       234        51        52       113       112
 -1        52    1    0    1
 -2       174       175       236       235        52        53       114       113
 -1        53    1    0    1
 -2       175       176       237       236        53        54       115       114
 -1        54    1    0    1
 -2       176       177       238       237        54        55       116       115
 -1        55    1    0    1
 -2       177       178       239       238        55        56       117       116
 -1        56    1    0    1
 -2       178       179       240       239        56        57       118       117
 -1        57    1    0    1
 -2       179       180       241       240        57        58       119       118
 -1        58    1    0    1
 -2       180       181       242       241        58        59       120       119
 -1        59    1    0    1
 -2       181       182       243       242        59        60       121       120
 -1        60    1    0    1
 -2       182       183       244       243        60        61       122       121
 -3
    1PSTEP                         1           1           1          
    1PGM                1.000000E+00                                  
    1PGK                6.933988E+03                                  
    1PHID                         -1                                  
    1PSUBC                         0                                  
    1PMODE                         1                                  
  100CL  101 13.25292329         244                     2    1MODAL      1
 -4  DISP        4    1
 -5  D1          1    2    1    0
 -5  D2          1    2    2    0
 -5  D3          1    2    3    0
 -5  ALL         1    2    0    0    1ALL
 -1         1 9.96843E-02 1.01380E+02 0.00000E+00
 -1         2 9.96836E-02 9.90541E+01 0.00000E+00
 -1         3 9.96788E-02 9.67281E+01 0.00000E+00
 -1         4 9.96659E-02 9.44024E+01 0.00000E+00
 -1         5 9.96411E-02 9.20771E+01 0.00000E+00
 -1         6 9.96004E-02 8.97525E+01 0.00000E+00
 -1         7 9.95402E-02 8.74292E+01 0.00000E+00
 -1         8 9.94568E-02 8.51075E+01 0.00000E+00
 -1         9 9.93468E-02 8.27880E+01 0.00000E+00
 -1        10 9.92067E-02 8.04715E+01 0.00000E+00
 -1        11 9.90331E-02 7.81587E+01 0.00000E+00
 -1        12 9.88228E-02 7.58503E+01 0.00000E+00
 -1        13 9.85727E-02 7.35473E+01 0.00000E+00
 -1        14 9.82797E-02 7.12506E+01 0.00000E+00
 -1        15 9.79408E-02 6.89613E+01 0.00000E+00
 -1        16 9.75533E-02 6.66805E+01 0.00000E+00
 -1        17 9.71142E-02 6.44093E+01 0.00000E+00
 -1        18 9.66210E-02 6.21490E+01 0.00000E+00
 -1        19 9.60710E-02 5.99008E+01 0.00000E+00
 -1        20 9.54618E-02 5.76662E+01 0.00000E+00
 -1        21 9.47909E-02 5.54466E+01 0.00000E+00
 -1        22 9.40560E-02 5.32433E+01 0.00000E+00
 -1        23 9.32550E-02 5.10579E+01 0.00000E+00
 -1        24 9.23856E-02 4.88921E+01 0.00000E+00
 -1        25 9.14458E-02 4.67473E+01 0.00000E+00
 -1        26 9.04338E-02 4.46253E+01 0.00000E+00
 -1        27 8.93476E-02 4.25278E+01 0.00000E+00
 -1        28 8.81853E-02 4.04565E+01 0.00000E+00
 -1        29 8.69455E-02 3.84133E+01 0.00000E+00
 -1        30 8.56263E-02 3.63999E+01 0.00000E+00
 -1        31 8.42263E-02 3.44182E+01 0.00000E+00
 -1        32 8.27441E-02 3.24702E+01 0.00000E+00
 -1        33 8.11783E-02 3.05577E+01 0.00000E+00
 -1        34 7.95275E-02 2.86828E+01 0.00000E+00
 -1        35 7.77907E-02 2.68473E+01 0.00000E+00
 -1        36 7.59665E-02 2.50534E+01 0.00000E+00
 -1        37 7.40541E-02 2.33031E+01 0.00000E+00
 -1        38 7.20523E-02 2.15985E+01 0.00000E+00
 -1        39 6.99603E-02 1.99417E+01 0.00000E+00
 -1        40 6.77773E-02 1.83347E+01 0.00000E+00
 -1        41 6.55024E-02 1.67797E+01 0.00000E+00
 -1        42 6.31349E-02 1.52789E+01 0.00000E+00
 -1        43 6.06742E-02 1.38344E+01 0.00000E+00
 -1        44 5.81197E-02 1.24484E+01 0.00000E+00
 -1        45 5.54708E-02 1.11232E+01 0.00000E+00
 -1        46 5.27271E-02 9.86083E+00 0.00000E+00
 -1        47 4.98881E-02 8.66362E+00 0.00000E+00
 -1        48 4.69534E-02 7.53377E+00 0.00000E+00
 -1        49 4.39228E-02 6.47351E+00 0.00000E+00
 -1        50 4.07959E-02 5.48510E+00 0.00000E+00
 -1        51 3.75724E-02 4.57078E+00 0.00000E+00
 -1        52 3.42523E-02 3.73279E+00 0.00000E+00
 -1        53 3.08353E-02 2.97342E+00 0.00000E+00
 -1        54 2.73212E-02 2.29490E+00 0.00000E+00
 -1        55 2.37100E-02 1.69951E+00 0.00000E+00
 -1        56 2.00016E-02 1.18953E+00 0.00000E+00
 -1        57 1.61960E-02 7.67208E-01 0.00000E+00
 -1        58 1.22930E-02 4.34823E-01 0.00000E+00
 -1        59 8.29268E-03 1.94645E-01 0.00000E+00
 -1        60 4.19502E-03 4.89475E-02 0.00000E+00
 -1        61 0.00000E+00 0.00000E+00 0.00000E+00
 -1        62 9.96843E-02 1.01380E+02 0.00000E+00
 -1        63 9.96836E-02 9.90541E+01 0.00000E+00
 -1        64 9.96788E-02 9.67281E+01 0.00000E+00
 -1        65 9.96659E-02 9.44024E+01 0.00000E+00
 -1        66 9.96411E-02 9.20771E+01 0.00000E+00
 -1        67 9.96004E-02 8.97525E+01 0.00000E+00
 -1        68 9.95402E-02 8.74292E+01 0.00000E+00
 -1        69 9.94568E-02 8.51075E+01 0.00000E+00
 -1        70 9.93468E-02 8.27880E+01 0.00000E+00
 -1        71 9.92067E-02 8.04715E+01 0.00000E+00
 -1        72 9.90331E-02 7.81587E+01 0.00000E+00
 -1        73 9.88228E-02 7.58503E+01 0.00000E+00
 -1        74 9.85727E-02 7.35473E+01 0.00000E+00
 -1        75 9.82797E-02 7.12506E+01 0.00000E+00
 -1        76 9.79408E-02 6.89613E+01 0.00000E+00
 -1        77 9.75533E-02 6.66805E+01 0.00000E+00
 -1        78 9.71142E-02 6.44093E+01 0.00000E+00
 -1        79 9.66210E-02 6.21490E+01 0.00000E+00
 -1        80 9.60710E-02 5.99008E+01 0.00000E+00
 -1        81 9.54618E-02 5.76662E+01 0.00000E+00
 -1        82 9.47909E-02 5.54466E+01 0.00000E+00
 -1        83 9.40560E-02 5.32433E+01 0.00000E+00
 -1        84 9.32550E-02 5.10579E+01 0.00000E+00
 -1        85 9.23856E-02 4.88921E+01 0.00000E+00
 -1        86 9.14458E-02 4.67473E+01 0.00000E+00
 -1        87 9.04338E-02 4.46253E+01 0.00000E+00
 -1        88 8.93476E-02 4.25278E+01 0.00000E+00
 -1        89 8.81853E-02 4.04565E+01 0.00000E+00
 -1        90 8.69455E-02 3.84133E+01 0.00000E+00
 -1        91 8.56263E-02 3.63999E+01 0.00000E+00
 -1        92 8.42263E-02 3.44182E+01 0.00000E+00
 -1        93 8.27441E-02 3.24702E+01 0.00000E+00
 -1        94 8.11783E-02 3.05577E+01 0.00000E+00
 -1        95 7.95275E-02 2.86828E+01 0.00000E+00
 -1        96 7.77907E-02 2.68473E+01 0.00000E+00
 -1        97 7.59665E-02 2.50534E+01 0.00000E+00
 -1        98 7.40541E-02 2.33031E+01 0.00000E+00
 -1        99 7.20523E-02 2.15985E+01 0.00000E+00
 -1       100 6.99603E-02 1.99417E+01 0.00000E+00
 -1       101 6.77773E-02 1.83347E+01 0.00000E+00
 -1       102 6.55024E-02 1.67797E+01 0.00000E+00
 -1       103 6.31349E-02 1.52789E+01 0.00000E+00
 -1       104 6.06742E-02 1.38344E+01 0.00000E+00
 -1       105 5.81197E-02 1.24484E+01 0.00000E+00
 -1       106 5.54708E-02 1.11232E+01 0.00000E+00
 -1       107 5.27271E-02 9.86083E+00 0.00000E+00
 -1       108 4.98881E-02 8.66362E+00 0.00000E+00
 -1       109 4.69534E-02 7.53377E+00 0.00000E+00
 -1       110 4.39228E-02 6.47351E+00 0.00000E+00
 -1       111 4.07959E-02 5.48510E+00 0.00000E+00
 -1       112 3.75724E-02 4.57078E+00 0.00000E+00
 -1       113 3.42523E-02 3.73279E+00 0.00000E+00
 -1       114 3.08353E-02 2.97342E+00 0.00000E+00
 -1       115 2.73212E-02 2.29490E+00 0.00000E+00
 -1       116 2.37100E-02 1.69951E+00 0.00000E+00
 -1       117 2.00016E-02 1.18953E+00 0.00000E+00
 -1       118 1.61960E-02 7.67208E-01 0.00000E+00
 -1       119 1.22930E-02 4.34823E-01 0.00000E+00
 -1       120 8.29268E-03 1.94645E-01 0.00000E+00
 -1       121 4.19502E-03 4.89475E-02 0.00000E+00
 -1       122 0.00000E+00 0.00000E+00 0.00000E+00
 -1       123-9.96843E-02 1.01380E+02 0.00000E+00
 -1       124-9.96836E-02 9.90541E+01 0.00000E+00
 -1       125-9.96788E-02 9.67281E+01 0.00000E+00
 -1       126-9.96659E-02 9.44024E+01 0.00000E+00
 -1       127-9.96411E-02 9.20771E+01 0.00000E+00
 -1       128-9.96004E-02 8.97525E+01 0.00000E+00
 -1       129-9.95402E-02 8.74292E+01 0.00000E+00
 -1       130-9.94568E-02 8.51075E+01 0.00000E+00
 -1       131-9.93468E-02 8.27880E+01 0.00000E+00
 -1       132-9.92067E-02 8.04715E+01 0.00000E+00
 -1       133-9.90331E-02 7.81587E+01 0.00000E+00
 -1       134-9.88228E-02 7.58503E+01 0.00000E+00
 -1       135-9.85727E-02 7.35473E+01 0.00000E+00
 -1       136-9.82797E-02 7.12506E+01 0.00000E+00
 -1       137-9.79408E-02 6.89613E+01 0.00000E+00
 -1       138-9.75533E-02 6.66805E+01 0.00000E+00
 -1       139-9.71142E-02 6.44093E+01 0.00000E+00
 -1       140-9.66210E-02 6.21490E+01 0.00000E+00
 -1       141-9.60710E-02 5.99008E+01 0.00000E+00
 -1       142-9.54618E-02 5.76662E+01 0.00000E+00
 -1       143-9.47909E-02 5.54466E+01 0.00000E+00
 -1       144-9.40560E-02 5.32433E+01 0.00000E+00
 -1       145-9.32550E-02 5.10579E+01 0.00000E+00
 -1       146-9.23856E-02 4.88921E+01 0.00000E+00
 -1       147-9.14458E-02 4.67473E+01 0.00000E+00
 -1       148-9.04338E-02 4.46253E+01 0.00000E+00
 -1       149-8.93476E-02 4.25278E+01 0.00000E+00
 -1       150-8.81853E-02 4.04565E+01 0.00000E+00
 -1       151-8.69455E-02 3.84133E+01 0.00000E+00
 -1       152-8.56263E-02 3.63999E+01 0.00000E+00
 -1       153-8.42263E-02 3.44182E+01 0.00000E+00
 -1       154-8.27441E-02 3.24702E+01 0.00000E+00
 -1       155-8.11783E-02 3.05577E+01 0.00000E+00
 -1       156-7.95275E-02 2.86828E+01 0.00000E+00
 -1       157-7.77907E-02 2.68473E+01 0.00000E+00
 -1       158-7.59665E-02 2.50534E+01 0.00000E+00
 -1       159-7.40541E-02 2.33031E+01 0.00000E+00
 -1       160-7.20523E-02 2.15985E+01 0.00000E+00
 -1       161-6.99603E-02 1.99417E+01 0.00000E+00
 -1       162-6.77773E-02 1.83347E+01 0.00000E+00
 -1       163-6.55024E-02 1.67797E+01 0.00000E+00
 -1       164-6.31349E-02 1.52789E+01 0.00000E+00
 -1       165-6.06742E-02 1.38344E+01 0.00000E+00
 -1       166-5.81197E-02 1.24484E+01 0.00000E+00
 -1       167-5.54708E-02 1.11232E+01 0.00000E+00
 -1       168-5.27271E-02 9.86083E+00 0.00000E+00
 -1       169-4.98881E-02 8.66362E+00 0.00000E+00
 -1       170-4.69534E-02 7.53377E+00 0.00000E+00
 -1       171-4.39228E-02 6.47351E+00 0.00000E+00
 -1       172-4.07959E-02 5.48510E+00 0.00000E+00
 -1       173-3.75724E-02 4.57078E+00 0.00000E+00
 -1       174-3.42523E-02 3.73279E+00 0.00000E+00
 -1       175-3.08353E-02 2.97342E+00 0.00000E+00
 -1       176-2.73212E-02 2.29490E+00 0.00000E+00
 -1       177-2.37100E-02 1.69951E+00 0.00000E+00
 -1       178-2.00016E-02 1.18953E+00 0.00000E+00
 -1       179-1.61960E-02 7.67208E-01 0.00000E+00
 -1       180-1.22930E-02 4.34823E-01 0.00000E+00
 -1       181-8.29268E-03 1.94645E-01 0.00000E+00
 -1       182-4.19502E-03 4.89475E-02 0.00000E+00
 -1       183 0.00000E+00 0.00000E+00 0.00000E+00
 -1       184-9.96843E-02 1.01380E+02 0.00000E+00
 -1       185-9.96836E-02 9.90541E+01 0.00000E+00
 -1       186-9.96788E-02 9.67281E+01 0.00000E+00
 -1       187-9.96659E-02 9.44024E+01 0.00000E+00
 -1       188-9.96411E-02 9.20771E+01 0.00000E+00
 -1       189-9.96004E-02 8.97525E+01 0.00000E+00
 -1       190-9.95402E-02 8.74292E+01 0.00000E+00
 -1       191-9.94568E-02 8.51075E+01 0.00000E+00
 -1       192-9.93468E-02 8.27880E+01 0.00000E+00
 -1       193-9.92067E-02 8.04715E+01 0.00000E+00
 -1       194-9.90331E-02 7.81587E+01 0.00000E+00
 -1       195-9.88228E-02 7.58503E+01 0.00000E+00
 -1       196-9.85727E-02 7.35473E+01 0.00000E+00
 -1       197-9.82797E-02 7.12506E+01 0.00000E+00
 -1       198-9.79408E-02 6.89613E+01 0.00000E+00
 -1       199-9.75533E-02 6.66805E+01 0.00000E+00
 -1       200-9.71142E-02 6.44093E+01 0.00000E+00
 -1       201-9.66210E-02 6.21490E+01 0.00000E+00
 -1       202-9.60710E-02 5.99008E+01 0.00000E+00
 -1       203-9.54618E-02 5.76662E+01 0.00000E+00
 -1       204-9.47909E-02 5.54466E+01 0.00000E+00
 -1       205-9.40560E-02 5.32433E+01 0.00000E+00
 -1       206-9.32550E-02 5.10579E+01 0.00000E+00
 -1       207-9.23856E-02 4.88921E+01 0.00000E+00
 -1       208-9.14458E-02 4.67473E+01 0.00000E+00
 -1       209-9.04338E-02 4.46253E+01 0.00000E+00
 -1       210-8.93476E-02 4.25278E+01 0.00000E+00
 -1       211-8.81853E-02 4.04565E+01 0.00000E+00
 -1       212-8.69455E-02 3.84133E+01 0.00000E+00
 -1       213-8.56263E-02 3.63999E+01 0.00000E+00
 -1       214-8.42263E-02 3.44182E+01 0.00000E+00
 -1       215-8.27441E-02 3.24702E+01 0.00000E+00
 -1       216-8.11783E-02 3.05577E+01 0.00000E+00
 -1       217-7.95275E-02 2.86828E+01 0.00000E+00
 -1       218-7.77907E-02 2.68473E+01 0.00000E+00
 -1       219-7.59665E-02 2.50534E+01 0.00000E+00
 -1       220-7.40541E-02 2.33031E+01 0.00000E+00
 -1       221-7.20523E-02 2.15985E+01 0.00000E+00
 -1       222-6.99603E-02 1.99417E+01 0.00000E+00
 -1       223-6.77773E-02 1.83347E+01 0.00000E+00
 -1       224-6.55024E-02 1.67797E+01 0.00000E+00
 -1       225-6.31349E-02 1.52789E+01 0.00000E+00
 -1       226-6.06742E-02 1.38344E+01 0.00000E+00
 -1       227-5.81197E-02 1.24484E+01 0.00000E+00
 -1       228-5.54708E-02 1.11232E+01 0.00000E+00
 -1       229-5.27271E-02 9.86083E+00 0.00000E+00
 -1       230-4.98881E-02 8.66362E+00 0.00000E+00
 -1       231-4.69534E-02 7.53377E+00 0.00000E+00
 -1       232-4.39228E-02 6.47351E+00 0.00000E+00
 -1       233-4.07959E-02 5.48510E+00 0.00000E+00
 -1       234-3.75724E-02 4.57078E+00 0.00000E+00
 -1       235-3.42523E-02 3.73279E+00 0.00000E+00
 -1       236-3.08353E-02 2.97342E+00 0.00000E+00
 -1       237-2.73212E-02 2.29490E+00 0.00000E+00
 -1       238-2.37100E-02 1.69951E+00 0.00000E+00
 -1       239-2.00016E-02 1.18953E+00 0.00000E+00
 -1       240-1.61960E-02 7.67208E-01 0.00000E+00
 -1       241-1.22930E-02 4.34823E-01 0.00000E+00
 -1       242-8.29268E-03 1.94645E-01 0.00000E+00
 -1       243-4.19502E-03 4.89475E-02 0.00000E+00
 -1       244 0.00000E+00 0.00000E+00 0.00000E+00
 -3
    1PSTEP                         2           1           1          
    1PGM                1.000000E+00                                  
    1PGK                6.933988E+03                                  
    1PHID                         -1                                  
    1PSUBC                         0                                  
    1PMODE                         1                                  
  100CL  101 13.25292329         244                     2    1MODAL      1
 -4  STRESS      6    1
 -5  SXX         1    4    1    1
 -5  SYY         1    4    2    2
 -5  SZZ         1    4    3    3
 -5  SXY         1    4    1    2
 -5  SYZ         1    4    2    3
 -5  SZX         1    4    3    1
 -1         1 6.61242E+06 2.41509E+04 2.52189E+06 1.07727E+03-7.72749E+07-8.91520E+00
 -1         2 2.62972E+07 2.38702E+04 1.00020E+07 5.64550E+05-7.63780E+07-8.92202E+00
 -1         3 8.49321E+07 2.33102E+04 3.22831E+07 1.11499E+06-7.45845E+07-8.94754E+00
 -1         4 1.81640E+08 2.27105E+04 6.90318E+07 1.65235E+06-7.27910E+07-8.92710E+00
 -1         5 3.15505E+08 2.20748E+04 1.19900E+08 2.17663E+06-7.09980E+07-8.76542E+00
 -1         6 4.85610E+08 2.14529E+04 1.84540E+08 2.68773E+06-6.92055E+07-8.40732E+00
 -1         7 6.91042E+08 2.08745E+04 2.62604E+08 3.18585E+06-6.74140E+07-7.98015E+00
 -1         8 9.30885E+08 2.02292E+04 3.53744E+08 3.67093E+06-6.56238E+07-7.43460E+00
 -1         9 1.20423E+09 1.95965E+04 4.57613E+08 4.14284E+06-6.38353E+07-6.65786E+00
 -1        10 1.51015E+09 1.90246E+04 5.73865E+08 4.60172E+06-6.20491E+07-5.77111E+00
 -1        11 1.84775E+09 1.85097E+04 7.02152E+08 5.04765E+06-6.02658E+07-4.94298E+00
 -1        12 2.21612E+09 1.79797E+04 8.42131E+08 5.48066E+06-5.84860E+07-4.22364E+00
 -1        13 2.61434E+09 1.74572E+04 9.93454E+08 5.90062E+06-5.67103E+07-3.53598E+00
 -1        14 3.04151E+09 1.69529E+04 1.15578E+09 6.30767E+06-5.49395E+07-2.95427E+00
 -1        15 3.49672E+09 1.64451E+04 1.32876E+09 6.70184E+06-5.31745E+07-2.49033E+00
 -1        16 3.97908E+09 1.59593E+04 1.51206E+09 7.08311E+06-5.14159E+07-2.11482E+00
 -1        17 4.48768E+09 1.54990E+04 1.70533E+09 7.45162E+06-4.96649E+07-1.92002E+00
 -1        18 5.02164E+09 1.50404E+04 1.90823E+09 7.80741E+06-4.79222E+07-1.93214E+00
 -1        19 5.58006E+09 1.45753E+04 2.12043E+09 8.15053E+06-4.61889E+07-2.12678E+00
 -1        20 6.16206E+09 1.40616E+04 2.34159E+09 8.48112E+06-4.44661E+07-2.47148E+00
 -1        21 6.76676E+09 1.34744E+04 2.57137E+09 8.79919E+06-4.27548E+07-2.79810E+00
 -1        22 7.39328E+09 1.28502E+04 2.80945E+09 9.10474E+06-4.10561E+07-2.91896E+00
 -1        23 8.04076E+09 1.22439E+04 3.05549E+09 9.39792E+06-3.93712E+07-2.81064E+00
 -1        24 8.70834E+09 1.16569E+04 3.30918E+09 9.67886E+06-3.77014E+07-2.53611E+00
 -1        25 9.39517E+09 1.11080E+04 3.57017E+09 9.94766E+06-3.60478E+07-2.14191E+00
 -1        26 1.01004E+10 1.06181E+04 3.83816E+09 1.02044E+07-3.44119E+07-1.72348E+00
 -1        27 1.08232E+10 1.01458E+04 4.11282E+09 1.04494E+07-3.27948E+07-1.40226E+00
 -1        28 1.15627E+10 9.69092E+03 4.39384E+09 1.06827E+07-3.11979E+07-1.18914E+00
 -1        29 1.23182E+10 9.20885E+03 4.68092E+09 1.09044E+07-2.96227E+07-1.01542E+00
 -1        30 1.30888E+10 8.74637E+03 4.97374E+09 1.11147E+07-2.80705E+07-8.70722E-01
 -1        31 1.38737E+10 8.30457E+03 5.27201E+09 1.13137E+07-2.65428E+07-8.04926E-01
 -1        32 1.46722E+10 7.86970E+03 5.57542E+09 1.15018E+07-2.50410E+07-8.31808E-01
 -1        33 1.54834E+10 7.41660E+03 5.88370E+09 1.16789E+07-2.35666E+07-8.99091E-01
 -1        34 1.63067E+10 6.96494E+03 6.19654E+09 1.18454E+07-2.21212E+07-9.74960E-01
 -1        35 1.71413E+10 6.51961E+03 6.51368E+09 1.20015E+07-2.07062E+07-1.04036E+00
 -1        36 1.79864E+10 6.09331E+03 6.83484E+09 1.21474E+07-1.93233E+07-1.09581E+00
 -1        37 1.88414E+10 5.67175E+03 7.15974E+09 1.22833E+07-1.79740E+07-1.16109E+00
 -1        38 1.97056E+10 5.25712E+03 7.48813E+09 1.24095E+07-1.66599E+07-1.23452E+00
 -1        39 2.05783E+10 4.85035E+03 7.81975E+09 1.25262E+07-1.53826E+07-1.29270E+00
 -1        40 2.14588E+10 4.44027E+03 8.15436E+09 1.26338E+07-1.41438E+07-1.30719E+00
 -1        41 2.23466E+10 4.03890E+03 8.49171E+09 1.27324E+07-1.29451E+07-1.25900E+00
 -1        42 2.32410E+10 3.66029E+03 8.83157E+09 1.28225E+07-1.17881E+07-1.15848E+00
 -1        43 2.41414E+10 3.31063E+03 9.17372E+09 1.29043E+07-1.06746E+07-1.04173E+00
 -1        44 2.50472E+10 2.97856E+03 9.51795E+09 1.29781E+07-9.60622E+06-9.29427E-01
 -1        45 2.59580E+10 2.65882E+03 9.86403E+09 1.30443E+07-8.58464E+06-8.21424E-01
 -1        46 2.68731E+10 2.35428E+03 1.02118E+10 1.31032E+07-7.61158E+06-7.10982E-01
 -1        47 2.77921E+10 2.06165E+03 1.05610E+10 1.31553E+07-6.68874E+06-5.94523E-01
 -1        48 2.87146E+10 1.79311E+03 1.09115E+10 1.32007E+07-5.81785E+06-4.77019E-01
 -1        49 2.96400E+10 1.53723E+03 1.12632E+10 1.32400E+07-5.00062E+06-3.61038E-01
 -1        50 3.05680E+10 1.30205E+03 1.16158E+10 1.32736E+07-4.23878E+06-2.48265E-01
 -1        51 3.14981E+10 1.09086E+03 1.19693E+10 1.33018E+07-3.53408E+06-1.50775E-01
 -1        52 3.24300E+10 8.96920E+02 1.23234E+10 1.33250E+07-2.88824E+06-7.51023E-02
 -1        53 3.33634E+10 7.19594E+02 1.26781E+10 1.33438E+07-2.30301E+06-1.46863E-02
 -1        54 3.42980E+10 5.61833E+02 1.30333E+10 1.33586E+07-1.78013E+06 3.29871E-02
 -1        55 3.52335E+10 4.24682E+02 1.33887E+10 1.33697E+07-1.32135E+06 6.70653E-02
 -1        56 3.61697E+10 3.08213E+02 1.37445E+10 1.33777E+07-9.28419E+05 8.66772E-02
 -1        57 3.71064E+10 2.12169E+02 1.41004E+10 1.33832E+07-6.03082E+05 9.25459E-02
 -1        58 3.80434E+10 1.37265E+02 1.44565E+10 1.33865E+07-3.47090E+05 8.60253E-02
 -1        59 3.89805E+10 8.35287E+01 1.48126E+10 1.33881E+07-1.62194E+05 6.86066E-02
 -1        60 3.99177E+10 5.75712E+01 1.51687E+10 1.33887E+07-5.01460E+04 4.02473E-02
 -1        61 4.03864E+10 2.81939E+01 1.53468E+10 1.33890E+07-1.25528E+04-2.54180E-02
 -1        62 6.61241E+06 2.41458E+04 2.52189E+06 1.09239E+03 7.72726E+07-8.91524E+00
 -1        63 2.62972E+07 2.38662E+04 1.00020E+07 5.64573E+05 7.63760E+07-8.92207E+00
 -1        64 8.49321E+07 2.33107E+04 3.22831E+07 1.11495E+06 7.45827E+07-8.94758E+00
 -1        65 1.81640E+08 2.27661E+04 6.90318E+07 1.65221E+06 7.27896E+07-8.92715E+00
 -1        66 3.15505E+08 2.22845E+04 1.19900E+08 2.17642E+06 7.09968E+07-8.76547E+00
 -1        67 4.85611E+08 2.17777E+04 1.84540E+08 2.68765E+06 6.92046E+07-8.40736E+00
 -1        68 6.91043E+08 2.12705E+04 2.62604E+08 3.18573E+06 6.74134E+07-7.98019E+00
 -1        69 9.30886E+08 2.07894E+04 3.53745E+08 3.67069E+06 6.56234E+07-7.43465E+00
 -1        70 1.20423E+09 2.02955E+04 4.57614E+08 4.14272E+06 6.38352E+07-6.65790E+00
 -1        71 1.51015E+09 1.97571E+04 5.73865E+08 4.60178E+06 6.20492E+07-5.77116E+00
 -1        72 1.84775E+09 1.91528E+04 7.02153E+08 5.04777E+06 6.02660E+07-4.94303E+00
 -1        73 2.21612E+09 1.85719E+04 8.42131E+08 5.48070E+06 5.84862E+07-4.22368E+00
 -1        74 2.61434E+09 1.79871E+04 9.93455E+08 5.90073E+06 5.67106E+07-3.53602E+00
 -1        75 3.04151E+09 1.73796E+04 1.15578E+09 6.30780E+06 5.49399E+07-2.95431E+00
 -1        76 3.49672E+09 1.67850E+04 1.32876E+09 6.70194E+06 5.31748E+07-2.49037E+00
 -1        77 3.97908E+09 1.61740E+04 1.51206E+09 7.08330E+06 5.14163E+07-2.11486E+00
 -1        78 4.48768E+09 1.55429E+04 1.70533E+09 7.45184E+06 4.96652E+07-1.92006E+00
 -1        79 5.02164E+09 1.49075E+04 1.90823E+09 7.80760E+06 4.79226E+07-1.93218E+00
 -1        80 5.58006E+09 1.42931E+04 2.12043E+09 8.15069E+06 4.61893E+07-2.12682E+00
 -1        81 6.16206E+09 1.37333E+04 2.34159E+09 8.48110E+06 4.44664E+07-2.47151E+00
 -1        82 6.76676E+09 1.32464E+04 2.57137E+09 8.79897E+06 4.27551E+07-2.79814E+00
 -1        83 7.39328E+09 1.28060E+04 2.80945E+09 9.10450E+06 4.10565E+07-2.91900E+00
 -1        84 8.04076E+09 1.23660E+04 3.05549E+09 9.39775E+06 3.93716E+07-2.81067E+00
 -1        85 8.70834E+09 1.19033E+04 3.30918E+09 9.67874E+06 3.77018E+07-2.53615E+00
 -1        86 9.39517E+09 1.14192E+04 3.57017E+09 9.94764E+06 3.60483E+07-2.14194E+00
 -1        87 1.01004E+10 1.08987E+04 3.83816E+09 1.02046E+07 3.44124E+07-1.72351E+00
 -1        88 1.08232E+10 1.03487E+04 4.11282E+09 1.04495E+07 3.27953E+07-1.40229E+00
 -1        89 1.15627E+10 9.81812E+03 4.39384E+09 1.06828E+07 3.11984E+07-1.18917E+00
 -1        90 1.23182E+10 9.29895E+03 4.68092E+09 1.09045E+07 2.96231E+07-1.01546E+00
 -1        91 1.30888E+10 8.80117E+03 4.97374E+09 1.11148E+07 2.80709E+07-8.70753E-01
 -1        92 1.38737E+10 8.28278E+03 5.27201E+09 1.13138E+07 2.65431E+07-8.04957E-01
 -1        93 1.46722E+10 7.78445E+03 5.57542E+09 1.15018E+07 2.50413E+07-8.31838E-01
 -1        94 1.54834E+10 7.30912E+03 5.88370E+09 1.16789E+07 2.35669E+07-8.99119E-01
 -1        95 1.63067E+10 6.86155E+03 6.19654E+09 1.18454E+07 2.21214E+07-9.74987E-01
 -1        96 1.71413E+10 6.41899E+03 6.51368E+09 1.20015E+07 2.07064E+07-1.04039E+00
 -1        97 1.79864E+10 5.98640E+03 6.83484E+09 1.21474E+07 1.93235E+07-1.09583E+00
 -1        98 1.88414E+10 5.56132E+03 7.15974E+09 1.22833E+07 1.79742E+07-1.16112E+00
 -1        99 1.97056E+10 5.15062E+03 7.48813E+09 1.24095E+07 1.66601E+07-1.23454E+00
 -1       100 2.05783E+10 4.76688E+03 7.81975E+09 1.25262E+07 1.53828E+07-1.29272E+00
 -1       101 2.14588E+10 4.39953E+03 8.15436E+09 1.26337E+07 1.41440E+07-1.30721E+00
 -1       102 2.23466E+10 4.05415E+03 8.49171E+09 1.27324E+07 1.29453E+07-1.25902E+00
 -1       103 2.32410E+10 3.70640E+03 8.83157E+09 1.28225E+07 1.17883E+07-1.15850E+00
 -1       104 2.41414E+10 3.36187E+03 9.17372E+09 1.29043E+07 1.06748E+07-1.04175E+00
 -1       105 2.50472E+10 3.02385E+03 9.51795E+09 1.29781E+07 9.60643E+06-9.29444E-01
 -1       106 2.59580E+10 2.70534E+03 9.86403E+09 1.30443E+07 8.58485E+06-8.21441E-01
 -1       107 2.68731E+10 2.40386E+03 1.02118E+10 1.31032E+07 7.61178E+06-7.10998E-01
 -1       108 2.77921E+10 2.11747E+03 1.05610E+10 1.31552E+07 6.68894E+06-5.94538E-01
 -1       109 2.87146E+10 1.84247E+03 1.09115E+10 1.32007E+07 5.81803E+06-4.77033E-01
 -1       110 2.96400E+10 1.58784E+03 1.12632E+10 1.32400E+07 5.00079E+06-3.61051E-01
 -1       111 3.05680E+10 1.34739E+03 1.16158E+10 1.32736E+07 4.23894E+06-2.48277E-01
 -1       112 3.14981E+10 1.11812E+03 1.19693E+10 1.33018E+07 3.53422E+06-1.50785E-01
 -1       113 3.24300E+10 9.08111E+02 1.23234E+10 1.33251E+07 2.88836E+06-7.51119E-02
 -1       114 3.33634E+10 7.19830E+02 1.26781E+10 1.33438E+07 2.30311E+06-1.46947E-02
 -1       115 3.42980E+10 5.51012E+02 1.30333E+10 1.33586E+07 1.78022E+06 3.29802E-02
 -1       116 3.52335E+10 4.00760E+02 1.33887E+10 1.33697E+07 1.32142E+06 6.70596E-02
 -1       117 3.61697E+10 2.72022E+02 1.37445E+10 1.33778E+07 9.28466E+05 8.66724E-02
 -1       118 3.71064E+10 1.64860E+02 1.41004E+10 1.33832E+07 6.03113E+05 9.25420E-02
 -1       119 3.80434E+10 7.96647E+01 1.44565E+10 1.33865E+07 3.47108E+05 8.60224E-02
 -1       120 3.89805E+10 1.72614E+01 1.48126E+10 1.33881E+07 1.62203E+05 6.86046E-02
 -1       121 3.99177E+10-2.40303E+01 1.51687E+10 1.33887E+07 5.01482E+04 4.02462E-02
 -1       122 4.03864E+10-2.85759E+01 1.53468E+10 1.33887E+07 1.25528E+04-2.54187E-02
 -1       123-6.61241E+06-2.41466E+04-2.52189E+06 1.07705E+03-7.72749E+07 3.63410E+00
 -1       124-2.62972E+07-2.38834E+04-1.00020E+07 5.64550E+05-7.63780E+07 3.64224E+00
 -1       125-8.49321E+07-2.33124E+04-3.22831E+07 1.11499E+06-7.45845E+07 3.67585E+00
 -1       126-1.81640E+08-2.27130E+04-6.90318E+07 1.65235E+06-7.27910E+07 3.67939E+00
 -1       127-3.15505E+08-2.20975E+04-1.19900E+08 2.17663E+06-7.09980E+07 3.55619E+00
 -1       128-4.85610E+08-2.14686E+04-1.84540E+08 2.68773E+06-6.92055E+07 3.24001E+00
 -1       129-6.91042E+08-2.08476E+04-2.62604E+08 3.18585E+06-6.74140E+07 2.85371E+00
 -1       130-9.30885E+08-2.02279E+04-3.53744E+08 3.67093E+06-6.56238E+07 2.34717E+00
 -1       131-1.20423E+09-1.95937E+04-4.57613E+08 4.14284E+06-6.38353E+07 1.60939E+00
 -1       132-1.51015E+09-1.90256E+04-5.73865E+08 4.60172E+06-6.20491E+07 7.63405E-01
 -1       133-1.84775E+09-1.85079E+04-7.02152E+08 5.04765E+06-6.02658E+07-2.31600E-02
 -1       134-2.21612E+09-1.79816E+04-8.42131E+08 5.48066E+06-5.84860E+07-6.94580E-01
 -1       135-2.61434E+09-1.74618E+04-9.93454E+08 5.90062E+06-5.67103E+07-1.32614E+00
 -1       136-3.04151E+09-1.69601E+04-1.15578E+09 6.30767E+06-5.49395E+07-1.85091E+00
 -1       137-3.49672E+09-1.64468E+04-1.32876E+09 6.70184E+06-5.31745E+07-2.25210E+00
 -1       138-3.97908E+09-1.59651E+04-1.51206E+09 7.08311E+06-5.14159E+07-2.55398E+00
 -1       139-4.48768E+09-1.54926E+04-1.70533E+09 7.45162E+06-4.96649E+07-2.67068E+00
 -1       140-5.02164E+09-1.50393E+04-1.90823E+09 7.80741E+06-4.79222E+07-2.57617E+00
 -1       141-5.58006E+09-1.45644E+04-2.12043E+09 8.15053E+06-4.61889E+07-2.29688E+00
 -1       142-6.16206E+09-1.40581E+04-2.34159E+09 8.48112E+06-4.44661E+07-1.86839E+00
 -1       143-6.76676E+09-1.34721E+04-2.57137E+09 8.79919E+06-4.27548E+07-1.45944E+00
 -1       144-7.39328E+09-1.28490E+04-2.80945E+09 9.10474E+06-4.10561E+07-1.25859E+00
 -1       145-8.04076E+09-1.22384E+04-3.05549E+09 9.39792E+06-3.93712E+07-1.28199E+00
 -1       146-8.70834E+09-1.16548E+04-3.30918E+09 9.67886E+06-3.77014E+07-1.46238E+00
 -1       147-9.39517E+09-1.11146E+04-3.57017E+09 9.94766E+06-3.60478E+07-1.75682E+00
 -1       148-1.01004E+10-1.06115E+04-3.83816E+09 1.02044E+07-3.44119E+07-2.07356E+00
 -1       149-1.08232E+10-1.01581E+04-4.11282E+09 1.04494E+07-3.27948E+07-2.29641E+00
 -1       150-1.15627E+10-9.68316E+03-4.39384E+09 1.06827E+07-3.11979E+07-2.41571E+00
 -1       151-1.23182E+10-9.20622E+03-4.68092E+09 1.09044E+07-2.96227E+07-2.49730E+00
 -1       152-1.30888E+10-8.74501E+03-4.97374E+09 1.11147E+07-2.80705E+07-2.55001E+00
 -1       153-1.38737E+10-8.30976E+03-5.27201E+09 1.13137E+07-2.65428E+07-2.52161E+00
 -1       154-1.46722E+10-7.86373E+03-5.57542E+09 1.15018E+07-2.50410E+07-2.39639E+00
 -1       155-1.54834E+10-7.41775E+03-5.88370E+09 1.16789E+07-2.35666E+07-2.22707E+00
 -1       156-1.63067E+10-6.96723E+03-6.19654E+09 1.18454E+07-2.21212E+07-2.04744E+00
 -1       157-1.71413E+10-6.52139E+03-6.51368E+09 1.20015E+07-2.07062E+07-1.87489E+00
 -1       158-1.79864E+10-6.08612E+03-6.83484E+09 1.21474E+07-1.93233E+07-1.70665E+00
 -1       159-1.88414E+10-5.67326E+03-7.15974E+09 1.22833E+07-1.79740E+07-1.52431E+00
 -1       160-1.97056E+10-5.26412E+03-7.48813E+09 1.24095E+07-1.66599E+07-1.32925E+00
 -1       161-2.05783E+10-4.84686E+03-7.81975E+09 1.25262E+07-1.53826E+07-1.14742E+00
 -1       162-2.14588E+10-4.43803E+03-8.15436E+09 1.26338E+07-1.41438E+07-1.01228E+00
 -1       163-2.23466E+10-4.03640E+03-8.49171E+09 1.27324E+07-1.29451E+07-9.43679E-01
 -1       164-2.32410E+10-3.66112E+03-8.83157E+09 1.28225E+07-1.17881E+07-9.29951E-01
 -1       165-2.41414E+10-3.31110E+03-9.17372E+09 1.29043E+07-1.06746E+07-9.33849E-01
 -1       166-2.50472E+10-2.97795E+03-9.51795E+09 1.29781E+07-9.60622E+06-9.33051E-01
 -1       167-2.59580E+10-2.66155E+03-9.86403E+09 1.30443E+07-8.58464E+06-9.26888E-01
 -1       168-2.68731E+10-2.35281E+03-1.02118E+10 1.31032E+07-7.61158E+06-9.23541E-01
 -1       169-2.77921E+10-2.06543E+03-1.05610E+10 1.31553E+07-6.68874E+06-9.27354E-01
 -1       170-2.87146E+10-1.78987E+03-1.09115E+10 1.32007E+07-5.81785E+06-9.33313E-01
 -1       171-2.96400E+10-1.53702E+03-1.12632E+10 1.32400E+07-5.00062E+06-9.38847E-01
 -1       172-3.05680E+10-1.30350E+03-1.16158E+10 1.32736E+07-4.23878E+06-9.41399E-01
 -1       173-3.14981E+10-1.09018E+03-1.19693E+10 1.33018E+07-3.53408E+06-9.29118E-01
 -1       174-3.24300E+10-8.96234E+02-1.23234E+10 1.33250E+07-2.88824E+06-8.96172E-01
 -1       175-3.33634E+10-7.20230E+02-1.26781E+10 1.33438E+07-2.30301E+06-8.48059E-01
 -1       176-3.42980E+10-5.62402E+02-1.30333E+10 1.33586E+07-1.78013E+06-7.86772E-01
 -1       177-3.52335E+10-4.25059E+02-1.33887E+10 1.33697E+07-1.32135E+06-7.12009E-01
 -1       178-3.61697E+10-3.08191E+02-1.37445E+10 1.33777E+07-9.28419E+05-6.23067E-01
 -1       179-3.71064E+10-2.12182E+02-1.41004E+10 1.33832E+07-6.03082E+05-5.20443E-01
 -1       180-3.80434E+10-1.37155E+02-1.44565E+10 1.33865E+07-3.47090E+05-4.05425E-01
 -1       181-3.89805E+10-8.45889E+01-1.48126E+10 1.33881E+07-1.62194E+05-2.79393E-01
 -1       182-3.99177E+10-4.93328E+01-1.51687E+10 1.33887E+07-5.01460E+04-1.43860E-01
 -1       183-4.03864E+10-5.96061E+01-1.53468E+10 1.33890E+07-1.25528E+04-2.54202E-02
 -1       184-6.61241E+06-2.41446E+04-2.52189E+06 1.09262E+03 7.72726E+07 3.63405E+00
 -1       185-2.62972E+07-2.38521E+04-1.00020E+07 5.64573E+05 7.63760E+07 3.64219E+00
 -1       186-8.49321E+07-2.33002E+04-3.22831E+07 1.11495E+06 7.45827E+07 3.67580E+00
 -1       187-1.81640E+08-2.27967E+04-6.90318E+07 1.65221E+06 7.27896E+07 3.67935E+00
 -1       188-3.15505E+08-2.22865E+04-1.19900E+08 2.17642E+06 7.09968E+07 3.55615E+00
 -1       189-4.85611E+08-2.18036E+04-1.84540E+08 2.68765E+06 6.92046E+07 3.23997E+00
 -1       190-6.91043E+08-2.12676E+04-2.62604E+08 3.18573E+06 6.74134E+07 2.85366E+00
 -1       191-9.30886E+08-2.07821E+04-3.53745E+08 3.67069E+06 6.56234E+07 2.34713E+00
 -1       192-1.20423E+09-2.02975E+04-4.57614E+08 4.14272E+06 6.38352E+07 1.60934E+00
 -1       193-1.51015E+09-1.97504E+04-5.73865E+08 4.60178E+06 6.20492E+07 7.63360E-01
 -1       194-1.84775E+09-1.91595E+04-7.02153E+08 5.04777E+06 6.02660E+07-2.32041E-02
 -1       195-2.21612E+09-1.85832E+04-8.42131E+08 5.48070E+06 5.84862E+07-6.94623E-01
 -1       196-2.61434E+09-1.79792E+04-9.93455E+08 5.90073E+06 5.67106E+07-1.32619E+00
 -1       197-3.04151E+09-1.73851E+04-1.15578E+09 6.30780E+06 5.49399E+07-1.85095E+00
 -1       198-3.49672E+09-1.67776E+04-1.32876E+09 6.70194E+06 5.31748E+07-2.25214E+00
 -1       199-3.97908E+09-1.61770E+04-1.51206E+09 7.08330E+06 5.14163E+07-2.55402E+00
 -1       200-4.48768E+09-1.55437E+04-1.70533E+09 7.45184E+06 4.96652E+07-2.67072E+00
 -1       201-5.02164E+09-1.49151E+04-1.90823E+09 7.80760E+06 4.79226E+07-2.57621E+00
 -1       202-5.58006E+09-1.43083E+04-2.12043E+09 8.15069E+06 4.61893E+07-2.29691E+00
 -1       203-6.16206E+09-1.37270E+04-2.34159E+09 8.48110E+06 4.44664E+07-1.86843E+00
 -1       204-6.76676E+09-1.32458E+04-2.57137E+09 8.79897E+06 4.27551E+07-1.45947E+00
 -1       205-7.39328E+09-1.28125E+04-2.80945E+09 9.10450E+06 4.10565E+07-1.25863E+00
 -1       206-8.04076E+09-1.23687E+04-3.05549E+09 9.39775E+06 3.93716E+07-1.28203E+00
 -1       207-8.70834E+09-1.19093E+04-3.30918E+09 9.67874E+06 3.77018E+07-1.46242E+00
 -1       208-9.39517E+09-1.14184E+04-3.57017E+09 9.94764E+06 3.60483E+07-1.75686E+00
 -1       209-1.01004E+10-1.08869E+04-3.83816E+09 1.02046E+07 3.44124E+07-2.07359E+00
 -1       210-1.08232E+10-1.03419E+04-4.11282E+09 1.04495E+07 3.27953E+07-2.29645E+00
 -1       211-1.15627E+10-9.80972E+03-4.39384E+09 1.06828E+07 3.11984E+07-2.41574E+00
 -1       212-1.23182E+10-9.31318E+03-4.68092E+09 1.09045E+07 2.96231E+07-2.49734E+00
 -1       213-1.30888E+10-8.79534E+03-4.97374E+09 1.11148E+07 2.80709E+07-2.55004E+00
 -1       214-1.38737E+10-8.28291E+03-5.27201E+09 1.13138E+07 2.65431E+07-2.52164E+00
 -1       215-1.46722E+10-7.78319E+03-5.57542E+09 1.15018E+07 2.50413E+07-2.39642E+00
 -1       216-1.54834E+10-7.31519E+03-5.88370E+09 1.16789E+07 2.35669E+07-2.22710E+00
 -1       217-1.63067E+10-6.85573E+03-6.19654E+09 1.18454E+07 2.21214E+07-2.04747E+00
 -1       218-1.71413E+10-6.42122E+03-6.51368E+09 1.20015E+07 2.07064E+07-1.87491E+00
 -1       219-1.79864E+10-5.98777E+03-6.83484E+09 1.21474E+07 1.93235E+07-1.70667E+00
 -1       220-1.88414E+10-5.56190E+03-7.15974E+09 1.22833E+07 1.79742E+07-1.52434E+00
 -1       221-1.97056E+10-5.15136E+03-7.48813E+09 1.24095E+07 1.66601E+07-1.32928E+00
 -1       222-2.05783E+10-4.76273E+03-7.81975E+09 1.25262E+07 1.53828E+07-1.14744E+00
 -1       223-2.14588E+10-4.40323E+03-8.15436E+09 1.26337E+07 1.41440E+07-1.01230E+00
 -1       224-2.23466E+10-4.05206E+03-8.49171E+09 1.27324E+07 1.29453E+07-9.43700E-01
 -1       225-2.32410E+10-3.70723E+03-8.83157E+09 1.28225E+07 1.17883E+07-9.29972E-01
 -1       226-2.41414E+10-3.36023E+03-9.17372E+09 1.29043E+07 1.06748E+07-9.33868E-01
 -1       227-2.50472E+10-3.02566E+03-9.51795E+09 1.29781E+07 9.60643E+06-9.33068E-01
 -1       228-2.59580E+10-2.70522E+03-9.86403E+09 1.30443E+07 8.58485E+06-9.26905E-01
 -1       229-2.68731E+10-2.40287E+03-1.02118E+10 1.31032E+07 7.61178E+06-9.23557E-01
 -1       230-2.77921E+10-2.11573E+03-1.05610E+10 1.31552E+07 6.68894E+06-9.27369E-01
 -1       231-2.87146E+10-1.84646E+03-1.09115E+10 1.32007E+07 5.81803E+06-9.33326E-01
 -1       232-2.96400E+10-1.58851E+03-1.12632E+10 1.32400E+07 5.00079E+06-9.38860E-01
 -1       233-3.05680E+10-1.34538E+03-1.16158E+10 1.32736E+07 4.23894E+06-9.41411E-01
 -1       234-3.14981E+10-1.11838E+03-1.19693E+10 1.33018E+07 3.53422E+06-9.29128E-01
 -1       235-3.24300E+10-9.09326E+02-1.23234E+10 1.33251E+07 2.88836E+06-8.96181E-01
 -1       236-3.33634E+10-7.19144E+02-1.26781E+10 1.33438E+07 2.30311E+06-8.48067E-01
 -1       237-3.42980E+10-5.49747E+02-1.30333E+10 1.33586E+07 1.78022E+06-7.86779E-01
 -1       238-3.52335E+10-4.01127E+02-1.33887E+10 1.33697E+07 1.32142E+06-7.12015E-01
 -1       239-3.61697E+10-2.72125E+02-1.37445E+10 1.33778E+07 9.28466E+05-6.23072E-01
 -1       240-3.71064E+10-1.64653E+02-1.41004E+10 1.33832E+07 6.03113E+05-5.20447E-01
 -1       241-3.80434E+10-7.97350E+01-1.44565E+10 1.33865E+07 3.47108E+05-4.05428E-01
 -1       242-3.89805E+10-1.73624E+01-1.48126E+10 1.33881E+07 1.62203E+05-2.79395E-01
 -1       243-3.99177E+10 2.01875E+01-1.51687E+10 1.33887E+07 5.01482E+04-1.43861E-01
 -1       244-4.03864E+10 4.35354E+01-1.53468E+10 1.33887E+07 1.25528E+04-2.54209E-02
 -3
    1PSTEP                         3           1           1          
    1PGM                1.000000E+00                                  
    1PGK                6.933988E+03                                  
    1PHID                         -1                                  
    1PSUBC                         0                                  
    1PMODE                         1                                  
  100CL  101 13.25292329         244                     2    1MODAL      1
 -4  TOSTRAIN    6    1
 -5  EXX         1    4    1    1
 -5  EYY         1    4    2    2
 -5  EZZ         1    4    3    3
 -5  EXY         1    4    1    2
 -5  EYZ         1    4    2    3
 -5  EZX         1    4    3    1
 -1         1 1.17480E-03-7.17354E-04-2.79217E-10 3.09392E-07-2.21934E-02-2.56045E-09
 -1         2 4.67999E-03-2.86573E-03-2.11765E-10 1.62139E-04-2.19358E-02-2.56241E-09
 -1         3 1.51209E-02-9.26503E-03 1.74462E-10 3.20225E-04-2.14207E-02-2.56974E-09
 -1         4 3.23411E-02-1.98195E-02 6.65355E-10 4.74557E-04-2.09056E-02-2.56387E-09
 -1         5 5.61778E-02-3.44291E-02 6.04750E-10 6.25129E-04-2.03907E-02-2.51744E-09
 -1         6 8.64676E-02-5.29939E-02 6.86379E-10 7.71917E-04-1.98759E-02-2.41459E-09
 -1         7 1.23048E-01-7.54141E-02 8.24778E-10 9.14979E-04-1.93614E-02-2.29191E-09
 -1         8 1.65755E-01-1.01590E-01 6.71072E-10 1.05429E-03-1.88472E-02-2.13522E-09
 -1         9 2.14428E-01-1.31421E-01 4.82598E-10 1.18983E-03-1.83336E-02-1.91214E-09
 -1        10 2.68902E-01-1.64809E-01 4.15362E-10 1.32162E-03-1.78206E-02-1.65747E-09
 -1        11 3.29017E-01-2.01653E-01 4.71640E-10 1.44969E-03-1.73084E-02-1.41963E-09
 -1        12 3.94610E-01-2.41855E-01 5.58897E-10 1.57405E-03-1.67972E-02-1.21303E-09
 -1        13 4.65519E-01-2.85316E-01 9.51428E-10 1.69466E-03-1.62872E-02-1.01554E-09
 -1        14 5.41583E-01-3.31936E-01 7.30300E-10 1.81157E-03-1.57787E-02-8.48468E-10
 -1        15 6.22640E-01-3.81616E-01 4.98132E-10 1.92477E-03-1.52717E-02-7.15225E-10
 -1        16 7.08531E-01-4.34259E-01 8.45256E-10 2.03427E-03-1.47667E-02-6.07379E-10
 -1        17 7.99096E-01-4.89767E-01 1.05210E-09 2.14011E-03-1.42638E-02-5.51432E-10
 -1        18 8.94175E-01-5.48041E-01 1.24801E-09 2.24229E-03-1.37633E-02-5.54912E-10
 -1        19 9.93609E-01-6.08985E-01 1.26377E-09 2.34084E-03-1.32655E-02-6.10813E-10
 -1        20 1.09724E+00-6.72502E-01 1.35778E-09 2.43578E-03-1.27707E-02-7.09810E-10
 -1        21 1.20492E+00-7.38497E-01 1.41481E-09 2.52713E-03-1.22792E-02-8.03617E-10
 -1        22 1.31648E+00-8.06873E-01 1.22427E-09 2.61489E-03-1.17913E-02-8.38328E-10
 -1        23 1.43177E+00-8.77537E-01 1.18740E-09 2.69909E-03-1.13074E-02-8.07217E-10
 -1        24 1.55065E+00-9.50395E-01 1.39735E-09 2.77978E-03-1.08279E-02-7.28373E-10
 -1        25 1.67295E+00-1.02535E+00 1.60122E-09 2.85698E-03-1.03530E-02-6.15158E-10
 -1        26 1.79852E+00-1.10232E+00 1.45598E-09 2.93073E-03-9.88312E-03-4.94984E-10
 -1        27 1.92723E+00-1.18120E+00 1.29788E-09 3.00108E-03-9.41869E-03-4.02729E-10
 -1        28 2.05891E+00-1.26191E+00 1.21944E-09 3.06809E-03-8.96008E-03-3.41521E-10
 -1        29 2.19343E+00-1.34436E+00 1.32411E-09 3.13176E-03-8.50767E-03-2.91630E-10
 -1        30 2.33065E+00-1.42846E+00 1.42586E-09 3.19215E-03-8.06188E-03-2.50072E-10
 -1        31 2.47041E+00-1.51412E+00 1.45953E-09 3.24931E-03-7.62311E-03-2.31175E-10
 -1        32 2.61259E+00-1.60126E+00 1.52303E-09 3.30332E-03-7.19179E-03-2.38896E-10
 -1        33 2.75704E+00-1.68980E+00 1.57190E-09 3.35420E-03-6.76835E-03-2.58220E-10
 -1        34 2.90364E+00-1.77965E+00 1.50424E-09 3.40202E-03-6.35322E-03-2.80009E-10
 -1        35 3.05225E+00-1.87073E+00 1.55061E-09 3.44684E-03-5.94684E-03-2.98793E-10
 -1        36 3.20274E+00-1.96297E+00 1.82406E-09 3.48873E-03-5.54966E-03-3.14717E-10
 -1        37 3.35499E+00-2.05628E+00 1.93553E-09 3.52777E-03-5.16214E-03-3.33466E-10
 -1        38 3.50887E+00-2.15060E+00 1.91145E-09 3.56401E-03-4.78473E-03-3.54554E-10
 -1        39 3.66426E+00-2.24584E+00 1.79539E-09 3.59754E-03-4.41789E-03-3.71264E-10
 -1        40 3.82106E+00-2.34194E+00 1.71508E-09 3.62843E-03-4.06211E-03-3.75426E-10
 -1        41 3.97914E+00-2.43883E+00 1.71800E-09 3.65677E-03-3.71783E-03-3.61585E-10
 -1        42 4.13839E+00-2.53643E+00 1.69723E-09 3.68263E-03-3.38556E-03-3.32716E-10
 -1        43 4.29872E+00-2.63470E+00 1.70523E-09 3.70612E-03-3.06576E-03-2.99186E-10
 -1        44 4.46002E+00-2.73356E+00 1.75105E-09 3.72732E-03-2.75891E-03-2.66932E-10
 -1        45 4.62219E+00-2.83296E+00 1.73853E-09 3.74634E-03-2.46552E-03-2.35914E-10
 -1        46 4.78515E+00-2.93283E+00 1.68912E-09 3.76326E-03-2.18605E-03-2.04195E-10
 -1        47 4.94879E+00-3.03313E+00 1.67453E-09 3.77820E-03-1.92101E-03-1.70747E-10
 -1        48 5.11305E+00-3.13380E+00 1.70544E-09 3.79126E-03-1.67089E-03-1.37000E-10
 -1        49 5.27783E+00-3.23480E+00 1.68276E-09 3.80255E-03-1.43618E-03-1.03690E-10
 -1        50 5.44307E+00-3.33607E+00 1.65310E-09 3.81218E-03-1.21738E-03-7.13019E-11
 -1        51 5.60869E+00-3.43759E+00 1.66727E-09 3.82028E-03-1.01499E-03-4.33028E-11
 -1        52 5.77464E+00-3.53929E+00 1.64906E-09 3.82696E-03-8.29505E-04-2.15694E-11
 -1        53 5.94085E+00-3.64116E+00 1.60677E-09 3.83236E-03-6.61426E-04-4.21792E-12
 -1        54 6.10726E+00-3.74316E+00 1.61041E-09 3.83659E-03-5.11256E-04 9.47393E-12
 -1        55 6.27384E+00-3.84526E+00 1.61870E-09 3.83979E-03-3.79493E-04 1.92612E-11
 -1        56 6.44055E+00-3.94743E+00 1.62654E-09 3.84210E-03-2.66643E-04 2.48938E-11
 -1        57 6.60733E+00-4.04965E+00 1.62301E-09 3.84365E-03-1.73206E-04 2.65792E-11
 -1        58 6.77417E+00-4.15191E+00 1.62652E-09 3.84460E-03-9.96846E-05 2.47065E-11
 -1        59 6.94105E+00-4.25419E+00 1.61471E-09 3.84508E-03-4.65823E-05 1.97039E-11
 -1        60 7.10793E+00-4.35648E+00 1.74494E-09 3.84525E-03-1.44020E-05 1.15591E-11
 -1        61 7.19138E+00-4.40762E+00 1.89768E-09 3.84532E-03-3.60518E-06-7.30006E-12
 -1        62 1.17480E-03-7.17354E-04 2.79217E-10 3.13737E-07 2.21928E-02-2.56047E-09
 -1        63 4.67999E-03-2.86573E-03 2.11765E-10 1.62146E-04 2.19353E-02-2.56243E-09
 -1        64 1.51209E-02-9.26503E-03-1.74462E-10 3.20214E-04 2.14202E-02-2.56975E-09
 -1        65 3.23411E-02-1.98195E-02-6.65355E-10 4.74516E-04 2.09052E-02-2.56388E-09
 -1        66 5.61778E-02-3.44291E-02-6.04750E-10 6.25071E-04 2.03903E-02-2.51745E-09
 -1        67 8.64677E-02-5.29939E-02-6.86379E-10 7.71896E-04 1.98756E-02-2.41460E-09
 -1        68 1.23048E-01-7.54141E-02-8.24778E-10 9.14943E-04 1.93612E-02-2.29192E-09
 -1        69 1.65755E-01-1.01590E-01-6.71072E-10 1.05422E-03 1.88471E-02-2.13524E-09
 -1        70 2.14428E-01-1.31421E-01-4.82598E-10 1.18979E-03 1.83335E-02-1.91215E-09
 -1        71 2.68902E-01-1.64809E-01-4.15362E-10 1.32164E-03 1.78206E-02-1.65748E-09
 -1        72 3.29017E-01-2.01653E-01-4.71640E-10 1.44972E-03 1.73084E-02-1.41964E-09
 -1        73 3.94610E-01-2.41855E-01-5.58897E-10 1.57406E-03 1.67973E-02-1.21304E-09
 -1        74 4.65519E-01-2.85316E-01-9.51428E-10 1.69470E-03 1.62873E-02-1.01555E-09
 -1        75 5.41583E-01-3.31936E-01-7.30300E-10 1.81160E-03 1.57788E-02-8.48480E-10
 -1        76 6.22640E-01-3.81616E-01-4.98132E-10 1.92480E-03 1.52719E-02-7.15237E-10
 -1        77 7.08531E-01-4.34259E-01-8.45256E-10 2.03433E-03 1.47668E-02-6.07390E-10
 -1        78 7.99096E-01-4.89767E-01-1.05210E-09 2.14017E-03 1.42639E-02-5.51443E-10
 -1        79 8.94175E-01-5.48041E-01-1.24801E-09 2.24235E-03 1.37634E-02-5.54923E-10
 -1        80 9.93609E-01-6.08985E-01-1.26377E-09 2.34088E-03 1.32656E-02-6.10825E-10
 -1        81 1.09724E+00-6.72502E-01-1.35778E-09 2.43578E-03 1.27708E-02-7.09821E-10
 -1        82 1.20492E+00-7.38497E-01-1.41481E-09 2.52707E-03 1.22793E-02-8.03628E-10
 -1        83 1.31648E+00-8.06873E-01-1.22427E-09 2.61482E-03 1.17915E-02-8.38339E-10
 -1        84 1.43177E+00-8.77537E-01-1.18740E-09 2.69904E-03 1.13076E-02-8.07227E-10
 -1        85 1.55065E+00-9.50395E-01-1.39735E-09 2.77974E-03 1.08280E-02-7.28383E-10
 -1        86 1.67295E+00-1.02535E+00-1.60122E-09 2.85697E-03 1.03531E-02-6.15168E-10
 -1        87 1.79852E+00-1.10232E+00-1.45598E-09 2.93076E-03 9.88326E-03-4.94994E-10
 -1        88 1.92723E+00-1.18120E+00-1.29788E-09 3.00111E-03 9.41883E-03-4.02738E-10
 -1        89 2.05891E+00-1.26191E+00-1.21944E-09 3.06810E-03 8.96020E-03-3.41530E-10
 -1        90 2.19343E+00-1.34436E+00-1.32411E-09 3.13177E-03 8.50779E-03-2.91640E-10
 -1        91 2.33065E+00-1.42846E+00-1.42586E-09 3.19217E-03 8.06199E-03-2.50081E-10
 -1        92 2.47041E+00-1.51412E+00-1.45953E-09 3.24934E-03 7.62321E-03-2.31184E-10
 -1        93 2.61259E+00-1.60126E+00-1.52303E-09 3.30333E-03 7.19188E-03-2.38905E-10
 -1        94 2.75704E+00-1.68980E+00-1.57190E-09 3.35420E-03 6.76843E-03-2.58228E-10
 -1        95 2.90364E+00-1.77965E+00-1.50424E-09 3.40202E-03 6.35329E-03-2.80017E-10
 -1        96 3.05225E+00-1.87073E+00-1.55061E-09 3.44684E-03 5.94690E-03-2.98801E-10
 -1        97 3.20274E+00-1.96297E+00-1.82406E-09 3.48874E-03 5.54972E-03-3.14725E-10
 -1        98 3.35499E+00-2.05628E+00-1.93553E-09 3.52777E-03 5.16219E-03-3.33474E-10
 -1        99 3.50887E+00-2.15060E+00-1.91145E-09 3.56401E-03 4.78478E-03-3.54561E-10
 -1       100 3.66426E+00-2.24584E+00-1.79539E-09 3.59753E-03 4.41795E-03-3.71270E-10
 -1       101 3.82106E+00-2.34194E+00-1.71508E-09 3.62842E-03 4.06216E-03-3.75433E-10
 -1       102 3.97914E+00-2.43883E+00-1.71800E-09 3.65675E-03 3.71789E-03-3.61591E-10
 -1       103 4.13839E+00-2.53643E+00-1.69723E-09 3.68263E-03 3.38562E-03-3.32722E-10
 -1       104 4.29872E+00-2.63470E+00-1.70523E-09 3.70612E-03 3.06582E-03-2.99192E-10
 -1       105 4.46002E+00-2.73356E+00-1.75105E-09 3.72732E-03 2.75897E-03-2.66937E-10
 -1       106 4.62219E+00-2.83296E+00-1.73853E-09 3.74633E-03 2.46558E-03-2.35918E-10
 -1       107 4.78515E+00-2.93283E+00-1.68912E-09 3.76326E-03 2.18611E-03-2.04199E-10
 -1       108 4.94879E+00-3.03313E+00-1.67453E-09 3.77820E-03 1.92107E-03-1.70752E-10
 -1       109 5.11305E+00-3.13380E+00-1.70544E-09 3.79126E-03 1.67094E-03-1.37004E-10
 -1       110 5.27783E+00-3.23480E+00-1.68276E-09 3.80255E-03 1.43623E-03-1.03694E-10
 -1       111 5.44307E+00-3.33607E+00-1.65310E-09 3.81219E-03 1.21743E-03-7.13053E-11
 -1       112 5.60869E+00-3.43759E+00-1.66727E-09 3.82028E-03 1.01503E-03-4.33057E-11
 -1       113 5.77464E+00-3.53929E+00-1.64906E-09 3.82697E-03 8.29540E-04-2.15722E-11
 -1       114 5.94085E+00-3.64116E+00-1.60677E-09 3.83236E-03 6.61456E-04-4.22034E-12
 -1       115 6.10726E+00-3.74316E+00-1.61041E-09 3.83659E-03 5.11279E-04 9.47195E-12
 -1       116 6.27384E+00-3.84526E+00-1.61870E-09 3.83979E-03 3.79512E-04 1.92596E-11
 -1       117 6.44055E+00-3.94743E+00-1.62654E-09 3.84210E-03 2.66656E-04 2.48924E-11
 -1       118 6.60733E+00-4.04965E+00-1.62301E-09 3.84366E-03 1.73215E-04 2.65781E-11
 -1       119 6.77417E+00-4.15191E+00-1.62652E-09 3.84460E-03 9.96898E-05 2.47057E-11
 -1       120 6.94105E+00-4.25419E+00-1.61471E-09 3.84509E-03 4.65847E-05 1.97033E-11
 -1       121 7.10793E+00-4.35648E+00-1.74494E-09 3.84526E-03 1.44026E-05 1.15587E-11
 -1       122 7.19138E+00-4.40762E+00-1.89768E-09 3.84523E-03 3.60518E-06-7.30026E-12
 -1       123-1.17480E-03 7.17355E-04-2.79217E-10 3.09330E-07-2.21934E-02 1.04372E-09
 -1       124-4.68000E-03 2.86573E-03-2.11765E-10 1.62139E-04-2.19358E-02 1.04605E-09
 -1       125-1.51209E-02 9.26503E-03 1.74462E-10 3.20225E-04-2.14207E-02 1.05571E-09
 -1       126-3.23411E-02 1.98195E-02 6.65355E-10 4.74557E-04-2.09056E-02 1.05672E-09
 -1       127-5.61778E-02 3.44291E-02 6.04750E-10 6.25129E-04-2.03907E-02 1.02134E-09
 -1       128-8.64676E-02 5.29939E-02 6.86379E-10 7.71917E-04-1.98759E-02 9.30535E-10
 -1       129-1.23048E-01 7.54141E-02 8.24778E-10 9.14979E-04-1.93614E-02 8.19587E-10
 -1       130-1.65755E-01 1.01590E-01 6.71072E-10 1.05429E-03-1.88472E-02 6.74110E-10
 -1       131-2.14428E-01 1.31421E-01 4.82598E-10 1.18983E-03-1.83336E-02 4.62218E-10
 -1       132-2.68902E-01 1.64809E-01 4.15362E-10 1.32162E-03-1.78206E-02 2.19251E-10
 -1       133-3.29017E-01 2.01653E-01 4.71640E-10 1.44969E-03-1.73084E-02-6.65158E-12
 -1       134-3.94610E-01 2.41855E-01 5.58897E-10 1.57405E-03-1.67972E-02-1.99484E-10
 -1       135-4.65519E-01 2.85316E-01 9.51428E-10 1.69466E-03-1.62872E-02-3.80869E-10
 -1       136-5.41583E-01 3.31936E-01 7.30300E-10 1.81157E-03-1.57787E-02-5.31584E-10
 -1       137-6.22640E-01 3.81616E-01 4.98132E-10 1.92477E-03-1.52717E-02-6.46805E-10
 -1       138-7.08531E-01 4.34259E-01 8.45256E-10 2.03427E-03-1.47667E-02-7.33504E-10
 -1       139-7.99096E-01 4.89767E-01 1.05210E-09 2.14011E-03-1.42638E-02-7.67021E-10
 -1       140-8.94175E-01 5.48041E-01 1.24801E-09 2.24230E-03-1.37633E-02-7.39879E-10
 -1       141-9.93609E-01 6.08985E-01 1.26377E-09 2.34084E-03-1.32655E-02-6.59664E-10
 -1       142-1.09724E+00 6.72502E-01 1.35778E-09 2.43578E-03-1.27707E-02-5.36603E-10
 -1       143-1.20492E+00 7.38497E-01 1.41481E-09 2.52713E-03-1.22792E-02-4.19151E-10
 -1       144-1.31648E+00 8.06873E-01 1.22427E-09 2.61489E-03-1.17913E-02-3.61468E-10
 -1       145-1.43177E+00 8.77537E-01 1.18740E-09 2.69909E-03-1.13074E-02-3.68190E-10
 -1       146-1.55065E+00 9.50395E-01 1.39735E-09 2.77978E-03-1.08279E-02-4.19998E-10
 -1       147-1.67295E+00 1.02535E+00 1.60122E-09 2.85698E-03-1.03530E-02-5.04561E-10
 -1       148-1.79852E+00 1.10232E+00 1.45598E-09 2.93073E-03-9.88312E-03-5.95527E-10
 -1       149-1.92723E+00 1.18120E+00 1.29788E-09 3.00108E-03-9.41869E-03-6.59532E-10
 -1       150-2.05891E+00 1.26191E+00 1.21944E-09 3.06809E-03-8.96008E-03-6.93793E-10
 -1       151-2.19343E+00 1.34436E+00 1.32411E-09 3.13176E-03-8.50767E-03-7.17228E-10
 -1       152-2.33065E+00 1.42846E+00 1.42586E-09 3.19215E-03-8.06188E-03-7.32365E-10
 -1       153-2.47041E+00 1.51412E+00 1.45953E-09 3.24931E-03-7.62311E-03-7.24209E-10
 -1       154-2.61259E+00 1.60126E+00 1.52303E-09 3.30332E-03-7.19179E-03-6.88245E-10
 -1       155-2.75704E+00 1.68980E+00 1.57190E-09 3.35420E-03-6.76835E-03-6.39617E-10
 -1       156-2.90364E+00 1.77965E+00 1.50424E-09 3.40202E-03-6.35322E-03-5.88028E-10
 -1       157-3.05225E+00 1.87073E+00 1.55061E-09 3.44684E-03-5.94684E-03-5.38469E-10
 -1       158-3.20274E+00 1.96297E+00 1.82406E-09 3.48873E-03-5.54966E-03-4.90151E-10
 -1       159-3.35499E+00 2.05628E+00 1.93553E-09 3.52777E-03-5.16214E-03-4.37784E-10
 -1       160-3.50887E+00 2.15060E+00 1.91145E-09 3.56401E-03-4.78473E-03-3.81762E-10
 -1       161-3.66426E+00 2.24584E+00 1.79539E-09 3.59754E-03-4.41789E-03-3.29539E-10
 -1       162-3.82106E+00 2.34194E+00 1.71508E-09 3.62843E-03-4.06211E-03-2.90728E-10
 -1       163-3.97914E+00 2.43883E+00 1.71800E-09 3.65677E-03-3.71783E-03-2.71025E-10
 -1       164-4.13839E+00 2.53643E+00 1.69723E-09 3.68263E-03-3.38556E-03-2.67083E-10
 -1       165-4.29872E+00 2.63470E+00 1.70523E-09 3.70612E-03-3.06576E-03-2.68202E-10
 -1       166-4.46002E+00 2.73356E+00 1.75105E-09 3.72732E-03-2.75891E-03-2.67973E-10
 -1       167-4.62219E+00 2.83296E+00 1.73853E-09 3.74634E-03-2.46552E-03-2.66203E-10
 -1       168-4.78515E+00 2.93283E+00 1.68912E-09 3.76326E-03-2.18605E-03-2.65242E-10
 -1       169-4.94879E+00 3.03313E+00 1.67453E-09 3.77820E-03-1.92101E-03-2.66337E-10
 -1       170-5.11305E+00 3.13380E+00 1.70544E-09 3.79126E-03-1.67089E-03-2.68048E-10
 -1       171-5.27783E+00 3.23480E+00 1.68276E-09 3.80255E-03-1.43618E-03-2.69638E-10
 -1       172-5.44307E+00 3.33607E+00 1.65310E-09 3.81218E-03-1.21738E-03-2.70371E-10
 -1       173-5.60869E+00 3.43759E+00 1.66727E-09 3.82028E-03-1.01499E-03-2.66844E-10
 -1       174-5.77464E+00 3.53929E+00 1.64906E-09 3.82696E-03-8.29505E-04-2.57381E-10
 -1       175-5.94085E+00 3.64116E+00 1.60677E-09 3.83236E-03-6.61426E-04-2.43563E-10
 -1       176-6.10726E+00 3.74316E+00 1.61041E-09 3.83659E-03-5.11256E-04-2.25962E-10
 -1       177-6.27384E+00 3.84526E+00 1.61870E-09 3.83979E-03-3.79493E-04-2.04490E-10
 -1       178-6.44055E+00 3.94743E+00 1.62654E-09 3.84210E-03-2.66643E-04-1.78945E-10
 -1       179-6.60733E+00 4.04965E+00 1.62301E-09 3.84365E-03-1.73206E-04-1.49472E-10
 -1       180-6.77417E+00 4.15191E+00 1.62652E-09 3.84460E-03-9.96846E-05-1.16438E-10
 -1       181-6.94105E+00 4.25419E+00 1.61471E-09 3.84508E-03-4.65823E-05-8.02420E-11
 -1       182-7.10793E+00 4.35648E+00 1.74494E-09 3.84525E-03-1.44020E-05-4.13168E-11
 -1       183-7.19138E+00 4.40762E+00 1.89768E-09 3.84532E-03-3.60518E-06-7.30071E-12
 -1       184-1.17480E-03 7.17354E-04 2.79217E-10 3.13802E-07 2.21928E-02 1.04370E-09
 -1       185-4.67999E-03 2.86573E-03 2.11765E-10 1.62146E-04 2.19353E-02 1.04604E-09
 -1       186-1.51209E-02 9.26503E-03-1.74462E-10 3.20214E-04 2.14202E-02 1.05569E-09
 -1       187-3.23411E-02 1.98195E-02-6.65355E-10 4.74516E-04 2.09052E-02 1.05671E-09
 -1       188-5.61778E-02 3.44291E-02-6.04750E-10 6.25071E-04 2.03903E-02 1.02133E-09
 -1       189-8.64677E-02 5.29939E-02-6.86379E-10 7.71896E-04 1.98756E-02 9.30522E-10
 -1       190-1.23048E-01 7.54141E-02-8.24778E-10 9.14943E-04 1.93612E-02 8.19574E-10
 -1       191-1.65755E-01 1.01590E-01-6.71072E-10 1.05422E-03 1.88471E-02 6.74097E-10
 -1       192-2.14428E-01 1.31421E-01-4.82598E-10 1.18979E-03 1.83335E-02 4.62205E-10
 -1       193-2.68902E-01 1.64809E-01-4.15362E-10 1.32164E-03 1.78206E-02 2.19238E-10
 -1       194-3.29017E-01 2.01653E-01-4.71640E-10 1.44972E-03 1.73084E-02-6.66424E-12
 -1       195-3.94610E-01 2.41855E-01-5.58897E-10 1.57406E-03 1.67973E-02-1.99496E-10
 -1       196-4.65519E-01 2.85316E-01-9.51428E-10 1.69470E-03 1.62873E-02-3.80882E-10
 -1       197-5.41583E-01 3.31936E-01-7.30300E-10 1.81160E-03 1.57788E-02-5.31596E-10
 -1       198-6.22640E-01 3.81616E-01-4.98132E-10 1.92480E-03 1.52719E-02-6.46817E-10
 -1       199-7.08531E-01 4.34259E-01-8.45256E-10 2.03433E-03 1.47668E-02-7.33515E-10
 -1       200-7.99096E-01 4.89767E-01-1.05210E-09 2.14017E-03 1.42639E-02-7.67033E-10
 -1       201-8.94175E-01 5.48041E-01-1.24801E-09 2.24235E-03 1.37634E-02-7.39890E-10
 -1       202-9.93609E-01 6.08985E-01-1.26377E-09 2.34088E-03 1.32656E-02-6.59676E-10
 -1       203-1.09724E+00 6.72502E-01-1.35778E-09 2.43578E-03 1.27708E-02-5.36614E-10
 -1       204-1.20492E+00 7.38497E-01-1.41481E-09 2.52707E-03 1.22793E-02-4.19162E-10
 -1       205-1.31648E+00 8.06873E-01-1.22427E-09 2.61482E-03 1.17915E-02-3.61479E-10
 -1       206-1.43177E+00 8.77537E-01-1.18740E-09 2.69904E-03 1.13076E-02-3.68200E-10
 -1       207-1.55065E+00 9.50395E-01-1.39735E-09 2.77974E-03 1.08280E-02-4.20008E-10
 -1       208-1.67295E+00 1.02535E+00-1.60122E-09 2.85697E-03 1.03531E-02-5.04571E-10
 -1       209-1.79852E+00 1.10232E+00-1.45598E-09 2.93076E-03 9.88326E-03-5.95537E-10
 -1       210-1.92723E+00 1.18120E+00-1.29788E-09 3.00111E-03 9.41883E-03-6.59541E-10
 -1       211-2.05891E+00 1.26191E+00-1.21944E-09 3.06810E-03 8.96020E-03-6.93803E-10
 -1       212-2.19343E+00 1.34436E+00-1.32411E-09 3.13177E-03 8.50779E-03-7.17237E-10
 -1       213-2.33065E+00 1.42846E+00-1.42586E-09 3.19217E-03 8.06199E-03-7.32374E-10
 -1       214-2.47041E+00 1.51412E+00-1.45953E-09 3.24934E-03 7.62321E-03-7.24218E-10
 -1       215-2.61259E+00 1.60126E+00-1.52303E-09 3.30333E-03 7.19188E-03-6.88253E-10
 -1       216-2.75704E+00 1.68980E+00-1.57190E-09 3.35420E-03 6.76843E-03-6.39625E-10
 -1       217-2.90364E+00 1.77965E+00-1.50424E-09 3.40202E-03 6.35329E-03-5.88035E-10
 -1       218-3.05225E+00 1.87073E+00-1.55061E-09 3.44684E-03 5.94690E-03-5.38477E-10
 -1       219-3.20274E+00 1.96297E+00-1.82406E-09 3.48874E-03 5.54972E-03-4.90158E-10
 -1       220-3.35499E+00 2.05628E+00-1.93553E-09 3.52777E-03 5.16219E-03-4.37791E-10
 -1       221-3.50887E+00 2.15060E+00-1.91145E-09 3.56401E-03 4.78478E-03-3.81769E-10
 -1       222-3.66426E+00 2.24584E+00-1.79539E-09 3.59753E-03 4.41795E-03-3.29545E-10
 -1       223-3.82106E+00 2.34194E+00-1.71508E-09 3.62842E-03 4.06216E-03-2.90735E-10
 -1       224-3.97914E+00 2.43883E+00-1.71800E-09 3.65675E-03 3.71789E-03-2.71032E-10
 -1       225-4.13839E+00 2.53643E+00-1.69723E-09 3.68263E-03 3.38562E-03-2.67089E-10
 -1       226-4.29872E+00 2.63470E+00-1.70523E-09 3.70612E-03 3.06582E-03-2.68208E-10
 -1       227-4.46002E+00 2.73356E+00-1.75105E-09 3.72732E-03 2.75897E-03-2.67978E-10
 -1       228-4.62219E+00 2.83296E+00-1.73853E-09 3.74633E-03 2.46558E-03-2.66208E-10
 -1       229-4.78515E+00 2.93283E+00-1.68912E-09 3.76326E-03 2.18611E-03-2.65246E-10
 -1       230-4.94879E+00 3.03313E+00-1.67453E-09 3.77820E-03 1.92107E-03-2.66341E-10
 -1       231-5.11305E+00 3.13380E+00-1.70544E-09 3.79126E-03 1.67094E-03-2.68052E-10
 -1       232-5.27783E+00 3.23480E+00-1.68276E-09 3.80255E-03 1.43623E-03-2.69641E-10
 -1       233-5.44307E+00 3.33607E+00-1.65310E-09 3.81219E-03 1.21743E-03-2.70374E-10
 -1       234-5.60869E+00 3.43759E+00-1.66727E-09 3.82028E-03 1.01503E-03-2.66846E-10
 -1       235-5.77464E+00 3.53929E+00-1.64906E-09 3.82697E-03 8.29540E-04-2.57384E-10
 -1       236-5.94085E+00 3.64116E+00-1.60677E-09 3.83236E-03 6.61456E-04-2.43566E-10
 -1       237-6.10726E+00 3.74316E+00-1.61041E-09 3.83659E-03 5.11279E-04-2.25964E-10
 -1       238-6.27384E+00 3.84526E+00-1.61870E-09 3.83979E-03 3.79512E-04-2.04491E-10
 -1       239-6.44055E+00 3.94743E+00-1.62654E-09 3.84210E-03 2.66656E-04-1.78947E-10
 -1       240-6.60733E+00 4.04965E+00-1.62301E-09 3.84366E-03 1.73215E-04-1.49473E-10
 -1       241-6.77417E+00 4.15191E+00-1.62652E-09 3.84460E-03 9.96898E-05-1.16439E-10
 -1       242-6.94105E+00 4.25419E+00-1.61471E-09 3.84509E-03 4.65847E-05-8.02425E-11
 -1       243-7.10793E+00 4.35648E+00-1.74494E-09 3.84526E-03 1.44026E-05-4.13171E-11
 -1       244-7.19138E+00 4.40762E+00-1.89768E-09 3.84523E-03 3.60518E-06-7.30091E-12
 -3
    1PSTEP                         4           1           1          
    1PGM                1.000000E+00                                  
    1PGK                6.933988E+03                                  
    1PHID                         -1                                  
    1PSUBC                         0                                  
    1PMODE                         1                                  
  100CL  101 13.25292329         244                     2    1MODAL      1
 -4  ERROR       1    1
 -5  STR(%)      1    1    0    0
 -1         1 9.84970E-01
 -1         2 1.08417E+01
 -1         3 6.09630E+01
 -1         4 9.84402E+01
 -1         5 1.11596E+02
 -1         6 1.16823E+02
 -1         7 1.19096E+02
 -1         8 1.20172E+02
 -1         9 1.20723E+02
 -1        10 1.21023E+02
 -1        11 1.21197E+02
 -1        12 1.21302E+02
 -1        13 1.21368E+02
 -1        14 1.21410E+02
 -1        15 1.21439E+02
 -1        16 1.21459E+02
 -1        17 1.21473E+02
 -1        18 1.21482E+02
 -1        19 1.21490E+02
 -1        20 1.21495E+02
 -1        21 1.21499E+02
 -1        22 1.21502E+02
 -1        23 1.21504E+02
 -1        24 1.21506E+02
 -1        25 1.21507E+02
 -1        26 1.21508E+02
 -1        27 1.21509E+02
 -1        28 1.21509E+02
 -1        29 1.21510E+02
 -1        30 1.21510E+02
 -1        31 1.21511E+02
 -1        32 1.21511E+02
 -1        33 1.21511E+02
 -1        34 1.21511E+02
 -1        35 1.21511E+02
 -1        36 1.21511E+02
 -1        37 1.21512E+02
 -1        38 1.21512E+02
 -1        39 1.21512E+02
 -1        40 1.21512E+02
 -1        41 1.21512E+02
 -1        42 1.21512E+02
 -1        43 1.21512E+02
 -1        44 1.21512E+02
 -1        45 1.21512E+02
 -1        46 1.21512E+02
 -1        47 1.21512E+02
 -1        48 1.21512E+02
 -1        49 1.21512E+02
 -1        50 1.21512E+02
 -1        51 1.21512E+02
 -1        52 1.21512E+02
 -1        53 1.21512E+02
 -1        54 1.21512E+02
 -1        55 1.21512E+02
 -1        56 1.21512E+02
 -1        57 1.21512E+02
 -1        58 1.21512E+02
 -1        59 1.21512E+02
 -1        60 1.21512E+02
 -1        61 1.21512E+02
 -1        62 9.84970E-01
 -1        63 1.08417E+01
 -1        64 6.09630E+01
 -1        65 9.84402E+01
 -1        66 1.11596E+02
 -1        67 1.16823E+02
 -1        68 1.19096E+02
 -1        69 1.20172E+02
 -1        70 1.20723E+02
 -1        71 1.21023E+02
 -1        72 1.21197E+02
 -1        73 1.21302E+02
 -1        74 1.21368E+02
 -1        75 1.21410E+02
 -1        76 1.21439E+02
 -1        77 1.21459E+02
 -1        78 1.21473E+02
 -1        79 1.21482E+02
 -1        80 1.21490E+02
 -1        81 1.21495E+02
 -1        82 1.21499E+02
 -1        83 1.21502E+02
 -1        84 1.21504E+02
 -1        85 1.21506E+02
 -1        86 1.21507E+02
 -1        87 1.21508E+02
 -1        88 1.21509E+02
 -1        89 1.21509E+02
 -1        90 1.21510E+02
 -1        91 1.21510E+02
 -1        92 1.21511E+02
 -1        93 1.21511E+02
 -1        94 1.21511E+02
 -1        95 1.21511E+02
 -1        96 1.21511E+02
 -1        97 1.21511E+02
 -1        98 1.21512E+02
 -1        99 1.21512E+02
 -1       100 1.21512E+02
 -1       101 1.21512E+02
 -1       102 1.21512E+02
 -1       103 1.21512E+02
 -1       104 1.21512E+02
 -1       105 1.21512E+02
 -1       106 1.21512E+02
 -1       107 1.21512E+02
 -1       108 1.21512E+02
 -1       109 1.21512E+02
 -1       110 1.21512E+02
 -1       111 1.21512E+02
 -1       112 1.21512E+02
 -1       113 1.21512E+02
 -1       114 1.21512E+02
 -1       115 1.21512E+02
 -1       116 1.21512E+02
 -1       117 1.21512E+02
 -1       118 1.21512E+02
 -1       119 1.21512E+02
 -1       120 1.21512E+02
 -1       121 1.21512E+02
 -1       122 1.21512E+02
 -1       123 9.84970E-01
 -1       124 1.08417E+01
 -1       125 6.09630E+01
 -1       126 9.84402E+01
 -1       127 1.11596E+02
 -1       128 1.16823E+02
 -1       129 1.19096E+02
 -1       130 1.20172E+02
 -1       131 1.20723E+02
 -1       132 1.21023E+02
 -1       133 1.21197E+02
 -1       134 1.21302E+02
 -1       135 1.21368E+02
 -1       136 1.21410E+02
 -1       137 1.21439E+02
 -1       138 1.21459E+02
 -1       139 1.21473E+02
 -1       140 1.21482E+02
 -1       141 1.21490E+02
 -1       142 1.21495E+02
 -1       143 1.21499E+02
 -1       144 1.21502E+02
 -1       145 1.21504E+02
 -1       146 1.21506E+02
 -1       147 1.21507E+02
 -1       148 1.21508E+02
 -1       149 1.21509E+02
 -1       150 1.21509E+02
 -1       151 1.21510E+02
 -1       152 1.21510E+02
 -1       153 1.21511E+02
 -1       154 1.21511E+02
 -1       155 1.21511E+02
 -1       156 1.21511E+02
 -1       157 1.21511E+02
 -1       158 1.21511E+02
 -1       159 1.21512E+02
 -1       160 1.21512E+02
 -1       161 1.21512E+02
 -1       162 1.21512E+02
 -1       163 1.21512E+02
 -1       164 1.21512E+02
 -1       165 1.21512E+02
 -1       166 1.21512E+02
 -1       167 1.21512E+02
 -1       168 1.21512E+02
 -1       169 1.21512E+02
 -1       170 1.21512E+02
 -1       171 1.21512E+02
 -1       172 1.21512E+02
 -1       173 1.21512E+02
 -1       174 1.21512E+02
 -1       175 1.21512E+02
 -1       176 1.21512E+02
 -1       177 1.21512E+02
 -1       178 1.21512E+02
 -1       179 1.21512E+02
 -1       180 1.21512E+02
 -1       181 1.21512E+02
 -1       182 1.21512E+02
 -1       183 1.21512E+02
 -1       184 9.84970E-01
 -1       185 1.08417E+01
 -1       186 6.09630E+01
 -1       187 9.84402E+01
 -1       188 1.11596E+02
 -1       189 1.16823E+02
 -1       190 1.19096E+02
 -1       191 1.20172E+02
 -1       192 1.20723E+02
 -1       193 1.21023E+02
 -1       194 1.21197E+02
 -1       195 1.21302E+02
 -1       196 1.21368E+02
 -1       197 1.21410E+02
 -1       198 1.21439E+02
 -1       199 1.21459E+02
 -1       200 1.21473E+02
 -1       201 1.21482E+02
 -1       202 1.21490E+02
 -1       203 1.21495E+02
 -1       204 1.21499E+02
 -1       205 1.21502E+02
 -1       206 1.21504E+02
 -1       207 1.21506E+02
 -1       208 1.21507E+02
 -1       209 1.21508E+02
 -1       210 1.21509E+02
 -1       211 1.21509E+02
 -1       212 1.21510E+02
 -1       213 1.21510E+02
 -1       214 1.21511E+02
 -1       215 1.21511E+02
 -1       216 1.21511E+02
 -1       217 1.21511E+02
 -1       218 1.21511E+02
 -1       219 1.21511E+02
 -1       220 1.21512E+02
 -1       221 1.21512E+02
 -1       222 1.21512E+02
 -1       223 1.21512E+02
 -1       224 1.21512E+02
 -1       225 1.21512E+02
 -1       226 1.21512E+02
 -1       227 1.21512E+02
 -1       228 1.21512E+02
 -1       229 1.21512E+02
 -1       230 1.21512E+02
 -1       231 1.21512E+02
 -1       232 1.21512E+02
 -1       233 1.21512E+02
 -1       234 1.21512E+02
 -1       235 1.21512E+02
 -1       236 1.21512E+02
 -1       237 1.21512E+02
 -1       238 1.21512E+02
 -1       239 1.21512E+02
 -1       240 1.21512E+02
 -1       241 1.21512E+02
 -1       242 1.21512E+02
 -1       243 1.21512E+02
 -1       244 1.21512E+02
 -3
    1PSTEP                         5           1           1          
    1PGM                1.000000E+00                                  
    1PGK                2.723864E+05                                  
    1PHID                         -1                                  
    1PSUBC                         0                                  
    1PMODE                         2                                  
  100CL  102 83.06400286         244                     2    2MODAL      1
 -4  DISP        4    1
 -5  D1          1    2    1    0
 -5  D2          1    2    2    0
 -5  D3          1    2    3    0
 -5  ALL         1    2    0    0    1ALL
 -1         1-3.46182E-01-1.01350E+02 0.00000E+00
 -1         2-3.46156E-01-9.32724E+01 0.00000E+00
 -1         3-3.45974E-01-8.51973E+01 0.00000E+00
 -1         4-3.45493E-01-7.71300E+01 0.00000E+00
 -1         5-3.44584E-01-6.90788E+01 0.00000E+00
 -1         6-3.43128E-01-6.10553E+01 0.00000E+00
 -1         7-3.41021E-01-5.30733E+01 0.00000E+00
 -1         8-3.38171E-01-4.51492E+01 0.00000E+00
 -1         9-3.34499E-01-3.73011E+01 0.00000E+00
 -1        10-3.29940E-01-2.95491E+01 0.00000E+00
 -1        11-3.24439E-01-2.19144E+01 0.00000E+00
 -1        12-3.17955E-01-1.44196E+01 0.00000E+00
 -1        13-3.10459E-01-7.08784E+00 0.00000E+00
 -1        14-3.01934E-01 5.70107E-02 0.00000E+00
 -1        15-2.92374E-01 6.99082E+00 0.00000E+00
 -1        16-2.81784E-01 1.36895E+01 0.00000E+00
 -1        17-2.70181E-01 2.01294E+01 0.00000E+00
 -1        18-2.57593E-01 2.62869E+01 0.00000E+00
 -1        19-2.44057E-01 3.21397E+01 0.00000E+00
 -1        20-2.29619E-01 3.76661E+01 0.00000E+00
 -1        21-2.14336E-01 4.28458E+01 0.00000E+00
 -1        22-1.98273E-01 4.76597E+01 0.00000E+00
 -1        23-1.81501E-01 5.20905E+01 0.00000E+00
 -1        24-1.64102E-01 5.61227E+01 0.00000E+00
 -1        25-1.46162E-01 5.97426E+01 0.00000E+00
 -1        26-1.27774E-01 6.29386E+01 0.00000E+00
 -1        27-1.09037E-01 6.57015E+01 0.00000E+00
 -1        28-9.00540E-02 6.80243E+01 0.00000E+00
 -1        29-7.09327E-02 6.99025E+01 0.00000E+00
 -1        30-5.17838E-02 7.13342E+01 0.00000E+00
 -1        31-3.27206E-02 7.23201E+01 0.00000E+00
 -1        32-1.38588E-02 7.28636E+01 0.00000E+00
 -1        33 4.68521E-03 7.29706E+01 0.00000E+00
 -1        34 2.27941E-02 7.26500E+01 0.00000E+00
 -1        35 4.03512E-02 7.19132E+01 0.00000E+00
 -1        36 5.72399E-02 7.07746E+01 0.00000E+00
 -1        37 7.33460E-02 6.92510E+01 0.00000E+00
 -1        38 8.85568E-02 6.73620E+01 0.00000E+00
 -1        39 1.02763E-01 6.51299E+01 0.00000E+00
 -1        40 1.15857E-01 6.25792E+01 0.00000E+00
 -1        41 1.27737E-01 5.97372E+01 0.00000E+00
 -1        42 1.38305E-01 5.66332E+01 0.00000E+00
 -1        43 1.47467E-01 5.32990E+01 0.00000E+00
 -1        44 1.55135E-01 4.97685E+01 0.00000E+00
 -1        45 1.61226E-01 4.60774E+01 0.00000E+00
 -1        46 1.65664E-01 4.22635E+01 0.00000E+00
 -1        47 1.68376E-01 3.83662E+01 0.00000E+00
 -1        48 1.69299E-01 3.44265E+01 0.00000E+00
 -1        49 1.68374E-01 3.04868E+01 0.00000E+00
 -1        50 1.65548E-01 2.65908E+01 0.00000E+00
 -1        51 1.60776E-01 2.27835E+01 0.00000E+00
 -1        52 1.54019E-01 1.91107E+01 0.00000E+00
 -1        53 1.45242E-01 1.56192E+01 0.00000E+00
 -1        54 1.34418E-01 1.23563E+01 0.00000E+00
 -1        55 1.21524E-01 9.37013E+00 0.00000E+00
 -1        56 1.06542E-01 6.70920E+00 0.00000E+00
 -1        57 8.94609E-02 4.42235E+00 0.00000E+00
 -1        58 7.02703E-02 2.55867E+00 0.00000E+00
 -1        59 4.89649E-02 1.16746E+00 0.00000E+00
 -1        60 2.55419E-02 2.98093E-01 0.00000E+00
 -1        61 0.00000E+00 0.00000E+00 0.00000E+00
 -1        62-3.46182E-01-1.01350E+02 0.00000E+00
 -1        63-3.46156E-01-9.32724E+01 0.00000E+00
 -1        64-3.45974E-01-8.51973E+01 0.00000E+00
 -1        65-3.45493E-01-7.71300E+01 0.00000E+00
 -1        66-3.44584E-01-6.90788E+01 0.00000E+00
 -1        67-3.43128E-01-6.10553E+01 0.00000E+00
 -1        68-3.41021E-01-5.30733E+01 0.00000E+00
 -1        69-3.38171E-01-4.51492E+01 0.00000E+00
 -1        70-3.34499E-01-3.73011E+01 0.00000E+00
 -1        71-3.29940E-01-2.95491E+01 0.00000E+00
 -1        72-3.24439E-01-2.19144E+01 0.00000E+00
 -1        73-3.17955E-01-1.44196E+01 0.00000E+00
 -1        74-3.10459E-01-7.08784E+00 0.00000E+00
 -1        75-3.01934E-01 5.70107E-02 0.00000E+00
 -1        76-2.92374E-01 6.99082E+00 0.00000E+00
 -1        77-2.81784E-01 1.36895E+01 0.00000E+00
 -1        78-2.70181E-01 2.01294E+01 0.00000E+00
 -1        79-2.57593E-01 2.62869E+01 0.00000E+00
 -1        80-2.44057E-01 3.21397E+01 0.00000E+00
 -1        81-2.29619E-01 3.76661E+01 0.00000E+00
 -1        82-2.14336E-01 4.28458E+01 0.00000E+00
 -1        83-1.98273E-01 4.76597E+01 0.00000E+00
 -1        84-1.81501E-01 5.20905E+01 0.00000E+00
 -1        85-1.64102E-01 5.61227E+01 0.00000E+00
 -1        86-1.46162E-01 5.97426E+01 0.00000E+00
 -1        87-1.27774E-01 6.29386E+01 0.00000E+00
 -1        88-1.09037E-01 6.57015E+01 0.00000E+00
 -1        89-9.00540E-02 6.80243E+01 0.00000E+00
 -1        90-7.09327E-02 6.99025E+01 0.00000E+00
 -1        91-5.17838E-02 7.13342E+01 0.00000E+00
 -1        92-3.27206E-02 7.23201E+01 0.00000E+00
 -1        93-1.38588E-02 7.28636E+01 0.00000E+00
 -1        94 4.68521E-03 7.29706E+01 0.00000E+00
 -1        95 2.27941E-02 7.26500E+01 0.00000E+00
 -1        96 4.03512E-02 7.19132E+01 0.00000E+00
 -1        97 5.72399E-02 7.07746E+01 0.00000E+00
 -1        98 7.33460E-02 6.92510E+01 0.00000E+00
 -1        99 8.85568E-02 6.73620E+01 0.00000E+00
 -1       100 1.02763E-01 6.51299E+01 0.00000E+00
 -1       101 1.15857E-01 6.25792E+01 0.00000E+00
 -1       102 1.27737E-01 5.97372E+01 0.00000E+00
 -1       103 1.38305E-01 5.66332E+01 0.00000E+00
 -1       104 1.47467E-01 5.32990E+01 0.00000E+00
 -1       105 1.55135E-01 4.97685E+01 0.00000E+00
 -1       106 1.61226E-01 4.60774E+01 0.00000E+00
 -1       107 1.65664E-01 4.22635E+01 0.00000E+00
 -1       108 1.68376E-01 3.83662E+01 0.00000E+00
 -1       109 1.69299E-01 3.44265E+01 0.00000E+00
 -1       110 1.68374E-01 3.04868E+01 0.00000E+00
 -1       111 1.65548E-01 2.65908E+01 0.00000E+00
 -1       112 1.60776E-01 2.27835E+01 0.00000E+00
 -1       113 1.54019E-01 1.91107E+01 0.00000E+00
 -1       114 1.45242E-01 1.56192E+01 0.00000E+00
 -1       115 1.34418E-01 1.23563E+01 0.00000E+00
 -1       116 1.21524E-01 9.37013E+00 0.00000E+00
 -1       117 1.06542E-01 6.70920E+00 0.00000E+00
 -1       118 8.94609E-02 4.42235E+00 0.00000E+00
 -1       119 7.02703E-02 2.55867E+00 0.00000E+00
 -1       120 4.89649E-02 1.16746E+00 0.00000E+00
 -1       121 2.55419E-02 2.98093E-01 0.00000E+00
 -1       122 0.00000E+00 0.00000E+00 0.00000E+00
 -1       123 3.46182E-01-1.01350E+02 0.00000E+00
 -1       124 3.46156E-01-9.32724E+01 0.00000E+00
 -1       125 3.45974E-01-8.51973E+01 0.00000E+00
 -1       126 3.45493E-01-7.71300E+01 0.00000E+00
 -1       127 3.44584E-01-6.90788E+01 0.00000E+00
 -1       128 3.43128E-01-6.10553E+01 0.00000E+00
 -1       129 3.41021E-01-5.30733E+01 0.00000E+00
 -1       130 3.38171E-01-4.51492E+01 0.00000E+00
 -1       131 3.34499E-01-3.73011E+01 0.00000E+00
 -1       132 3.29940E-01-2.95491E+01 0.00000E+00
 -1       133 3.24439E-01-2.19144E+01 0.00000E+00
 -1       134 3.17955E-01-1.44196E+01 0.00000E+00
 -1       135 3.10459E-01-7.08784E+00 0.00000E+00
 -1       136 3.01934E-01 5.70107E-02 0.00000E+00
 -1       137 2.92374E-01 6.99082E+00 0.00000E+00
 -1       138 2.81784E-01 1.36895E+01 0.00000E+00
 -1       139 2.70181E-01 2.01294E+01 0.00000E+00
 -1       140 2.57593E-01 2.62869E+01 0.00000E+00
 -1       141 2.44057E-01 3.21397E+01 0.00000E+00
 -1       142 2.29619E-01 3.76661E+01 0.00000E+00
 -1       143 2.14336E-01 4.28458E+01 0.00000E+00
 -1       144 1.98273E-01 4.76597E+01 0.00000E+00
 -1       145 1.81501E-01 5.20905E+01 0.00000E+00
 -1       146 1.64102E-01 5.61227E+01 0.00000E+00
 -1       147 1.46162E-01 5.97426E+01 0.00000E+00
 -1       148 1.27774E-01 6.29386E+01 0.00000E+00
 -1       149 1.09037E-01 6.57015E+01 0.00000E+00
 -1       150 9.00540E-02 6.80243E+01 0.00000E+00
 -1       151 7.09327E-02 6.99025E+01 0.00000E+00
 -1       152 5.17838E-02 7.13342E+01 0.00000E+00
 -1       153 3.27206E-02 7.23201E+01 0.00000E+00
 -1       154 1.38588E-02 7.28636E+01 0.00000E+00
 -1       155-4.68521E-03 7.29706E+01 0.00000E+00
 -1       156-2.27941E-02 7.26500E+01 0.00000E+00
 -1       157-4.03512E-02 7.19132E+01 0.00000E+00
 -1       158-5.72399E-02 7.07746E+01 0.00000E+00
 -1       159-7.33460E-02 6.92510E+01 0.00000E+00
 -1       160-8.85568E-02 6.73620E+01 0.00000E+00
 -1       161-1.02763E-01 6.51299E+01 0.00000E+00
 -1       162-1.15857E-01 6.25792E+01 0.00000E+00
 -1       163-1.27737E-01 5.97372E+01 0.00000E+00
 -1       164-1.38305E-01 5.66332E+01 0.00000E+00
 -1       165-1.47467E-01 5.32990E+01 0.00000E+00
 -1       166-1.55135E-01 4.97685E+01 0.00000E+00
 -1       167-1.61226E-01 4.60774E+01 0.00000E+00
 -1       168-1.65664E-01 4.22635E+01 0.00000E+00
 -1       169-1.68376E-01 3.83662E+01 0.00000E+00
 -1       170-1.69299E-01 3.44265E+01 0.00000E+00
 -1       171-1.68374E-01 3.04868E+01 0.00000E+00
 -1       172-1.65548E-01 2.65908E+01 0.00000E+00
 -1       173-1.60776E-01 2.27835E+01 0.00000E+00
 -1       174-1.54019E-01 1.91107E+01 0.00000E+00
 -1       175-1.45242E-01 1.56192E+01 0.00000E+00
 -1       176-1.34418E-01 1.23563E+01 0.00000E+00
 -1       177-1.21524E-01 9.37013E+00 0.00000E+00
 -1       178-1.06542E-01 6.70920E+00 0.00000E+00
 -1       179-8.94609E-02 4.42235E+00 0.00000E+00
 -1       180-7.02703E-02 2.55867E+00 0.00000E+00
 -1       181-4.89649E-02 1.16746E+00 0.00000E+00
 -1       182-2.55419E-02 2.98093E-01 0.00000E+00
 -1       183 0.00000E+00 0.00000E+00 0.00000E+00
 -1       184 3.46182E-01-1.01350E+02 0.00000E+00
 -1       185 3.46156E-01-9.32724E+01 0.00000E+00
 -1       186 3.45974E-01-8.51973E+01 0.00000E+00
 -1       187 3.45493E-01-7.71300E+01 0.00000E+00
 -1       188 3.44584E-01-6.90788E+01 0.00000E+00
 -1       189 3.43128E-01-6.10553E+01 0.00000E+00
 -1       190 3.41021E-01-5.30733E+01 0.00000E+00
 -1       191 3.38171E-01-4.51492E+01 0.00000E+00
 -1       192 3.34499E-01-3.73011E+01 0.00000E+00
 -1       193 3.29940E-01-2.95491E+01 0.00000E+00
 -1       194 3.24439E-01-2.19144E+01 0.00000E+00
 -1       195 3.17955E-01-1.44196E+01 0.00000E+00
 -1       196 3.10459E-01-7.08784E+00 0.00000E+00
 -1       197 3.01934E-01 5.70107E-02 0.00000E+00
 -1       198 2.92374E-01 6.99082E+00 0.00000E+00
 -1       199 2.81784E-01 1.36895E+01 0.00000E+00
 -1       200 2.70181E-01 2.01294E+01 0.00000E+00
 -1       201 2.57593E-01 2.62869E+01 0.00000E+00
 -1       202 2.44057E-01 3.21397E+01 0.00000E+00
 -1       203 2.29619E-01 3.76661E+01 0.00000E+00
 -1       204 2.14336E-01 4.28458E+01 0.00000E+00
 -1       205 1.98273E-01 4.76597E+01 0.00000E+00
 -1       206 1.81501E-01 5.20905E+01 0.00000E+00
 -1       207 1.64102E-01 5.61227E+01 0.00000E+00
 -1       208 1.46162E-01 5.97426E+01 0.00000E+00
 -1       209 1.27774E-01 6.29386E+01 0.00000E+00
 -1       210 1.09037E-01 6.57015E+01 0.00000E+00
 -1       211 9.00540E-02 6.80243E+01 0.00000E+00
 -1       212 7.09327E-02 6.99025E+01 0.00000E+00
 -1       213 5.17838E-02 7.13342E+01 0.00000E+00
 -1       214 3.27206E-02 7.23201E+01 0.00000E+00
 -1       215 1.38588E-02 7.28636E+01 0.00000E+00
 -1       216-4.68521E-03 7.29706E+01 0.00000E+00
 -1       217-2.27941E-02 7.26500E+01 0.00000E+00
 -1       218-4.03512E-02 7.19132E+01 0.00000E+00
 -1       219-5.72399E-02 7.07746E+01 0.00000E+00
 -1       220-7.33460E-02 6.92510E+01 0.00000E+00
 -1       221-8.85568E-02 6.73620E+01 0.00000E+00
 -1       222-1.02763E-01 6.51299E+01 0.00000E+00
 -1       223-1.15857E-01 6.25792E+01 0.00000E+00
 -1       224-1.27737E-01 5.97372E+01 0.00000E+00
 -1       225-1.38305E-01 5.66332E+01 0.00000E+00
 -1       226-1.47467E-01 5.32990E+01 0.00000E+00
 -1       227-1.55135E-01 4.97685E+01 0.00000E+00
 -1       228-1.61226E-01 4.60774E+01 0.00000E+00
 -1       229-1.65664E-01 4.22635E+01 0.00000E+00
 -1       230-1.68376E-01 3.83662E+01 0.00000E+00
 -1       231-1.69299E-01 3.44265E+01 0.00000E+00
 -1       232-1.68374E-01 3.04868E+01 0.00000E+00
 -1       233-1.65548E-01 2.65908E+01 0.00000E+00
 -1       234-1.60776E-01 2.27835E+01 0.00000E+00
 -1       235-1.54019E-01 1.91107E+01 0.00000E+00
 -1       236-1.45242E-01 1.56192E+01 0.00000E+00
 -1       237-1.34418E-01 1.23563E+01 0.00000E+00
 -1       238-1.21524E-01 9.37013E+00 0.00000E+00
 -1       239-1.06542E-01 6.70920E+00 0.00000E+00
 -1       240-8.94609E-02 4.42235E+00 0.00000E+00
 -1       241-7.02703E-02 2.55867E+00 0.00000E+00
 -1       242-4.89649E-02 1.16746E+00 0.00000E+00
 -1       243-2.55419E-02 2.98093E-01 0.00000E+00
 -1       244 0.00000E+00 0.00000E+00 0.00000E+00
 -3
    1PSTEP                         6           1           1          
    1PGM                1.000000E+00                                  
    1PGK                2.723864E+05                                  
    1PHID                         -1                                  
    1PSUBC                         0                                  
    1PMODE                         2                                  
  100CL  102 83.06400286         244                     2    2MODAL      1
 -4  STRESS      6    1
 -5  SXX         1    4    1    1
 -5  SYY         1    4    2    2
 -5  SZZ         1    4    3    3
 -5  SXY         1    4    1    2
 -5  SYZ         1    4    2    3
 -5  SZX         1    4    3    1
 -1         1-2.56105E+08-9.21503E+05-9.76701E+07-1.48296E+05 2.94884E+09 4.98699E+00
 -1         2-1.00353E+09-8.83252E+05-3.81676E+08-2.16500E+07 2.82647E+09 4.99184E+00
 -1         3-3.18850E+09-8.06792E+05-1.21194E+09-4.13667E+07 2.58179E+09 5.01010E+00
 -1         4-6.69133E+09-7.30395E+05-2.54298E+09-5.92999E+07 2.33737E+09 4.98743E+00
 -1         5-1.13873E+10-6.54088E+05-4.32741E+09-7.54521E+07 2.09345E+09 4.84389E+00
 -1         6-1.71518E+10-5.78089E+05-6.51790E+09-8.98276E+07 1.85038E+09 4.54071E+00
 -1         7-2.38609E+10-5.02509E+05-9.06732E+09-1.02434E+08 1.60858E+09 4.17480E+00
 -1         8-3.13911E+10-4.27464E+05-1.19288E+10-1.13283E+08 1.36855E+09 3.74127E+00
 -1         9-3.96199E+10-3.53118E+05-1.50557E+10-1.22389E+08 1.13083E+09 3.17524E+00
 -1        10-4.84262E+10-2.79743E+05-1.84021E+10-1.29771E+08 8.96024E+08 2.54672E+00
 -1        11-5.76899E+10-2.07485E+05-2.19222E+10-1.35451E+08 6.64782E+08 1.93073E+00
 -1        12-6.72931E+10-1.36569E+05-2.55714E+10-1.39460E+08 4.37782E+08 1.36113E+00
 -1        13-7.71200E+10-6.71963E+04-2.93056E+10-1.41830E+08 2.15726E+08 8.16388E-01
 -1        14-8.70573E+10 4.10515E+02-3.30818E+10-1.42599E+08-6.64028E+05 3.07814E-01
 -1        15-9.69944E+10 6.60194E+04-3.68579E+10-1.41812E+08-2.10660E+08-1.58385E-01
 -1        16-1.06824E+11 1.29397E+05-4.05932E+10-1.39518E+08-4.13533E+08-5.83570E-01
 -1        17-1.16444E+11 1.90326E+05-4.42485E+10-1.35772E+08-6.08563E+08-9.86551E-01
 -1        18-1.25753E+11 2.48606E+05-4.77859E+10-1.30633E+08-7.95043E+08-1.37797E+00
 -1        19-1.34656E+11 3.03996E+05-5.11692E+10-1.24167E+08-9.72293E+08-1.76217E+00
 -1        20-1.43064E+11 3.56259E+05-5.43640E+10-1.16442E+08-1.13966E+09-2.12972E+00
 -1        21-1.50890E+11 4.05201E+05-5.73381E+10-1.07534E+08-1.29652E+09-2.38376E+00
 -1        22-1.58055E+11 4.50668E+05-6.00607E+10-9.75216E+07-1.44231E+09-2.39966E+00
 -1        23-1.64484E+11 4.92515E+05-6.25039E+10-8.64870E+07-1.57650E+09-2.17289E+00
 -1        24-1.70110E+11 5.30598E+05-6.46414E+10-7.45169E+07-1.69862E+09-1.76158E+00
 -1        25-1.74868E+11 5.64836E+05-6.64497E+10-6.17010E+07-1.80826E+09-1.21790E+00
 -1        26-1.78704E+11 5.95093E+05-6.79074E+10-4.81318E+07-1.90506E+09-6.63121E-01
 -1        27-1.81569E+11 6.21321E+05-6.89958E+10-3.39038E+07-1.98875E+09-2.63091E-01
 -1        28-1.83418E+11 6.43373E+05-6.96987E+10-1.91137E+07-2.05912E+09-2.75912E-02
 -1        29-1.84218E+11 6.61188E+05-7.00025E+10-3.85939E+06-2.11602E+09 1.49166E-01
 -1        30-1.83937E+11 6.74751E+05-6.98960E+10 1.17605E+07-2.15941E+09 2.79784E-01
 -1        31-1.82555E+11 6.84192E+05-6.93708E+10 2.76476E+07-2.18930E+09 2.63215E-01
 -1        32-1.80057E+11 6.89405E+05-6.84213E+10 4.37033E+07-2.20580E+09 7.03151E-02
 -1        33-1.76432E+11 6.90450E+05-6.70441E+10 5.98307E+07-2.20909E+09-1.92522E-01
 -1        34-1.71681E+11 6.87420E+05-6.52386E+10 7.59341E+07-2.19943E+09-4.61460E-01
 -1        35-1.65808E+11 6.80458E+05-6.30067E+10 9.19203E+07-2.17718E+09-6.94089E-01
 -1        36-1.58824E+11 6.69704E+05-6.03528E+10 1.07699E+08-2.14276E+09-8.98135E-01
 -1        37-1.50746E+11 6.55310E+05-5.72834E+10 1.23182E+08-2.09669E+09-1.12856E+00
 -1        38-1.41599E+11 6.37461E+05-5.38074E+10 1.38288E+08-2.03956E+09-1.38194E+00
 -1        39-1.31411E+11 6.16322E+05-4.99361E+10 1.52938E+08-1.97204E+09-1.58617E+00
 -1        40-1.20217E+11 5.92128E+05-4.56824E+10 1.67058E+08-1.89488E+09-1.64813E+00
 -1        41-1.08057E+11 5.65184E+05-4.10613E+10 1.80581E+08-1.80891E+09-1.50416E+00
 -1        42-9.49728E+10 5.35787E+05-3.60895E+10 1.93447E+08-1.71501E+09-1.18975E+00
 -1        43-8.10139E+10 5.04270E+05-3.07851E+10 2.05600E+08-1.61414E+09-8.31786E-01
 -1        44-6.62314E+10 4.70907E+05-2.51677E+10 2.16993E+08-1.50734E+09-5.01155E-01
 -1        45-5.06796E+10 4.36002E+05-1.92581E+10 2.27587E+08-1.39568E+09-1.93419E-01
 -1        46-3.44156E+10 3.99948E+05-1.30778E+10 2.37350E+08-1.28030E+09 1.20692E-01
 -1        47-1.74982E+10 3.63103E+05-6.64919E+09 2.46260E+08-1.16241E+09 4.58049E-01
 -1        48 1.24400E+07 3.25860E+05 4.85104E+06 2.54303E+08-1.04323E+09 7.99483E-01
 -1        49 1.80556E+10 2.88625E+05 6.86125E+09 2.61474E+08-9.24068E+08 1.13359E+00
 -1        50 3.65705E+10 2.51822E+05 1.38969E+10 2.67777E+08-8.06235E+08 1.45194E+00
 -1        51 5.54971E+10 2.15880E+05 2.10890E+10 2.73228E+08-6.91092E+08 1.69623E+00
 -1        52 7.47766E+10 1.81217E+05 2.84152E+10 2.77850E+08-5.80030E+08 1.83496E+00
 -1        53 9.43524E+10 1.48254E+05 3.58540E+10 2.81680E+08-4.74464E+08 1.89953E+00
 -1        54 1.14171E+11 1.17461E+05 4.33849E+10 2.84761E+08-3.75830E+08 1.90113E+00
 -1        55 1.34181E+11 8.92900E+04 5.09888E+10 2.87150E+08-2.85584E+08 1.83346E+00
 -1        56 1.54338E+11 6.42037E+04 5.86484E+10 2.88914E+08-2.05196E+08 1.69019E+00
 -1        57 1.74600E+11 4.26546E+04 6.63478E+10 2.90129E+08-1.36144E+08 1.47401E+00
 -1        58 1.94931E+11 2.51110E+04 7.40739E+10 2.90884E+08-7.99168E+07 1.19134E+00
 -1        59 2.15305E+11 1.20402E+04 8.18158E+10 2.91277E+08-3.80075E+07 8.49378E-01
 -1        60 2.35698E+11 3.91009E+03 8.95653E+10 2.91419E+08-1.19119E+07 4.52171E-01
 -1        61 2.45898E+11 1.13388E+03 9.34411E+10 2.91436E+08-3.00478E+06-2.55832E-03
 -1        62-2.56105E+08-9.21472E+05-9.76701E+07-1.48307E+05-2.94884E+09 4.98673E+00
 -1        63-1.00353E+09-8.83248E+05-3.81676E+08-2.16500E+07-2.82647E+09 4.99171E+00
 -1        64-3.18850E+09-8.06794E+05-1.21194E+09-4.13667E+07-2.58179E+09 5.00992E+00
 -1        65-6.69133E+09-7.30433E+05-2.54298E+09-5.92997E+07-2.33737E+09 4.98719E+00
 -1        66-1.13873E+10-6.54275E+05-4.32741E+09-7.54519E+07-2.09345E+09 4.84380E+00
 -1        67-1.71518E+10-5.78360E+05-6.51790E+09-8.98276E+07-1.85038E+09 4.54065E+00
 -1        68-2.38609E+10-5.02836E+05-9.06732E+09-1.02434E+08-1.60858E+09 4.17480E+00
 -1        69-3.13911E+10-4.27858E+05-1.19288E+10-1.13283E+08-1.36855E+09 3.74122E+00
 -1        70-3.96199E+10-3.53635E+05-1.50557E+10-1.22389E+08-1.13083E+09 3.17477E+00
 -1        71-4.84262E+10-2.80274E+05-1.84021E+10-1.29771E+08-8.96024E+08 2.54571E+00
 -1        72-5.76899E+10-2.07983E+05-2.19222E+10-1.35451E+08-6.64782E+08 1.92974E+00
 -1        73-6.72931E+10-1.37034E+05-2.55714E+10-1.39460E+08-4.37782E+08 1.36069E+00
 -1        74-7.71200E+10-6.76227E+04-2.93056E+10-1.41830E+08-2.15726E+08 8.15956E-01
 -1        75-8.70573E+10 1.05500E+01-3.30818E+10-1.42599E+08 6.63931E+05 3.07297E-01
 -1        76-9.69944E+10 6.56416E+04-3.68579E+10-1.41812E+08 2.10660E+08-1.58688E-01
 -1        77-1.06824E+11 1.29058E+05-4.05932E+10-1.39518E+08 4.13533E+08-5.83483E-01
 -1        78-1.16444E+11 1.89997E+05-4.42485E+10-1.35772E+08 6.08563E+08-9.86730E-01
 -1        79-1.25753E+11 2.48296E+05-4.77859E+10-1.30633E+08 7.95043E+08-1.37861E+00
 -1        80-1.34656E+11 3.03698E+05-5.11692E+10-1.24167E+08 9.72293E+08-1.76263E+00
 -1        81-1.43064E+11 3.56006E+05-5.43640E+10-1.16442E+08 1.13966E+09-2.13007E+00
 -1        82-1.50890E+11 4.05107E+05-5.73381E+10-1.07535E+08 1.29652E+09-2.38433E+00
 -1        83-1.58055E+11 4.50774E+05-6.00607E+10-9.75219E+07 1.44231E+09-2.40039E+00
 -1        84-1.64484E+11 4.92783E+05-6.25039E+10-8.64872E+07 1.57650E+09-2.17343E+00
 -1        85-1.70110E+11 5.31019E+05-6.46414E+10-7.45170E+07 1.69862E+09-1.76201E+00
 -1        86-1.74868E+11 5.65319E+05-6.64497E+10-6.17010E+07 1.80826E+09-1.21861E+00
 -1        87-1.78704E+11 5.95532E+05-6.79074E+10-4.81316E+07 1.90506E+09-6.64006E-01
 -1        88-1.81569E+11 6.21618E+05-6.89958E+10-3.39037E+07 1.98875E+09-2.63571E-01
 -1        89-1.83418E+11 6.43554E+05-6.96987E+10-1.91136E+07 2.05912E+09-2.81287E-02
 -1        90-1.84218E+11 6.61317E+05-7.00025E+10-3.85934E+06 2.11602E+09 1.48560E-01
 -1        91-1.83937E+11 6.74831E+05-6.98960E+10 1.17607E+07 2.15941E+09 2.79325E-01
 -1        92-1.82555E+11 6.84082E+05-6.93708E+10 2.76477E+07 2.18931E+09 2.62771E-01
 -1        93-1.80057E+11 6.89212E+05-6.84213E+10 4.37034E+07 2.20580E+09 6.99552E-02
 -1        94-1.76432E+11 6.90207E+05-6.70441E+10 5.98307E+07 2.20909E+09-1.92632E-01
 -1        95-1.71681E+11 6.87190E+05-6.52386E+10 7.59340E+07 2.19943E+09-4.61555E-01
 -1        96-1.65808E+11 6.80250E+05-6.30067E+10 9.19202E+07 2.17718E+09-6.94679E-01
 -1        97-1.58824E+11 6.69496E+05-6.03528E+10 1.07699E+08 2.14276E+09-8.98951E-01
 -1        98-1.50746E+11 6.55083E+05-5.72834E+10 1.23182E+08 2.09669E+09-1.12925E+00
 -1        99-1.41599E+11 6.37236E+05-5.38074E+10 1.38288E+08 2.03956E+09-1.38249E+00
 -1       100-1.31411E+11 6.16175E+05-4.99361E+10 1.52937E+08 1.97204E+09-1.58701E+00
 -1       101-1.20217E+11 5.92146E+05-4.56824E+10 1.67058E+08 1.89488E+09-1.64909E+00
 -1       102-1.08057E+11 5.65357E+05-4.10613E+10 1.80581E+08 1.80891E+09-1.50504E+00
 -1       103-9.49728E+10 5.36073E+05-3.60895E+10 1.93447E+08 1.71501E+09-1.19050E+00
 -1       104-8.10139E+10 5.04547E+05-3.07851E+10 2.05600E+08 1.61414E+09-8.32021E-01
 -1       105-6.62314E+10 4.71160E+05-2.51677E+10 2.16993E+08 1.50734E+09-5.01210E-01
 -1       106-5.06796E+10 4.36275E+05-1.92581E+10 2.27587E+08 1.39568E+09-1.93733E-01
 -1       107-3.44156E+10 4.00222E+05-1.30778E+10 2.37350E+08 1.28030E+09 1.20264E-01
 -1       108-1.74982E+10 3.63389E+05-6.64919E+09 2.46260E+08 1.16241E+09 4.57892E-01
 -1       109 1.24405E+07 3.26145E+05 4.85132E+06 2.54303E+08 1.04323E+09 7.99333E-01
 -1       110 1.80556E+10 2.88909E+05 6.86125E+09 2.61474E+08 9.24069E+08 1.13318E+00
 -1       111 3.65705E+10 2.52062E+05 1.38969E+10 2.67777E+08 8.06236E+08 1.45166E+00
 -1       112 5.54971E+10 2.16038E+05 2.10890E+10 2.73228E+08 6.91093E+08 1.69620E+00
 -1       113 7.47766E+10 1.81294E+05 2.84152E+10 2.77850E+08 5.80031E+08 1.83484E+00
 -1       114 9.43524E+10 1.48280E+05 3.58540E+10 2.81680E+08 4.74464E+08 1.89937E+00
 -1       115 1.14171E+11 1.17428E+05 4.33849E+10 2.84761E+08 3.75830E+08 1.90116E+00
 -1       116 1.34181E+11 8.91948E+04 5.09888E+10 2.87150E+08 2.85585E+08 1.83369E+00
 -1       117 1.54338E+11 6.40413E+04 5.86484E+10 2.88914E+08 2.05196E+08 1.69051E+00
 -1       118 1.74600E+11 4.24345E+04 6.63478E+10 2.90129E+08 1.36144E+08 1.47425E+00
 -1       119 1.94931E+11 2.48356E+04 7.40739E+10 2.90884E+08 7.99169E+07 1.19143E+00
 -1       120 2.15305E+11 1.17136E+04 8.18158E+10 2.91277E+08 3.80075E+07 8.49331E-01
 -1       121 2.35698E+11 3.53617E+03 8.95653E+10 2.91419E+08 1.19119E+07 4.52056E-01
 -1       122 2.45898E+11 7.38667E+02 9.34411E+10 2.91435E+08 3.00478E+06-2.70088E-03
 -1       123 2.56105E+08 9.21491E+05 9.76701E+07-1.48295E+05 2.94884E+09-4.86672E+00
 -1       124 1.00353E+09 8.83264E+05 3.81676E+08-2.16500E+07 2.82647E+09-4.87399E+00
 -1       125 3.18850E+09 8.06808E+05 1.21194E+09-4.13667E+07 2.58179E+09-4.90188E+00
 -1       126 6.69133E+09 7.30367E+05 2.54298E+09-5.92999E+07 2.33737E+09-4.89961E+00
 -1       127 1.13873E+10 6.54116E+05 4.32741E+09-7.54521E+07 2.09345E+09-4.78819E+00
 -1       128 1.71518E+10 5.78100E+05 6.51790E+09-8.98276E+07 1.85038E+09-4.52239E+00
 -1       129 2.38609E+10 5.02499E+05 9.06732E+09-1.02434E+08 1.60858E+09-4.18967E+00
 -1       130 3.13911E+10 4.27441E+05 1.19288E+10-1.13283E+08 1.36855E+09-3.78444E+00
 -1       131 3.96199E+10 3.53129E+05 1.50557E+10-1.22389E+08 1.13083E+09-3.24929E+00
 -1       132 4.84262E+10 2.79736E+05 1.84021E+10-1.29771E+08 8.96024E+08-2.65651E+00
 -1       133 5.76899E+10 2.07496E+05 2.19222E+10-1.35451E+08 6.64782E+08-2.07426E+00
 -1       134 6.72931E+10 1.36571E+05 2.55714E+10-1.39460E+08 4.37782E+08-1.53891E+00
 -1       135 7.71200E+10 6.71885E+04 2.93056E+10-1.41830E+08 2.15726E+08-1.03108E+00
 -1       136 8.70573E+10-4.11686E+02 3.30818E+10-1.42599E+08-6.64028E+05-5.57803E-01
 -1       137 9.69944E+10-6.60109E+04 3.68579E+10-1.41812E+08-2.10660E+08-1.30229E-01
 -1       138 1.06824E+11-1.29400E+05 4.05932E+10-1.39518E+08-4.13533E+08 2.56180E-01
 -1       139 1.16444E+11-1.90352E+05 4.42485E+10-1.35772E+08-6.08563E+08 6.27894E-01
 -1       140 1.25753E+11-2.48611E+05 4.77859E+10-1.30633E+08-7.95043E+08 9.91857E-01
 -1       141 1.34656E+11-3.03990E+05 5.11692E+10-1.24167E+08-9.72293E+08 1.34923E+00
 -1       142 1.43064E+11-3.56272E+05 5.43640E+10-1.16442E+08-1.13966E+09 1.68742E+00
 -1       143 1.50890E+11-4.05212E+05 5.73381E+10-1.07534E+08-1.29652E+09 1.91050E+00
 -1       144 1.58055E+11-4.50654E+05 6.00607E+10-9.75216E+07-1.44231E+09 1.89572E+00
 -1       145 1.64484E+11-4.92501E+05 6.25039E+10-8.64870E+07-1.57650E+09 1.64117E+00
 -1       146 1.70110E+11-5.30595E+05 6.46414E+10-7.45169E+07-1.69862E+09 1.21159E+00
 -1       147 1.74868E+11-5.64823E+05 6.64497E+10-6.17010E+07-1.80826E+09 6.59814E-01
 -1       148 1.78704E+11-5.95128E+05 6.79074E+10-4.81318E+07-1.90506E+09 9.70159E-02
 -1       149 1.81569E+11-6.21335E+05 6.89958E+10-3.39038E+07-1.98875E+09-3.18402E-01
 -1       150 1.83418E+11-6.43362E+05 6.96987E+10-1.91137E+07-2.05912E+09-5.74137E-01
 -1       151 1.84218E+11-6.61156E+05 7.00025E+10-3.85939E+06-2.11602E+09-7.72961E-01
 -1       152 1.83937E+11-6.74789E+05 6.98960E+10 1.17605E+07-2.15941E+09-9.24329E-01
 -1       153 1.82555E+11-6.84177E+05 6.93708E+10 2.76476E+07-2.18930E+09-9.21930E-01
 -1       154 1.80057E+11-6.89398E+05 6.84213E+10 4.37033E+07-2.20580E+09-7.32998E-01
 -1       155 1.76432E+11-6.90437E+05 6.70441E+10 5.98307E+07-2.20909E+09-4.66529E-01
 -1       156 1.71681E+11-6.87417E+05 6.52386E+10 7.59341E+07-2.19943E+09-1.91341E-01
 -1       157 1.65808E+11-6.80451E+05 6.30067E+10 9.19203E+07-2.17718E+09 5.56774E-02
 -1       158 1.58824E+11-6.69702E+05 6.03528E+10 1.07699E+08-2.14276E+09 2.90110E-01
 -1       159 1.50746E+11-6.55328E+05 5.72834E+10 1.23182E+08-2.09669E+09 5.65015E-01
 -1       160 1.41599E+11-6.37458E+05 5.38074E+10 1.38288E+08-2.03956E+09 8.74700E-01
 -1       161 1.31411E+11-6.16324E+05 4.99361E+10 1.52938E+08-1.97204E+09 1.13984E+00
 -1       162 1.20217E+11-5.92135E+05 4.56824E+10 1.67058E+08-1.89488E+09 1.25399E+00
 -1       163 1.08057E+11-5.65175E+05 4.10613E+10 1.80581E+08-1.80891E+09 1.15026E+00
 -1       164 9.49728E+10-5.35796E+05 3.60895E+10 1.93447E+08-1.71501E+09 8.67325E-01
 -1       165 8.10139E+10-5.04256E+05 3.07851E+10 2.05600E+08-1.61414E+09 5.35411E-01
 -1       166 6.62314E+10-4.70900E+05 2.51677E+10 2.16993E+08-1.50734E+09 2.32879E-01
 -1       167 5.06796E+10-4.36018E+05 1.92581E+10 2.27587E+08-1.39568E+09-4.22307E-02
 -1       168 3.44156E+10-3.99951E+05 1.30778E+10 2.37350E+08-1.28030E+09-3.25169E-01
 -1       169 1.74982E+10-3.63103E+05 6.64919E+09 2.46260E+08-1.16241E+09-6.35710E-01
 -1       170-1.24400E+07-3.25865E+05-4.85104E+06 2.54303E+08-1.04323E+09-9.54425E-01
 -1       171-1.80556E+10-2.88627E+05-6.86125E+09 2.61474E+08-9.24068E+08-1.27066E+00
 -1       172-3.65705E+10-2.51827E+05-1.38969E+10 2.67777E+08-8.06235E+08-1.57282E+00
 -1       173-5.54971E+10-2.15883E+05-2.10890E+10 2.73228E+08-6.91092E+08-1.80268E+00
 -1       174-7.47766E+10-1.81210E+05-2.84152E+10 2.77850E+08-5.80030E+08-1.93124E+00
 -1       175-9.43524E+10-1.48255E+05-3.58540E+10 2.81680E+08-4.74464E+08-1.98577E+00
 -1       176-1.14171E+11-1.17462E+05-4.33849E+10 2.84761E+08-3.75830E+08-1.97547E+00
 -1       177-1.34181E+11-8.92917E+04-5.09888E+10 2.87150E+08-2.85584E+08-1.89639E+00
 -1       178-1.54338E+11-6.42017E+04-5.86484E+10 2.88914E+08-2.05196E+08-1.74291E+00
 -1       179-1.74600E+11-4.26550E+04-6.63478E+10 2.90129E+08-1.36144E+08-1.51642E+00
 -1       180-1.94931E+11-2.51118E+04-7.40739E+10 2.90884E+08-7.99168E+07-1.22308E+00
 -1       181-2.15305E+11-1.20395E+04-8.18158E+10 2.91277E+08-3.80075E+07-8.70693E-01
 -1       182-2.35698E+11-3.90824E+03-8.95653E+10 2.91419E+08-1.19119E+07-4.62804E-01
 -1       183-2.45898E+11-1.14142E+03-9.34411E+10 2.91436E+08-3.00478E+06-2.57131E-03
 -1       184 2.56105E+08 9.21513E+05 9.76701E+07-1.48308E+05-2.94884E+09-4.86698E+00
 -1       185 1.00353E+09 8.83249E+05 3.81676E+08-2.16500E+07-2.82647E+09-4.87412E+00
 -1       186 3.18850E+09 8.06786E+05 1.21194E+09-4.13667E+07-2.58179E+09-4.90206E+00
 -1       187 6.69133E+09 7.30454E+05 2.54298E+09-5.92997E+07-2.33737E+09-4.89985E+00
 -1       188 1.13873E+10 6.54277E+05 4.32741E+09-7.54519E+07-2.09345E+09-4.78828E+00
 -1       189 1.71518E+10 5.78382E+05 6.51790E+09-8.98276E+07-1.85038E+09-4.52245E+00
 -1       190 2.38609E+10 5.02841E+05 9.06732E+09-1.02434E+08-1.60858E+09-4.18967E+00
 -1       191 3.13911E+10 4.27890E+05 1.19288E+10-1.13283E+08-1.36855E+09-3.78450E+00
 -1       192 3.96199E+10 3.53623E+05 1.50557E+10-1.22389E+08-1.13083E+09-3.24976E+00
 -1       193 4.84262E+10 2.80255E+05 1.84021E+10-1.29771E+08-8.96024E+08-2.65752E+00
 -1       194 5.76899E+10 2.07998E+05 2.19222E+10-1.35451E+08-6.64782E+08-2.07525E+00
 -1       195 6.72931E+10 1.37043E+05 2.55714E+10-1.39460E+08-4.37782E+08-1.53935E+00
 -1       196 7.71200E+10 6.76457E+04 2.93056E+10-1.41830E+08-2.15726E+08-1.03151E+00
 -1       197 8.70573E+10 3.12984E+00 3.30818E+10-1.42599E+08 6.63931E+05-5.58320E-01
 -1       198 9.69944E+10-6.56480E+04 3.68579E+10-1.41812E+08 2.10660E+08-1.30533E-01
 -1       199 1.06824E+11-1.29050E+05 4.05932E+10-1.39518E+08 4.13533E+08 2.56268E-01
 -1       200 1.16444E+11-1.90014E+05 4.42485E+10-1.35772E+08 6.08563E+08 6.27714E-01
 -1       201 1.25753E+11-2.48274E+05 4.77859E+10-1.30633E+08 7.95043E+08 9.91218E-01
 -1       202 1.34656E+11-3.03663E+05 5.11692E+10-1.24167E+08 9.72293E+08 1.34877E+00
 -1       203 1.43064E+11-3.56009E+05 5.43640E+10-1.16442E+08 1.13966E+09 1.68706E+00
 -1       204 1.50890E+11-4.05096E+05 5.73381E+10-1.07535E+08 1.29652E+09 1.90994E+00
 -1       205 1.58055E+11-4.50761E+05 6.00607E+10-9.75219E+07 1.44231E+09 1.89499E+00
 -1       206 1.64484E+11-4.92794E+05 6.25039E+10-8.64872E+07 1.57650E+09 1.64063E+00
 -1       207 1.70110E+11-5.31024E+05 6.46414E+10-7.45170E+07 1.69862E+09 1.21116E+00
 -1       208 1.74868E+11-5.65299E+05 6.64497E+10-6.17010E+07 1.80826E+09 6.59097E-01
 -1       209 1.78704E+11-5.95527E+05 6.79074E+10-4.81316E+07 1.90506E+09 9.61317E-02
 -1       210 1.81569E+11-6.21618E+05 6.89958E+10-3.39037E+07 1.98875E+09-3.18881E-01
 -1       211 1.83418E+11-6.43558E+05 6.96987E+10-1.91136E+07 2.05912E+09-5.74675E-01
 -1       212 1.84218E+11-6.61315E+05 7.00025E+10-3.85934E+06 2.11602E+09-7.73567E-01
 -1       213 1.83937E+11-6.74834E+05 6.98960E+10 1.17607E+07 2.15941E+09-9.24788E-01
 -1       214 1.82555E+11-6.84118E+05 6.93708E+10 2.76477E+07 2.18931E+09-9.22374E-01
 -1       215 1.80057E+11-6.89195E+05 6.84213E+10 4.37034E+07 2.20580E+09-7.33358E-01
 -1       216 1.76432E+11-6.90208E+05 6.70441E+10 5.98307E+07 2.20909E+09-4.66639E-01
 -1       217 1.71681E+11-6.87198E+05 6.52386E+10 7.59340E+07 2.19943E+09-1.91436E-01
 -1       218 1.65808E+11-6.80259E+05 6.30067E+10 9.19202E+07 2.17718E+09 5.50879E-02
 -1       219 1.58824E+11-6.69497E+05 6.03528E+10 1.07699E+08 2.14276E+09 2.89294E-01
 -1       220 1.50746E+11-6.55091E+05 5.72834E+10 1.23182E+08 2.09669E+09 5.64324E-01
 -1       221 1.41599E+11-6.37239E+05 5.38074E+10 1.38288E+08 2.03956E+09 8.74151E-01
 -1       222 1.31411E+11-6.16177E+05 4.99361E+10 1.52937E+08 1.97204E+09 1.13901E+00
 -1       223 1.20217E+11-5.92147E+05 4.56824E+10 1.67058E+08 1.89488E+09 1.25303E+00
 -1       224 1.08057E+11-5.65376E+05 4.10613E+10 1.80581E+08 1.80891E+09 1.14938E+00
 -1       225 9.49728E+10-5.36061E+05 3.60895E+10 1.93447E+08 1.71501E+09 8.66580E-01
 -1       226 8.10139E+10-5.04560E+05 3.07851E+10 2.05600E+08 1.61414E+09 5.35176E-01
 -1       227 6.62314E+10-4.71167E+05 2.51677E+10 2.16993E+08 1.50734E+09 2.32824E-01
 -1       228 5.06796E+10-4.36264E+05 1.92581E+10 2.27587E+08 1.39568E+09-4.25444E-02
 -1       229 3.44156E+10-4.00220E+05 1.30778E+10 2.37350E+08 1.28030E+09-3.25596E-01
 -1       230 1.74982E+10-3.63383E+05 6.64919E+09 2.46260E+08 1.16241E+09-6.35867E-01
 -1       231-1.24405E+07-3.26145E+05-4.85132E+06 2.54303E+08 1.04323E+09-9.54576E-01
 -1       232-1.80556E+10-2.88898E+05-6.86125E+09 2.61474E+08 9.24069E+08-1.27106E+00
 -1       233-3.65705E+10-2.52063E+05-1.38969E+10 2.67777E+08 8.06236E+08-1.57310E+00
 -1       234-5.54971E+10-2.16046E+05-2.10890E+10 2.73228E+08 6.91093E+08-1.80271E+00
 -1       235-7.47766E+10-1.81302E+05-2.84152E+10 2.77850E+08 5.80031E+08-1.93136E+00
 -1       236-9.43524E+10-1.48279E+05-3.58540E+10 2.81680E+08 4.74464E+08-1.98593E+00
 -1       237-1.14171E+11-1.17426E+05-4.33849E+10 2.84761E+08 3.75830E+08-1.97544E+00
 -1       238-1.34181E+11-8.91964E+04-5.09888E+10 2.87150E+08 2.85585E+08-1.89617E+00
 -1       239-1.54338E+11-6.40428E+04-5.86484E+10 2.88914E+08 2.05196E+08-1.74259E+00
 -1       240-1.74600E+11-4.24324E+04-6.63478E+10 2.90129E+08 1.36144E+08-1.51617E+00
 -1       241-1.94931E+11-2.48358E+04-7.40739E+10 2.90884E+08 7.99169E+07-1.22298E+00
 -1       242-2.15305E+11-1.17150E+04-8.18158E+10 2.91277E+08 3.80075E+07-8.70740E-01
 -1       243-2.35698E+11-3.53516E+03-8.95653E+10 2.91419E+08 1.19119E+07-4.62918E-01
 -1       244-2.45898E+11-7.41918E+02-9.34411E+10 2.91435E+08 3.00478E+06-2.71387E-03
 -3
    1PSTEP                         7           1           1          
    1PGM                1.000000E+00                                  
    1PGK                2.723864E+05                                  
    1PHID                         -1                                  
    1PSUBC                         0                                  
    1PMODE                         2                                  
  100CL  102 83.06400286         244                     2    2MODAL      1
 -4  TOSTRAIN    6    1
 -5  EXX         1    4    1    1
 -5  EYY         1    4    2    2
 -5  EZZ         1    4    3    3
 -5  EXY         1    4    1    2
 -5  EYZ         1    4    2    3
 -5  EZX         1    4    3    1
 -1         1-4.55027E-02 2.77863E-02 1.31491E-10-4.25908E-05 8.46910E-01 1.43227E-09
 -1         2-1.78596E-01 1.09364E-01 2.83318E-10-6.21790E-03 8.11764E-01 1.43366E-09
 -1         3-5.67671E-01 3.47837E-01-4.57995E-11-1.18806E-02 7.41493E-01 1.43891E-09
 -1         4-1.19141E+00 7.30137E-01-7.34002E-10-1.70310E-02 6.71295E-01 1.43239E-09
 -1         5-2.02760E+00 1.24265E+00-5.44216E-10-2.16699E-02 6.01241E-01 1.39117E-09
 -1         6-3.05406E+00 1.87178E+00-5.15493E-10-2.57986E-02 5.31431E-01 1.30410E-09
 -1         7-4.24872E+00 2.60400E+00-8.63231E-10-2.94193E-02 4.61987E-01 1.19901E-09
 -1         8-5.58959E+00 3.42583E+00-7.24887E-10-3.25351E-02 3.93049E-01 1.07450E-09
 -1         9-7.05487E+00 4.32391E+00-3.20861E-10-3.51502E-02 3.24775E-01 9.11930E-10
 -1        10-8.62295E+00 5.28500E+00-2.33172E-10-3.72702E-02 2.57339E-01 7.31420E-10
 -1        11-1.02725E+01 6.29602E+00-5.38661E-10-3.89017E-02 1.90926E-01 5.54507E-10
 -1        12-1.19825E+01 7.34410E+00-3.45068E-10-4.00530E-02 1.25731E-01 3.90918E-10
 -1        13-1.37323E+01 8.41658E+00-4.74898E-10-4.07335E-02 6.19567E-02 2.34467E-10
 -1        14-1.55018E+01 9.50111E+00-6.05029E-10-4.09545E-02-1.90709E-04 8.84044E-11
 -1        15-1.72713E+01 1.05856E+01-2.07557E-10-4.07285E-02-6.05017E-02-4.54882E-11
 -1        16-1.90216E+01 1.16584E+01-4.81578E-10-4.00698E-02-1.18767E-01-1.67602E-10
 -1        17-2.07345E+01 1.27083E+01-5.89406E-10-3.89938E-02-1.74780E-01-2.83338E-10
 -1        18-2.23921E+01 1.37242E+01-4.52391E-10-3.75180E-02-2.28337E-01-3.95755E-10
 -1        19-2.39775E+01 1.46959E+01-4.95211E-10-3.56608E-02-2.79243E-01-5.06098E-10
 -1        20-2.54746E+01 1.56135E+01-3.20590E-10-3.34423E-02-3.27311E-01-6.11656E-10
 -1        21-2.68682E+01 1.64677E+01-3.44374E-10-3.08839E-02-3.72362E-01-6.84619E-10
 -1        22-2.81440E+01 1.72496E+01-4.37828E-10-2.80083E-02-4.14234E-01-6.89185E-10
 -1        23-2.92889E+01 1.79513E+01-3.44638E-10-2.48391E-02-4.52773E-01-6.24056E-10
 -1        24-3.02905E+01 1.85652E+01-2.37243E-10-2.14013E-02-4.87846E-01-5.05926E-10
 -1        25-3.11379E+01 1.90846E+01-8.54420E-11-1.77206E-02-5.19333E-01-3.49780E-10
 -1        26-3.18210E+01 1.95032E+01-9.50388E-11-1.38235E-02-5.47135E-01-1.90449E-10
 -1        27-3.23310E+01 1.98158E+01-4.37090E-10-9.73721E-03-5.71171E-01-7.55600E-11
 -1        28-3.26604E+01 2.00177E+01-5.87906E-10-5.48946E-03-5.91380E-01-7.92421E-12
 -1        29-3.28027E+01 2.01050E+01-4.38582E-10-1.10842E-03-6.07723E-01 4.28405E-11
 -1        30-3.27528E+01 2.00744E+01-3.28852E-10 3.37763E-03-6.20185E-01 8.03541E-11
 -1        31-3.25067E+01 1.99236E+01-2.49113E-10 7.94040E-03-6.28770E-01 7.55956E-11
 -1        32-3.20618E+01 1.96508E+01-1.02721E-10 1.25516E-02-6.33508E-01 2.01946E-11
 -1        33-3.14164E+01 1.92553E+01 7.89517E-11 1.71834E-02-6.34452E-01-5.52924E-11
 -1        34-3.05704E+01 1.87368E+01 8.58188E-12 2.18083E-02-6.31679E-01-1.32532E-10
 -1        35-2.95246E+01 1.80958E+01 2.45131E-10 2.63996E-02-6.25287E-01-1.99343E-10
 -1        36-2.82809E+01 1.73336E+01 7.22022E-10 3.09311E-02-6.15402E-01-2.57945E-10
 -1        37-2.68426E+01 1.64520E+01 1.03568E-09 3.53780E-02-6.02171E-01-3.24122E-10
 -1        38-2.52139E+01 1.54537E+01 1.14604E-09 3.97164E-02-5.85763E-01-3.96894E-10
 -1        39-2.33998E+01 1.43419E+01 7.89005E-10 4.39238E-02-5.66372E-01-4.55550E-10
 -1        40-2.14065E+01 1.31202E+01 5.11501E-10 4.79792E-02-5.44212E-01-4.73344E-10
 -1        41-1.92411E+01 1.17930E+01 4.93567E-10 5.18631E-02-5.19520E-01-4.31996E-10
 -1        42-1.69113E+01 1.03651E+01 4.13809E-10 5.55580E-02-4.92552E-01-3.41698E-10
 -1        43-1.44258E+01 8.84165E+00 3.32228E-10 5.90484E-02-4.63583E-01-2.38890E-10
 -1        44-1.17935E+01 7.22833E+00 5.24359E-10 6.23205E-02-4.32908E-01-1.43932E-10
 -1        45-9.02428E+00 5.53106E+00 6.40471E-10 6.53631E-02-4.00839E-01-5.55502E-11
 -1        46-6.12824E+00 3.75606E+00 3.94232E-10 6.81672E-02-3.67704E-01 3.46627E-11
 -1        47-3.11585E+00 1.90976E+00 3.40370E-10 7.07262E-02-3.33844E-01 1.31552E-10
 -1        48 2.17956E-03-1.29963E-03 4.71737E-10 7.30361E-02-2.99618E-01 2.29612E-10
 -1        49 3.21504E+00-1.97047E+00 3.81141E-10 7.50955E-02-2.65393E-01 3.25567E-10
 -1        50 6.51189E+00-3.99113E+00 2.72007E-10 7.69058E-02-2.31551E-01 4.16999E-10
 -1        51 9.88204E+00-6.05671E+00 3.37660E-10 7.84713E-02-1.98482E-01 4.87159E-10
 -1        52 1.33150E+01-8.16081E+00 2.35631E-10 7.97989E-02-1.66585E-01 5.27001E-10
 -1        53 1.68008E+01-1.02972E+01 5.36712E-11 8.08986E-02-1.36266E-01 5.45546E-10
 -1        54 2.03297E+01-1.24601E+01 8.35848E-11 8.17836E-02-1.07939E-01 5.46006E-10
 -1        55 2.38929E+01-1.46440E+01 1.25043E-10 8.24698E-02-8.20200E-02 5.26572E-10
 -1        56 2.74821E+01-1.68438E+01 1.67860E-10 8.29763E-02-5.89323E-02 4.85424E-10
 -1        57 3.10900E+01-1.90551E+01 1.49409E-10 8.33252E-02-3.91006E-02 4.23336E-10
 -1        58 3.47104E+01-2.12741E+01 1.64503E-10 8.35420E-02-2.29522E-02 3.42153E-10
 -1        59 3.83381E+01-2.34976E+01 1.86484E-10 8.36550E-02-1.09158E-02 2.43942E-10
 -1        60 4.19695E+01-2.57232E+01 1.75047E-10 8.36957E-02-3.42111E-03 1.29864E-10
 -1        61 4.37856E+01-2.68364E+01 1.93930E-10 8.37007E-02-8.62976E-04-7.34752E-13
 -1        62-4.55026E-02 2.77863E-02-1.31491E-10-4.25940E-05-8.46909E-01 1.43219E-09
 -1        63-1.78596E-01 1.09364E-01-2.83318E-10-6.21790E-03-8.11763E-01 1.43362E-09
 -1        64-5.67671E-01 3.47837E-01 4.57995E-11-1.18806E-02-7.41493E-01 1.43885E-09
 -1        65-1.19141E+00 7.30137E-01 7.34002E-10-1.70309E-02-6.71294E-01 1.43233E-09
 -1        66-2.02760E+00 1.24265E+00 5.44216E-10-2.16698E-02-6.01241E-01 1.39114E-09
 -1        67-3.05406E+00 1.87178E+00 5.15493E-10-2.57985E-02-5.31431E-01 1.30408E-09
 -1        68-4.24872E+00 2.60400E+00 8.63231E-10-2.94192E-02-4.61987E-01 1.19901E-09
 -1        69-5.58959E+00 3.42583E+00 7.24887E-10-3.25350E-02-3.93048E-01 1.07448E-09
 -1        70-7.05487E+00 4.32391E+00 3.20861E-10-3.51502E-02-3.24775E-01 9.11796E-10
 -1        71-8.62295E+00 5.28500E+00 2.33172E-10-3.72702E-02-2.57339E-01 7.31130E-10
 -1        72-1.02725E+01 6.29602E+00 5.38661E-10-3.89018E-02-1.90926E-01 5.54223E-10
 -1        73-1.19825E+01 7.34410E+00 3.45068E-10-4.00530E-02-1.25731E-01 3.90792E-10
 -1        74-1.37323E+01 8.41658E+00 4.74898E-10-4.07336E-02-6.19568E-02 2.34343E-10
 -1        75-1.55018E+01 9.50111E+00 6.05029E-10-4.09545E-02 1.90681E-04 8.82559E-11
 -1        76-1.72713E+01 1.05856E+01 2.07557E-10-4.07286E-02 6.05016E-02-4.55754E-11
 -1        77-1.90216E+01 1.16584E+01 4.81578E-10-4.00698E-02 1.18767E-01-1.67577E-10
 -1        78-2.07345E+01 1.27083E+01 5.89406E-10-3.89938E-02 1.74780E-01-2.83390E-10
 -1        79-2.23921E+01 1.37242E+01 4.52391E-10-3.75180E-02 2.28337E-01-3.95939E-10
 -1        80-2.39775E+01 1.46959E+01 4.95211E-10-3.56608E-02 2.79243E-01-5.06228E-10
 -1        81-2.54746E+01 1.56135E+01 3.20590E-10-3.34424E-02 3.27311E-01-6.11758E-10
 -1        82-2.68682E+01 1.64677E+01 3.44374E-10-3.08840E-02 3.72363E-01-6.84781E-10
 -1        83-2.81440E+01 1.72496E+01 4.37828E-10-2.80084E-02 4.14234E-01-6.89394E-10
 -1        84-2.92889E+01 1.79513E+01 3.44638E-10-2.48392E-02 4.52773E-01-6.24210E-10
 -1        85-3.02905E+01 1.85652E+01 2.37243E-10-2.14013E-02 4.87846E-01-5.06050E-10
 -1        86-3.11379E+01 1.90846E+01 8.54420E-11-1.77206E-02 5.19333E-01-3.49986E-10
 -1        87-3.18210E+01 1.95032E+01 9.50388E-11-1.38234E-02 5.47135E-01-1.90703E-10
 -1        88-3.23310E+01 1.98158E+01 4.37090E-10-9.73716E-03 5.71171E-01-7.56977E-11
 -1        89-3.26604E+01 2.00177E+01 5.87906E-10-5.48945E-03 5.91380E-01-8.07859E-12
 -1        90-3.28027E+01 2.01050E+01 4.38582E-10-1.10841E-03 6.07724E-01 4.26667E-11
 -1        91-3.27528E+01 2.00744E+01 3.28852E-10 3.37767E-03 6.20185E-01 8.02223E-11
 -1        92-3.25067E+01 1.99236E+01 2.49113E-10 7.94045E-03 6.28770E-01 7.54680E-11
 -1        93-3.20618E+01 1.96508E+01 1.02721E-10 1.25517E-02 6.33509E-01 2.00912E-11
 -1        94-3.14164E+01 1.92553E+01-7.89517E-11 1.71834E-02 6.34453E-01-5.53240E-11
 -1        95-3.05704E+01 1.87368E+01-8.58188E-12 2.18083E-02 6.31679E-01-1.32559E-10
 -1        96-2.95246E+01 1.80958E+01-2.45131E-10 2.63996E-02 6.25287E-01-1.99512E-10
 -1        97-2.82809E+01 1.73336E+01-7.22022E-10 3.09311E-02 6.15402E-01-2.58180E-10
 -1        98-2.68426E+01 1.64520E+01-1.03568E-09 3.53780E-02 6.02171E-01-3.24321E-10
 -1        99-2.52139E+01 1.54537E+01-1.14604E-09 3.97164E-02 5.85763E-01-3.97052E-10
 -1       100-2.33998E+01 1.43419E+01-7.89005E-10 4.39238E-02 5.66372E-01-4.55790E-10
 -1       101-2.14065E+01 1.31202E+01-5.11501E-10 4.79791E-02 5.44212E-01-4.73620E-10
 -1       102-1.92411E+01 1.17930E+01-4.93567E-10 5.18630E-02 5.19520E-01-4.32248E-10
 -1       103-1.69113E+01 1.03651E+01-4.13809E-10 5.55580E-02 4.92552E-01-3.41912E-10
 -1       104-1.44258E+01 8.84165E+00-3.32228E-10 5.90484E-02 4.63583E-01-2.38957E-10
 -1       105-1.17935E+01 7.22833E+00-5.24359E-10 6.23205E-02 4.32909E-01-1.43948E-10
 -1       106-9.02428E+00 5.53106E+00-6.40471E-10 6.53631E-02 4.00840E-01-5.56404E-11
 -1       107-6.12824E+00 3.75606E+00-3.94232E-10 6.81672E-02 3.67704E-01 3.45400E-11
 -1       108-3.11585E+00 1.90976E+00-3.40370E-10 7.07262E-02 3.33844E-01 1.31507E-10
 -1       109 2.17962E-03-1.29963E-03-4.71737E-10 7.30361E-02 2.99618E-01 2.29569E-10
 -1       110 3.21504E+00-1.97047E+00-3.81141E-10 7.50955E-02 2.65393E-01 3.25450E-10
 -1       111 6.51189E+00-3.99113E+00-2.72007E-10 7.69059E-02 2.31552E-01 4.16918E-10
 -1       112 9.88204E+00-6.05671E+00-3.37660E-10 7.84713E-02 1.98482E-01 4.87150E-10
 -1       113 1.33150E+01-8.16081E+00-2.35631E-10 7.97989E-02 1.66585E-01 5.26968E-10
 -1       114 1.68008E+01-1.02972E+01-5.36712E-11 8.08987E-02 1.36266E-01 5.45500E-10
 -1       115 2.03297E+01-1.24601E+01-8.35848E-11 8.17836E-02 1.07939E-01 5.46014E-10
 -1       116 2.38929E+01-1.46440E+01-1.25043E-10 8.24698E-02 8.20201E-02 5.26637E-10
 -1       117 2.74821E+01-1.68438E+01-1.67860E-10 8.29763E-02 5.89324E-02 4.85515E-10
 -1       118 3.10900E+01-1.90551E+01-1.49409E-10 8.33253E-02 3.91007E-02 4.23407E-10
 -1       119 3.47104E+01-2.12741E+01-1.64503E-10 8.35420E-02 2.29522E-02 3.42181E-10
 -1       120 3.83381E+01-2.34976E+01-1.86484E-10 8.36550E-02 1.09158E-02 2.43929E-10
 -1       121 4.19695E+01-2.57232E+01-1.75047E-10 8.36957E-02 3.42112E-03 1.29831E-10
 -1       122 4.37856E+01-2.68364E+01-1.93930E-10 8.37002E-02 8.62976E-04-7.75696E-13
 -1       123 4.55027E-02-2.77863E-02 1.31491E-10-4.25904E-05 8.46910E-01-1.39773E-09
 -1       124 1.78596E-01-1.09364E-01 2.83318E-10-6.21790E-03 8.11764E-01-1.39981E-09
 -1       125 5.67671E-01-3.47837E-01-4.57995E-11-1.18806E-02 7.41493E-01-1.40782E-09
 -1       126 1.19141E+00-7.30137E-01-7.34002E-10-1.70310E-02 6.71295E-01-1.40717E-09
 -1       127 2.02760E+00-1.24265E+00-5.44216E-10-2.16699E-02 6.01241E-01-1.37517E-09
 -1       128 3.05406E+00-1.87178E+00-5.15493E-10-2.57986E-02 5.31431E-01-1.29883E-09
 -1       129 4.24872E+00-2.60400E+00-8.63231E-10-2.94193E-02 4.61987E-01-1.20328E-09
 -1       130 5.58959E+00-3.42583E+00-7.24887E-10-3.25351E-02 3.93049E-01-1.08690E-09
 -1       131 7.05487E+00-4.32391E+00-3.20861E-10-3.51502E-02 3.24775E-01-9.33199E-10
 -1       132 8.62295E+00-5.28500E+00-2.33172E-10-3.72702E-02 2.57339E-01-7.62951E-10
 -1       133 1.02725E+01-6.29602E+00-5.38661E-10-3.89017E-02 1.90926E-01-5.95729E-10
 -1       134 1.19825E+01-7.34410E+00-3.45068E-10-4.00530E-02 1.25731E-01-4.41977E-10
 -1       135 1.37323E+01-8.41658E+00-4.74898E-10-4.07335E-02 6.19567E-02-2.96127E-10
 -1       136 1.55018E+01-9.50111E+00-6.05029E-10-4.09545E-02-1.90709E-04-1.60201E-10
 -1       137 1.72713E+01-1.05856E+01-2.07557E-10-4.07285E-02-6.05017E-02-3.74020E-11
 -1       138 1.90216E+01-1.16584E+01-4.81578E-10-4.00698E-02-1.18767E-01 7.35752E-11
 -1       139 2.07345E+01-1.27083E+01-5.89406E-10-3.89938E-02-1.74780E-01 1.80332E-10
 -1       140 2.23921E+01-1.37242E+01-4.52391E-10-3.75180E-02-2.28337E-01 2.84862E-10
 -1       141 2.39775E+01-1.46959E+01-4.95211E-10-3.56608E-02-2.79243E-01 3.87500E-10
 -1       142 2.54746E+01-1.56135E+01-3.20590E-10-3.34423E-02-3.27311E-01 4.84628E-10
 -1       143 2.68682E+01-1.64677E+01-3.44374E-10-3.08839E-02-3.72362E-01 5.48698E-10
 -1       144 2.81440E+01-1.72496E+01-4.37828E-10-2.80083E-02-4.14234E-01 5.44451E-10
 -1       145 2.92889E+01-1.79513E+01-3.44638E-10-2.48391E-02-4.52773E-01 4.71344E-10
 -1       146 3.02905E+01-1.85652E+01-2.37243E-10-2.14013E-02-4.87846E-01 3.47969E-10
 -1       147 3.11379E+01-1.90846E+01-8.54420E-11-1.77206E-02-5.19333E-01 1.89499E-10
 -1       148 3.18210E+01-1.95032E+01-9.50388E-11-1.38235E-02-5.47135E-01 2.78630E-11
 -1       149 3.23310E+01-1.98158E+01-4.37090E-10-9.73721E-03-5.71171E-01-9.14452E-11
 -1       150 3.26604E+01-2.00177E+01-5.87906E-10-5.48946E-03-5.91380E-01-1.64893E-10
 -1       151 3.28027E+01-2.01050E+01-4.38582E-10-1.10842E-03-6.07723E-01-2.21995E-10
 -1       152 3.27528E+01-2.00744E+01-3.28852E-10 3.37763E-03-6.20185E-01-2.65468E-10
 -1       153 3.25067E+01-1.99236E+01-2.49113E-10 7.94040E-03-6.28770E-01-2.64779E-10
 -1       154 3.20618E+01-1.96508E+01-1.02721E-10 1.25516E-02-6.33508E-01-2.10518E-10
 -1       155 3.14164E+01-1.92553E+01 7.89517E-11 1.71834E-02-6.34452E-01-1.33988E-10
 -1       156 3.05704E+01-1.87368E+01 8.58188E-12 2.18083E-02-6.31679E-01-5.49534E-11
 -1       157 2.95246E+01-1.80958E+01 2.45131E-10 2.63996E-02-6.25287E-01 1.59906E-11
 -1       158 2.82809E+01-1.73336E+01 7.22022E-10 3.09311E-02-6.15402E-01 8.33199E-11
 -1       159 2.68426E+01-1.64520E+01 1.03568E-09 3.53780E-02-6.02171E-01 1.62273E-10
 -1       160 2.52139E+01-1.54537E+01 1.14604E-09 3.97164E-02-5.85763E-01 2.51215E-10
 -1       161 2.33998E+01-1.43419E+01 7.89005E-10 4.39238E-02-5.66372E-01 3.27364E-10
 -1       162 2.14065E+01-1.31202E+01 5.11501E-10 4.79792E-02-5.44212E-01 3.60147E-10
 -1       163 1.92411E+01-1.17930E+01 4.93567E-10 5.18631E-02-5.19520E-01 3.30354E-10
 -1       164 1.69113E+01-1.03651E+01 4.13809E-10 5.55580E-02-4.92552E-01 2.49096E-10
 -1       165 1.44258E+01-8.84165E+00 3.32228E-10 5.90484E-02-4.63583E-01 1.53771E-10
 -1       166 1.17935E+01-7.22833E+00 5.24359E-10 6.23205E-02-4.32908E-01 6.68831E-11
 -1       167 9.02428E+00-5.53106E+00 6.40471E-10 6.53631E-02-4.00839E-01-1.21287E-11
 -1       168 6.12824E+00-3.75606E+00 3.94232E-10 6.81672E-02-3.67704E-01-9.33889E-11
 -1       169 3.11585E+00-1.90976E+00 3.40370E-10 7.07262E-02-3.33844E-01-1.82576E-10
 -1       170-2.17957E-03 1.29963E-03 4.71737E-10 7.30361E-02-2.99618E-01-2.74112E-10
 -1       171-3.21504E+00 1.97047E+00 3.81141E-10 7.50955E-02-2.65393E-01-3.64933E-10
 -1       172-6.51189E+00 3.99113E+00 2.72007E-10 7.69058E-02-2.31551E-01-4.51716E-10
 -1       173-9.88204E+00 6.05671E+00 3.37660E-10 7.84713E-02-1.98482E-01-5.17731E-10
 -1       174-1.33150E+01 8.16081E+00 2.35631E-10 7.97989E-02-1.66585E-01-5.54655E-10
 -1       175-1.68008E+01 1.02972E+01 5.36712E-11 8.08986E-02-1.36266E-01-5.70315E-10
 -1       176-2.03297E+01 1.24601E+01 8.35848E-11 8.17836E-02-1.07939E-01-5.67356E-10
 -1       177-2.38929E+01 1.46440E+01 1.25043E-10 8.24698E-02-8.20200E-02-5.44646E-10
 -1       178-2.74821E+01 1.68438E+01 1.67860E-10 8.29763E-02-5.89323E-02-5.00564E-10
 -1       179-3.10900E+01 1.90551E+01 1.49409E-10 8.33252E-02-3.91006E-02-4.35516E-10
 -1       180-3.47104E+01 2.12741E+01 1.64503E-10 8.35420E-02-2.29522E-02-3.51268E-10
 -1       181-3.83381E+01 2.34976E+01 1.86484E-10 8.36550E-02-1.09158E-02-2.50064E-10
 -1       182-4.19695E+01 2.57232E+01 1.75047E-10 8.36957E-02-3.42111E-03-1.32918E-10
 -1       183-4.37856E+01 2.68364E+01 1.93930E-10 8.37007E-02-8.62976E-04-7.38482E-13
 -1       184 4.55026E-02-2.77863E-02-1.31491E-10-4.25943E-05-8.46909E-01-1.39780E-09
 -1       185 1.78596E-01-1.09364E-01-2.83318E-10-6.21790E-03-8.11763E-01-1.39985E-09
 -1       186 5.67671E-01-3.47837E-01 4.57995E-11-1.18806E-02-7.41493E-01-1.40788E-09
 -1       187 1.19141E+00-7.30137E-01 7.34002E-10-1.70309E-02-6.71294E-01-1.40724E-09
 -1       188 2.02760E+00-1.24265E+00 5.44216E-10-2.16698E-02-6.01241E-01-1.37520E-09
 -1       189 3.05406E+00-1.87178E+00 5.15493E-10-2.57985E-02-5.31431E-01-1.29885E-09
 -1       190 4.24872E+00-2.60400E+00 8.63231E-10-2.94192E-02-4.61987E-01-1.20328E-09
 -1       191 5.58959E+00-3.42583E+00 7.24887E-10-3.25350E-02-3.93048E-01-1.08691E-09
 -1       192 7.05487E+00-4.32391E+00 3.20861E-10-3.51502E-02-3.24775E-01-9.33334E-10
 -1       193 8.62295E+00-5.28500E+00 2.33172E-10-3.72702E-02-2.57339E-01-7.63241E-10
 -1       194 1.02725E+01-6.29602E+00 5.38661E-10-3.89018E-02-1.90926E-01-5.96013E-10
 -1       195 1.19825E+01-7.34410E+00 3.45068E-10-4.00530E-02-1.25731E-01-4.42103E-10
 -1       196 1.37323E+01-8.41658E+00 4.74898E-10-4.07336E-02-6.19568E-02-2.96252E-10
 -1       197 1.55018E+01-9.50111E+00 6.05029E-10-4.09545E-02 1.90681E-04-1.60350E-10
 -1       198 1.72713E+01-1.05856E+01 2.07557E-10-4.07286E-02 6.05016E-02-3.74892E-11
 -1       199 1.90216E+01-1.16584E+01 4.81578E-10-4.00698E-02 1.18767E-01 7.36004E-11
 -1       200 2.07345E+01-1.27083E+01 5.89406E-10-3.89938E-02 1.74780E-01 1.80280E-10
 -1       201 2.23921E+01-1.37242E+01 4.52391E-10-3.75180E-02 2.28337E-01 2.84679E-10
 -1       202 2.39775E+01-1.46959E+01 4.95211E-10-3.56608E-02 2.79243E-01 3.87369E-10
 -1       203 2.54746E+01-1.56135E+01 3.20590E-10-3.34424E-02 3.27311E-01 4.84526E-10
 -1       204 2.68682E+01-1.64677E+01 3.44374E-10-3.08840E-02 3.72363E-01 5.48536E-10
 -1       205 2.81440E+01-1.72496E+01 4.37828E-10-2.80084E-02 4.14234E-01 5.44243E-10
 -1       206 2.92889E+01-1.79513E+01 3.44638E-10-2.48392E-02 4.52773E-01 4.71191E-10
 -1       207 3.02905E+01-1.85652E+01 2.37243E-10-2.14013E-02 4.87846E-01 3.47845E-10
 -1       208 3.11379E+01-1.90846E+01 8.54420E-11-1.77206E-02 5.19333E-01 1.89293E-10
 -1       209 3.18210E+01-1.95032E+01 9.50388E-11-1.38234E-02 5.47135E-01 2.76091E-11
 -1       210 3.23310E+01-1.98158E+01 4.37090E-10-9.73716E-03 5.71171E-01-9.15830E-11
 -1       211 3.26604E+01-2.00177E+01 5.87906E-10-5.48945E-03 5.91380E-01-1.65047E-10
 -1       212 3.28027E+01-2.01050E+01 4.38582E-10-1.10841E-03 6.07724E-01-2.22169E-10
 -1       213 3.27528E+01-2.00744E+01 3.28852E-10 3.37767E-03 6.20185E-01-2.65600E-10
 -1       214 3.25067E+01-1.99236E+01 2.49113E-10 7.94045E-03 6.28770E-01-2.64907E-10
 -1       215 3.20618E+01-1.96508E+01 1.02721E-10 1.25517E-02 6.33509E-01-2.10621E-10
 -1       216 3.14164E+01-1.92553E+01-7.89517E-11 1.71834E-02 6.34453E-01-1.34019E-10
 -1       217 3.05704E+01-1.87368E+01-8.58188E-12 2.18083E-02 6.31679E-01-5.49805E-11
 -1       218 2.95246E+01-1.80958E+01-2.45131E-10 2.63996E-02 6.25287E-01 1.58213E-11
 -1       219 2.82809E+01-1.73336E+01-7.22022E-10 3.09311E-02 6.15402E-01 8.30854E-11
 -1       220 2.68426E+01-1.64520E+01-1.03568E-09 3.53780E-02 6.02171E-01 1.62074E-10
 -1       221 2.52139E+01-1.54537E+01-1.14604E-09 3.97164E-02 5.85763E-01 2.51057E-10
 -1       222 2.33998E+01-1.43419E+01-7.89005E-10 4.39238E-02 5.66372E-01 3.27124E-10
 -1       223 2.14065E+01-1.31202E+01-5.11501E-10 4.79791E-02 5.44212E-01 3.59871E-10
 -1       224 1.92411E+01-1.17930E+01-4.93567E-10 5.18630E-02 5.19520E-01 3.30103E-10
 -1       225 1.69113E+01-1.03651E+01-4.13809E-10 5.55580E-02 4.92552E-01 2.48882E-10
 -1       226 1.44258E+01-8.84165E+00-3.32228E-10 5.90484E-02 4.63583E-01 1.53703E-10
 -1       227 1.17935E+01-7.22833E+00-5.24359E-10 6.23205E-02 4.32909E-01 6.68671E-11
 -1       228 9.02428E+00-5.53106E+00-6.40471E-10 6.53631E-02 4.00840E-01-1.22188E-11
 -1       229 6.12824E+00-3.75606E+00-3.94232E-10 6.81672E-02 3.67704E-01-9.35115E-11
 -1       230 3.11585E+00-1.90976E+00-3.40370E-10 7.07262E-02 3.33844E-01-1.82622E-10
 -1       231-2.17962E-03 1.29963E-03-4.71737E-10 7.30361E-02 2.99618E-01-2.74155E-10
 -1       232-3.21504E+00 1.97047E+00-3.81141E-10 7.50955E-02 2.65393E-01-3.65051E-10
 -1       233-6.51189E+00 3.99113E+00-2.72007E-10 7.69059E-02 2.31552E-01-4.51797E-10
 -1       234-9.88204E+00 6.05671E+00-3.37660E-10 7.84713E-02 1.98482E-01-5.17739E-10
 -1       235-1.33150E+01 8.16081E+00-2.35631E-10 7.97989E-02 1.66585E-01-5.54687E-10
 -1       236-1.68008E+01 1.02972E+01-5.36712E-11 8.08987E-02 1.36266E-01-5.70361E-10
 -1       237-2.03297E+01 1.24601E+01-8.35848E-11 8.17836E-02 1.07939E-01-5.67347E-10
 -1       238-2.38929E+01 1.46440E+01-1.25043E-10 8.24698E-02 8.20201E-02-5.44581E-10
 -1       239-2.74821E+01 1.68438E+01-1.67860E-10 8.29763E-02 5.89324E-02-5.00473E-10
 -1       240-3.10900E+01 1.90551E+01-1.49409E-10 8.33253E-02 3.91007E-02-4.35445E-10
 -1       241-3.47104E+01 2.12741E+01-1.64503E-10 8.35420E-02 2.29522E-02-3.51241E-10
 -1       242-3.83381E+01 2.34976E+01-1.86484E-10 8.36550E-02 1.09158E-02-2.50077E-10
 -1       243-4.19695E+01 2.57232E+01-1.75047E-10 8.36957E-02 3.42112E-03-1.32950E-10
 -1       244-4.37856E+01 2.68364E+01-1.93930E-10 8.37002E-02 8.62976E-04-7.79425E-13
 -3
    1PSTEP                         8           1           1          
    1PGM                1.000000E+00                                  
    1PGK                2.723864E+05                                  
    1PHID                         -1                                  
    1PSUBC                         0                                  
    1PMODE                         2                                  
  100CL  102 83.06400286         244                     2    2MODAL      1
 -4  ERROR       1    1
 -5  STR(%)      1    1    0    0
 -1         1 9.97824E-01
 -1         2 1.24306E+01
 -1         3 6.92838E+01
 -1         4 1.03875E+02
 -1         5 1.15033E+02
 -1         6 1.18962E+02
 -1         7 1.20449E+02
 -1         8 1.21055E+02
 -1         9 1.21315E+02
 -1        10 1.21431E+02
 -1        11 1.21482E+02
 -1        12 1.21503E+02
 -1        13 1.21510E+02
 -1        14 1.21510E+02
 -1        15 1.21510E+02
 -1        16 1.21508E+02
 -1        17 1.21503E+02
 -1        18 1.21499E+02
 -1        19 1.21494E+02
 -1        20 1.21490E+02
 -1        21 1.21486E+02
 -1        22 1.21483E+02
 -1        23 1.21479E+02
 -1        24 1.21476E+02
 -1        25 1.21474E+02
 -1        26 1.21471E+02
 -1        27 1.21469E+02
 -1        28 1.21466E+02
 -1        29 1.21464E+02
 -1        30 1.21462E+02
 -1        31 1.21460E+02
 -1        32 1.21458E+02
 -1        33 1.21455E+02
 -1        34 1.21453E+02
 -1        35 1.21450E+02
 -1        36 1.21446E+02
 -1        37 1.21442E+02
 -1        38 1.21438E+02
 -1        39 1.21432E+02
 -1        40 1.21424E+02
 -1        41 1.21414E+02
 -1        42 1.21400E+02
 -1        43 1.21378E+02
 -1        44 1.21344E+02
 -1        45 1.21281E+02
 -1        46 1.21140E+02
 -1        47 1.20684E+02
 -1        48 1.17066E+02
 -1        49 1.21106E+02
 -1        50 1.21401E+02
 -1        51 1.21470E+02
 -1        52 1.21494E+02
 -1        53 1.21503E+02
 -1        54 1.21507E+02
 -1        55 1.21509E+02
 -1        56 1.21510E+02
 -1        57 1.21511E+02
 -1        58 1.21511E+02
 -1        59 1.21511E+02
 -1        60 1.21511E+02
 -1        61 1.21511E+02
 -1        62 9.97824E-01
 -1        63 1.24306E+01
 -1        64 6.92838E+01
 -1        65 1.03875E+02
 -1        66 1.15033E+02
 -1        67 1.18962E+02
 -1        68 1.20449E+02
 -1        69 1.21055E+02
 -1        70 1.21315E+02
 -1        71 1.21431E+02
 -1        72 1.21482E+02
 -1        73 1.21503E+02
 -1        74 1.21510E+02
 -1        75 1.21510E+02
 -1        76 1.21510E+02
 -1        77 1.21508E+02
 -1        78 1.21503E+02
 -1        79 1.21499E+02
 -1        80 1.21494E+02
 -1        81 1.21490E+02
 -1        82 1.21486E+02
 -1        83 1.21483E+02
 -1        84 1.21479E+02
 -1        85 1.21476E+02
 -1        86 1.21474E+02
 -1        87 1.21471E+02
 -1        88 1.21469E+02
 -1        89 1.21466E+02
 -1        90 1.21464E+02
 -1        91 1.21462E+02
 -1        92 1.21460E+02
 -1        93 1.21458E+02
 -1        94 1.21455E+02
 -1        95 1.21453E+02
 -1        96 1.21450E+02
 -1        97 1.21446E+02
 -1        98 1.21442E+02
 -1        99 1.21438E+02
 -1       100 1.21432E+02
 -1       101 1.21424E+02
 -1       102 1.21414E+02
 -1       103 1.21400E+02
 -1       104 1.21378E+02
 -1       105 1.21344E+02
 -1       106 1.21281E+02
 -1       107 1.21140E+02
 -1       108 1.20684E+02
 -1       109 1.17066E+02
 -1       110 1.21106E+02
 -1       111 1.21401E+02
 -1       112 1.21470E+02
 -1       113 1.21494E+02
 -1       114 1.21503E+02
 -1       115 1.21507E+02
 -1       116 1.21509E+02
 -1       117 1.21510E+02
 -1       118 1.21511E+02
 -1       119 1.21511E+02
 -1       120 1.21511E+02
 -1       121 1.21511E+02
 -1       122 1.21511E+02
 -1       123 9.97824E-01
 -1       124 1.24306E+01
 -1       125 6.92838E+01
 -1       126 1.03875E+02
 -1       127 1.15033E+02
 -1       128 1.18962E+02
 -1       129 1.20449E+02
 -1       130 1.21055E+02
 -1       131 1.21315E+02
 -1       132 1.21431E+02
 -1       133 1.21482E+02
 -1       134 1.21503E+02
 -1       135 1.21510E+02
 -1       136 1.21510E+02
 -1       137 1.21510E+02
 -1       138 1.21508E+02
 -1       139 1.21503E+02
 -1       140 1.21499E+02
 -1       141 1.21494E+02
 -1       142 1.21490E+02
 -1       143 1.21486E+02
 -1       144 1.21483E+02
 -1       145 1.21479E+02
 -1       146 1.21476E+02
 -1       147 1.21474E+02
 -1       148 1.21471E+02
 -1       149 1.21469E+02
 -1       150 1.21466E+02
 -1       151 1.21464E+02
 -1       152 1.21462E+02
 -1       153 1.21460E+02
 -1       154 1.21458E+02
 -1       155 1.21455E+02
 -1       156 1.21453E+02
 -1       157 1.21450E+02
 -1       158 1.21446E+02
 -1       159 1.21442E+02
 -1       160 1.21438E+02
 -1       161 1.21432E+02
 -1       162 1.21424E+02
 -1       163 1.21414E+02
 -1       164 1.21400E+02
 -1       165 1.21378E+02
 -1       166 1.21344E+02
 -1       167 1.21281E+02
 -1       168 1.21140E+02
 -1       169 1.20684E+02
 -1       170 1.17066E+02
 -1       171 1.21106E+02
 -1       172 1.21401E+02
 -1       173 1.21470E+02
 -1       174 1.21494E+02
 -1       175 1.21503E+02
 -1       176 1.21507E+02
 -1       177 1.21509E+02
 -1       178 1.21510E+02
 -1       179 1.21511E+02
 -1       180 1.21511E+02
 -1       181 1.21511E+02
 -1       182 1.21511E+02
 -1       183 1.21511E+02
 -1       184 9.97824E-01
 -1       185 1.24306E+01
 -1       186 6.92838E+01
 -1       187 1.03875E+02
 -1       188 1.15033E+02
 -1       189 1.18962E+02
 -1       190 1.20449E+02
 -1       191 1.21055E+02
 -1       192 1.21315E+02
 -1       193 1.21431E+02
 -1       194 1.21482E+02
 -1       195 1.21503E+02
 -1       196 1.21510E+02
 -1       197 1.21510E+02
 -1       198 1.21510E+02
 -1       199 1.21508E+02
 -1       200 1.21503E+02
 -1       201 1.21499E+02
 -1       202 1.21494E+02
 -1       203 1.21490E+02
 -1       204 1.21486E+02
 -1       205 1.21483E+02
 -1       206 1.21479E+02
 -1       207 1.21476E+02
 -1       208 1.21474E+02
 -1       209 1.21471E+02
 -1       210 1.21469E+02
 -1       211 1.21466E+02
 -1       212 1.21464E+02
 -1       213 1.21462E+02
 -1       214 1.21460E+02
 -1       215 1.21458E+02
 -1       216 1.21455E+02
 -1       217 1.21453E+02
 -1       218 1.21450E+02
 -1       219 1.21446E+02
 -1       220 1.21442E+02
 -1       221 1.21438E+02
 -1       222 1.21432E+02
 -1       223 1.21424E+02
 -1       224 1.21414E+02
 -1       225 1.21400E+02
 -1       226 1.21378E+02
 -1       227 1.21344E+02
 -1       228 1.21281E+02
 -1       229 1.21140E+02
 -1       230 1.20684E+02
 -1       231 1.17066E+02
 -1       232 1.21106E+02
 -1       233 1.21401E+02
 -1       234 1.21470E+02
 -1       235 1.21494E+02
 -1       236 1.21503E+02
 -1       237 1.21507E+02
 -1       238 1.21509E+02
 -1       239 1.21510E+02
 -1       240 1.21511E+02
 -1       241 1.21511E+02
 -1       242 1.21511E+02
 -1       243 1.21511E+02
 -1       244 1.21511E+02
 -3
    1PSTEP                         9           1           1          
    1PGM                1.000000E+00                                  
    1PGK                2.130937E+06                                  
    1PHID                         -1                                  
    1PSUBC                         0                                  
    1PMODE                         3                                  
  100CL  103 232.3300906         244                     2    3MODAL      1
 -4  DISP        4    1
 -5  D1          1    2    1    0
 -5  D2          1    2    2    0
 -5  D3          1    2    3    0
 -5  ALL         1    2    0    0    1ALL
 -1         1 5.66962E-01 1.01054E+02 0.00000E+00
 -1         2 5.66757E-01 8.78274E+01 0.00000E+00
 -1         3 5.65375E-01 7.46188E+01 0.00000E+00
 -1         4 5.61792E-01 6.14680E+01 0.00000E+00
 -1         5 5.55149E-01 4.84364E+01 0.00000E+00
 -1         6 5.44755E-01 3.56037E+01 0.00000E+00
 -1         7 5.30078E-01 2.30635E+01 0.00000E+00
 -1         8 5.10750E-01 1.09200E+01 0.00000E+00
 -1         9 4.86556E-01-7.15785E-01 0.00000E+00
 -1        10 4.57431E-01-1.17295E+01 0.00000E+00
 -1        11 4.23454E-01-2.20070E+01 0.00000E+00
 -1        12 3.84839E-01-3.14375E+01 0.00000E+00
 -1        13 3.41921E-01-3.99168E+01 0.00000E+00
 -1        14 2.95150E-01-4.73496E+01 0.00000E+00
 -1        15 2.45077E-01-5.36526E+01 0.00000E+00
 -1        16 1.92339E-01-5.87560E+01 0.00000E+00
 -1        17 1.37645E-01-6.26060E+01 0.00000E+00
 -1        18 8.17585E-02-6.51658E+01 0.00000E+00
 -1        19 2.54866E-02-6.64170E+01 0.00000E+00
 -1        20-3.03417E-02-6.63604E+01 0.00000E+00
 -1        21-8.48895E-02-6.50159E+01 0.00000E+00
 -1        22-1.37328E-01-6.24232E+01 0.00000E+00
 -1        23-1.86854E-01-5.86408E+01 0.00000E+00
 -1        24-2.32704E-01-5.37456E+01 0.00000E+00
 -1        25-2.74169E-01-4.78317E+01 0.00000E+00
 -1        26-3.10610E-01-4.10089E+01 0.00000E+00
 -1        27-3.41466E-01-3.34009E+01 0.00000E+00
 -1        28-3.66267E-01-2.51435E+01 0.00000E+00
 -1        29-3.84646E-01-1.63823E+01 0.00000E+00
 -1        30-3.96339E-01-7.27031E+00 0.00000E+00
 -1        31-4.01198E-01 2.03489E+00 0.00000E+00
 -1        32-3.99190E-01 1.13733E+01 0.00000E+00
 -1        33-3.90399E-01 2.05857E+01 0.00000E+00
 -1        34-3.75027E-01 2.95162E+01 0.00000E+00
 -1        35-3.53390E-01 3.80149E+01 0.00000E+00
 -1        36-3.25914E-01 4.59406E+01 0.00000E+00
 -1        37-2.93127E-01 5.31631E+01 0.00000E+00
 -1        38-2.55654E-01 5.95660E+01 0.00000E+00
 -1        39-2.14208E-01 6.50480E+01 0.00000E+00
 -1        40-1.69572E-01 6.95257E+01 0.00000E+00
 -1        41-1.22596E-01 7.29344E+01 0.00000E+00
 -1        42-7.41769E-02 7.52302E+01 0.00000E+00
 -1        43-2.52501E-02 7.63903E+01 0.00000E+00
 -1        44 2.32289E-02 7.64138E+01 0.00000E+00
 -1        45 7.02971E-02 7.53225E+01 0.00000E+00
 -1        46 1.14997E-01 7.31606E+01 0.00000E+00
 -1        47 1.56393E-01 6.99941E+01 0.00000E+00
 -1        48 1.93583E-01 6.59107E+01 0.00000E+00
 -1        49 2.25710E-01 6.10186E+01 0.00000E+00
 -1        50 2.51973E-01 5.54452E+01 0.00000E+00
 -1        51 2.71638E-01 4.93359E+01 0.00000E+00
 -1        52 2.84044E-01 4.28524E+01 0.00000E+00
 -1        53 2.88611E-01 3.61709E+01 0.00000E+00
 -1        54 2.84840E-01 2.94801E+01 0.00000E+00
 -1        55 2.72317E-01 2.29793E+01 0.00000E+00
 -1        56 2.50712E-01 1.68767E+01 0.00000E+00
 -1        57 2.19773E-01 1.13872E+01 0.00000E+00
 -1        58 1.79322E-01 6.73049E+00 0.00000E+00
 -1        59 1.29244E-01 3.12999E+00 0.00000E+00
 -1        60 6.94788E-02 8.11053E-01 0.00000E+00
 -1        61 0.00000E+00 0.00000E+00 0.00000E+00
 -1        62 5.66962E-01 1.01054E+02 0.00000E+00
 -1        63 5.66757E-01 8.78274E+01 0.00000E+00
 -1        64 5.65375E-01 7.46188E+01 0.00000E+00
 -1        65 5.61792E-01 6.14680E+01 0.00000E+00
 -1        66 5.55149E-01 4.84364E+01 0.00000E+00
 -1        67 5.44755E-01 3.56037E+01 0.00000E+00
 -1        68 5.30078E-01 2.30635E+01 0.00000E+00
 -1        69 5.10750E-01 1.09200E+01 0.00000E+00
 -1        70 4.86556E-01-7.15785E-01 0.00000E+00
 -1        71 4.57431E-01-1.17295E+01 0.00000E+00
 -1        72 4.23454E-01-2.20070E+01 0.00000E+00
 -1        73 3.84839E-01-3.14375E+01 0.00000E+00
 -1        74 3.41921E-01-3.99168E+01 0.00000E+00
 -1        75 2.95150E-01-4.73496E+01 0.00000E+00
 -1        76 2.45077E-01-5.36526E+01 0.00000E+00
 -1        77 1.92339E-01-5.87560E+01 0.00000E+00
 -1        78 1.37645E-01-6.26060E+01 0.00000E+00
 -1        79 8.17585E-02-6.51658E+01 0.00000E+00
 -1        80 2.54866E-02-6.64170E+01 0.00000E+00
 -1        81-3.03417E-02-6.63604E+01 0.00000E+00
 -1        82-8.48895E-02-6.50159E+01 0.00000E+00
 -1        83-1.37328E-01-6.24232E+01 0.00000E+00
 -1        84-1.86854E-01-5.86408E+01 0.00000E+00
 -1        85-2.32704E-01-5.37456E+01 0.00000E+00
 -1        86-2.74169E-01-4.78317E+01 0.00000E+00
 -1        87-3.10610E-01-4.10089E+01 0.00000E+00
 -1        88-3.41466E-01-3.34009E+01 0.00000E+00
 -1        89-3.66267E-01-2.51435E+01 0.00000E+00
 -1        90-3.84646E-01-1.63823E+01 0.00000E+00
 -1        91-3.96339E-01-7.27031E+00 0.00000E+00
 -1        92-4.01198E-01 2.03489E+00 0.00000E+00
 -1        93-3.99190E-01 1.13733E+01 0.00000E+00
 -1        94-3.90399E-01 2.05857E+01 0.00000E+00
 -1        95-3.75027E-01 2.95162E+01 0.00000E+00
 -1        96-3.53390E-01 3.80149E+01 0.00000E+00
 -1        97-3.25914E-01 4.59406E+01 0.00000E+00
 -1        98-2.93127E-01 5.31631E+01 0.00000E+00
 -1        99-2.55654E-01 5.95660E+01 0.00000E+00
 -1       100-2.14208E-01 6.50480E+01 0.00000E+00
 -1       101-1.69572E-01 6.95257E+01 0.00000E+00
 -1       102-1.22596E-01 7.29344E+01 0.00000E+00
 -1       103-7.41769E-02 7.52302E+01 0.00000E+00
 -1       104-2.52501E-02 7.63903E+01 0.00000E+00
 -1       105 2.32289E-02 7.64138E+01 0.00000E+00
 -1       106 7.02971E-02 7.53225E+01 0.00000E+00
 -1       107 1.14997E-01 7.31606E+01 0.00000E+00
 -1       108 1.56393E-01 6.99941E+01 0.00000E+00
 -1       109 1.93583E-01 6.59107E+01 0.00000E+00
 -1       110 2.25710E-01 6.10186E+01 0.00000E+00
 -1       111 2.51973E-01 5.54452E+01 0.00000E+00
 -1       112 2.71638E-01 4.93359E+01 0.00000E+00
 -1       113 2.84044E-01 4.28524E+01 0.00000E+00
 -1       114 2.88611E-01 3.61709E+01 0.00000E+00
 -1       115 2.84840E-01 2.94801E+01 0.00000E+00
 -1       116 2.72317E-01 2.29793E+01 0.00000E+00
 -1       117 2.50712E-01 1.68767E+01 0.00000E+00
 -1       118 2.19773E-01 1.13872E+01 0.00000E+00
 -1       119 1.79322E-01 6.73049E+00 0.00000E+00
 -1       120 1.29244E-01 3.12999E+00 0.00000E+00
 -1       121 6.94788E-02 8.11053E-01 0.00000E+00
 -1       122 0.00000E+00 0.00000E+00 0.00000E+00
 -1       123-5.66962E-01 1.01054E+02 0.00000E+00
 -1       124-5.66757E-01 8.78274E+01 0.00000E+00
 -1       125-5.65375E-01 7.46188E+01 0.00000E+00
 -1       126-5.61792E-01 6.14680E+01 0.00000E+00
 -1       127-5.55149E-01 4.84364E+01 0.00000E+00
 -1       128-5.44755E-01 3.56037E+01 0.00000E+00
 -1       129-5.30078E-01 2.30635E+01 0.00000E+00
 -1       130-5.10750E-01 1.09200E+01 0.00000E+00
 -1       131-4.86556E-01-7.15785E-01 0.00000E+00
 -1       132-4.57431E-01-1.17295E+01 0.00000E+00
 -1       133-4.23454E-01-2.20070E+01 0.00000E+00
 -1       134-3.84839E-01-3.14375E+01 0.00000E+00
 -1       135-3.41921E-01-3.99168E+01 0.00000E+00
 -1       136-2.95150E-01-4.73496E+01 0.00000E+00
 -1       137-2.45077E-01-5.36526E+01 0.00000E+00
 -1       138-1.92339E-01-5.87560E+01 0.00000E+00
 -1       139-1.37645E-01-6.26060E+01 0.00000E+00
 -1       140-8.17585E-02-6.51658E+01 0.00000E+00
 -1       141-2.54866E-02-6.64170E+01 0.00000E+00
 -1       142 3.03417E-02-6.63604E+01 0.00000E+00
 -1       143 8.48895E-02-6.50159E+01 0.00000E+00
 -1       144 1.37328E-01-6.24232E+01 0.00000E+00
 -1       145 1.86854E-01-5.86408E+01 0.00000E+00
 -1       146 2.32704E-01-5.37456E+01 0.00000E+00
 -1       147 2.74169E-01-4.78317E+01 0.00000E+00
 -1       148 3.10610E-01-4.10089E+01 0.00000E+00
 -1       149 3.41466E-01-3.34009E+01 0.00000E+00
 -1       150 3.66267E-01-2.51435E+01 0.00000E+00
 -1       151 3.84646E-01-1.63823E+01 0.00000E+00
 -1       152 3.96339E-01-7.27031E+00 0.00000E+00
 -1       153 4.01198E-01 2.03489E+00 0.00000E+00
 -1       154 3.99190E-01 1.13733E+01 0.00000E+00
 -1       155 3.90399E-01 2.05857E+01 0.00000E+00
 -1       156 3.75027E-01 2.95162E+01 0.00000E+00
 -1       157 3.53390E-01 3.80149E+01 0.00000E+00
 -1       158 3.25914E-01 4.59406E+01 0.00000E+00
 -1       159 2.93127E-01 5.31631E+01 0.00000E+00
 -1       160 2.55654E-01 5.95660E+01 0.00000E+00
 -1       161 2.14208E-01 6.50480E+01 0.00000E+00
 -1       162 1.69572E-01 6.95257E+01 0.00000E+00
 -1       163 1.22596E-01 7.29344E+01 0.00000E+00
 -1       164 7.41769E-02 7.52302E+01 0.00000E+00
 -1       165 2.52501E-02 7.63903E+01 0.00000E+00
 -1       166-2.32289E-02 7.64138E+01 0.00000E+00
 -1       167-7.02971E-02 7.53225E+01 0.00000E+00
 -1       168-1.14997E-01 7.31606E+01 0.00000E+00
 -1       169-1.56393E-01 6.99941E+01 0.00000E+00
 -1       170-1.93583E-01 6.59107E+01 0.00000E+00
 -1       171-2.25710E-01 6.10186E+01 0.00000E+00
 -1       172-2.51973E-01 5.54452E+01 0.00000E+00
 -1       173-2.71638E-01 4.93359E+01 0.00000E+00
 -1       174-2.84044E-01 4.28524E+01 0.00000E+00
 -1       175-2.88611E-01 3.61709E+01 0.00000E+00
 -1       176-2.84840E-01 2.94801E+01 0.00000E+00
 -1       177-2.72317E-01 2.29793E+01 0.00000E+00
 -1       178-2.50712E-01 1.68767E+01 0.00000E+00
 -1       179-2.19773E-01 1.13872E+01 0.00000E+00
 -1       180-1.79322E-01 6.73049E+00 0.00000E+00
 -1       181-1.29244E-01 3.12999E+00 0.00000E+00
 -1       182-6.94788E-02 8.11053E-01 0.00000E+00
 -1       183 0.00000E+00 0.00000E+00 0.00000E+00
 -1       184-5.66962E-01 1.01054E+02 0.00000E+00
 -1       185-5.66757E-01 8.78274E+01 0.00000E+00
 -1       186-5.65375E-01 7.46188E+01 0.00000E+00
 -1       187-5.61792E-01 6.14680E+01 0.00000E+00
 -1       188-5.55149E-01 4.84364E+01 0.00000E+00
 -1       189-5.44755E-01 3.56037E+01 0.00000E+00
 -1       190-5.30078E-01 2.30635E+01 0.00000E+00
 -1       191-5.10750E-01 1.09200E+01 0.00000E+00
 -1       192-4.86556E-01-7.15785E-01 0.00000E+00
 -1       193-4.57431E-01-1.17295E+01 0.00000E+00
 -1       194-4.23454E-01-2.20070E+01 0.00000E+00
 -1       195-3.84839E-01-3.14375E+01 0.00000E+00
 -1       196-3.41921E-01-3.99168E+01 0.00000E+00
 -1       197-2.95150E-01-4.73496E+01 0.00000E+00
 -1       198-2.45077E-01-5.36526E+01 0.00000E+00
 -1       199-1.92339E-01-5.87560E+01 0.00000E+00
 -1       200-1.37645E-01-6.26060E+01 0.00000E+00
 -1       201-8.17585E-02-6.51658E+01 0.00000E+00
 -1       202-2.54866E-02-6.64170E+01 0.00000E+00
 -1       203 3.03417E-02-6.63604E+01 0.00000E+00
 -1       204 8.48895E-02-6.50159E+01 0.00000E+00
 -1       205 1.37328E-01-6.24232E+01 0.00000E+00
 -1       206 1.86854E-01-5.86408E+01 0.00000E+00
 -1       207 2.32704E-01-5.37456E+01 0.00000E+00
 -1       208 2.74169E-01-4.78317E+01 0.00000E+00
 -1       209 3.10610E-01-4.10089E+01 0.00000E+00
 -1       210 3.41466E-01-3.34009E+01 0.00000E+00
 -1       211 3.66267E-01-2.51435E+01 0.00000E+00
 -1       212 3.84646E-01-1.63823E+01 0.00000E+00
 -1       213 3.96339E-01-7.27031E+00 0.00000E+00
 -1       214 4.01198E-01 2.03489E+00 0.00000E+00
 -1       215 3.99190E-01 1.13733E+01 0.00000E+00
 -1       216 3.90399E-01 2.05857E+01 0.00000E+00
 -1       217 3.75027E-01 2.95162E+01 0.00000E+00
 -1       218 3.53390E-01 3.80149E+01 0.00000E+00
 -1       219 3.25914E-01 4.59406E+01 0.00000E+00
 -1       220 2.93127E-01 5.31631E+01 0.00000E+00
 -1       221 2.55654E-01 5.95660E+01 0.00000E+00
 -1       222 2.14208E-01 6.50480E+01 0.00000E+00
 -1       223 1.69572E-01 6.95257E+01 0.00000E+00
 -1       224 1.22596E-01 7.29344E+01 0.00000E+00
 -1       225 7.41769E-02 7.52302E+01 0.00000E+00
 -1       226 2.52501E-02 7.63903E+01 0.00000E+00
 -1       227-2.32289E-02 7.64138E+01 0.00000E+00
 -1       228-7.02971E-02 7.53225E+01 0.00000E+00
 -1       229-1.14997E-01 7.31606E+01 0.00000E+00
 -1       230-1.56393E-01 6.99941E+01 0.00000E+00
 -1       231-1.93583E-01 6.59107E+01 0.00000E+00
 -1       232-2.25710E-01 6.10186E+01 0.00000E+00
 -1       233-2.51973E-01 5.54452E+01 0.00000E+00
 -1       234-2.71638E-01 4.93359E+01 0.00000E+00
 -1       235-2.84044E-01 4.28524E+01 0.00000E+00
 -1       236-2.88611E-01 3.61709E+01 0.00000E+00
 -1       237-2.84840E-01 2.94801E+01 0.00000E+00
 -1       238-2.72317E-01 2.29793E+01 0.00000E+00
 -1       239-2.50712E-01 1.68767E+01 0.00000E+00
 -1       240-2.19773E-01 1.13872E+01 0.00000E+00
 -1       241-1.79322E-01 6.73049E+00 0.00000E+00
 -1       242-1.29244E-01 3.12999E+00 0.00000E+00
 -1       243-6.94788E-02 8.11053E-01 0.00000E+00
 -1       244 0.00000E+00 0.00000E+00 0.00000E+00
 -3
    1PSTEP                        10           1           1          
    1PGM                1.000000E+00                                  
    1PGK                2.130937E+06                                  
    1PHID                         -1                                  
    1PSUBC                         0                                  
    1PMODE                         3                                  
  100CL  103 232.3300906         244                     2    3MODAL      1
 -4  STRESS      6    1
 -5  SXX         1    4    1    1
 -5  SYY         1    4    2    2
 -5  SZZ         1    4    3    3
 -5  SXY         1    4    1    2
 -5  SYZ         1    4    2    3
 -5  SZX         1    4    3    1
 -1         1 1.97787E+09 7.01864E+06 7.54256E+08 1.90168E+06-2.24600E+10-3.32174E+00
 -1         2 7.64338E+09 6.52737E+06 2.90697E+09 1.65670E+08-2.08880E+10-3.32528E+00
 -1         3 2.39043E+10 5.54622E+06 9.08575E+09 3.06506E+08-1.77483E+10-3.34000E+00
 -1         4 4.92253E+10 4.56964E+06 1.87073E+10 4.24473E+08-1.46232E+10-3.32291E+00
 -1         5 8.20117E+10 3.60207E+06 3.11658E+10 5.19719E+08-1.15271E+10-3.20978E+00
 -1         6 1.20684E+11 2.64949E+06 4.58609E+10 5.92514E+08-8.47891E+09-2.97817E+00
 -1         7 1.63687E+11 1.71882E+06 6.22016E+10 6.43281E+08-5.50069E+09-2.69984E+00
 -1         8 2.09501E+11 8.17710E+05 7.96108E+10 6.72616E+08-2.61709E+09-2.41052E+00
 -1         9 2.56657E+11-4.56466E+04 9.75297E+10 6.81300E+08 1.45632E+08-2.08975E+00
 -1        10 3.03745E+11-8.62752E+05 1.15423E+11 6.70313E+08 2.76042E+09-1.76585E+00
 -1        11 3.49431E+11-1.62518E+06 1.32783E+11 6.40833E+08 5.20025E+09-1.43815E+00
 -1        12 3.92471E+11-2.32473E+06 1.49138E+11 5.94234E+08 7.43891E+09-1.12622E+00
 -1        13 4.31724E+11-2.95370E+06 1.64054E+11 5.32079E+08 9.45170E+09-8.54453E-01
 -1        14 4.66162E+11-3.50507E+06 1.77140E+11 4.56100E+08 1.12161E+10-5.88917E-01
 -1        15 4.94887E+11-3.97262E+06 1.88056E+11 3.68190E+08 1.27123E+10-3.28574E-01
 -1        16 5.17136E+11-4.35125E+06 1.96510E+11 2.70373E+08 1.39239E+10-8.80000E-02
 -1        17 5.32290E+11-4.63695E+06 2.02268E+11 1.64779E+08 1.48381E+10 2.17799E-01
 -1        18 5.39882E+11-4.82700E+06 2.05153E+11 5.36204E+07 1.54461E+10 6.26210E-01
 -1        19 5.39604E+11-4.92007E+06 2.05048E+11-6.08454E+07 1.57437E+10 1.13464E+00
 -1        20 5.31303E+11-4.91608E+06 2.01893E+11-1.76344E+08 1.57310E+10 1.72231E+00
 -1        21 5.14985E+11-4.81657E+06 1.95693E+11-2.90620E+08 1.54128E+10 2.21306E+00
 -1        22 4.90813E+11-4.62447E+06 1.86507E+11-4.01467E+08 1.47985E+10 2.40388E+00
 -1        23 4.59099E+11-4.34420E+06 1.74456E+11-5.06767E+08 1.39021E+10 2.28089E+00
 -1        24 4.20300E+11-3.98149E+06 1.59713E+11-6.04519E+08 1.27416E+10 1.92799E+00
 -1        25 3.75008E+11-3.54329E+06 1.42502E+11-6.92869E+08 1.13395E+10 1.40586E+00
 -1        26 3.23936E+11-3.03774E+06 1.23095E+11-7.70142E+08 9.72177E+09 8.20766E-01
 -1        27 2.67911E+11-2.47404E+06 1.01805E+11-8.34866E+08 7.91778E+09 2.94798E-01
 -1        28 2.07850E+11-1.86220E+06 7.89822E+10-8.85793E+08 5.95975E+09-1.55786E-01
 -1        29 1.44752E+11-1.21301E+06 5.50054E+10-9.21921E+08 3.88220E+09-5.79423E-01
 -1        30 7.96764E+10-5.37752E+05 3.02768E+10-9.42508E+08 1.72140E+09-9.84720E-01
 -1        31 1.37239E+10 1.51786E+05 5.21513E+09-9.47080E+08-4.85253E+08-1.36659E+00
 -1        32-5.19806E+10 8.43823E+05-1.97523E+10-9.35441E+08-2.69983E+09-1.71766E+00
 -1        33-1.16308E+11 1.52652E+06-4.41965E+10-9.07672E+08-4.88458E+09-2.03326E+00
 -1        34-1.78145E+11 2.18835E+06-6.76944E+10-8.64129E+08-7.00252E+09-2.31237E+00
 -1        35-2.36413E+11 2.81821E+06-8.98357E+10-8.05431E+08-9.01812E+09-2.54724E+00
 -1        36-2.90082E+11 3.40558E+06-1.10230E+11-7.32454E+08-1.08979E+10-2.74521E+00
 -1        37-3.38197E+11 3.94092E+06-1.28513E+11-6.46307E+08-1.26109E+10-2.93344E+00
 -1        38-3.79882E+11 4.41548E+06-1.44354E+11-5.48314E+08-1.41297E+10-3.10763E+00
 -1        39-4.14365E+11 4.82183E+06-1.57457E+11-4.39991E+08-1.54301E+10-3.20345E+00
 -1        40-4.40981E+11 5.15372E+06-1.67571E+11-3.23010E+08-1.64925E+10-3.12161E+00
 -1        41-4.59190E+11 5.40639E+06-1.74490E+11-1.99176E+08-1.73014E+10-2.79204E+00
 -1        42-4.68579E+11 5.57667E+06-1.78058E+11-7.03860E+07-1.78465E+10-2.25648E+00
 -1        43-4.68870E+11 5.66285E+06-1.78169E+11 6.14033E+07-1.81223E+10-1.66489E+00
 -1        44-4.59923E+11 5.66490E+06-1.74768E+11 1.94216E+08-1.81288E+10-1.10078E+00
 -1        45-4.41733E+11 5.58433E+06-1.67856E+11 3.26094E+08-1.78710E+10-5.50438E-01
 -1        46-4.14431E+11 5.42445E+06-1.57482E+11 4.55135E+08-1.73595E+10 3.53977E-02
 -1        47-3.78279E+11 5.19018E+06-1.43744E+11 5.79533E+08-1.66099E+10 6.86391E-01
 -1        48-3.33658E+11 4.88804E+06-1.26788E+11 6.97617E+08-1.56430E+10 1.37082E+00
 -1        49-2.81061E+11 4.52604E+06-1.06801E+11 8.07886E+08-1.44846E+10 2.06521E+00
 -1        50-2.21077E+11 4.11367E+06-8.40076E+10 9.09041E+08-1.31649E+10 2.74812E+00
 -1        51-1.54378E+11 3.66171E+06-5.86623E+10 1.00002E+09-1.17184E+10 3.29168E+00
 -1        52-8.17017E+10 3.18213E+06-3.10454E+10 1.08004E+09-1.01834E+10 3.62583E+00
 -1        53-3.82953E+09 2.68796E+06-1.45420E+09 1.14858E+09-8.60187E+09 3.81474E+00
 -1        54 7.84333E+10 2.19324E+06 2.98055E+10 1.20548E+09-7.01853E+09 3.87795E+00
 -1        55 1.64281E+11 1.71275E+06 6.24273E+10 1.25088E+09-5.48073E+09 3.79326E+00
 -1        56 2.52929E+11 1.26195E+06 9.61136E+10 1.28529E+09-4.03790E+09 3.53877E+00
 -1        57 3.43645E+11 8.56767E+05 1.30586E+11 1.30958E+09-2.74105E+09 3.11626E+00
 -1        58 4.35769E+11 5.13516E+05 1.65592E+11 1.32502E+09-1.64243E+09 2.53831E+00
 -1        59 5.28741E+11 2.48781E+05 2.00922E+11 1.33323E+09-7.95064E+08 1.82118E+00
 -1        60 6.22133E+11 7.92936E+04 2.36411E+11 1.33625E+09-2.52520E+08 9.74679E-01
 -1        61 6.68888E+11 2.04676E+04 2.54178E+11 1.33661E+09-6.41685E+07 1.26208E-02
 -1        62 1.97787E+09 7.01860E+06 7.54256E+08 1.90169E+06 2.24600E+10-3.32744E+00
 -1        63 7.64338E+09 6.52738E+06 2.90697E+09 1.65670E+08 2.08880E+10-3.33143E+00
 -1        64 2.39043E+10 5.54622E+06 9.08575E+09 3.06506E+08 1.77483E+10-3.34594E+00
 -1        65 4.92253E+10 4.56965E+06 1.87073E+10 4.24473E+08 1.46232E+10-3.32864E+00
 -1        66 8.20117E+10 3.60222E+06 3.11658E+10 5.19719E+08 1.15271E+10-3.21598E+00
 -1        67 1.20684E+11 2.64970E+06 4.58609E+10 5.92514E+08 8.47891E+09-2.98444E+00
 -1        68 1.63687E+11 1.71905E+06 6.22016E+10 6.43281E+08 5.50069E+09-2.70627E+00
 -1        69 2.09501E+11 8.17931E+05 7.96108E+10 6.72616E+08 2.61709E+09-2.41669E+00
 -1        70 2.56657E+11-4.53638E+04 9.75297E+10 6.81300E+08-1.45632E+08-2.09453E+00
 -1        71 3.03745E+11-8.62463E+05 1.15423E+11 6.70313E+08-2.76042E+09-1.76867E+00
 -1        72 3.49431E+11-1.62492E+06 1.32783E+11 6.40833E+08-5.20025E+09-1.44097E+00
 -1        73 3.92471E+11-2.32450E+06 1.49138E+11 5.94234E+08-7.43891E+09-1.13098E+00
 -1        74 4.31724E+11-2.95350E+06 1.64054E+11 5.32079E+08-9.45170E+09-8.59168E-01
 -1        75 4.66162E+11-3.50486E+06 1.77140E+11 4.56100E+08-1.12161E+10-5.93256E-01
 -1        76 4.94887E+11-3.97241E+06 1.88056E+11 3.68191E+08-1.27123E+10-3.33570E-01
 -1        77 5.17136E+11-4.35102E+06 1.96510E+11 2.70373E+08-1.39239E+10-9.43005E-02
 -1        78 5.32290E+11-4.63664E+06 2.02268E+11 1.64779E+08-1.48381E+10 2.12387E-01
 -1        79 5.39882E+11-4.82662E+06 2.05153E+11 5.36203E+07-1.54461E+10 6.22403E-01
 -1        80 5.39604E+11-4.91958E+06 2.05048E+11-6.08455E+07-1.57437E+10 1.13024E+00
 -1        81 5.31303E+11-4.91562E+06 2.01893E+11-1.76344E+08-1.57310E+10 1.71755E+00
 -1        82 5.14985E+11-4.81628E+06 1.95693E+11-2.90619E+08-1.54128E+10 2.20903E+00
 -1        83 4.90813E+11-4.62444E+06 1.86507E+11-4.01466E+08-1.47985E+10 2.40043E+00
 -1        84 4.59099E+11-4.34441E+06 1.74456E+11-5.06767E+08-1.39021E+10 2.27676E+00
 -1        85 4.20300E+11-3.98185E+06 1.59713E+11-6.04519E+08-1.27416E+10 1.92347E+00
 -1        86 3.75008E+11-3.54376E+06 1.42502E+11-6.92869E+08-1.13395E+10 1.40226E+00
 -1        87 3.23936E+11-3.03823E+06 1.23095E+11-7.70142E+08-9.72177E+09 8.17732E-01
 -1        88 2.67911E+11-2.47447E+06 1.01805E+11-8.34866E+08-7.91779E+09 2.90450E-01
 -1        89 2.07850E+11-1.86257E+06 7.89822E+10-8.85793E+08-5.95975E+09-1.59941E-01
 -1        90 1.44752E+11-1.21335E+06 5.50054E+10-9.21921E+08-3.88220E+09-5.83358E-01
 -1        91 7.96764E+10-5.38094E+05 3.02768E+10-9.42508E+08-1.72140E+09-9.89173E-01
 -1        92 1.37239E+10 1.51491E+05 5.21513E+09-9.47080E+08 4.85253E+08-1.37112E+00
 -1        93-5.19806E+10 8.43538E+05-1.97523E+10-9.35441E+08 2.69983E+09-1.72247E+00
 -1        94-1.16308E+11 1.52627E+06-4.41965E+10-9.07672E+08 4.88458E+09-2.03897E+00
 -1        95-1.78145E+11 2.18814E+06-6.76944E+10-8.64129E+08 7.00252E+09-2.31807E+00
 -1        96-2.36413E+11 2.81800E+06-8.98357E+10-8.05431E+08 9.01812E+09-2.55107E+00
 -1        97-2.90082E+11 3.40544E+06-1.10230E+11-7.32454E+08 1.08979E+10-2.74816E+00
 -1        98-3.38197E+11 3.94076E+06-1.28513E+11-6.46307E+08 1.26109E+10-2.93676E+00
 -1        99-3.79882E+11 4.41538E+06-1.44354E+11-5.48314E+08 1.41297E+10-3.11134E+00
 -1       100-4.14365E+11 4.82181E+06-1.57457E+11-4.39991E+08 1.54301E+10-3.20603E+00
 -1       101-4.40981E+11 5.15386E+06-1.67571E+11-3.23011E+08 1.64925E+10-3.12366E+00
 -1       102-4.59190E+11 5.40677E+06-1.74490E+11-1.99177E+08 1.73014E+10-2.79439E+00
 -1       103-4.68579E+11 5.57715E+06-1.78058E+11-7.03861E+07 1.78465E+10-2.25925E+00
 -1       104-4.68870E+11 5.66337E+06-1.78169E+11 6.14034E+07 1.81223E+10-1.66932E+00
 -1       105-4.59923E+11 5.66537E+06-1.74768E+11 1.94216E+08 1.81288E+10-1.10579E+00
 -1       106-4.41733E+11 5.58483E+06-1.67856E+11 3.26094E+08 1.78710E+10-5.54463E-01
 -1       107-4.14431E+11 5.42500E+06-1.57482E+11 4.55135E+08 1.73595E+10 3.19539E-02
 -1       108-3.78279E+11 5.19079E+06-1.43744E+11 5.79533E+08 1.66099E+10 6.82294E-01
 -1       109-3.33658E+11 4.88865E+06-1.26788E+11 6.97617E+08 1.56430E+10 1.36697E+00
 -1       110-2.81061E+11 4.52666E+06-1.06801E+11 8.07886E+08 1.44846E+10 2.06257E+00
 -1       111-2.21077E+11 4.11423E+06-8.40076E+10 9.09041E+08 1.31649E+10 2.74539E+00
 -1       112-1.54378E+11 3.66212E+06-5.86623E+10 1.00002E+09 1.17184E+10 3.28840E+00
 -1       113-8.17017E+10 3.18237E+06-3.10454E+10 1.08004E+09 1.01834E+10 3.62319E+00
 -1       114-3.82953E+09 2.68810E+06-1.45420E+09 1.14858E+09 8.60187E+09 3.81265E+00
 -1       115 7.84333E+10 2.19326E+06 2.98055E+10 1.20548E+09 7.01853E+09 3.87554E+00
 -1       116 1.64281E+11 1.71263E+06 6.24273E+10 1.25088E+09 5.48073E+09 3.79051E+00
 -1       117 2.52929E+11 1.26168E+06 9.61136E+10 1.28529E+09 4.03790E+09 3.53606E+00
 -1       118 3.43645E+11 8.56360E+05 1.30586E+11 1.30959E+09 2.74105E+09 3.11410E+00
 -1       119 4.35769E+11 5.12979E+05 1.65592E+11 1.32502E+09 1.64243E+09 2.53699E+00
 -1       120 5.28741E+11 2.48124E+05 2.00922E+11 1.33323E+09 7.95064E+08 1.82070E+00
 -1       121 6.22133E+11 7.85296E+04 2.36411E+11 1.33625E+09 2.52520E+08 9.74767E-01
 -1       122 6.68888E+11 1.96312E+04 2.54178E+11 1.33660E+09 6.41685E+07 1.29688E-02
 -1       123-1.97787E+09-7.01861E+06-7.54256E+08 1.90168E+06-2.24600E+10 4.14779E+00
 -1       124-7.64338E+09-6.52738E+06-2.90697E+09 1.65670E+08-2.08880E+10 4.15484E+00
 -1       125-2.39043E+10-5.54623E+06-9.08575E+09 3.06506E+08-1.77483E+10 4.17990E+00
 -1       126-4.92253E+10-4.56960E+06-1.87073E+10 4.24473E+08-1.46232E+10 4.17870E+00
 -1       127-8.20117E+10-3.60209E+06-3.11658E+10 5.19719E+08-1.15271E+10 4.09079E+00
 -1       128-1.20684E+11-2.64951E+06-4.58609E+10 5.92514E+08-8.47891E+09 3.89219E+00
 -1       129-1.63687E+11-1.71881E+06-6.22016E+10 6.43281E+08-5.50069E+09 3.64116E+00
 -1       130-2.09501E+11-8.17681E+05-7.96108E+10 6.72616E+08-2.61709E+09 3.37094E+00
 -1       131-2.56657E+11 4.56408E+04-9.75297E+10 6.81300E+08 1.45632E+08 3.07256E+00
 -1       132-3.03745E+11 8.62747E+05-1.15423E+11 6.70313E+08 2.76042E+09 2.77696E+00
 -1       133-3.49431E+11 1.62518E+06-1.32783E+11 6.40833E+08 5.20025E+09 2.47432E+00
 -1       134-3.92471E+11 2.32473E+06-1.49138E+11 5.94234E+08 7.43891E+09 2.18448E+00
 -1       135-4.31724E+11 2.95372E+06-1.64054E+11 5.32079E+08 9.45170E+09 1.93261E+00
 -1       136-4.66162E+11 3.50507E+06-1.77140E+11 4.56100E+08 1.12161E+10 1.68381E+00
 -1       137-4.94887E+11 3.97263E+06-1.88056E+11 3.68190E+08 1.27123E+10 1.43974E+00
 -1       138-5.17136E+11 4.35125E+06-1.96510E+11 2.70373E+08 1.39239E+10 1.20878E+00
 -1       139-5.32290E+11 4.63698E+06-2.02268E+11 1.64779E+08 1.48381E+10 8.99365E-01
 -1       140-5.39882E+11 4.82702E+06-2.05153E+11 5.36204E+07 1.54461E+10 4.80927E-01
 -1       141-5.39604E+11 4.92003E+06-2.05048E+11-6.08454E+07 1.57437E+10-3.59892E-02
 -1       142-5.31303E+11 4.91608E+06-2.01893E+11-1.76344E+08 1.57310E+10-6.29755E-01
 -1       143-5.14985E+11 4.81657E+06-1.95693E+11-2.90620E+08 1.54128E+10-1.12603E+00
 -1       144-4.90813E+11 4.62447E+06-1.86507E+11-4.01467E+08 1.47985E+10-1.32152E+00
 -1       145-4.59099E+11 4.34421E+06-1.74456E+11-5.06767E+08 1.39021E+10-1.20865E+00
 -1       146-4.20300E+11 3.98149E+06-1.59713E+11-6.04519E+08 1.27416E+10-8.75966E-01
 -1       147-3.75008E+11 3.54328E+06-1.42502E+11-6.92869E+08 1.13395E+10-3.79916E-01
 -1       148-3.23936E+11 3.03778E+06-1.23095E+11-7.70142E+08 9.72177E+09 1.76327E-01
 -1       149-2.67911E+11 2.47406E+06-1.01805E+11-8.34866E+08 7.91778E+09 6.76739E-01
 -1       150-2.07850E+11 1.86220E+06-7.89822E+10-8.85793E+08 5.95975E+09 1.10311E+00
 -1       151-1.44752E+11 1.21297E+06-5.50054E+10-9.21921E+08 3.88220E+09 1.50465E+00
 -1       152-7.96764E+10 5.37767E+05-3.02768E+10-9.42508E+08 1.72140E+09 1.89081E+00
 -1       153-1.37239E+10-1.51799E+05-5.21513E+09-9.47080E+08-4.85253E+08 2.25040E+00
 -1       154 5.19806E+10-8.43822E+05 1.97523E+10-9.35441E+08-2.69983E+09 2.57912E+00
 -1       155 1.16308E+11-1.52653E+06 4.41965E+10-9.07672E+08-4.88458E+09 2.87729E+00
 -1       156 1.78145E+11-2.18835E+06 6.76944E+10-8.64129E+08-7.00252E+09 3.13898E+00
 -1       157 2.36413E+11-2.81819E+06 8.98357E+10-8.05431E+08-9.01812E+09 3.35405E+00
 -1       158 2.90082E+11-3.40561E+06 1.10230E+11-7.32454E+08-1.08979E+10 3.54422E+00
 -1       159 3.38197E+11-3.94092E+06 1.28513E+11-6.46307E+08-1.26109E+10 3.74006E+00
 -1       160 3.79882E+11-4.41551E+06 1.44354E+11-5.48314E+08-1.41297E+10 3.92714E+00
 -1       161 4.14365E+11-4.82180E+06 1.57457E+11-4.39991E+08-1.54301E+10 4.03348E+00
 -1       162 4.40981E+11-5.15369E+06 1.67571E+11-3.23010E+08-1.64925E+10 3.95721E+00
 -1       163 4.59190E+11-5.40639E+06 1.74490E+11-1.99176E+08-1.73014E+10 3.62576E+00
 -1       164 4.68579E+11-5.57666E+06 1.78058E+11-7.03860E+07-1.78465E+10 3.07712E+00
 -1       165 4.68870E+11-5.66287E+06 1.78169E+11 6.14033E+07-1.81223E+10 2.46573E+00
 -1       166 4.59923E+11-5.66488E+06 1.74768E+11 1.94216E+08-1.81288E+10 1.88320E+00
 -1       167 4.41733E+11-5.58432E+06 1.67856E+11 3.26094E+08-1.78710E+10 1.31800E+00
 -1       168 4.14431E+11-5.42445E+06 1.57482E+11 4.55135E+08-1.73595E+10 7.13217E-01
 -1       169 3.78279E+11-5.19019E+06 1.43744E+11 5.79533E+08-1.66099E+10 3.62279E-02
 -1       170 3.33658E+11-4.88805E+06 1.26788E+11 6.97617E+08-1.56430E+10-6.81046E-01
 -1       171 2.81061E+11-4.52604E+06 1.06801E+11 8.07886E+08-1.44846E+10-1.41551E+00
 -1       172 2.21077E+11-4.11368E+06 8.40076E+10 9.09041E+08-1.31649E+10-2.14000E+00
 -1       173 1.54378E+11-3.66172E+06 5.86623E+10 1.00002E+09-1.17184E+10-2.73019E+00
 -1       174 8.17017E+10-3.18213E+06 3.10454E+10 1.08004E+09-1.01834E+10-3.12230E+00
 -1       175 3.82953E+09-2.68797E+06 1.45420E+09 1.14858E+09-8.60187E+09-3.36982E+00
 -1       176-7.84333E+10-2.19324E+06-2.98055E+10 1.20548E+09-7.01853E+09-3.48653E+00
 -1       177-1.64281E+11-1.71276E+06-6.24273E+10 1.25088E+09-5.48073E+09-3.45581E+00
 -1       178-2.52929E+11-1.26195E+06-9.61136E+10 1.28529E+09-4.03790E+09-3.25843E+00
 -1       179-3.43645E+11-8.56767E+05-1.30586E+11 1.30958E+09-2.74105E+09-2.89370E+00
 -1       180-4.35769E+11-5.13518E+05-1.65592E+11 1.32502E+09-1.64243E+09-2.37302E+00
 -1       181-5.28741E+11-2.48778E+05-2.00922E+11 1.33323E+09-7.95064E+08-1.71376E+00
 -1       182-6.22133E+11-7.92957E+04-2.36411E+11 1.33625E+09-2.52520E+08-9.22827E-01
 -1       183-6.68888E+11-2.04609E+04-2.54178E+11 1.33661E+09-6.41685E+07 1.25876E-02
 -1       184-1.97787E+09-7.01863E+06-7.54256E+08 1.90169E+06 2.24600E+10 4.14208E+00
 -1       185-7.64338E+09-6.52735E+06-2.90697E+09 1.65670E+08 2.08880E+10 4.14869E+00
 -1       186-2.39043E+10-5.54622E+06-9.08575E+09 3.06506E+08 1.77483E+10 4.17395E+00
 -1       187-4.92253E+10-4.56968E+06-1.87073E+10 4.24473E+08 1.46232E+10 4.17297E+00
 -1       188-8.20117E+10-3.60222E+06-3.11658E+10 5.19719E+08 1.15271E+10 4.08459E+00
 -1       189-1.20684E+11-2.64972E+06-4.58609E+10 5.92514E+08 8.47891E+09 3.88593E+00
 -1       190-1.63687E+11-1.71905E+06-6.22016E+10 6.43281E+08 5.50069E+09 3.63473E+00
 -1       191-2.09501E+11-8.17972E+05-7.96108E+10 6.72616E+08 2.61709E+09 3.36477E+00
 -1       192-2.56657E+11 4.53853E+04-9.75297E+10 6.81300E+08-1.45632E+08 3.06778E+00
 -1       193-3.03745E+11 8.62494E+05-1.15423E+11 6.70313E+08-2.76042E+09 2.77414E+00
 -1       194-3.49431E+11 1.62490E+06-1.32783E+11 6.40833E+08-5.20025E+09 2.47149E+00
 -1       195-3.92471E+11 2.32449E+06-1.49138E+11 5.94234E+08-7.43891E+09 2.17972E+00
 -1       196-4.31724E+11 2.95347E+06-1.64054E+11 5.32079E+08-9.45170E+09 1.92789E+00
 -1       197-4.66162E+11 3.50483E+06-1.77140E+11 4.56100E+08-1.12161E+10 1.67947E+00
 -1       198-4.94887E+11 3.97242E+06-1.88056E+11 3.68191E+08-1.27123E+10 1.43474E+00
 -1       199-5.17136E+11 4.35101E+06-1.96510E+11 2.70373E+08-1.39239E+10 1.20248E+00
 -1       200-5.32290E+11 4.63665E+06-2.02268E+11 1.64779E+08-1.48381E+10 8.93953E-01
 -1       201-5.39882E+11 4.82660E+06-2.05153E+11 5.36203E+07-1.54461E+10 4.77119E-01
 -1       202-5.39604E+11 4.91957E+06-2.05048E+11-6.08455E+07-1.57437E+10-4.03936E-02
 -1       203-5.31303E+11 4.91560E+06-2.01893E+11-1.76344E+08-1.57310E+10-6.34517E-01
 -1       204-5.14985E+11 4.81625E+06-1.95693E+11-2.90619E+08-1.54128E+10-1.13006E+00
 -1       205-4.90813E+11 4.62443E+06-1.86507E+11-4.01466E+08-1.47985E+10-1.32497E+00
 -1       206-4.59099E+11 4.34440E+06-1.74456E+11-5.06767E+08-1.39021E+10-1.21278E+00
 -1       207-4.20300E+11 3.98186E+06-1.59713E+11-6.04519E+08-1.27416E+10-8.80486E-01
 -1       208-3.75008E+11 3.54375E+06-1.42502E+11-6.92869E+08-1.13395E+10-3.83521E-01
 -1       209-3.23936E+11 3.03822E+06-1.23095E+11-7.70142E+08-9.72177E+09 1.73292E-01
 -1       210-2.67911E+11 2.47446E+06-1.01805E+11-8.34866E+08-7.91779E+09 6.72391E-01
 -1       211-2.07850E+11 1.86257E+06-7.89822E+10-8.85793E+08-5.95975E+09 1.09895E+00
 -1       212-1.44752E+11 1.21333E+06-5.50054E+10-9.21921E+08-3.88220E+09 1.50071E+00
 -1       213-7.96764E+10 5.38090E+05-3.02768E+10-9.42508E+08-1.72140E+09 1.88635E+00
 -1       214-1.37239E+10-1.51478E+05-5.21513E+09-9.47080E+08 4.85253E+08 2.24587E+00
 -1       215 5.19806E+10-8.43543E+05 1.97523E+10-9.35441E+08 2.69983E+09 2.57431E+00
 -1       216 1.16308E+11-1.52628E+06 4.41965E+10-9.07672E+08 4.88458E+09 2.87158E+00
 -1       217 1.78145E+11-2.18813E+06 6.76944E+10-8.64129E+08 7.00252E+09 3.13328E+00
 -1       218 2.36413E+11-2.81803E+06 8.98357E+10-8.05431E+08 9.01812E+09 3.35023E+00
 -1       219 2.90082E+11-3.40544E+06 1.10230E+11-7.32454E+08 1.08979E+10 3.54127E+00
 -1       220 3.38197E+11-3.94075E+06 1.28513E+11-6.46307E+08 1.26109E+10 3.73674E+00
 -1       221 3.79882E+11-4.41538E+06 1.44354E+11-5.48314E+08 1.41297E+10 3.92343E+00
 -1       222 4.14365E+11-4.82182E+06 1.57457E+11-4.39991E+08 1.54301E+10 4.03089E+00
 -1       223 4.40981E+11-5.15389E+06 1.67571E+11-3.23011E+08 1.64925E+10 3.95516E+00
 -1       224 4.59190E+11-5.40676E+06 1.74490E+11-1.99177E+08 1.73014E+10 3.62340E+00
 -1       225 4.68579E+11-5.57717E+06 1.78058E+11-7.03861E+07 1.78465E+10 3.07435E+00
 -1       226 4.68870E+11-5.66337E+06 1.78169E+11 6.14034E+07 1.81223E+10 2.46130E+00
 -1       227 4.59923E+11-5.66538E+06 1.74768E+11 1.94216E+08 1.81288E+10 1.87819E+00
 -1       228 4.41733E+11-5.58483E+06 1.67856E+11 3.26094E+08 1.78710E+10 1.31398E+00
 -1       229 4.14431E+11-5.42500E+06 1.57482E+11 4.55135E+08 1.73595E+10 7.09773E-01
 -1       230 3.78279E+11-5.19077E+06 1.43744E+11 5.79533E+08 1.66099E+10 3.21316E-02
 -1       231 3.33658E+11-4.88866E+06 1.26788E+11 6.97617E+08 1.56430E+10-6.84895E-01
 -1       232 2.81061E+11-4.52666E+06 1.06801E+11 8.07886E+08 1.44846E+10-1.41816E+00
 -1       233 2.21077E+11-4.11421E+06 8.40076E+10 9.09041E+08 1.31649E+10-2.14273E+00
 -1       234 1.54378E+11-3.66212E+06 5.86623E+10 1.00002E+09 1.17184E+10-2.73346E+00
 -1       235 8.17017E+10-3.18239E+06 3.10454E+10 1.08004E+09 1.01834E+10-3.12494E+00
 -1       236 3.82953E+09-2.68809E+06 1.45420E+09 1.14858E+09 8.60187E+09-3.37192E+00
 -1       237-7.84333E+10-2.19325E+06-2.98055E+10 1.20548E+09 7.01853E+09-3.48894E+00
 -1       238-1.64281E+11-1.71263E+06-6.24273E+10 1.25088E+09 5.48073E+09-3.45856E+00
 -1       239-2.52929E+11-1.26168E+06-9.61136E+10 1.28529E+09 4.03790E+09-3.26113E+00
 -1       240-3.43645E+11-8.56354E+05-1.30586E+11 1.30959E+09 2.74105E+09-2.89587E+00
 -1       241-4.35769E+11-5.12980E+05-1.65592E+11 1.32502E+09 1.64243E+09-2.37434E+00
 -1       242-5.28741E+11-2.48127E+05-2.00922E+11 1.33323E+09 7.95064E+08-1.71424E+00
 -1       243-6.22133E+11-7.85245E+04-2.36411E+11 1.33625E+09 2.52520E+08-9.22740E-01
 -1       244-6.68888E+11-1.96493E+04-2.54178E+11 1.33660E+09 6.41685E+07 1.29355E-02
 -3
    1PSTEP                        11           1           1          
    1PGM                1.000000E+00                                  
    1PGK                2.130937E+06                                  
    1PHID                         -1                                  
    1PSUBC                         0                                  
    1PMODE                         3                                  
  100CL  103 232.3300906         244                     2    3MODAL      1
 -4  TOSTRAIN    6    1
 -5  EXX         1    4    1    1
 -5  EYY         1    4    2    2
 -5  EZZ         1    4    3    3
 -5  EXY         1    4    1    2
 -5  EYZ         1    4    2    3
 -5  EZX         1    4    3    1
 -1         1 3.51422E-01-2.14607E-01 9.82541E-13 5.46165E-04-6.45054E+00-9.54006E-10
 -1         2 1.36030E+00-8.33008E-01-3.51147E-10 4.75804E-02-5.99905E+00-9.55025E-10
 -1         3 4.25591E+00-2.60784E+00-3.89597E-11 8.80287E-02-5.09732E+00-9.59250E-10
 -1         4 8.76477E+00-5.37145E+00 8.18749E-10 1.21909E-01-4.19978E+00-9.54341E-10
 -1         5 1.46030E+01-8.94981E+00 4.80450E-10 1.49264E-01-3.31060E+00-9.21852E-10
 -1         6 2.14892E+01-1.31705E+01 2.96882E-10 1.70171E-01-2.43515E+00-8.55333E-10
 -1         7 2.91466E+01-1.78639E+01 8.01615E-10 1.84751E-01-1.57980E+00-7.75397E-10
 -1         8 3.73047E+01-2.28641E+01 7.12589E-10 1.93176E-01-7.51630E-01-6.92302E-10
 -1         9 4.57015E+01-2.80106E+01 1.69960E-10 1.95670E-01 4.18256E-02-6.00177E-10
 -1        10 5.40863E+01-3.31497E+01 8.75621E-11 1.92514E-01 7.92795E-01-5.07153E-10
 -1        11 6.22214E+01-3.81359E+01 5.21502E-10 1.84048E-01 1.49352E+00-4.13037E-10
 -1        12 6.98854E+01-4.28332E+01 2.06452E-10 1.70665E-01 2.13646E+00-3.23452E-10
 -1        13 7.68750E+01-4.71172E+01 7.93555E-11 1.52813E-01 2.71454E+00-2.45399E-10
 -1        14 8.30073E+01-5.08759E+01 4.31368E-10 1.30992E-01 3.22127E+00-1.69138E-10
 -1        15 8.81223E+01-5.40109E+01 1.24625E-10 1.05745E-01 3.65099E+00-9.43667E-11
 -1        16 9.20840E+01-5.64391E+01 1.80482E-10 7.76514E-02 3.99896E+00-2.52737E-11
 -1        17 9.47824E+01-5.80929E+01 2.19257E-10 4.73247E-02 4.26150E+00 6.25522E-11
 -1        18 9.61344E+01-5.89216E+01-1.44320E-10 1.53998E-02 4.43614E+00 1.79848E-10
 -1        19 9.60849E+01-5.88913E+01-1.62234E-10-1.74748E-02 4.52161E+00 3.25870E-10
 -1        20 9.46068E+01-5.79854E+01-2.87936E-10-5.06461E-02 4.51796E+00 4.94648E-10
 -1        21 9.17012E+01-5.62045E+01-3.60054E-10-8.34662E-02 4.42658E+00 6.35593E-10
 -1        22 8.73969E+01-5.35664E+01-1.40449E-10-1.15302E-01 4.25016E+00 6.90396E-10
 -1        23 8.17497E+01-5.01052E+01-1.93726E-11-1.45544E-01 3.99268E+00 6.55074E-10
 -1        24 7.48410E+01-4.58707E+01-3.17337E-10-1.73618E-01 3.65940E+00 5.53721E-10
 -1        25 6.67759E+01-4.09276E+01-5.40478E-10-1.98993E-01 3.25671E+00 4.03765E-10
 -1        26 5.76819E+01-3.53538E+01-2.61353E-10-2.21186E-01 2.79210E+00 2.35725E-10
 -1        27 4.77057E+01-2.92392E+01-2.06010E-10-2.39774E-01 2.27399E+00 8.46661E-11
 -1        28 3.70109E+01-2.26843E+01-1.26362E-10-2.54401E-01 1.71165E+00-4.47418E-11
 -1        29 2.57754E+01-1.57979E+01-3.18252E-10-2.64777E-01 1.11497E+00-1.66411E-10
 -1        30 1.41876E+01-8.69569E+00-2.44787E-10-2.70689E-01 4.94387E-01-2.82812E-10
 -1        31 2.44372E+00-1.49775E+00-7.39158E-11-2.72002E-01-1.39365E-01-3.92486E-10
 -1        32-9.25598E+00 5.67312E+00-2.86685E-10-2.68659E-01-7.75395E-01-4.93312E-10
 -1        33-2.07105E+01 1.26937E+01-3.82265E-10-2.60684E-01-1.40286E+00-5.83953E-10
 -1        34-3.17216E+01 1.94425E+01-2.68753E-10-2.48179E-01-2.01113E+00-6.64115E-10
 -1        35-4.20970E+01 2.58017E+01 4.82833E-11-2.31321E-01-2.59001E+00-7.31569E-10
 -1        36-5.16538E+01 3.16591E+01-1.62794E-10-2.10361E-01-3.12988E+00-7.88427E-10
 -1        37-6.02213E+01 3.69102E+01 8.95129E-11-1.85620E-01-3.62187E+00-8.42487E-10
 -1        38-6.76440E+01 4.14597E+01 5.79455E-10-1.57476E-01-4.05805E+00-8.92514E-10
 -1        39-7.37842E+01 4.52231E+01 2.09580E-10-1.26366E-01-4.43154E+00-9.20033E-10
 -1        40-7.85237E+01 4.81280E+01-3.40073E-10-9.27688E-02-4.73665E+00-8.96528E-10
 -1        41-8.17661E+01 5.01153E+01-4.38289E-10-5.72036E-02-4.96898E+00-8.01875E-10
 -1        42-8.34380E+01 5.11400E+01-3.28340E-10-2.02149E-02-5.12552E+00-6.48063E-10
 -1        43-8.34898E+01 5.11718E+01-3.06784E-10 1.76351E-02-5.20475E+00-4.78157E-10
 -1        44-8.18965E+01 5.01953E+01-2.83133E-11 5.57790E-02-5.20660E+00-3.16146E-10
 -1        45-7.86575E+01 4.82101E+01 8.29564E-11 9.36545E-02-5.13257E+00-1.58086E-10
 -1        46-7.37961E+01 4.52305E+01-2.71474E-10 1.30715E-01-4.98565E+00 1.01663E-11
 -1        47-6.73587E+01 4.12850E+01-3.66234E-10 1.66442E-01-4.77037E+00 1.97132E-10
 -1        48-5.94133E+01 3.64151E+01-3.04847E-10 2.00356E-01-4.49269E+00 3.93701E-10
 -1        49-5.00474E+01 3.06747E+01-4.96964E-10 2.32026E-01-4.15999E+00 5.93131E-10
 -1        50-3.93664E+01 2.41282E+01-6.25912E-10 2.61077E-01-3.78097E+00 7.89263E-10
 -1        51-2.74897E+01 1.68489E+01-4.81232E-10 2.87207E-01-3.36552E+00 9.45372E-10
 -1        52-1.45485E+01 8.91719E+00-6.93745E-10 3.10187E-01-2.92469E+00 1.04134E-09
 -1        53-6.82198E-01 4.18420E-01-1.02631E-09 3.29874E-01-2.47046E+00 1.09560E-09
 -1        54 1.39659E+01-8.55953E+00-1.00512E-09 3.46214E-01-2.01573E+00 1.11375E-09
 -1        55 2.92524E+01-1.79287E+01-9.17972E-10 3.59253E-01-1.57407E+00 1.08943E-09
 -1        56 4.50376E+01-2.76036E+01-8.19221E-10 3.69136E-01-1.15969E+00 1.01634E-09
 -1        57 6.11909E+01-3.75040E+01-8.66315E-10 3.76114E-01-7.87233E-01 8.94993E-10
 -1        58 7.75949E+01-4.75581E+01-8.28529E-10 3.80547E-01-4.71706E-01 7.29004E-10
 -1        59 9.41501E+01-5.77049E+01-7.61349E-10 3.82905E-01-2.28343E-01 5.23044E-10
 -1        60 1.10780E+02-6.78973E+01-8.91601E-10 3.83771E-01-7.25239E-02 2.79929E-10
 -1        61 1.19105E+02-7.30000E+01-9.60313E-10 3.83875E-01-1.84292E-02 3.62472E-12
 -1        62 3.51422E-01-2.14607E-01-9.82541E-13 5.46167E-04 6.45054E+00-9.55644E-10
 -1        63 1.36030E+00-8.33008E-01 3.51147E-10 4.75804E-02 5.99905E+00-9.56790E-10
 -1        64 4.25591E+00-2.60784E+00 3.89597E-11 8.80287E-02 5.09732E+00-9.60958E-10
 -1        65 8.76477E+00-5.37145E+00-8.18749E-10 1.21909E-01 4.19978E+00-9.55988E-10
 -1        66 1.46030E+01-8.94981E+00-4.80450E-10 1.49264E-01 3.31060E+00-9.23633E-10
 -1        67 2.14892E+01-1.31705E+01-2.96882E-10 1.70171E-01 2.43515E+00-8.57132E-10
 -1        68 2.91466E+01-1.78639E+01-8.01615E-10 1.84751E-01 1.57980E+00-7.77243E-10
 -1        69 3.73047E+01-2.28641E+01-7.12589E-10 1.93176E-01 7.51629E-01-6.94075E-10
 -1        70 4.57015E+01-2.80106E+01-1.69960E-10 1.95670E-01-4.18257E-02-6.01551E-10
 -1        71 5.40863E+01-3.31497E+01-8.75621E-11 1.92514E-01-7.92795E-01-5.07963E-10
 -1        72 6.22214E+01-3.81359E+01-5.21502E-10 1.84048E-01-1.49352E+00-4.13848E-10
 -1        73 6.98854E+01-4.28332E+01-2.06452E-10 1.70665E-01-2.13646E+00-3.24818E-10
 -1        74 7.68750E+01-4.71172E+01-7.93555E-11 1.52813E-01-2.71454E+00-2.46754E-10
 -1        75 8.30073E+01-5.08759E+01-4.31368E-10 1.30992E-01-3.22127E+00-1.70384E-10
 -1        76 8.81223E+01-5.40109E+01-1.24625E-10 1.05745E-01-3.65099E+00-9.58016E-11
 -1        77 9.20840E+01-5.64391E+01-1.80482E-10 7.76514E-02-3.99896E+00-2.70832E-11
 -1        78 9.47824E+01-5.80929E+01-2.19257E-10 4.73247E-02-4.26150E+00 6.09978E-11
 -1        79 9.61344E+01-5.89216E+01 1.44320E-10 1.53998E-02-4.43614E+00 1.78755E-10
 -1        80 9.60849E+01-5.88913E+01 1.62234E-10-1.74749E-02-4.52161E+00 3.24605E-10
 -1        81 9.46068E+01-5.79854E+01 2.87936E-10-5.06461E-02-4.51796E+00 4.93280E-10
 -1        82 9.17012E+01-5.62045E+01 3.60054E-10-8.34661E-02-4.42658E+00 6.34436E-10
 -1        83 8.73969E+01-5.35664E+01 1.40449E-10-1.15302E-01-4.25016E+00 6.89406E-10
 -1        84 8.17497E+01-5.01052E+01 1.93726E-11-1.45544E-01-3.99268E+00 6.53888E-10
 -1        85 7.48410E+01-4.58707E+01 3.17337E-10-1.73618E-01-3.65940E+00 5.52422E-10
 -1        86 6.67759E+01-4.09276E+01 5.40478E-10-1.98993E-01-3.25671E+00 4.02730E-10
 -1        87 5.76819E+01-3.53538E+01 2.61353E-10-2.21186E-01-2.79210E+00 2.34853E-10
 -1        88 4.77057E+01-2.92392E+01 2.06010E-10-2.39774E-01-2.27399E+00 8.34174E-11
 -1        89 3.70109E+01-2.26843E+01 1.26362E-10-2.54401E-01-1.71165E+00-4.59352E-11
 -1        90 2.57754E+01-1.57979E+01 3.18252E-10-2.64777E-01-1.11497E+00-1.67541E-10
 -1        91 1.41876E+01-8.69569E+00 2.44787E-10-2.70689E-01-4.94387E-01-2.84091E-10
 -1        92 2.44372E+00-1.49775E+00 7.39158E-11-2.72002E-01 1.39365E-01-3.93787E-10
 -1        93-9.25598E+00 5.67312E+00 2.86685E-10-2.68659E-01 7.75395E-01-4.94694E-10
 -1        94-2.07105E+01 1.26937E+01 3.82265E-10-2.60684E-01 1.40286E+00-5.85593E-10
 -1        95-3.17216E+01 1.94425E+01 2.68753E-10-2.48179E-01 2.01113E+00-6.65752E-10
 -1        96-4.20970E+01 2.58017E+01-4.82833E-11-2.31321E-01 2.59001E+00-7.32669E-10
 -1        97-5.16538E+01 3.16591E+01 1.62794E-10-2.10361E-01 3.12988E+00-7.89273E-10
 -1        98-6.02213E+01 3.69102E+01-8.95129E-11-1.85620E-01 3.62187E+00-8.43440E-10
 -1        99-6.76440E+01 4.14597E+01-5.79455E-10-1.57476E-01 4.05805E+00-8.93579E-10
 -1       100-7.37842E+01 4.52231E+01-2.09580E-10-1.26366E-01 4.43154E+00-9.20776E-10
 -1       101-7.85237E+01 4.81280E+01 3.40073E-10-9.27689E-02 4.73665E+00-8.97117E-10
 -1       102-8.17661E+01 5.01153E+01 4.38289E-10-5.72037E-02 4.96898E+00-8.02552E-10
 -1       103-8.34380E+01 5.11400E+01 3.28340E-10-2.02149E-02 5.12553E+00-6.48858E-10
 -1       104-8.34898E+01 5.11718E+01 3.06784E-10 1.76351E-02 5.20475E+00-4.79429E-10
 -1       105-8.18965E+01 5.01953E+01 2.83133E-11 5.57790E-02 5.20660E+00-3.17584E-10
 -1       106-7.86575E+01 4.82101E+01-8.29564E-11 9.36545E-02 5.13257E+00-1.59242E-10
 -1       107-7.37961E+01 4.52305E+01 2.71474E-10 1.30715E-01 4.98565E+00 9.17719E-12
 -1       108-6.73587E+01 4.12850E+01 3.66234E-10 1.66442E-01 4.77037E+00 1.95956E-10
 -1       109-5.94133E+01 3.64151E+01 3.04847E-10 2.00356E-01 4.49269E+00 3.92595E-10
 -1       110-5.00474E+01 3.06747E+01 4.96964E-10 2.32026E-01 4.15999E+00 5.92371E-10
 -1       111-3.93664E+01 2.41282E+01 6.25912E-10 2.61077E-01 3.78097E+00 7.88479E-10
 -1       112-2.74897E+01 1.68489E+01 4.81232E-10 2.87207E-01 3.36552E+00 9.44431E-10
 -1       113-1.45485E+01 8.91719E+00 6.93745E-10 3.10187E-01 2.92469E+00 1.04058E-09
 -1       114-6.82198E-01 4.18420E-01 1.02631E-09 3.29874E-01 2.47046E+00 1.09500E-09
 -1       115 1.39659E+01-8.55953E+00 1.00512E-09 3.46214E-01 2.01573E+00 1.11306E-09
 -1       116 2.92524E+01-1.79287E+01 9.17972E-10 3.59253E-01 1.57407E+00 1.08864E-09
 -1       117 4.50376E+01-2.76036E+01 8.19221E-10 3.69136E-01 1.15969E+00 1.01556E-09
 -1       118 6.11909E+01-3.75040E+01 8.66315E-10 3.76114E-01 7.87233E-01 8.94372E-10
 -1       119 7.75949E+01-4.75581E+01 8.28529E-10 3.80547E-01 4.71706E-01 7.28624E-10
 -1       120 9.41501E+01-5.77049E+01 7.61349E-10 3.82905E-01 2.28343E-01 5.22906E-10
 -1       121 1.10780E+02-6.78973E+01 8.91601E-10 3.83771E-01 7.25239E-02 2.79954E-10
 -1       122 1.19105E+02-7.30000E+01 9.60313E-10 3.83874E-01 1.84292E-02 3.72466E-12
 -1       123-3.51422E-01 2.14607E-01 9.82541E-13 5.46164E-04-6.45054E+00 1.19125E-09
 -1       124-1.36030E+00 8.33008E-01-3.51147E-10 4.75804E-02-5.99905E+00 1.19327E-09
 -1       125-4.25591E+00 2.60784E+00-3.89597E-11 8.80287E-02-5.09732E+00 1.20047E-09
 -1       126-8.76477E+00 5.37145E+00 8.18749E-10 1.21909E-01-4.19978E+00 1.20013E-09
 -1       127-1.46030E+01 8.94981E+00 4.80450E-10 1.49264E-01-3.31060E+00 1.17488E-09
 -1       128-2.14892E+01 1.31705E+01 2.96882E-10 1.70171E-01-2.43515E+00 1.11784E-09
 -1       129-2.91466E+01 1.78639E+01 8.01615E-10 1.84751E-01-1.57980E+00 1.04574E-09
 -1       130-3.73047E+01 2.28641E+01 7.12589E-10 1.93176E-01-7.51630E-01 9.68138E-10
 -1       131-4.57015E+01 2.80106E+01 1.69960E-10 1.95670E-01 4.18256E-02 8.82442E-10
 -1       132-5.40863E+01 3.31497E+01 8.75621E-11 1.92514E-01 7.92795E-01 7.97544E-10
 -1       133-6.22214E+01 3.81359E+01 5.21502E-10 1.84048E-01 1.49352E+00 7.10626E-10
 -1       134-6.98854E+01 4.28332E+01 2.06452E-10 1.70665E-01 2.13646E+00 6.27384E-10
 -1       135-7.68750E+01 4.71172E+01 7.93555E-11 1.52813E-01 2.71454E+00 5.55046E-10
 -1       136-8.30073E+01 5.08759E+01 4.31368E-10 1.30992E-01 3.22127E+00 4.83592E-10
 -1       137-8.81223E+01 5.40109E+01 1.24625E-10 1.05745E-01 3.65099E+00 4.13493E-10
 -1       138-9.20840E+01 5.64391E+01 1.80482E-10 7.76514E-02 3.99896E+00 3.47163E-10
 -1       139-9.47824E+01 5.80929E+01 2.19257E-10 4.73247E-02 4.26150E+00 2.58298E-10
 -1       140-9.61344E+01 5.89216E+01-1.44320E-10 1.53998E-02 4.43614E+00 1.38123E-10
 -1       141-9.60849E+01 5.88913E+01-1.62234E-10-1.74748E-02 4.52161E+00-1.03361E-11
 -1       142-9.46068E+01 5.79854E+01-2.87936E-10-5.06461E-02 4.51796E+00-1.80866E-10
 -1       143-9.17012E+01 5.62045E+01-3.60054E-10-8.34662E-02 4.42658E+00-3.23396E-10
 -1       144-8.73969E+01 5.35664E+01-1.40449E-10-1.15302E-01 4.25016E+00-3.79543E-10
 -1       145-8.17497E+01 5.01052E+01-1.93726E-11-1.45544E-01 3.99268E+00-3.47124E-10
 -1       146-7.48410E+01 4.58707E+01-3.17337E-10-1.73618E-01 3.65940E+00-2.51578E-10
 -1       147-6.67759E+01 4.09276E+01-5.40478E-10-1.98993E-01 3.25671E+00-1.09112E-10
 -1       148-5.76819E+01 3.53538E+01-2.61353E-10-2.21186E-01 2.79210E+00 5.06413E-11
 -1       149-4.77057E+01 2.92392E+01-2.06010E-10-2.39774E-01 2.27399E+00 1.94360E-10
 -1       150-3.70109E+01 2.26843E+01-1.26362E-10-2.54401E-01 1.71165E+00 3.16813E-10
 -1       151-2.57754E+01 1.57979E+01-3.18252E-10-2.64777E-01 1.11497E+00 4.32136E-10
 -1       152-1.41876E+01 8.69569E+00-2.44787E-10-2.70689E-01 4.94387E-01 5.43041E-10
 -1       153-2.44372E+00 1.49775E+00-7.39158E-11-2.72002E-01-1.39365E-01 6.46318E-10
 -1       154 9.25598E+00-5.67312E+00-2.86685E-10-2.68659E-01-7.75395E-01 7.40726E-10
 -1       155 2.07105E+01-1.26937E+01-3.82265E-10-2.60684E-01-1.40286E+00 8.26360E-10
 -1       156 3.17216E+01-1.94425E+01-2.68753E-10-2.48179E-01-2.01113E+00 9.01518E-10
 -1       157 4.20970E+01-2.58017E+01 4.82833E-11-2.31321E-01-2.59001E+00 9.63287E-10
 -1       158 5.16538E+01-3.16591E+01-1.62794E-10-2.10361E-01-3.12988E+00 1.01790E-09
 -1       159 6.02213E+01-3.69102E+01 8.95129E-11-1.85620E-01-3.62187E+00 1.07415E-09
 -1       160 6.76440E+01-4.14597E+01 5.79455E-10-1.57476E-01-4.05805E+00 1.12788E-09
 -1       161 7.37842E+01-4.52231E+01 2.09580E-10-1.26366E-01-4.43154E+00 1.15842E-09
 -1       162 7.85237E+01-4.81280E+01-3.40073E-10-9.27688E-02-4.73665E+00 1.13651E-09
 -1       163 8.17661E+01-5.01153E+01-4.38289E-10-5.72036E-02-4.96898E+00 1.04132E-09
 -1       164 8.34380E+01-5.11400E+01-3.28340E-10-2.02149E-02-5.12552E+00 8.83750E-10
 -1       165 8.34898E+01-5.11718E+01-3.06784E-10 1.76351E-02-5.20475E+00 7.08159E-10
 -1       166 8.18965E+01-5.01953E+01-2.83133E-11 5.57790E-02-5.20660E+00 5.40856E-10
 -1       167 7.86575E+01-4.82101E+01 8.29564E-11 9.36545E-02-5.13257E+00 3.78531E-10
 -1       168 7.37961E+01-4.52305E+01-2.71474E-10 1.30715E-01-4.98565E+00 2.04837E-10
 -1       169 6.73587E+01-4.12850E+01-3.66234E-10 1.66442E-01-4.77037E+00 1.04047E-11
 -1       170 5.94133E+01-3.64151E+01-3.04847E-10 2.00356E-01-4.49269E+00-1.95597E-10
 -1       171 5.00474E+01-3.06747E+01-4.96964E-10 2.32026E-01-4.15999E+00-4.06536E-10
 -1       172 3.93664E+01-2.41282E+01-6.25912E-10 2.61077E-01-3.78097E+00-6.14610E-10
 -1       173 2.74897E+01-1.68489E+01-4.81232E-10 2.87207E-01-3.36552E+00-7.84112E-10
 -1       174 1.45485E+01-8.91719E+00-6.93745E-10 3.10187E-01-2.92469E+00-8.96728E-10
 -1       175 6.82198E-01-4.18420E-01-1.02631E-09 3.29874E-01-2.47046E+00-9.67815E-10
 -1       176-1.39659E+01 8.55953E+00-1.00512E-09 3.46214E-01-2.01573E+00-1.00133E-09
 -1       177-2.92524E+01 1.79287E+01-9.17972E-10 3.59253E-01-1.57407E+00-9.92512E-10
 -1       178-4.50376E+01 2.76036E+01-8.19221E-10 3.69136E-01-1.15969E+00-9.35823E-10
 -1       179-6.11909E+01 3.75040E+01-8.66315E-10 3.76114E-01-7.87233E-01-8.31074E-10
 -1       180-7.75949E+01 4.75581E+01-8.28529E-10 3.80547E-01-4.71706E-01-6.81533E-10
 -1       181-9.41501E+01 5.77049E+01-7.61349E-10 3.82905E-01-2.28343E-01-4.92193E-10
 -1       182-1.10780E+02 6.78973E+01-8.91601E-10 3.83771E-01-7.25239E-02-2.65037E-10
 -1       183-1.19105E+02 7.30000E+01-9.60313E-10 3.83875E-01-1.84292E-02 3.61518E-12
 -1       184-3.51422E-01 2.14607E-01-9.82541E-13 5.46168E-04 6.45054E+00 1.18961E-09
 -1       185-1.36030E+00 8.33008E-01 3.51147E-10 4.75804E-02 5.99905E+00 1.19151E-09
 -1       186-4.25591E+00 2.60784E+00 3.89597E-11 8.80287E-02 5.09732E+00 1.19876E-09
 -1       187-8.76477E+00 5.37145E+00-8.18749E-10 1.21909E-01 4.19978E+00 1.19848E-09
 -1       188-1.46030E+01 8.94981E+00-4.80450E-10 1.49264E-01 3.31060E+00 1.17310E-09
 -1       189-2.14892E+01 1.31705E+01-2.96882E-10 1.70171E-01 2.43515E+00 1.11604E-09
 -1       190-2.91466E+01 1.78639E+01-8.01615E-10 1.84751E-01 1.57980E+00 1.04390E-09
 -1       191-3.73047E+01 2.28641E+01-7.12589E-10 1.93176E-01 7.51629E-01 9.66364E-10
 -1       192-4.57015E+01 2.80106E+01-1.69960E-10 1.95670E-01-4.18257E-02 8.81068E-10
 -1       193-5.40863E+01 3.31497E+01-8.75621E-11 1.92514E-01-7.92795E-01 7.96734E-10
 -1       194-6.22214E+01 3.81359E+01-5.21502E-10 1.84048E-01-1.49352E+00 7.09815E-10
 -1       195-6.98854E+01 4.28332E+01-2.06452E-10 1.70665E-01-2.13646E+00 6.26019E-10
 -1       196-7.68750E+01 4.71172E+01-7.93555E-11 1.52813E-01-2.71454E+00 5.53692E-10
 -1       197-8.30073E+01 5.08759E+01-4.31368E-10 1.30992E-01-3.22127E+00 4.82345E-10
 -1       198-8.81223E+01 5.40109E+01-1.24625E-10 1.05745E-01-3.65099E+00 4.12059E-10
 -1       199-9.20840E+01 5.64391E+01-1.80482E-10 7.76514E-02-3.99896E+00 3.45353E-10
 -1       200-9.47824E+01 5.80929E+01-2.19257E-10 4.73247E-02-4.26150E+00 2.56744E-10
 -1       201-9.61344E+01 5.89216E+01 1.44320E-10 1.53998E-02-4.43614E+00 1.37029E-10
 -1       202-9.60849E+01 5.88913E+01 1.62234E-10-1.74749E-02-4.52161E+00-1.16011E-11
 -1       203-9.46068E+01 5.79854E+01 2.87936E-10-5.06461E-02-4.51796E+00-1.82234E-10
 -1       204-9.17012E+01 5.62045E+01 3.60054E-10-8.34661E-02-4.42658E+00-3.24554E-10
 -1       205-8.73969E+01 5.35664E+01 1.40449E-10-1.15302E-01-4.25016E+00-3.80532E-10
 -1       206-8.17497E+01 5.01052E+01 1.93726E-11-1.45544E-01-3.99268E+00-3.48310E-10
 -1       207-7.48410E+01 4.58707E+01 3.17337E-10-1.73618E-01-3.65940E+00-2.52876E-10
 -1       208-6.67759E+01 4.09276E+01 5.40478E-10-1.98993E-01-3.25671E+00-1.10148E-10
 -1       209-5.76819E+01 3.53538E+01 2.61353E-10-2.21186E-01-2.79210E+00 4.97696E-11
 -1       210-4.77057E+01 2.92392E+01 2.06010E-10-2.39774E-01-2.27399E+00 1.93111E-10
 -1       211-3.70109E+01 2.26843E+01 1.26362E-10-2.54401E-01-1.71165E+00 3.15620E-10
 -1       212-2.57754E+01 1.57979E+01 3.18252E-10-2.64777E-01-1.11497E+00 4.31006E-10
 -1       213-1.41876E+01 8.69569E+00 2.44787E-10-2.70689E-01-4.94387E-01 5.41763E-10
 -1       214-2.44372E+00 1.49775E+00 7.39158E-11-2.72002E-01 1.39365E-01 6.45017E-10
 -1       215 9.25598E+00-5.67312E+00 2.86685E-10-2.68659E-01 7.75395E-01 7.39344E-10
 -1       216 2.07105E+01-1.26937E+01 3.82265E-10-2.60684E-01 1.40286E+00 8.24719E-10
 -1       217 3.17216E+01-1.94425E+01 2.68753E-10-2.48179E-01 2.01113E+00 8.99880E-10
 -1       218 4.20970E+01-2.58017E+01-4.82833E-11-2.31321E-01 2.59001E+00 9.62188E-10
 -1       219 5.16538E+01-3.16591E+01 1.62794E-10-2.10361E-01 3.12988E+00 1.01706E-09
 -1       220 6.02213E+01-3.69102E+01-8.95129E-11-1.85620E-01 3.62187E+00 1.07320E-09
 -1       221 6.76440E+01-4.14597E+01-5.79455E-10-1.57476E-01 4.05805E+00 1.12681E-09
 -1       222 7.37842E+01-4.52231E+01-2.09580E-10-1.26366E-01 4.43154E+00 1.15767E-09
 -1       223 7.85237E+01-4.81280E+01 3.40073E-10-9.27689E-02 4.73665E+00 1.13592E-09
 -1       224 8.17661E+01-5.01153E+01 4.38289E-10-5.72037E-02 4.96898E+00 1.04064E-09
 -1       225 8.34380E+01-5.11400E+01 3.28340E-10-2.02149E-02 5.12553E+00 8.82955E-10
 -1       226 8.34898E+01-5.11718E+01 3.06784E-10 1.76351E-02 5.20475E+00 7.06886E-10
 -1       227 8.18965E+01-5.01953E+01 2.83133E-11 5.57790E-02 5.20660E+00 5.39419E-10
 -1       228 7.86575E+01-4.82101E+01-8.29564E-11 9.36545E-02 5.13257E+00 3.77375E-10
 -1       229 7.37961E+01-4.52305E+01 2.71474E-10 1.30715E-01 4.98565E+00 2.03847E-10
 -1       230 6.73587E+01-4.12850E+01 3.66234E-10 1.66442E-01 4.77037E+00 9.22822E-12
 -1       231 5.94133E+01-3.64151E+01 3.04847E-10 2.00356E-01 4.49269E+00-1.96703E-10
 -1       232 5.00474E+01-3.06747E+01 4.96964E-10 2.32026E-01 4.15999E+00-4.07296E-10
 -1       233 3.93664E+01-2.41282E+01 6.25912E-10 2.61077E-01 3.78097E+00-6.15395E-10
 -1       234 2.74897E+01-1.68489E+01 4.81232E-10 2.87207E-01 3.36552E+00-7.85053E-10
 -1       235 1.45485E+01-8.91719E+00 6.93745E-10 3.10187E-01 2.92469E+00-8.97486E-10
 -1       236 6.82198E-01-4.18420E-01 1.02631E-09 3.29874E-01 2.47046E+00-9.68417E-10
 -1       237-1.39659E+01 8.55953E+00 1.00512E-09 3.46214E-01 2.01573E+00-1.00203E-09
 -1       238-2.92524E+01 1.79287E+01 9.17972E-10 3.59253E-01 1.57407E+00-9.93300E-10
 -1       239-4.50376E+01 2.76036E+01 8.19221E-10 3.69136E-01 1.15969E+00-9.36600E-10
 -1       240-6.11909E+01 3.75040E+01 8.66315E-10 3.76114E-01 7.87233E-01-8.31696E-10
 -1       241-7.75949E+01 4.75581E+01 8.28529E-10 3.80547E-01 4.71706E-01-6.81913E-10
 -1       242-9.41501E+01 5.77049E+01 7.61349E-10 3.82905E-01 2.28343E-01-4.92331E-10
 -1       243-1.10780E+02 6.78973E+01 8.91601E-10 3.83771E-01 7.25239E-02-2.65012E-10
 -1       244-1.19105E+02 7.30000E+01 9.60313E-10 3.83874E-01 1.84292E-02 3.71510E-12
 -3
    1PSTEP                        12           1           1          
    1PGM                1.000000E+00                                  
    1PGK                2.130937E+06                                  
    1PHID                         -1                                  
    1PSUBC                         0                                  
    1PMODE                         3                                  
  100CL  103 232.3300906         244                     2    3MODAL      1
 -4  ERROR       1    1
 -5  STR(%)      1    1    0    0
 -1         1 1.01130E+00
 -1         2 1.41291E+01
 -1         3 7.74386E+01
 -1         4 1.09088E+02
 -1         5 1.18070E+02
 -1         6 1.20628E+02
 -1         7 1.21336E+02
 -1         8 1.21499E+02
 -1         9 1.21499E+02
 -1        10 1.21499E+02
 -1        11 1.21454E+02
 -1        12 1.21402E+02
 -1        13 1.21355E+02
 -1        14 1.21315E+02
 -1        15 1.21283E+02
 -1        16 1.21256E+02
 -1        17 1.21235E+02
 -1        18 1.21219E+02
 -1        19 1.21205E+02
 -1        20 1.21195E+02
 -1        21 1.21187E+02
 -1        22 1.21181E+02
 -1        23 1.21177E+02
 -1        24 1.21175E+02
 -1        25 1.21177E+02
 -1        26 1.21183E+02
 -1        27 1.21194E+02
 -1        28 1.21215E+02
 -1        29 1.21254E+02
 -1        30 1.21276E+02
 -1        31 1.21276E+02
 -1        32 1.20731E+02
 -1        33 1.20906E+02
 -1        34 1.20962E+02
 -1        35 1.20988E+02
 -1        36 1.21000E+02
 -1        37 1.21006E+02
 -1        38 1.21007E+02
 -1        39 1.21007E+02
 -1        40 1.21004E+02
 -1        41 1.20999E+02
 -1        42 1.20990E+02
 -1        43 1.20976E+02
 -1        44 1.20958E+02
 -1        45 1.20933E+02
 -1        46 1.20897E+02
 -1        47 1.20846E+02
 -1        48 1.20769E+02
 -1        49 1.20646E+02
 -1        50 1.20424E+02
 -1        51 1.19952E+02
 -1        52 1.18547E+02
 -1        53 1.07939E+02
 -1        54 1.20509E+02
 -1        55 1.21309E+02
 -1        56 1.21458E+02
 -1        57 1.21496E+02
 -1        58 1.21507E+02
 -1        59 1.21510E+02
 -1        60 1.21510E+02
 -1        61 1.21510E+02
 -1        62 1.01130E+00
 -1        63 1.41291E+01
 -1        64 7.74386E+01
 -1        65 1.09088E+02
 -1        66 1.18070E+02
 -1        67 1.20628E+02
 -1        68 1.21336E+02
 -1        69 1.21499E+02
 -1        70 1.21499E+02
 -1        71 1.21499E+02
 -1        72 1.21454E+02
 -1        73 1.21402E+02
 -1        74 1.21355E+02
 -1        75 1.21315E+02
 -1        76 1.21283E+02
 -1        77 1.21256E+02
 -1        78 1.21235E+02
 -1        79 1.21219E+02
 -1        80 1.21205E+02
 -1        81 1.21195E+02
 -1        82 1.21187E+02
 -1        83 1.21181E+02
 -1        84 1.21177E+02
 -1        85 1.21175E+02
 -1        86 1.21177E+02
 -1        87 1.21183E+02
 -1        88 1.21194E+02
 -1        89 1.21215E+02
 -1        90 1.21254E+02
 -1        91 1.21276E+02
 -1        92 1.21276E+02
 -1        93 1.20731E+02
 -1        94 1.20906E+02
 -1        95 1.20962E+02
 -1        96 1.20988E+02
 -1        97 1.21000E+02
 -1        98 1.21006E+02
 -1        99 1.21007E+02
 -1       100 1.21007E+02
 -1       101 1.21004E+02
 -1       102 1.20999E+02
 -1       103 1.20990E+02
 -1       104 1.20976E+02
 -1       105 1.20958E+02
 -1       106 1.20933E+02
 -1       107 1.20897E+02
 -1       108 1.20846E+02
 -1       109 1.20769E+02
 -1       110 1.20646E+02
 -1       111 1.20424E+02
 -1       112 1.19952E+02
 -1       113 1.18547E+02
 -1       114 1.07939E+02
 -1       115 1.20509E+02
 -1       116 1.21309E+02
 -1       117 1.21458E+02
 -1       118 1.21496E+02
 -1       119 1.21507E+02
 -1       120 1.21510E+02
 -1       121 1.21510E+02
 -1       122 1.21510E+02
 -1       123 1.01130E+00
 -1       124 1.41291E+01
 -1       125 7.74386E+01
 -1       126 1.09088E+02
 -1       127 1.18070E+02
 -1       128 1.20628E+02
 -1       129 1.21336E+02
 -1       130 1.21499E+02
 -1       131 1.21499E+02
 -1       132 1.21499E+02
 -1       133 1.21454E+02
 -1       134 1.21402E+02
 -1       135 1.21355E+02
 -1       136 1.21315E+02
 -1       137 1.21283E+02
 -1       138 1.21256E+02
 -1       139 1.21235E+02
 -1       140 1.21219E+02
 -1       141 1.21205E+02
 -1       142 1.21195E+02
 -1       143 1.21187E+02
 -1       144 1.21181E+02
 -1       145 1.21177E+02
 -1       146 1.21175E+02
 -1       147 1.21177E+02
 -1       148 1.21183E+02
 -1       149 1.21194E+02
 -1       150 1.21215E+02
 -1       151 1.21254E+02
 -1       152 1.21276E+02
 -1       153 1.21276E+02
 -1       154 1.20731E+02
 -1       155 1.20906E+02
 -1       156 1.20962E+02
 -1       157 1.20988E+02
 -1       158 1.21000E+02
 -1       159 1.21006E+02
 -1       160 1.21007E+02
 -1       161 1.21007E+02
 -1       162 1.21004E+02
 -1       163 1.20999E+02
 -1       164 1.20990E+02
 -1       165 1.20976E+02
 -1       166 1.20958E+02
 -1       167 1.20933E+02
 -1       168 1.20897E+02
 -1       169 1.20846E+02
 -1       170 1.20769E+02
 -1       171 1.20646E+02
 -1       172 1.20424E+02
 -1       173 1.19952E+02
 -1       174 1.18547E+02
 -1       175 1.07939E+02
 -1       176 1.20509E+02
 -1       177 1.21309E+02
 -1       178 1.21458E+02
 -1       179 1.21496E+02
 -1       180 1.21507E+02
 -1       181 1.21510E+02
 -1       182 1.21510E+02
 -1       183 1.21510E+02
 -1       184 1.01130E+00
 -1       185 1.41291E+01
 -1       186 7.74386E+01
 -1       187 1.09088E+02
 -1       188 1.18070E+02
 -1       189 1.20628E+02
 -1       190 1.21336E+02
 -1       191 1.21499E+02
 -1       192 1.21499E+02
 -1       193 1.21499E+02
 -1       194 1.21454E+02
 -1       195 1.21402E+02
 -1       196 1.21355E+02
 -1       197 1.21315E+02
 -1       198 1.21283E+02
 -1       199 1.21256E+02
 -1       200 1.21235E+02
 -1       201 1.21219E+02
 -1       202 1.21205E+02
 -1       203 1.21195E+02
 -1       204 1.21187E+02
 -1       205 1.21181E+02
 -1       206 1.21177E+02
 -1       207 1.21175E+02
 -1       208 1.21177E+02
 -1       209 1.21183E+02
 -1       210 1.21194E+02
 -1       211 1.21215E+02
 -1       212 1.21254E+02
 -1       213 1.21276E+02
 -1       214 1.21276E+02
 -1       215 1.20731E+02
 -1       216 1.20906E+02
 -1       217 1.20962E+02
 -1       218 1.20988E+02
 -1       219 1.21000E+02
 -1       220 1.21006E+02
 -1       221 1.21007E+02
 -1       222 1.21007E+02
 -1       223 1.21004E+02
 -1       224 1.20999E+02
 -1       225 1.20990E+02
 -1       226 1.20976E+02
 -1       227 1.20958E+02
 -1       228 1.20933E+02
 -1       229 1.20897E+02
 -1       230 1.20846E+02
 -1       231 1.20769E+02
 -1       232 1.20646E+02
 -1       233 1.20424E+02
 -1       234 1.19952E+02
 -1       235 1.18547E+02
 -1       236 1.07939E+02
 -1       237 1.20509E+02
 -1       238 1.21309E+02
 -1       239 1.21458E+02
 -1       240 1.21496E+02
 -1       241 1.21507E+02
 -1       242 1.21510E+02
 -1       243 1.21510E+02
 -1       244 1.21510E+02
 -3
    1PSTEP                        13           1           1          
    1PGM                1.000000E+00                                  
    1PGK                8.111395E+06                                  
    1PHID                         -1                                  
    1PSUBC                         0                                  
    1PMODE                         4                                  
  100CL  104 453.2813954         244                     2    4MODAL      1
 -4  DISP        4    1
 -5  D1          1    2    1    0
 -5  D2          1    2    2    0
 -5  D3          1    2    3    0
 -5  ALL         1    2    0    0    1ALL
 -1         1-7.87046E-01-1.00062E+02 0.00000E+00
 -1         2-7.86277E-01-8.17058E+01 0.00000E+00
 -1         3-7.81174E-01-6.34182E+01 0.00000E+00
 -1         4-7.68220E-01-4.53410E+01 0.00000E+00
 -1         5-7.44777E-01-2.76882E+01 0.00000E+00
 -1         6-7.09074E-01-1.07256E+01 0.00000E+00
 -1         7-6.60181E-01 5.25003E+00 0.00000E+00
 -1         8-5.97965E-01 1.99294E+01 0.00000E+00
 -1         9-5.23035E-01 3.30086E+01 0.00000E+00
 -1        10-4.36676E-01 4.42060E+01 0.00000E+00
 -1        11-3.40760E-01 5.32767E+01 0.00000E+00
 -1        12-2.37650E-01 6.00253E+01 0.00000E+00
 -1        13-1.30094E-01 6.43158E+01 0.00000E+00
 -1        14-2.11056E-02 6.60799E+01 0.00000E+00
 -1        15 8.61518E-02 6.53208E+01 0.00000E+00
 -1        16 1.88493E-01 6.21163E+01 0.00000E+00
 -1        17 2.82828E-01 5.66169E+01 0.00000E+00
 -1        18 3.66278E-01 4.90433E+01 0.00000E+00
 -1        19 4.36281E-01 3.96792E+01 0.00000E+00
 -1        20 4.90686E-01 2.88635E+01 0.00000E+00
 -1        21 5.27830E-01 1.69797E+01 0.00000E+00
 -1        22 5.46603E-01 4.44345E+00 0.00000E+00
 -1        23 5.46485E-01-8.31042E+00 0.00000E+00
 -1        24 5.27569E-01-2.08423E+01 0.00000E+00
 -1        25 4.90562E-01-3.27216E+01 0.00000E+00
 -1        26 4.36764E-01-4.35414E+01 0.00000E+00
 -1        27 3.68023E-01-5.29314E+01 0.00000E+00
 -1        28 2.86678E-01-6.05704E+01 0.00000E+00
 -1        29 1.95483E-01-6.61961E+01 0.00000E+00
 -1        30 9.75089E-02-6.96146E+01 0.00000E+00
 -1        31-3.95016E-03-7.07063E+01 0.00000E+00
 -1        32-1.05491E-01-6.94294E+01 0.00000E+00
 -1        33-2.03717E-01-6.58216E+01 0.00000E+00
 -1        34-2.95348E-01-5.99987E+01 0.00000E+00
 -1        35-3.77333E-01-5.21500E+01 0.00000E+00
 -1        36-4.46954E-01-4.25324E+01 0.00000E+00
 -1        37-5.01914E-01-3.14613E+01 0.00000E+00
 -1        38-5.40420E-01-1.92996E+01 0.00000E+00
 -1        39-5.61241E-01-6.44573E+00 0.00000E+00
 -1        40-5.63751E-01 6.68034E+00 0.00000E+00
 -1        41-5.47958E-01 1.96514E+01 0.00000E+00
 -1        42-5.14499E-01 3.20479E+01 0.00000E+00
 -1        43-4.64629E-01 4.34721E+01 0.00000E+00
 -1        44-4.00178E-01 5.35624E+01 0.00000E+00
 -1        45-3.23498E-01 6.20060E+01 0.00000E+00
 -1        46-2.37393E-01 6.85502E+01 0.00000E+00
 -1        47-1.45027E-01 7.30121E+01 0.00000E+00
 -1        48-4.98337E-02 7.52856E+01 0.00000E+00
 -1        49 4.45924E-02 7.53466E+01 0.00000E+00
 -1        50 1.34598E-01 7.32557E+01 0.00000E+00
 -1        51 2.16580E-01 6.91581E+01 0.00000E+00
 -1        52 2.87086E-01 6.32812E+01 0.00000E+00
 -1        53 3.42904E-01 5.59305E+01 0.00000E+00
 -1        54 3.81143E-01 4.74822E+01 0.00000E+00
 -1        55 3.99298E-01 3.83758E+01 0.00000E+00
 -1        56 3.95285E-01 2.91043E+01 0.00000E+00
 -1        57 3.67469E-01 2.02042E+01 0.00000E+00
 -1        58 3.14653E-01 1.22448E+01 0.00000E+00
 -1        59 2.36052E-01 5.81847E+00 0.00000E+00
 -1        60 1.31227E-01 1.53223E+00 0.00000E+00
 -1        61 0.00000E+00 0.00000E+00 0.00000E+00
 -1        62-7.87046E-01-1.00062E+02 0.00000E+00
 -1        63-7.86277E-01-8.17058E+01 0.00000E+00
 -1        64-7.81174E-01-6.34182E+01 0.00000E+00
 -1        65-7.68220E-01-4.53410E+01 0.00000E+00
 -1        66-7.44777E-01-2.76882E+01 0.00000E+00
 -1        67-7.09074E-01-1.07256E+01 0.00000E+00
 -1        68-6.60181E-01 5.25003E+00 0.00000E+00
 -1        69-5.97965E-01 1.99294E+01 0.00000E+00
 -1        70-5.23035E-01 3.30086E+01 0.00000E+00
 -1        71-4.36676E-01 4.42060E+01 0.00000E+00
 -1        72-3.40760E-01 5.32767E+01 0.00000E+00
 -1        73-2.37650E-01 6.00253E+01 0.00000E+00
 -1        74-1.30094E-01 6.43158E+01 0.00000E+00
 -1        75-2.11056E-02 6.60799E+01 0.00000E+00
 -1        76 8.61518E-02 6.53208E+01 0.00000E+00
 -1        77 1.88493E-01 6.21163E+01 0.00000E+00
 -1        78 2.82828E-01 5.66169E+01 0.00000E+00
 -1        79 3.66278E-01 4.90433E+01 0.00000E+00
 -1        80 4.36281E-01 3.96792E+01 0.00000E+00
 -1        81 4.90686E-01 2.88635E+01 0.00000E+00
 -1        82 5.27830E-01 1.69797E+01 0.00000E+00
 -1        83 5.46603E-01 4.44345E+00 0.00000E+00
 -1        84 5.46485E-01-8.31042E+00 0.00000E+00
 -1        85 5.27569E-01-2.08423E+01 0.00000E+00
 -1        86 4.90562E-01-3.27216E+01 0.00000E+00
 -1        87 4.36764E-01-4.35414E+01 0.00000E+00
 -1        88 3.68023E-01-5.29314E+01 0.00000E+00
 -1        89 2.86678E-01-6.05704E+01 0.00000E+00
 -1        90 1.95483E-01-6.61961E+01 0.00000E+00
 -1        91 9.75089E-02-6.96146E+01 0.00000E+00
 -1        92-3.95016E-03-7.07063E+01 0.00000E+00
 -1        93-1.05491E-01-6.94294E+01 0.00000E+00
 -1        94-2.03717E-01-6.58216E+01 0.00000E+00
 -1        95-2.95348E-01-5.99987E+01 0.00000E+00
 -1        96-3.77333E-01-5.21500E+01 0.00000E+00
 -1        97-4.46954E-01-4.25324E+01 0.00000E+00
 -1        98-5.01914E-01-3.14613E+01 0.00000E+00
 -1        99-5.40420E-01-1.92996E+01 0.00000E+00
 -1       100-5.61241E-01-6.44573E+00 0.00000E+00
 -1       101-5.63751E-01 6.68034E+00 0.00000E+00
 -1       102-5.47958E-01 1.96514E+01 0.00000E+00
 -1       103-5.14499E-01 3.20479E+01 0.00000E+00
 -1       104-4.64629E-01 4.34721E+01 0.00000E+00
 -1       105-4.00178E-01 5.35624E+01 0.00000E+00
 -1       106-3.23498E-01 6.20060E+01 0.00000E+00
 -1       107-2.37393E-01 6.85502E+01 0.00000E+00
 -1       108-1.45027E-01 7.30121E+01 0.00000E+00
 -1       109-4.98337E-02 7.52856E+01 0.00000E+00
 -1       110 4.45924E-02 7.53466E+01 0.00000E+00
 -1       111 1.34598E-01 7.32557E+01 0.00000E+00
 -1       112 2.16580E-01 6.91581E+01 0.00000E+00
 -1       113 2.87086E-01 6.32812E+01 0.00000E+00
 -1       114 3.42904E-01 5.59305E+01 0.00000E+00
 -1       115 3.81143E-01 4.74822E+01 0.00000E+00
 -1       116 3.99298E-01 3.83758E+01 0.00000E+00
 -1       117 3.95285E-01 2.91043E+01 0.00000E+00
 -1       118 3.67469E-01 2.02042E+01 0.00000E+00
 -1       119 3.14653E-01 1.22448E+01 0.00000E+00
 -1       120 2.36052E-01 5.81847E+00 0.00000E+00
 -1       121 1.31227E-01 1.53223E+00 0.00000E+00
 -1       122 0.00000E+00 0.00000E+00 0.00000E+00
 -1       123 7.87046E-01-1.00062E+02 0.00000E+00
 -1       124 7.86277E-01-8.17058E+01 0.00000E+00
 -1       125 7.81174E-01-6.34182E+01 0.00000E+00
 -1       126 7.68220E-01-4.53410E+01 0.00000E+00
 -1       127 7.44777E-01-2.76882E+01 0.00000E+00
 -1       128 7.09074E-01-1.07256E+01 0.00000E+00
 -1       129 6.60181E-01 5.25003E+00 0.00000E+00
 -1       130 5.97965E-01 1.99294E+01 0.00000E+00
 -1       131 5.23035E-01 3.30086E+01 0.00000E+00
 -1       132 4.36676E-01 4.42060E+01 0.00000E+00
 -1       133 3.40760E-01 5.32767E+01 0.00000E+00
 -1       134 2.37650E-01 6.00253E+01 0.00000E+00
 -1       135 1.30094E-01 6.43158E+01 0.00000E+00
 -1       136 2.11056E-02 6.60799E+01 0.00000E+00
 -1       137-8.61518E-02 6.53208E+01 0.00000E+00
 -1       138-1.88493E-01 6.21163E+01 0.00000E+00
 -1       139-2.82828E-01 5.66169E+01 0.00000E+00
 -1       140-3.66278E-01 4.90433E+01 0.00000E+00
 -1       141-4.36281E-01 3.96792E+01 0.00000E+00
 -1       142-4.90686E-01 2.88635E+01 0.00000E+00
 -1       143-5.27830E-01 1.69797E+01 0.00000E+00
 -1       144-5.46603E-01 4.44345E+00 0.00000E+00
 -1       145-5.46485E-01-8.31042E+00 0.00000E+00
 -1       146-5.27569E-01-2.08423E+01 0.00000E+00
 -1       147-4.90562E-01-3.27216E+01 0.00000E+00
 -1       148-4.36764E-01-4.35414E+01 0.00000E+00
 -1       149-3.68023E-01-5.29314E+01 0.00000E+00
 -1       150-2.86678E-01-6.05704E+01 0.00000E+00
 -1       151-1.95483E-01-6.61961E+01 0.00000E+00
 -1       152-9.75089E-02-6.96146E+01 0.00000E+00
 -1       153 3.95016E-03-7.07063E+01 0.00000E+00
 -1       154 1.05491E-01-6.94294E+01 0.00000E+00
 -1       155 2.03717E-01-6.58216E+01 0.00000E+00
 -1       156 2.95348E-01-5.99987E+01 0.00000E+00
 -1       157 3.77333E-01-5.21500E+01 0.00000E+00
 -1       158 4.46954E-01-4.25324E+01 0.00000E+00
 -1       159 5.01914E-01-3.14613E+01 0.00000E+00
 -1       160 5.40420E-01-1.92996E+01 0.00000E+00
 -1       161 5.61241E-01-6.44573E+00 0.00000E+00
 -1       162 5.63751E-01 6.68034E+00 0.00000E+00
 -1       163 5.47958E-01 1.96514E+01 0.00000E+00
 -1       164 5.14499E-01 3.20479E+01 0.00000E+00
 -1       165 4.64629E-01 4.34721E+01 0.00000E+00
 -1       166 4.00178E-01 5.35624E+01 0.00000E+00
 -1       167 3.23498E-01 6.20060E+01 0.00000E+00
 -1       168 2.37393E-01 6.85502E+01 0.00000E+00
 -1       169 1.45027E-01 7.30121E+01 0.00000E+00
 -1       170 4.98337E-02 7.52856E+01 0.00000E+00
 -1       171-4.45924E-02 7.53466E+01 0.00000E+00
 -1       172-1.34598E-01 7.32557E+01 0.00000E+00
 -1       173-2.16580E-01 6.91581E+01 0.00000E+00
 -1       174-2.87086E-01 6.32812E+01 0.00000E+00
 -1       175-3.42904E-01 5.59305E+01 0.00000E+00
 -1       176-3.81143E-01 4.74822E+01 0.00000E+00
 -1       177-3.99298E-01 3.83758E+01 0.00000E+00
 -1       178-3.95285E-01 2.91043E+01 0.00000E+00
 -1       179-3.67469E-01 2.02042E+01 0.00000E+00
 -1       180-3.14653E-01 1.22448E+01 0.00000E+00
 -1       181-2.36052E-01 5.81847E+00 0.00000E+00
 -1       182-1.31227E-01 1.53223E+00 0.00000E+00
 -1       183 0.00000E+00 0.00000E+00 0.00000E+00
 -1       184 7.87046E-01-1.00062E+02 0.00000E+00
 -1       185 7.86277E-01-8.17058E+01 0.00000E+00
 -1       186 7.81174E-01-6.34182E+01 0.00000E+00
 -1       187 7.68220E-01-4.53410E+01 0.00000E+00
 -1       188 7.44777E-01-2.76882E+01 0.00000E+00
 -1       189 7.09074E-01-1.07256E+01 0.00000E+00
 -1       190 6.60181E-01 5.25003E+00 0.00000E+00
 -1       191 5.97965E-01 1.99294E+01 0.00000E+00
 -1       192 5.23035E-01 3.30086E+01 0.00000E+00
 -1       193 4.36676E-01 4.42060E+01 0.00000E+00
 -1       194 3.40760E-01 5.32767E+01 0.00000E+00
 -1       195 2.37650E-01 6.00253E+01 0.00000E+00
 -1       196 1.30094E-01 6.43158E+01 0.00000E+00
 -1       197 2.11056E-02 6.60799E+01 0.00000E+00
 -1       198-8.61518E-02 6.53208E+01 0.00000E+00
 -1       199-1.88493E-01 6.21163E+01 0.00000E+00
 -1       200-2.82828E-01 5.66169E+01 0.00000E+00
 -1       201-3.66278E-01 4.90433E+01 0.00000E+00
 -1       202-4.36281E-01 3.96792E+01 0.00000E+00
 -1       203-4.90686E-01 2.88635E+01 0.00000E+00
 -1       204-5.27830E-01 1.69797E+01 0.00000E+00
 -1       205-5.46603E-01 4.44345E+00 0.00000E+00
 -1       206-5.46485E-01-8.31042E+00 0.00000E+00
 -1       207-5.27569E-01-2.08423E+01 0.00000E+00
 -1       208-4.90562E-01-3.27216E+01 0.00000E+00
 -1       209-4.36764E-01-4.35414E+01 0.00000E+00
 -1       210-3.68023E-01-5.29314E+01 0.00000E+00
 -1       211-2.86678E-01-6.05704E+01 0.00000E+00
 -1       212-1.95483E-01-6.61961E+01 0.00000E+00
 -1       213-9.75089E-02-6.96146E+01 0.00000E+00
 -1       214 3.95016E-03-7.07063E+01 0.00000E+00
 -1       215 1.05491E-01-6.94294E+01 0.00000E+00
 -1       216 2.03717E-01-6.58216E+01 0.00000E+00
 -1       217 2.95348E-01-5.99987E+01 0.00000E+00
 -1       218 3.77333E-01-5.21500E+01 0.00000E+00
 -1       219 4.46954E-01-4.25324E+01 0.00000E+00
 -1       220 5.01914E-01-3.14613E+01 0.00000E+00
 -1       221 5.40420E-01-1.92996E+01 0.00000E+00
 -1       222 5.61241E-01-6.44573E+00 0.00000E+00
 -1       223 5.63751E-01 6.68034E+00 0.00000E+00
 -1       224 5.47958E-01 1.96514E+01 0.00000E+00
 -1       225 5.14499E-01 3.20479E+01 0.00000E+00
 -1       226 4.64629E-01 4.34721E+01 0.00000E+00
 -1       227 4.00178E-01 5.35624E+01 0.00000E+00
 -1       228 3.23498E-01 6.20060E+01 0.00000E+00
 -1       229 2.37393E-01 6.85502E+01 0.00000E+00
 -1       230 1.45027E-01 7.30121E+01 0.00000E+00
 -1       231 4.98337E-02 7.52856E+01 0.00000E+00
 -1       232-4.45924E-02 7.53466E+01 0.00000E+00
 -1       233-1.34598E-01 7.32557E+01 0.00000E+00
 -1       234-2.16580E-01 6.91581E+01 0.00000E+00
 -1       235-2.87086E-01 6.32812E+01 0.00000E+00
 -1       236-3.42904E-01 5.59305E+01 0.00000E+00
 -1       237-3.81143E-01 4.74822E+01 0.00000E+00
 -1       238-3.99298E-01 3.83758E+01 0.00000E+00
 -1       239-3.95285E-01 2.91043E+01 0.00000E+00
 -1       240-3.67469E-01 2.02042E+01 0.00000E+00
 -1       241-3.14653E-01 1.22448E+01 0.00000E+00
 -1       242-2.36052E-01 5.81847E+00 0.00000E+00
 -1       243-1.31227E-01 1.53223E+00 0.00000E+00
 -1       244 0.00000E+00 0.00000E+00 0.00000E+00
 -3
    1PSTEP                        14           1           1          
    1PGM                1.000000E+00                                  
    1PGK                8.111395E+06                                  
    1PHID                         -1                                  
    1PSUBC                         0                                  
    1PMODE                         4                                  
  100CL  104 453.2813954         244                     2    4MODAL      1
 -4  STRESS      6    1
 -5  SXX         1    4    1    1
 -5  SYY         1    4    2    2
 -5  SZZ         1    4    3    3
 -5  SXY         1    4    1    2
 -5  SYZ         1    4    2    3
 -5  SZX         1    4    3    1
 -1         1-7.42611E+09-2.59753E+07-2.83179E+09-1.00500E+07 8.31226E+10 3.25906E+00
 -1         2-2.82812E+10-2.33558E+07-1.07557E+10-6.16127E+08 7.47400E+10 3.26156E+00
 -1         3-8.69293E+10-1.81357E+07-3.30400E+10-1.09989E+09 5.80354E+10 3.27437E+00
 -1         4-1.75209E+11-1.29792E+07-6.65845E+10-1.46220E+09 4.15342E+10 3.26716E+00
 -1         5-2.84707E+11-7.94640E+06-1.08192E+11-1.70511E+09 2.54291E+10 3.19265E+00
 -1         6-4.07211E+11-3.11234E+06-1.54742E+11-1.83227E+09 9.95995E+09 3.04599E+00
 -1         7-5.34838E+11 1.43897E+06-2.03238E+11-1.84927E+09-4.60461E+09 2.87443E+00
 -1         8-6.60165E+11 5.62003E+06-2.50861E+11-1.76370E+09-1.79844E+10 2.75029E+00
 -1         9-7.76375E+11 9.34484E+06-2.95019E+11-1.58525E+09-2.99040E+10 2.69663E+00
 -1        10-8.77395E+11 1.25335E+07-3.33405E+11-1.32556E+09-4.01082E+10 2.70600E+00
 -1        11-9.58025E+11 1.51168E+07-3.64044E+11-9.98040E+08-4.83747E+10 2.71617E+00
 -1        12-1.01405E+12 1.70391E+07-3.85334E+11-6.17587E+08-5.45263E+10 2.73245E+00
 -1        13-1.04235E+12 1.82621E+07-3.96085E+11-2.00211E+08-5.84402E+10 2.81585E+00
 -1        14-1.04091E+12 1.87665E+07-3.95538E+11 2.37393E+08-6.00541E+10 2.90717E+00
 -1        15-1.00891E+12 1.85532E+07-3.83381E+11 6.78300E+08-5.93717E+10 2.99598E+00
 -1        16-9.46712E+11 1.76445E+07-3.59744E+11 1.10586E+09-5.64636E+10 3.09970E+00
 -1        17-8.55777E+11 1.60832E+07-3.25189E+11 1.50420E+09-5.14674E+10 3.12369E+00
 -1        18-7.38653E+11 1.39322E+07-2.80683E+11 1.85867E+09-4.45835E+10 3.02002E+00
 -1        19-5.98843E+11 1.12720E+07-2.27556E+11 2.15631E+09-3.60705E+10 2.78627E+00
 -1        20-4.40677E+11 8.19896E+06-1.67454E+11 2.38626E+09-2.62366E+10 2.42737E+00
 -1        21-2.69161E+11 4.82218E+06-1.02279E+11 2.54008E+09-1.54307E+10 2.01661E+00
 -1        22-8.97937E+10 1.25983E+06-3.41211E+10 2.61199E+09-4.03096E+09 1.61100E+00
 -1        23 9.16222E+10-2.36449E+06 3.48155E+10 2.59910E+09 7.56710E+09 1.20899E+00
 -1        24 2.69185E+11-5.92576E+06 1.02288E+11 2.50140E+09 1.89635E+10 7.82944E-01
 -1        25 4.37093E+11-9.30167E+06 1.66092E+11 2.32185E+09 2.97666E+10 3.26141E-01
 -1        26 5.89848E+11-1.23765E+07 2.24137E+11 2.06617E+09 3.96063E+10-1.19811E-01
 -1        27 7.22443E+11-1.50451E+07 2.74523E+11 1.74272E+09 4.81457E+10-4.67761E-01
 -1        28 8.30531E+11-1.72159E+07 3.15595E+11 1.36216E+09 5.50925E+10-7.27173E-01
 -1        29 9.10577E+11-1.88146E+07 3.46012E+11 9.37118E+08 6.02084E+10-9.96419E-01
 -1        30 9.59977E+11-1.97860E+07 3.64784E+11 4.81746E+08 6.33169E+10-1.28954E+00
 -1        31 9.77148E+11-2.00961E+07 3.71309E+11 1.12416E+07 6.43090E+10-1.50113E+00
 -1        32 9.61587E+11-1.97330E+07 3.65396E+11-4.58644E+08 6.31468E+10-1.59909E+00
 -1        33 9.13884E+11-1.87073E+07 3.47269E+11-9.12156E+08 5.98647E+10-1.67979E+00
 -1        34 8.35711E+11-1.70520E+07 3.17564E+11-1.33405E+09 5.45678E+10-1.79167E+00
 -1        35 7.29764E+11-1.48210E+07 2.77305E+11-1.71012E+09 4.74283E+10-1.95487E+00
 -1        36 5.99677E+11-1.20871E+07 2.27873E+11-2.02762E+09 3.86799E+10-2.15102E+00
 -1        37 4.49903E+11-8.94015E+06 1.70960E+11-2.27576E+09 2.86092E+10-2.31886E+00
 -1        38 2.85569E+11-5.48311E+06 1.08514E+11-2.44601E+09 1.75465E+10-2.43728E+00
 -1        39 1.12305E+11-1.82932E+06 4.26754E+10-2.53239E+09 5.85398E+09-2.50360E+00
 -1        40-6.39352E+10 1.90193E+06-2.42947E+10-2.53168E+09-6.08638E+09-2.50623E+00
 -1        41-2.37075E+11 5.58923E+06-9.00865E+10-2.44347E+09-1.78862E+10-2.42688E+00
 -1        42-4.01109E+11 9.11338E+06-1.52418E+11-2.27022E+09-2.91637E+10-2.25767E+00
 -1        43-5.50294E+11 1.23613E+07-2.09107E+11-2.01712E+09-3.95575E+10-2.02713E+00
 -1        44-6.79339E+11 1.52304E+07-2.58143E+11-1.69191E+09-4.87387E+10-1.73925E+00
 -1        45-7.83571E+11 1.76316E+07-2.97750E+11-1.30458E+09-5.64229E+10-1.36797E+00
 -1        46-8.59077E+11 1.94933E+07-3.26442E+11-8.67033E+08-6.23806E+10-8.74355E-01
 -1        47-9.02823E+11 2.07634E+07-3.43065E+11-3.92627E+08-6.64454E+10-2.31895E-01
 -1        48-9.12739E+11 2.14120E+07-3.46833E+11 1.04310E+08-6.85211E+10 5.36303E-01
 -1        49-8.87766E+11 2.14323E+07-3.37343E+11 6.09014E+08-6.85861E+10 1.39458E+00
 -1        50-8.27868E+11 2.08416E+07-3.14582E+11 1.10683E+09-6.66958E+10 2.29971E+00
 -1        51-7.34004E+11 1.96814E+07-2.78914E+11 1.58381E+09-6.29826E+10 3.07750E+00
 -1        52-6.08062E+11 1.80163E+07-2.31057E+11 2.02723E+09-5.76540E+10 3.62814E+00
 -1        53-4.52748E+11 1.59333E+07-1.72038E+11 2.42617E+09-5.09881E+10 4.02491E+00
 -1        54-2.71452E+11 1.35396E+07-1.03146E+11 2.77197E+09-4.33279E+10 4.28156E+00
 -1        55-6.80643E+10 1.09604E+07-2.58603E+10 3.05873E+09-3.50741E+10 4.35018E+00
 -1        56 1.53219E+11 8.33614E+06 5.82265E+10 3.28363E+09-2.66758E+10 4.18225E+00
 -1        57 3.88133E+11 5.81953E+06 1.47493E+11 3.44732E+09-1.86222E+10 3.77106E+00
 -1        58 6.32590E+11 3.57287E+06 2.40386E+11 3.55415E+09-1.14324E+10 3.12919E+00
 -1        59 8.82943E+11 1.76510E+06 3.35519E+11 3.61236E+09-5.64716E+09 2.27966E+00
 -1        60 1.13626E+12 5.69299E+05 4.31780E+11 3.63416E+09-1.82027E+09 1.23670E+00
 -1        61 1.26335E+12 1.46237E+05 4.80073E+11 3.63681E+09-4.66271E+08 1.91711E-02
 -1        62-7.42611E+09-2.59753E+07-2.83179E+09-1.00500E+07-8.31226E+10 3.27723E+00
 -1        63-2.82812E+10-2.33558E+07-1.07557E+10-6.16127E+08-7.47400E+10 3.28077E+00
 -1        64-8.69293E+10-1.81357E+07-3.30400E+10-1.09989E+09-5.80354E+10 3.29300E+00
 -1        65-1.75209E+11-1.29792E+07-6.65845E+10-1.46220E+09-4.15342E+10 3.28525E+00
 -1        66-2.84707E+11-7.94649E+06-1.08192E+11-1.70511E+09-2.54291E+10 3.21179E+00
 -1        67-4.07211E+11-3.11248E+06-1.54742E+11-1.83227E+09-9.95995E+09 3.06512E+00
 -1        68-5.34838E+11 1.43886E+06-2.03238E+11-1.84927E+09 4.60461E+09 2.89406E+00
 -1        69-6.60165E+11 5.61999E+06-2.50861E+11-1.76370E+09 1.79844E+10 2.76939E+00
 -1        70-7.76375E+11 9.34480E+06-2.95019E+11-1.58525E+09 2.99040E+10 2.71218E+00
 -1        71-8.77395E+11 1.25335E+07-3.33405E+11-1.32556E+09 4.01082E+10 2.71652E+00
 -1        72-9.58025E+11 1.51168E+07-3.64044E+11-9.98040E+08 4.83747E+10 2.72700E+00
 -1        73-1.01405E+12 1.70392E+07-3.85334E+11-6.17587E+08 5.45263E+10 2.74799E+00
 -1        74-1.04235E+12 1.82622E+07-3.96085E+11-2.00211E+08 5.84402E+10 2.83108E+00
 -1        75-1.04091E+12 1.87666E+07-3.95538E+11 2.37393E+08 6.00541E+10 2.92164E+00
 -1        76-1.00891E+12 1.85533E+07-3.83381E+11 6.78300E+08 5.93717E+10 3.01208E+00
 -1        77-9.46712E+11 1.76446E+07-3.59744E+11 1.10586E+09 5.64636E+10 3.11911E+00
 -1        78-8.55777E+11 1.60832E+07-3.25189E+11 1.50420E+09 5.14674E+10 3.14085E+00
 -1        79-7.38653E+11 1.39320E+07-2.80683E+11 1.85867E+09 4.45835E+10 3.03317E+00
 -1        80-5.98843E+11 1.12717E+07-2.27556E+11 2.15631E+09 3.60705E+10 2.80092E+00
 -1        81-4.40677E+11 8.19863E+06-1.67454E+11 2.38626E+09 2.62366E+10 2.44295E+00
 -1        82-2.69161E+11 4.82182E+06-1.02279E+11 2.54008E+09 1.54307E+10 2.03037E+00
 -1        83-8.97937E+10 1.25946E+06-3.41211E+10 2.61199E+09 4.03096E+09 1.62329E+00
 -1        84 9.16222E+10-2.36485E+06 3.48155E+10 2.59910E+09-7.56710E+09 1.22279E+00
 -1        85 2.69185E+11-5.92616E+06 1.02288E+11 2.50140E+09-1.89635E+10 7.97478E-01
 -1        86 4.37093E+11-9.30207E+06 1.66092E+11 2.32185E+09-2.97666E+10 3.38087E-01
 -1        87 5.89848E+11-1.23769E+07 2.24137E+11 2.06617E+09-3.96063E+10-1.09528E-01
 -1        88 7.22443E+11-1.50454E+07 2.74523E+11 1.74272E+09-4.81457E+10-4.54153E-01
 -1        89 8.30531E+11-1.72162E+07 3.15595E+11 1.36216E+09-5.50925E+10-7.14108E-01
 -1        90 9.10577E+11-1.88149E+07 3.46012E+11 9.37118E+08-6.02084E+10-9.84165E-01
 -1        91 9.59977E+11-1.97862E+07 3.64784E+11 4.81746E+08-6.33169E+10-1.27630E+00
 -1        92 9.77148E+11-2.00962E+07 3.71309E+11 1.12415E+07-6.43090E+10-1.48793E+00
 -1        93 9.61587E+11-1.97330E+07 3.65396E+11-4.58644E+08-6.31468E+10-1.58553E+00
 -1        94 9.13884E+11-1.87074E+07 3.47269E+11-9.12156E+08-5.98647E+10-1.66483E+00
 -1        95 8.35711E+11-1.70522E+07 3.17564E+11-1.33405E+09-5.45678E+10-1.77733E+00
 -1        96 7.29764E+11-1.48211E+07 2.77305E+11-1.71012E+09-4.74283E+10-1.94540E+00
 -1        97 5.99677E+11-1.20873E+07 2.27873E+11-2.02762E+09-3.86799E+10-2.14430E+00
 -1        98 4.49903E+11-8.94025E+06 1.70960E+11-2.27576E+09-2.86092E+10-2.31212E+00
 -1        99 2.85569E+11-5.48321E+06 1.08514E+11-2.44601E+09-1.75465E+10-2.43047E+00
 -1       100 1.12305E+11-1.82934E+06 4.26754E+10-2.53239E+09-5.85398E+09-2.49998E+00
 -1       101-6.39352E+10 1.90198E+06-2.42947E+10-2.53168E+09 6.08639E+09-2.50461E+00
 -1       102-2.37075E+11 5.58938E+06-9.00865E+10-2.44347E+09 1.78862E+10-2.42573E+00
 -1       103-4.01109E+11 9.11358E+06-1.52418E+11-2.27022E+09 2.91637E+10-2.25642E+00
 -1       104-5.50294E+11 1.23616E+07-2.09107E+11-2.01712E+09 3.95575E+10-2.02263E+00
 -1       105-6.79339E+11 1.52307E+07-2.58143E+11-1.69191E+09 4.87387E+10-1.73423E+00
 -1       106-7.83571E+11 1.76320E+07-2.97750E+11-1.30458E+09 5.64229E+10-1.36584E+00
 -1       107-8.59077E+11 1.94938E+07-3.26442E+11-8.67033E+08 6.23806E+10-8.73795E-01
 -1       108-9.02823E+11 2.07641E+07-3.43065E+11-3.92628E+08 6.64454E+10-2.29672E-01
 -1       109-9.12739E+11 2.14128E+07-3.46833E+11 1.04309E+08 6.85211E+10 5.38146E-01
 -1       110-8.87766E+11 2.14331E+07-3.37343E+11 6.09014E+08 6.85861E+10 1.39399E+00
 -1       111-8.27868E+11 2.08424E+07-3.14582E+11 1.10683E+09 6.66958E+10 2.29990E+00
 -1       112-7.34004E+11 1.96820E+07-2.78914E+11 1.58381E+09 6.29826E+10 3.07966E+00
 -1       113-6.08062E+11 1.80167E+07-2.31057E+11 2.02723E+09 5.76540E+10 3.62945E+00
 -1       114-4.52748E+11 1.59336E+07-1.72038E+11 2.42617E+09 5.09881E+10 4.02552E+00
 -1       115-2.71452E+11 1.35398E+07-1.03146E+11 2.77197E+09 4.33279E+10 4.28357E+00
 -1       116-6.80643E+10 1.09604E+07-2.58603E+10 3.05873E+09 3.50741E+10 4.35366E+00
 -1       117 1.53219E+11 8.33592E+06 5.82265E+10 3.28363E+09 2.66758E+10 4.18627E+00
 -1       118 3.88133E+11 5.81911E+06 1.47493E+11 3.44732E+09 1.86222E+10 3.77407E+00
 -1       119 6.32590E+11 3.57226E+06 2.40386E+11 3.55416E+09 1.14324E+10 3.13065E+00
 -1       120 8.82943E+11 1.76431E+06 3.35519E+11 3.61236E+09 5.64716E+09 2.27980E+00
 -1       121 1.13626E+12 5.68348E+05 4.31780E+11 3.63416E+09 1.82027E+09 1.23599E+00
 -1       122 1.26335E+12 1.45177E+05 4.80073E+11 3.63680E+09 4.66271E+08 1.80886E-02
 -1       123 7.42611E+09 2.59753E+07 2.83179E+09-1.00500E+07 8.31226E+10-2.01498E+00
 -1       124 2.82812E+10 2.33558E+07 1.07557E+10-6.16127E+08 7.47400E+10-2.02219E+00
 -1       125 8.69293E+10 1.81357E+07 3.30400E+10-1.09989E+09 5.80354E+10-2.04568E+00
 -1       126 1.75209E+11 1.29792E+07 6.65845E+10-1.46220E+09 4.15342E+10-2.04939E+00
 -1       127 2.84707E+11 7.94641E+06 1.08192E+11-1.70511E+09 2.54291E+10-1.99303E+00
 -1       128 4.07211E+11 3.11237E+06 1.54742E+11-1.83227E+09 9.95995E+09-1.87421E+00
 -1       129 5.34838E+11-1.43898E+06 2.03238E+11-1.84927E+09-4.60461E+09-1.72369E+00
 -1       130 6.60165E+11-5.62006E+06 2.50861E+11-1.76370E+09-1.79844E+10-1.60989E+00
 -1       131 7.76375E+11-9.34482E+06 2.95019E+11-1.58525E+09-2.99040E+10-1.56931E+00
 -1       132 8.77395E+11-1.25335E+07 3.33405E+11-1.32556E+09-4.01082E+10-1.59705E+00
 -1       133 9.58025E+11-1.51168E+07 3.64044E+11-9.98040E+08-4.83747E+10-1.62432E+00
 -1       134 1.01405E+12-1.70391E+07 3.85334E+11-6.17587E+08-5.45263E+10-1.65356E+00
 -1       135 1.04235E+12-1.82621E+07 3.96085E+11-2.00211E+08-5.84402E+10-1.74227E+00
 -1       136 1.04091E+12-1.87665E+07 3.95538E+11 2.37393E+08-6.00541E+10-1.83501E+00
 -1       137 1.00891E+12-1.85532E+07 3.83381E+11 6.78300E+08-5.93717E+10-1.91963E+00
 -1       138 9.46712E+11-1.76445E+07 3.59744E+11 1.10586E+09-5.64636E+10-2.01134E+00
 -1       139 8.55777E+11-1.60833E+07 3.25189E+11 1.50420E+09-5.14674E+10-2.01121E+00
 -1       140 7.38653E+11-1.39322E+07 2.80683E+11 1.85867E+09-4.45835E+10-1.87978E+00
 -1       141 5.98843E+11-1.12719E+07 2.27556E+11 2.15631E+09-3.60705E+10-1.62781E+00
 -1       142 4.40677E+11-8.19896E+06 1.67454E+11 2.38626E+09-2.62366E+10-1.24966E+00
 -1       143 2.69161E+11-4.82218E+06 1.02279E+11 2.54008E+09-1.54307E+10-8.14120E-01
 -1       144 8.97937E+10-1.25983E+06 3.41211E+10 2.61199E+09-4.03096E+09-3.83830E-01
 -1       145-9.16222E+10 2.36448E+06-3.48155E+10 2.59910E+09 7.56710E+09 4.34322E-02
 -1       146-2.69185E+11 5.92577E+06-1.02288E+11 2.50140E+09 1.89635E+10 4.93097E-01
 -1       147-4.37093E+11 9.30168E+06-1.66092E+11 2.32185E+09 2.97666E+10 9.66996E-01
 -1       148-5.89848E+11 1.23765E+07-2.24137E+11 2.06617E+09 3.96063E+10 1.43136E+00
 -1       149-7.22443E+11 1.50451E+07-2.74523E+11 1.74272E+09 4.81457E+10 1.80142E+00
 -1       150-8.30531E+11 1.72160E+07-3.15595E+11 1.36216E+09 5.50925E+10 2.09011E+00
 -1       151-9.10577E+11 1.88146E+07-3.46012E+11 9.37118E+08 6.02084E+10 2.38827E+00
 -1       152-9.59977E+11 1.97860E+07-3.64784E+11 4.81746E+08 6.33169E+10 2.70523E+00
 -1       153-9.77148E+11 2.00961E+07-3.71309E+11 1.12416E+07 6.43090E+10 2.94041E+00
 -1       154-9.61587E+11 1.97330E+07-3.65396E+11-4.58644E+08 6.31468E+10 3.05418E+00
 -1       155-9.13884E+11 1.87073E+07-3.47269E+11-9.12156E+08 5.98647E+10 3.13925E+00
 -1       156-8.35711E+11 1.70520E+07-3.17564E+11-1.33405E+09 5.45678E+10 3.25198E+00
 -1       157-7.29764E+11 1.48210E+07-2.77305E+11-1.71012E+09 4.74283E+10 3.41105E+00
 -1       158-5.99677E+11 1.20871E+07-2.27873E+11-2.02762E+09 3.86799E+10 3.59339E+00
 -1       159-4.49903E+11 8.94013E+06-1.70960E+11-2.27576E+09 2.86092E+10 3.74135E+00
 -1       160-2.85569E+11 5.48316E+06-1.08514E+11-2.44601E+09 1.75465E+10 3.82814E+00
 -1       161-1.12305E+11 1.82932E+06-4.26754E+10-2.53239E+09 5.85398E+09 3.85790E+00
 -1       162 6.39352E+10-1.90194E+06 2.42947E+10-2.53168E+09-6.08638E+09 3.82720E+00
 -1       163 2.37075E+11-5.58928E+06 9.00865E+10-2.44347E+09-1.78862E+10 3.71697E+00
 -1       164 4.01109E+11-9.11340E+06 1.52418E+11-2.27022E+09-2.91637E+10 3.51459E+00
 -1       165 5.50294E+11-1.23613E+07 2.09107E+11-2.01712E+09-3.95575E+10 3.24334E+00
 -1       166 6.79339E+11-1.52304E+07 2.58143E+11-1.69191E+09-4.87387E+10 2.91932E+00
 -1       167 7.83571E+11-1.76316E+07 2.97750E+11-1.30458E+09-5.64229E+10 2.51629E+00
 -1       168 8.59077E+11-1.94933E+07 3.26442E+11-8.67033E+08-6.23806E+10 1.98322E+00
 -1       169 9.02823E+11-2.07635E+07 3.43065E+11-3.92627E+08-6.64454E+10 1.29075E+00
 -1       170 9.12739E+11-2.14120E+07 3.46833E+11 1.04310E+08-6.85211E+10 4.71987E-01
 -1       171 8.87766E+11-2.14323E+07 3.37343E+11 6.09014E+08-6.85861E+10-4.43245E-01
 -1       172 8.27868E+11-2.08416E+07 3.14582E+11 1.10683E+09-6.66958E+10-1.41682E+00
 -1       173 7.34004E+11-1.96814E+07 2.78914E+11 1.58381E+09-6.29826E+10-2.26827E+00
 -1       174 6.08062E+11-1.80163E+07 2.31057E+11 2.02723E+09-5.76540E+10-2.89950E+00
 -1       175 4.52748E+11-1.59333E+07 1.72038E+11 2.42617E+09-5.09881E+10-3.38043E+00
 -1       176 2.71452E+11-1.35396E+07 1.03146E+11 2.77197E+09-4.33279E+10-3.71813E+00
 -1       177 6.80643E+10-1.09604E+07 2.58603E+10 3.05873E+09-3.50741E+10-3.86709E+00
 -1       178-1.53219E+11-8.33613E+06-5.82265E+10 3.28363E+09-2.66758E+10-3.78252E+00
 -1       179-3.88133E+11-5.81953E+06-1.47493E+11 3.44732E+09-1.86222E+10-3.45313E+00
 -1       180-6.32590E+11-3.57288E+06-2.40386E+11 3.55415E+09-1.14324E+10-2.89163E+00
 -1       181-8.82943E+11-1.76509E+06-3.35519E+11 3.61236E+09-5.64716E+09-2.12434E+00
 -1       182-1.13626E+12-5.69305E+05-4.31780E+11 3.63416E+09-1.82027E+09-1.16072E+00
 -1       183-1.26335E+12-1.46218E+05-4.80073E+11 3.63681E+09-4.66271E+08 1.91126E-02
 -1       184 7.42611E+09 2.59753E+07 2.83179E+09-1.00500E+07-8.31226E+10-1.99681E+00
 -1       185 2.82812E+10 2.33558E+07 1.07557E+10-6.16127E+08-7.47400E+10-2.00297E+00
 -1       186 8.69293E+10 1.81357E+07 3.30400E+10-1.09989E+09-5.80354E+10-2.02705E+00
 -1       187 1.75209E+11 1.29792E+07 6.65845E+10-1.46220E+09-4.15342E+10-2.03129E+00
 -1       188 2.84707E+11 7.94649E+06 1.08192E+11-1.70511E+09-2.54291E+10-1.97390E+00
 -1       189 4.07211E+11 3.11249E+06 1.54742E+11-1.83227E+09-9.95995E+09-1.85508E+00
 -1       190 5.34838E+11-1.43885E+06 2.03238E+11-1.84927E+09 4.60461E+09-1.70405E+00
 -1       191 6.60165E+11-5.61995E+06 2.50861E+11-1.76370E+09 1.79844E+10-1.59079E+00
 -1       192 7.76375E+11-9.34483E+06 2.95019E+11-1.58525E+09 2.99040E+10-1.55378E+00
 -1       193 8.77395E+11-1.25336E+07 3.33405E+11-1.32556E+09 4.01082E+10-1.58653E+00
 -1       194 9.58025E+11-1.51168E+07 3.64044E+11-9.98040E+08 4.83747E+10-1.61350E+00
 -1       195 1.01405E+12-1.70392E+07 3.85334E+11-6.17587E+08 5.45263E+10-1.63802E+00
 -1       196 1.04235E+12-1.82622E+07 3.96085E+11-2.00211E+08 5.84402E+10-1.72704E+00
 -1       197 1.04091E+12-1.87666E+07 3.95538E+11 2.37393E+08 6.00541E+10-1.82054E+00
 -1       198 1.00891E+12-1.85533E+07 3.83381E+11 6.78300E+08 5.93717E+10-1.90353E+00
 -1       199 9.46712E+11-1.76446E+07 3.59744E+11 1.10586E+09 5.64636E+10-1.99193E+00
 -1       200 8.55777E+11-1.60832E+07 3.25189E+11 1.50420E+09 5.14674E+10-1.99405E+00
 -1       201 7.38653E+11-1.39320E+07 2.80683E+11 1.85867E+09 4.45835E+10-1.86663E+00
 -1       202 5.98843E+11-1.12717E+07 2.27556E+11 2.15631E+09 3.60705E+10-1.61315E+00
 -1       203 4.40677E+11-8.19860E+06 1.67454E+11 2.38626E+09 2.62366E+10-1.23408E+00
 -1       204 2.69161E+11-4.82181E+06 1.02279E+11 2.54008E+09 1.54307E+10-8.00360E-01
 -1       205 8.97937E+10-1.25948E+06 3.41211E+10 2.61199E+09 4.03096E+09-3.71538E-01
 -1       206-9.16222E+10 2.36486E+06-3.48155E+10 2.59910E+09-7.56710E+09 5.72314E-02
 -1       207-2.69185E+11 5.92616E+06-1.02288E+11 2.50140E+09-1.89635E+10 5.07630E-01
 -1       208-4.37093E+11 9.30208E+06-1.66092E+11 2.32185E+09-2.97666E+10 9.78941E-01
 -1       209-5.89848E+11 1.23769E+07-2.24137E+11 2.06617E+09-3.96063E+10 1.44165E+00
 -1       210-7.22443E+11 1.50454E+07-2.74523E+11 1.74272E+09-4.81457E+10 1.81503E+00
 -1       211-8.30531E+11 1.72162E+07-3.15595E+11 1.36216E+09-5.50925E+10 2.10318E+00
 -1       212-9.10577E+11 1.88149E+07-3.46012E+11 9.37118E+08-6.02084E+10 2.40052E+00
 -1       213-9.59977E+11 1.97862E+07-3.64784E+11 4.81746E+08-6.33169E+10 2.71847E+00
 -1       214-9.77148E+11 2.00962E+07-3.71309E+11 1.12415E+07-6.43090E+10 2.95361E+00
 -1       215-9.61587E+11 1.97330E+07-3.65396E+11-4.58644E+08-6.31468E+10 3.06775E+00
 -1       216-9.13884E+11 1.87074E+07-3.47269E+11-9.12156E+08-5.98647E+10 3.15421E+00
 -1       217-8.35711E+11 1.70521E+07-3.17564E+11-1.33405E+09-5.45678E+10 3.26632E+00
 -1       218-7.29764E+11 1.48211E+07-2.77305E+11-1.71012E+09-4.74283E+10 3.42053E+00
 -1       219-5.99677E+11 1.20873E+07-2.27873E+11-2.02762E+09-3.86799E+10 3.60011E+00
 -1       220-4.49903E+11 8.94026E+06-1.70960E+11-2.27576E+09-2.86092E+10 3.74810E+00
 -1       221-2.85569E+11 5.48319E+06-1.08514E+11-2.44601E+09-1.75465E+10 3.83495E+00
 -1       222-1.12305E+11 1.82934E+06-4.26754E+10-2.53239E+09-5.85398E+09 3.86151E+00
 -1       223 6.39352E+10-1.90198E+06 2.42947E+10-2.53168E+09 6.08639E+09 3.82882E+00
 -1       224 2.37075E+11-5.58937E+06 9.00865E+10-2.44347E+09 1.78862E+10 3.71813E+00
 -1       225 4.01109E+11-9.11357E+06 1.52418E+11-2.27022E+09 2.91637E+10 3.51585E+00
 -1       226 5.50294E+11-1.23616E+07 2.09107E+11-2.01712E+09 3.95575E+10 3.24784E+00
 -1       227 6.79339E+11-1.52307E+07 2.58143E+11-1.69191E+09 4.87387E+10 2.92435E+00
 -1       228 7.83571E+11-1.76320E+07 2.97750E+11-1.30458E+09 5.64229E+10 2.51841E+00
 -1       229 8.59077E+11-1.94938E+07 3.26442E+11-8.67033E+08 6.23806E+10 1.98378E+00
 -1       230 9.02823E+11-2.07641E+07 3.43065E+11-3.92628E+08 6.64454E+10 1.29297E+00
 -1       231 9.12739E+11-2.14128E+07 3.46833E+11 1.04309E+08 6.85211E+10 4.73830E-01
 -1       232 8.87766E+11-2.14331E+07 3.37343E+11 6.09014E+08 6.85861E+10-4.43837E-01
 -1       233 8.27868E+11-2.08424E+07 3.14582E+11 1.10683E+09 6.66958E+10-1.41663E+00
 -1       234 7.34004E+11-1.96820E+07 2.78914E+11 1.58381E+09 6.29826E+10-2.26610E+00
 -1       235 6.08062E+11-1.80167E+07 2.31057E+11 2.02723E+09 5.76540E+10-2.89819E+00
 -1       236 4.52748E+11-1.59336E+07 1.72038E+11 2.42617E+09 5.09881E+10-3.37982E+00
 -1       237 2.71452E+11-1.35398E+07 1.03146E+11 2.77197E+09 4.33279E+10-3.71612E+00
 -1       238 6.80643E+10-1.09604E+07 2.58603E+10 3.05873E+09 3.50741E+10-3.86362E+00
 -1       239-1.53219E+11-8.33592E+06-5.82265E+10 3.28363E+09 2.66758E+10-3.77850E+00
 -1       240-3.88133E+11-5.81911E+06-1.47493E+11 3.44732E+09 1.86222E+10-3.45012E+00
 -1       241-6.32590E+11-3.57226E+06-2.40386E+11 3.55416E+09 1.14324E+10-2.89017E+00
 -1       242-8.82943E+11-1.76431E+06-3.35519E+11 3.61236E+09 5.64716E+09-2.12420E+00
 -1       243-1.13626E+12-5.68343E+05-4.31780E+11 3.63416E+09 1.82027E+09-1.16144E+00
 -1       244-1.26335E+12-1.45195E+05-4.80073E+11 3.63680E+09 4.66271E+08 1.80302E-02
 -3
    1PSTEP                        15           1           1          
    1PGM                1.000000E+00                                  
    1PGK                8.111395E+06                                  
    1PHID                         -1                                  
    1PSUBC                         0                                  
    1PMODE                         4                                  
  100CL  104 453.2813954         244                     2    4MODAL      1
 -4  TOSTRAIN    6    1
 -5  EXX         1    4    1    1
 -5  EYY         1    4    2    2
 -5  EZZ         1    4    3    3
 -5  EXY         1    4    1    2
 -5  EYZ         1    4    2    3
 -5  EZX         1    4    3    1
 -1         1-1.31949E+00 8.05833E-01-1.35224E-10-2.88637E-03 2.38729E+01 9.36005E-10
 -1         2-5.03333E+00 3.08235E+00 4.20447E-10-1.76952E-01 2.14654E+01 9.36722E-10
 -1         3-1.54771E+01 9.48392E+00 1.33059E-10-3.15890E-01 1.66678E+01 9.40401E-10
 -1         4-3.11972E+01 1.91194E+01-8.79794E-10-4.19945E-01 1.19287E+01 9.38332E-10
 -1         5-5.06954E+01 3.10705E+01-3.99195E-10-4.89708E-01 7.30327E+00 9.16932E-10
 -1         6-7.25096E+01 4.44410E+01-7.19420E-11-5.26229E-01 2.86051E+00 8.74811E-10
 -1         7-9.52358E+01 5.83705E+01-6.85353E-10-5.31110E-01-1.32245E+00 8.25538E-10
 -1         8-1.17553E+02 7.20490E+01-6.20150E-10-5.06536E-01-5.16513E+00 7.89886E-10
 -1         9-1.38246E+02 8.47324E+01-5.80643E-12-4.55286E-01-8.58846E+00 7.74476E-10
 -1        10-1.56234E+02 9.57578E+01 3.98235E-11-3.80702E-01-1.15191E+01 7.77166E-10
 -1        11-1.70592E+02 1.04558E+02-4.10225E-10-2.86638E-01-1.38932E+01 7.80087E-10
 -1        12-1.80569E+02 1.10673E+02-9.47125E-11-1.77372E-01-1.56600E+01 7.84761E-10
 -1        13-1.85607E+02 1.13761E+02 2.92231E-10-5.75008E-02-1.67841E+01 8.08716E-10
 -1        14-1.85351E+02 1.13604E+02-1.92639E-10 6.81794E-02-1.72476E+01 8.34940E-10
 -1        15-1.79654E+02 1.10113E+02-3.10411E-10 1.94808E-01-1.70516E+01 8.60449E-10
 -1        16-1.68578E+02 1.03324E+02 1.61536E-11 3.17605E-01-1.62164E+01 8.90237E-10
 -1        17-1.52385E+02 9.33992E+01 7.54170E-11 4.32008E-01-1.47815E+01 8.97126E-10
 -1        18-1.31529E+02 8.06164E+01 5.83435E-10 5.33811E-01-1.28044E+01 8.67352E-10
 -1        19-1.06634E+02 6.53575E+01 7.08534E-10 6.19293E-01-1.03595E+01 8.00218E-10
 -1        20-7.84698E+01 4.80953E+01 4.07896E-10 6.85336E-01-7.53518E+00 6.97144E-10
 -1        21-4.79285E+01 2.93761E+01 6.10722E-10 7.29512E-01-4.43171E+00 5.79172E-10
 -1        22-1.59892E+01 9.79998E+00 4.44492E-10 7.50167E-01-1.15769E+00 4.62681E-10
 -1        23 1.63149E+01-9.99973E+00 7.32659E-11 7.46463E-01 2.17328E+00 3.47222E-10
 -1        24 4.79329E+01-2.93789E+01 2.73818E-10 7.18405E-01 5.44632E+00 2.24862E-10
 -1        25 7.78317E+01-4.77043E+01 3.58431E-10 6.66836E-01 8.54899E+00 9.36681E-11
 -1        26 1.05032E+02-6.43760E+01 7.17755E-11 5.93405E-01 1.13750E+01-3.44097E-11
 -1        27 1.28643E+02-7.88474E+01 3.69830E-10 5.00510E-01 1.38275E+01-1.34341E-10
 -1        28 1.47890E+02-9.06442E+01 5.66815E-10 3.91213E-01 1.58226E+01-2.08845E-10
 -1        29 1.62144E+02-9.93804E+01 5.78739E-10 2.69141E-01 1.72919E+01-2.86173E-10
 -1        30 1.70940E+02-1.04772E+02 3.90674E-10 1.38358E-01 1.81847E+01-3.70358E-10
 -1        31 1.73998E+02-1.06646E+02 3.20681E-11 3.22861E-03 1.84696E+01-4.31125E-10
 -1        32 1.71227E+02-1.04948E+02 9.11371E-11-1.31723E-01 1.81358E+01-4.59261E-10
 -1        33 1.62732E+02-9.97413E+01-8.34883E-12-2.61972E-01 1.71932E+01-4.82436E-10
 -1        34 1.48812E+02-9.12095E+01 2.55466E-10-3.83141E-01 1.56719E+01-5.14570E-10
 -1        35 1.29947E+02-7.96464E+01 2.18207E-10-4.91147E-01 1.36214E+01-5.61441E-10
 -1        36 1.06783E+02-6.54487E+01-6.82084E-10-5.82334E-01 1.11089E+01-6.17776E-10
 -1        37 8.01128E+01-4.91024E+01-8.52924E-10-6.53601E-01 8.21659E+00-6.65979E-10
 -1        38 5.08503E+01-3.11669E+01-3.91754E-10-7.02497E-01 5.03937E+00-6.99987E-10
 -1        39 1.99978E+01-1.22569E+01-3.31980E-10-7.27306E-01 1.68127E+00-7.19036E-10
 -1        40-1.13848E+01 6.97799E+00-5.46851E-10-7.27100E-01-1.74801E+00-7.19792E-10
 -1        41-4.22153E+01 2.58745E+01-7.89189E-10-7.01767E-01-5.13692E+00-6.97003E-10
 -1        42-7.14242E+01 4.37771E+01-6.31427E-10-6.52009E-01-8.37584E+00-6.48406E-10
 -1        43-9.79891E+01 6.00592E+01-6.07841E-10-5.79319E-01-1.13609E+01-5.82193E-10
 -1        44-1.20968E+02 7.41433E+01-4.05919E-10-4.85918E-01-1.39978E+01-4.99515E-10
 -1        45-1.39528E+02 8.55192E+01-1.75138E-10-3.74676E-01-1.62047E+01-3.92882E-10
 -1        46-1.52973E+02 9.37600E+01-5.04321E-10-2.49013E-01-1.79158E+01-2.51116E-10
 -1        47-1.60763E+02 9.85345E+01-5.90091E-10-1.12763E-01-1.90832E+01-6.66003E-11
 -1        48-1.62529E+02 9.96168E+01-7.23428E-10 2.99578E-02-1.96793E+01 1.54027E-10
 -1        49-1.58082E+02 9.68913E+01-7.58339E-10 1.74909E-01-1.96980E+01 4.00524E-10
 -1        50-1.47416E+02 9.03541E+01-7.66510E-10 3.17883E-01-1.91551E+01 6.60478E-10
 -1        51-1.30702E+02 8.01100E+01-8.17533E-10 4.54871E-01-1.80887E+01 8.83859E-10
 -1        52-1.08276E+02 6.63648E+01-1.14859E-09 5.82223E-01-1.65583E+01 1.04201E-09
 -1        53-8.06201E+01 4.94141E+01-1.47686E-09 6.96798E-01-1.46438E+01 1.15596E-09
 -1        54-4.83374E+01 2.96276E+01-1.45213E-09 7.96113E-01-1.24438E+01 1.22967E-09
 -1        55-1.21210E+01 7.43024E+00-1.38159E-09 8.78469E-01-1.00733E+01 1.24937E-09
 -1        56 2.72820E+01-1.67203E+01-1.22661E-09 9.43060E-01-7.66132E+00 1.20115E-09
 -1        57 6.91122E+01-4.23584E+01-1.27586E-09 9.90074E-01-5.34831E+00 1.08305E-09
 -1        58 1.12641E+02-6.90379E+01-1.20856E-09 1.02076E+00-3.28341E+00 8.98705E-10
 -1        59 1.57221E+02-9.63608E+01-1.09499E-09 1.03747E+00-1.62187E+00 6.54721E-10
 -1        60 2.02328E+02-1.24007E+02-1.30323E-09 1.04373E+00-5.22784E-01 3.55182E-10
 -1        61 2.24958E+02-1.37877E+02-1.39988E-09 1.04449E+00-1.33913E-01 5.50596E-12
 -1        62-1.31949E+00 8.05833E-01 1.35224E-10-2.88637E-03-2.38729E+01 9.41224E-10
 -1        63-5.03333E+00 3.08235E+00-4.20447E-10-1.76952E-01-2.14654E+01 9.42240E-10
 -1        64-1.54771E+01 9.48392E+00-1.33059E-10-3.15890E-01-1.66678E+01 9.45753E-10
 -1        65-3.11972E+01 1.91194E+01 8.79794E-10-4.19945E-01-1.19287E+01 9.43527E-10
 -1        66-5.06954E+01 3.10705E+01 3.99195E-10-4.89708E-01-7.30327E+00 9.22428E-10
 -1        67-7.25096E+01 4.44410E+01 7.19420E-11-5.26229E-01-2.86051E+00 8.80306E-10
 -1        68-9.52358E+01 5.83705E+01 6.85353E-10-5.31110E-01 1.32245E+00 8.31178E-10
 -1        69-1.17553E+02 7.20490E+01 6.20150E-10-5.06537E-01 5.16513E+00 7.95371E-10
 -1        70-1.38246E+02 8.47324E+01 5.80643E-12-4.55286E-01 8.58846E+00 7.78939E-10
 -1        71-1.56234E+02 9.57578E+01-3.98235E-11-3.80702E-01 1.15191E+01 7.80186E-10
 -1        72-1.70592E+02 1.04558E+02 4.10225E-10-2.86638E-01 1.38932E+01 7.83196E-10
 -1        73-1.80569E+02 1.10673E+02 9.47125E-11-1.77372E-01 1.56600E+01 7.89224E-10
 -1        74-1.85607E+02 1.13761E+02-2.92231E-10-5.75009E-02 1.67841E+01 8.13090E-10
 -1        75-1.85351E+02 1.13604E+02 1.92639E-10 6.81794E-02 1.72476E+01 8.39098E-10
 -1        76-1.79654E+02 1.10113E+02 3.10411E-10 1.94808E-01 1.70516E+01 8.65073E-10
 -1        77-1.68578E+02 1.03324E+02-1.61536E-11 3.17605E-01 1.62164E+01 8.95810E-10
 -1        78-1.52385E+02 9.33992E+01-7.54170E-11 4.32008E-01 1.47815E+01 9.02055E-10
 -1        79-1.31529E+02 8.06164E+01-5.83435E-10 5.33811E-01 1.28044E+01 8.71128E-10
 -1        80-1.06634E+02 6.53575E+01-7.08534E-10 6.19293E-01 1.03595E+01 8.04427E-10
 -1        81-7.84698E+01 4.80953E+01-4.07896E-10 6.85336E-01 7.53518E+00 7.01618E-10
 -1        82-4.79285E+01 2.93761E+01-6.10722E-10 7.29512E-01 4.43171E+00 5.83124E-10
 -1        83-1.59892E+01 9.79998E+00-4.44492E-10 7.50167E-01 1.15769E+00 4.66211E-10
 -1        84 1.63149E+01-9.99973E+00-7.32659E-11 7.46463E-01-2.17328E+00 3.51186E-10
 -1        85 4.79329E+01-2.93789E+01-2.73818E-10 7.18405E-01-5.44632E+00 2.29036E-10
 -1        86 7.78317E+01-4.77043E+01-3.58431E-10 6.66836E-01-8.54899E+00 9.70989E-11
 -1        87 1.05032E+02-6.43760E+01-7.17755E-11 5.93405E-01-1.13750E+01-3.14564E-11
 -1        88 1.28643E+02-7.88474E+01-3.69830E-10 5.00510E-01-1.38275E+01-1.30433E-10
 -1        89 1.47890E+02-9.06442E+01-5.66815E-10 3.91213E-01-1.58226E+01-2.05092E-10
 -1        90 1.62144E+02-9.93804E+01-5.78739E-10 2.69141E-01-1.72919E+01-2.82653E-10
 -1        91 1.70940E+02-1.04772E+02-3.90674E-10 1.38358E-01-1.81847E+01-3.66556E-10
 -1        92 1.73998E+02-1.06646E+02-3.20681E-11 3.22857E-03-1.84696E+01-4.27334E-10
 -1        93 1.71227E+02-1.04948E+02-9.11371E-11-1.31723E-01-1.81358E+01-4.55364E-10
 -1        94 1.62732E+02-9.97413E+01 8.34883E-12-2.61972E-01-1.71932E+01-4.78140E-10
 -1        95 1.48812E+02-9.12095E+01-2.55466E-10-3.83141E-01-1.56719E+01-5.10451E-10
 -1        96 1.29947E+02-7.96464E+01-2.18207E-10-4.91147E-01-1.36214E+01-5.58721E-10
 -1        97 1.06783E+02-6.54487E+01 6.82084E-10-5.82334E-01-1.11089E+01-6.15844E-10
 -1        98 8.01128E+01-4.91024E+01 8.52924E-10-6.53601E-01-8.21659E+00-6.64042E-10
 -1        99 5.08503E+01-3.11669E+01 3.91754E-10-7.02497E-01-5.03937E+00-6.98032E-10
 -1       100 1.99978E+01-1.22569E+01 3.31980E-10-7.27306E-01-1.68127E+00-7.17997E-10
 -1       101-1.13848E+01 6.97799E+00 5.46851E-10-7.27100E-01 1.74802E+00-7.19326E-10
 -1       102-4.22153E+01 2.58745E+01 7.89189E-10-7.01767E-01 5.13692E+00-6.96670E-10
 -1       103-7.14242E+01 4.37771E+01 6.31427E-10-6.52009E-01 8.37584E+00-6.48045E-10
 -1       104-9.79891E+01 6.00592E+01 6.07841E-10-5.79319E-01 1.13609E+01-5.80900E-10
 -1       105-1.20968E+02 7.41433E+01 4.05919E-10-4.85918E-01 1.39978E+01-4.98072E-10
 -1       106-1.39528E+02 8.55192E+01 1.75138E-10-3.74676E-01 1.62047E+01-3.92272E-10
 -1       107-1.52973E+02 9.37600E+01 5.04321E-10-2.49013E-01 1.79158E+01-2.50955E-10
 -1       108-1.60763E+02 9.85345E+01 5.90091E-10-1.12763E-01 1.90832E+01-6.59620E-11
 -1       109-1.62529E+02 9.96168E+01 7.23428E-10 2.99578E-02 1.96793E+01 1.54556E-10
 -1       110-1.58082E+02 9.68913E+01 7.58339E-10 1.74909E-01 1.96980E+01 4.00354E-10
 -1       111-1.47416E+02 9.03541E+01 7.66510E-10 3.17883E-01 1.91551E+01 6.60533E-10
 -1       112-1.30702E+02 8.01100E+01 8.17533E-10 4.54871E-01 1.80887E+01 8.84481E-10
 -1       113-1.08276E+02 6.63648E+01 1.14859E-09 5.82223E-01 1.65583E+01 1.04238E-09
 -1       114-8.06201E+01 4.94141E+01 1.47686E-09 6.96798E-01 1.46438E+01 1.15613E-09
 -1       115-4.83374E+01 2.96276E+01 1.45213E-09 7.96113E-01 1.24438E+01 1.23025E-09
 -1       116-1.21210E+01 7.43024E+00 1.38159E-09 8.78469E-01 1.00733E+01 1.25037E-09
 -1       117 2.72820E+01-1.67203E+01 1.22661E-09 9.43060E-01 7.66132E+00 1.20230E-09
 -1       118 6.91122E+01-4.23584E+01 1.27586E-09 9.90074E-01 5.34831E+00 1.08392E-09
 -1       119 1.12641E+02-6.90379E+01 1.20856E-09 1.02076E+00 3.28341E+00 8.99127E-10
 -1       120 1.57221E+02-9.63608E+01 1.09499E-09 1.03747E+00 1.62187E+00 6.54759E-10
 -1       121 2.02328E+02-1.24007E+02 1.30323E-09 1.04373E+00 5.22784E-01 3.54976E-10
 -1       122 2.24958E+02-1.37877E+02 1.39988E-09 1.04449E+00 1.33913E-01 5.19505E-12
 -1       123 1.31949E+00-8.05833E-01-1.35224E-10-2.88637E-03 2.38729E+01-5.78705E-10
 -1       124 5.03333E+00-3.08235E+00 4.20447E-10-1.76952E-01 2.14654E+01-5.80775E-10
 -1       125 1.54771E+01-9.48392E+00 1.33059E-10-3.15890E-01 1.66678E+01-5.87521E-10
 -1       126 3.11972E+01-1.91194E+01-8.79794E-10-4.19945E-01 1.19287E+01-5.88586E-10
 -1       127 5.06954E+01-3.10705E+01-3.99195E-10-4.89708E-01 7.30327E+00-5.72400E-10
 -1       128 7.25096E+01-4.44410E+01-7.19420E-11-5.26229E-01 2.86051E+00-5.38274E-10
 -1       129 9.52358E+01-5.83705E+01-6.85353E-10-5.31110E-01-1.32245E+00-4.95044E-10
 -1       130 1.17553E+02-7.20490E+01-6.20150E-10-5.06536E-01-5.16513E+00-4.62361E-10
 -1       131 1.38246E+02-8.47324E+01-5.80643E-12-4.55286E-01-8.58846E+00-4.50708E-10
 -1       132 1.56234E+02-9.57578E+01 3.98235E-11-3.80702E-01-1.15191E+01-4.58673E-10
 -1       133 1.70592E+02-1.04558E+02-4.10225E-10-2.86638E-01-1.38932E+01-4.66507E-10
 -1       134 1.80569E+02-1.10673E+02-9.47125E-11-1.77372E-01-1.56600E+01-4.74903E-10
 -1       135 1.85607E+02-1.13761E+02 2.92231E-10-5.75008E-02-1.67841E+01-5.00382E-10
 -1       136 1.85351E+02-1.13604E+02-1.92639E-10 6.81794E-02-1.72476E+01-5.27017E-10
 -1       137 1.79654E+02-1.10113E+02-3.10411E-10 1.94808E-01-1.70516E+01-5.51319E-10
 -1       138 1.68578E+02-1.03324E+02 1.61536E-11 3.17605E-01-1.62164E+01-5.77659E-10
 -1       139 1.52385E+02-9.33992E+01 7.54170E-11 4.32008E-01-1.47815E+01-5.77621E-10
 -1       140 1.31529E+02-8.06164E+01 5.83435E-10 5.33811E-01-1.28044E+01-5.39875E-10
 -1       141 1.06634E+02-6.53575E+01 7.08534E-10 6.19293E-01-1.03595E+01-4.67508E-10
 -1       142 7.84698E+01-4.80953E+01 4.07896E-10 6.85336E-01-7.53518E+00-3.58902E-10
 -1       143 4.79285E+01-2.93761E+01 6.10722E-10 7.29512E-01-4.43171E+00-2.33816E-10
 -1       144 1.59892E+01-9.79998E+00 4.44492E-10 7.50167E-01-1.15769E+00-1.10236E-10
 -1       145-1.63149E+01 9.99973E+00 7.32659E-11 7.46463E-01 2.17328E+00 1.24738E-11
 -1       146-4.79329E+01 2.93789E+01 2.73818E-10 7.18405E-01 5.44632E+00 1.41618E-10
 -1       147-7.78317E+01 4.77043E+01 3.58431E-10 6.66836E-01 8.54899E+00 2.77722E-10
 -1       148-1.05032E+02 6.43760E+01 7.17755E-11 5.93405E-01 1.13750E+01 4.11089E-10
 -1       149-1.28643E+02 7.88474E+01 3.69830E-10 5.00510E-01 1.38275E+01 5.17370E-10
 -1       150-1.47890E+02 9.06442E+01 5.66815E-10 3.91213E-01 1.58226E+01 6.00282E-10
 -1       151-1.62144E+02 9.93804E+01 5.78739E-10 2.69141E-01 1.72919E+01 6.85914E-10
 -1       152-1.70940E+02 1.04772E+02 3.90674E-10 1.38358E-01 1.81847E+01 7.76945E-10
 -1       153-1.73998E+02 1.06646E+02 3.20681E-11 3.22861E-03 1.84696E+01 8.44489E-10
 -1       154-1.71227E+02 1.04948E+02 9.11371E-11-1.31723E-01 1.81358E+01 8.77164E-10
 -1       155-1.62732E+02 9.97413E+01-8.34883E-12-2.61972E-01 1.71932E+01 9.01595E-10
 -1       156-1.48812E+02 9.12095E+01 2.55466E-10-3.83141E-01 1.56719E+01 9.33972E-10
 -1       157-1.29947E+02 7.96464E+01 2.18207E-10-4.91147E-01 1.36214E+01 9.79657E-10
 -1       158-1.06783E+02 6.54487E+01-6.82084E-10-5.82334E-01 1.11089E+01 1.03202E-09
 -1       159-8.01128E+01 4.91024E+01-8.52924E-10-6.53601E-01 8.21659E+00 1.07452E-09
 -1       160-5.08503E+01 3.11669E+01-3.91754E-10-7.02497E-01 5.03937E+00 1.09945E-09
 -1       161-1.99978E+01 1.22569E+01-3.31980E-10-7.27306E-01 1.68127E+00 1.10799E-09
 -1       162 1.13848E+01-6.97799E+00-5.46851E-10-7.27100E-01-1.74801E+00 1.09917E-09
 -1       163 4.22153E+01-2.58745E+01-7.89189E-10-7.01767E-01-5.13692E+00 1.06752E-09
 -1       164 7.14242E+01-4.37771E+01-6.31427E-10-6.52009E-01-8.37584E+00 1.00939E-09
 -1       165 9.79891E+01-6.00592E+01-6.07841E-10-5.79319E-01-1.13609E+01 9.31489E-10
 -1       166 1.20968E+02-7.41433E+01-4.05919E-10-4.85918E-01-1.39978E+01 8.38431E-10
 -1       167 1.39528E+02-8.55192E+01-1.75138E-10-3.74676E-01-1.62047E+01 7.22680E-10
 -1       168 1.52973E+02-9.37600E+01-5.04321E-10-2.49013E-01-1.79158E+01 5.69582E-10
 -1       169 1.60763E+02-9.85345E+01-5.90091E-10-1.12763E-01-1.90832E+01 3.70704E-10
 -1       170 1.62529E+02-9.96168E+01-7.23428E-10 2.99578E-02-1.96793E+01 1.35555E-10
 -1       171 1.58082E+02-9.68913E+01-7.58339E-10 1.74909E-01-1.96980E+01-1.27300E-10
 -1       172 1.47416E+02-9.03541E+01-7.66510E-10 3.17883E-01-1.91551E+01-4.06913E-10
 -1       173 1.30702E+02-8.01100E+01-8.17533E-10 4.54871E-01-1.80887E+01-6.51448E-10
 -1       174 1.08276E+02-6.63648E+01-1.14859E-09 5.82223E-01-1.65583E+01-8.32739E-10
 -1       175 8.06201E+01-4.94141E+01-1.47686E-09 6.96798E-01-1.46438E+01-9.70862E-10
 -1       176 4.83374E+01-2.96276E+01-1.45213E-09 7.96113E-01-1.24438E+01-1.06785E-09
 -1       177 1.21210E+01-7.43024E+00-1.38159E-09 8.78469E-01-1.00733E+01-1.11063E-09
 -1       178-2.72820E+01 1.67203E+01-1.22661E-09 9.43060E-01-7.66132E+00-1.08634E-09
 -1       179-6.91122E+01 4.23584E+01-1.27586E-09 9.90074E-01-5.34831E+00-9.91743E-10
 -1       180-1.12641E+02 6.90379E+01-1.20856E-09 1.02076E+00-3.28341E+00-8.30480E-10
 -1       181-1.57221E+02 9.63608E+01-1.09499E-09 1.03747E+00-1.62187E+00-6.10111E-10
 -1       182-2.02328E+02 1.24007E+02-1.30323E-09 1.04373E+00-5.22784E-01-3.33361E-10
 -1       183-2.24958E+02 1.37877E+02-1.39988E-09 1.04449E+00-1.33913E-01 5.48914E-12
 -1       184 1.31949E+00-8.05833E-01 1.35224E-10-2.88637E-03-2.38729E+01-5.73486E-10
 -1       185 5.03333E+00-3.08235E+00-4.20447E-10-1.76952E-01-2.14654E+01-5.75256E-10
 -1       186 1.54771E+01-9.48392E+00-1.33059E-10-3.15890E-01-1.66678E+01-5.82170E-10
 -1       187 3.11972E+01-1.91194E+01 8.79794E-10-4.19945E-01-1.19287E+01-5.83389E-10
 -1       188 5.06954E+01-3.10705E+01 3.99195E-10-4.89708E-01-7.30327E+00-5.66905E-10
 -1       189 7.25096E+01-4.44410E+01 7.19420E-11-5.26229E-01-2.86051E+00-5.32779E-10
 -1       190 9.52358E+01-5.83705E+01 6.85353E-10-5.31110E-01 1.32245E+00-4.89404E-10
 -1       191 1.17553E+02-7.20490E+01 6.20150E-10-5.06537E-01 5.16513E+00-4.56877E-10
 -1       192 1.38246E+02-8.47324E+01 5.80643E-12-4.55286E-01 8.58846E+00-4.46246E-10
 -1       193 1.56234E+02-9.57578E+01-3.98235E-11-3.80702E-01 1.15191E+01-4.55653E-10
 -1       194 1.70592E+02-1.04558E+02 4.10225E-10-2.86638E-01 1.38932E+01-4.63398E-10
 -1       195 1.80569E+02-1.10673E+02 9.47125E-11-1.77372E-01 1.56600E+01-4.70440E-10
 -1       196 1.85607E+02-1.13761E+02-2.92231E-10-5.75009E-02 1.67841E+01-4.96008E-10
 -1       197 1.85351E+02-1.13604E+02 1.92639E-10 6.81794E-02 1.72476E+01-5.22859E-10
 -1       198 1.79654E+02-1.10113E+02 3.10411E-10 1.94808E-01 1.70516E+01-5.46695E-10
 -1       199 1.68578E+02-1.03324E+02-1.61536E-11 3.17605E-01 1.62164E+01-5.72085E-10
 -1       200 1.52385E+02-9.33992E+01-7.54170E-11 4.32008E-01 1.47815E+01-5.72692E-10
 -1       201 1.31529E+02-8.06164E+01-5.83435E-10 5.33811E-01 1.28044E+01-5.36099E-10
 -1       202 1.06634E+02-6.53575E+01-7.08534E-10 6.19293E-01 1.03595E+01-4.63299E-10
 -1       203 7.84698E+01-4.80953E+01-4.07896E-10 6.85336E-01 7.53518E+00-3.54428E-10
 -1       204 4.79285E+01-2.93761E+01-6.10722E-10 7.29512E-01 4.43171E+00-2.29864E-10
 -1       205 1.59892E+01-9.79998E+00-4.44492E-10 7.50167E-01 1.15769E+00-1.06706E-10
 -1       206-1.63149E+01 9.99973E+00-7.32659E-11 7.46463E-01-2.17328E+00 1.64369E-11
 -1       207-4.79329E+01 2.93789E+01-2.73818E-10 7.18405E-01-5.44632E+00 1.45792E-10
 -1       208-7.78317E+01 4.77043E+01-3.58431E-10 6.66836E-01-8.54899E+00 2.81153E-10
 -1       209-1.05032E+02 6.43760E+01-7.17755E-11 5.93405E-01-1.13750E+01 4.14043E-10
 -1       210-1.28643E+02 7.88474E+01-3.69830E-10 5.00510E-01-1.38275E+01 5.21278E-10
 -1       211-1.47890E+02 9.06442E+01-5.66815E-10 3.91213E-01-1.58226E+01 6.04034E-10
 -1       212-1.62144E+02 9.93804E+01-5.78739E-10 2.69141E-01-1.72919E+01 6.89433E-10
 -1       213-1.70940E+02 1.04772E+02-3.90674E-10 1.38358E-01-1.81847E+01 7.80747E-10
 -1       214-1.73998E+02 1.06646E+02-3.20681E-11 3.22857E-03-1.84696E+01 8.48280E-10
 -1       215-1.71227E+02 1.04948E+02-9.11371E-11-1.31723E-01-1.81358E+01 8.81061E-10
 -1       216-1.62732E+02 9.97413E+01 8.34883E-12-2.61972E-01-1.71932E+01 9.05892E-10
 -1       217-1.48812E+02 9.12095E+01-2.55466E-10-3.83141E-01-1.56719E+01 9.38091E-10
 -1       218-1.29947E+02 7.96464E+01-2.18207E-10-4.91147E-01-1.36214E+01 9.82379E-10
 -1       219-1.06783E+02 6.54487E+01 6.82084E-10-5.82334E-01-1.11089E+01 1.03396E-09
 -1       220-8.01128E+01 4.91024E+01 8.52924E-10-6.53601E-01-8.21659E+00 1.07646E-09
 -1       221-5.08503E+01 3.11669E+01 3.91754E-10-7.02497E-01-5.03937E+00 1.10140E-09
 -1       222-1.99978E+01 1.22569E+01 3.31980E-10-7.27306E-01-1.68127E+00 1.10903E-09
 -1       223 1.13848E+01-6.97799E+00 5.46851E-10-7.27100E-01 1.74802E+00 1.09964E-09
 -1       224 4.22153E+01-2.58745E+01 7.89189E-10-7.01767E-01 5.13692E+00 1.06785E-09
 -1       225 7.14242E+01-4.37771E+01 6.31427E-10-6.52009E-01 8.37584E+00 1.00976E-09
 -1       226 9.79891E+01-6.00592E+01 6.07841E-10-5.79319E-01 1.13609E+01 9.32783E-10
 -1       227 1.20968E+02-7.41433E+01 4.05919E-10-4.85918E-01 1.39978E+01 8.39875E-10
 -1       228 1.39528E+02-8.55192E+01 1.75138E-10-3.74676E-01 1.62047E+01 7.23290E-10
 -1       229 1.52973E+02-9.37600E+01 5.04321E-10-2.49013E-01 1.79158E+01 5.69743E-10
 -1       230 1.60763E+02-9.85345E+01 5.90091E-10-1.12763E-01 1.90832E+01 3.71342E-10
 -1       231 1.62529E+02-9.96168E+01 7.23428E-10 2.99578E-02 1.96793E+01 1.36084E-10
 -1       232 1.58082E+02-9.68913E+01 7.58339E-10 1.74909E-01 1.96980E+01-1.27470E-10
 -1       233 1.47416E+02-9.03541E+01 7.66510E-10 3.17883E-01 1.91551E+01-4.06858E-10
 -1       234 1.30702E+02-8.01100E+01 8.17533E-10 4.54871E-01 1.80887E+01-6.50826E-10
 -1       235 1.08276E+02-6.63648E+01 1.14859E-09 5.82223E-01 1.65583E+01-8.32364E-10
 -1       236 8.06201E+01-4.94141E+01 1.47686E-09 6.96798E-01 1.46438E+01-9.70687E-10
 -1       237 4.83374E+01-2.96276E+01 1.45213E-09 7.96113E-01 1.24438E+01-1.06727E-09
 -1       238 1.21210E+01-7.43024E+00 1.38159E-09 8.78469E-01 1.00733E+01-1.10963E-09
 -1       239-2.72820E+01 1.67203E+01 1.22661E-09 9.43060E-01 7.66132E+00-1.08519E-09
 -1       240-6.91122E+01 4.23584E+01 1.27586E-09 9.90074E-01 5.34831E+00-9.90877E-10
 -1       241-1.12641E+02 6.90379E+01 1.20856E-09 1.02076E+00 3.28341E+00-8.30058E-10
 -1       242-1.57221E+02 9.63608E+01 1.09499E-09 1.03747E+00 1.62187E+00-6.10072E-10
 -1       243-2.02328E+02 1.24007E+02 1.30323E-09 1.04373E+00 5.22784E-01-3.33566E-10
 -1       244-2.24958E+02 1.37877E+02 1.39988E-09 1.04449E+00 1.33913E-01 5.17829E-12
 -3
    1PSTEP                        16           1           1          
    1PGM                1.000000E+00                                  
    1PGK                8.111395E+06                                  
    1PHID                         -1                                  
    1PSUBC                         0                                  
    1PMODE                         4                                  
  100CL  104 453.2813954         244                     2    4MODAL      1
 -4  ERROR       1    1
 -5  STR(%)      1    1    0    0
 -1         1 1.02553E+00
 -1         2 1.61987E+01
 -1         3 8.64209E+01
 -1         4 1.14427E+02
 -1         5 1.20568E+02
 -1         6 1.21496E+02
 -1         7 1.21496E+02
 -1         8 1.21369E+02
 -1         9 1.21094E+02
 -1        10 1.20849E+02
 -1        11 1.20661E+02
 -1        12 1.20520E+02
 -1        13 1.20417E+02
 -1        14 1.20341E+02
 -1        15 1.20286E+02
 -1        16 1.20246E+02
 -1        17 1.20219E+02
 -1        18 1.20203E+02
 -1        19 1.20210E+02
 -1        20 1.20250E+02
 -1        21 1.20364E+02
 -1        22 1.20364E+02
 -1        23 1.19524E+02
 -1        24 1.19800E+02
 -1        25 1.19878E+02
 -1        26 1.19913E+02
 -1        27 1.19932E+02
 -1        28 1.19945E+02
 -1        29 1.19954E+02
 -1        30 1.19961E+02
 -1        31 1.19967E+02
 -1        32 1.19974E+02
 -1        33 1.19982E+02
 -1        34 1.19992E+02
 -1        35 1.20008E+02
 -1        36 1.20033E+02
 -1        37 1.20083E+02
 -1        38 1.20203E+02
 -1        39 1.20203E+02
 -1        40 1.19186E+02
 -1        41 1.19570E+02
 -1        42 1.19656E+02
 -1        43 1.19681E+02
 -1        44 1.19681E+02
 -1        45 1.19679E+02
 -1        46 1.19658E+02
 -1        47 1.19620E+02
 -1        48 1.19560E+02
 -1        49 1.19468E+02
 -1        50 1.19329E+02
 -1        51 1.19105E+02
 -1        52 1.18717E+02
 -1        53 1.17947E+02
 -1        54 1.15985E+02
 -1        55 1.06872E+02
 -1        56 1.18980E+02
 -1        57 1.21187E+02
 -1        58 1.21461E+02
 -1        59 1.21503E+02
 -1        60 1.21508E+02
 -1        61 1.21508E+02
 -1        62 1.02553E+00
 -1        63 1.61987E+01
 -1        64 8.64209E+01
 -1        65 1.14427E+02
 -1        66 1.20568E+02
 -1        67 1.21496E+02
 -1        68 1.21496E+02
 -1        69 1.21369E+02
 -1        70 1.21094E+02
 -1        71 1.20849E+02
 -1        72 1.20661E+02
 -1        73 1.20520E+02
 -1        74 1.20417E+02
 -1        75 1.20341E+02
 -1        76 1.20286E+02
 -1        77 1.20246E+02
 -1        78 1.20219E+02
 -1        79 1.20203E+02
 -1        80 1.20210E+02
 -1        81 1.20250E+02
 -1        82 1.20364E+02
 -1        83 1.20364E+02
 -1        84 1.19524E+02
 -1        85 1.19800E+02
 -1        86 1.19878E+02
 -1        87 1.19913E+02
 -1        88 1.19932E+02
 -1        89 1.19945E+02
 -1        90 1.19954E+02
 -1        91 1.19961E+02
 -1        92 1.19967E+02
 -1        93 1.19974E+02
 -1        94 1.19982E+02
 -1        95 1.19992E+02
 -1        96 1.20008E+02
 -1        97 1.20033E+02
 -1        98 1.20083E+02
 -1        99 1.20203E+02
 -1       100 1.20203E+02
 -1       101 1.19186E+02
 -1       102 1.19570E+02
 -1       103 1.19656E+02
 -1       104 1.19681E+02
 -1       105 1.19681E+02
 -1       106 1.19679E+02
 -1       107 1.19658E+02
 -1       108 1.19620E+02
 -1       109 1.19560E+02
 -1       110 1.19468E+02
 -1       111 1.19329E+02
 -1       112 1.19105E+02
 -1       113 1.18717E+02
 -1       114 1.17947E+02
 -1       115 1.15985E+02
 -1       116 1.06872E+02
 -1       117 1.18980E+02
 -1       118 1.21187E+02
 -1       119 1.21461E+02
 -1       120 1.21503E+02
 -1       121 1.21508E+02
 -1       122 1.21508E+02
 -1       123 1.02553E+00
 -1       124 1.61987E+01
 -1       125 8.64209E+01
 -1       126 1.14427E+02
 -1       127 1.20568E+02
 -1       128 1.21496E+02
 -1       129 1.21496E+02
 -1       130 1.21369E+02
 -1       131 1.21094E+02
 -1       132 1.20849E+02
 -1       133 1.20661E+02
 -1       134 1.20520E+02
 -1       135 1.20417E+02
 -1       136 1.20341E+02
 -1       137 1.20286E+02
 -1       138 1.20246E+02
 -1       139 1.20219E+02
 -1       140 1.20203E+02
 -1       141 1.20210E+02
 -1       142 1.20250E+02
 -1       143 1.20364E+02
 -1       144 1.20364E+02
 -1       145 1.19524E+02
 -1       146 1.19800E+02
 -1       147 1.19878E+02
 -1       148 1.19913E+02
 -1       149 1.19932E+02
 -1       150 1.19945E+02
 -1       151 1.19954E+02
 -1       152 1.19961E+02
 -1       153 1.19967E+02
 -1       154 1.19974E+02
 -1       155 1.19982E+02
 -1       156 1.19992E+02
 -1       157 1.20008E+02
 -1       158 1.20033E+02
 -1       159 1.20083E+02
 -1       160 1.20203E+02
 -1       161 1.20203E+02
 -1       162 1.19186E+02
 -1       163 1.19570E+02
 -1       164 1.19656E+02
 -1       165 1.19681E+02
 -1       166 1.19681E+02
 -1       167 1.19679E+02
 -1       168 1.19658E+02
 -1       169 1.19620E+02
 -1       170 1.19560E+02
 -1       171 1.19468E+02
 -1       172 1.19329E+02
 -1       173 1.19105E+02
 -1       174 1.18717E+02
 -1       175 1.17947E+02
 -1       176 1.15985E+02
 -1       177 1.06872E+02
 -1       178 1.18980E+02
 -1       179 1.21187E+02
 -1       180 1.21461E+02
 -1       181 1.21503E+02
 -1       182 1.21508E+02
 -1       183 1.21508E+02
 -1       184 1.02553E+00
 -1       185 1.61987E+01
 -1       186 8.64209E+01
 -1       187 1.14427E+02
 -1       188 1.20568E+02
 -1       189 1.21496E+02
 -1       190 1.21496E+02
 -1       191 1.21369E+02
 -1       192 1.21094E+02
 -1       193 1.20849E+02
 -1       194 1.20661E+02
 -1       195 1.20520E+02
 -1       196 1.20417E+02
 -1       197 1.20341E+02
 -1       198 1.20286E+02
 -1       199 1.20246E+02
 -1       200 1.20219E+02
 -1       201 1.20203E+02
 -1       202 1.20210E+02
 -1       203 1.20250E+02
 -1       204 1.20364E+02
 -1       205 1.20364E+02
 -1       206 1.19524E+02
 -1       207 1.19800E+02
 -1       208 1.19878E+02
 -1       209 1.19913E+02
 -1       210 1.19932E+02
 -1       211 1.19945E+02
 -1       212 1.19954E+02
 -1       213 1.19961E+02
 -1       214 1.19967E+02
 -1       215 1.19974E+02
 -1       216 1.19982E+02
 -1       217 1.19992E+02
 -1       218 1.20008E+02
 -1       219 1.20033E+02
 -1       220 1.20083E+02
 -1       221 1.20203E+02
 -1       222 1.20203E+02
 -1       223 1.19186E+02
 -1       224 1.19570E+02
 -1       225 1.19656E+02
 -1       226 1.19681E+02
 -1       227 1.19681E+02
 -1       228 1.19679E+02
 -1       229 1.19658E+02
 -1       230 1.19620E+02
 -1       231 1.19560E+02
 -1       232 1.19468E+02
 -1       233 1.19329E+02
 -1       234 1.19105E+02
 -1       235 1.18717E+02
 -1       236 1.17947E+02
 -1       237 1.15985E+02
 -1       238 1.06872E+02
 -1       239 1.18980E+02
 -1       240 1.21187E+02
 -1       241 1.21461E+02
 -1       242 1.21503E+02
 -1       243 1.21508E+02
 -1       244 1.21508E+02
 -3
    1PSTEP                        17           1           1          
    1PGM                1.000000E+00                                  
    1PGK                2.169019E+07                                  
    1PHID                         -1                                  
    1PSUBC                         0                                  
    1PMODE                         5                                  
  100CL  105 741.2279581         244                     2    5MODAL      1
 -4  DISP        4    1
 -5  D1          1    2    1    0
 -5  D2          1    2    2    0
 -5  D3          1    2    3    0
 -5  ALL         1    2    0    0    1ALL
 -1         1-9.89647E-01-9.77776E+01 0.00000E+00
 -1         2-9.87619E-01-7.47087E+01 0.00000E+00
 -1         3-9.74400E-01-5.18172E+01 0.00000E+00
 -1         4-9.41592E-01-2.94623E+01 0.00000E+00
 -1         5-8.83794E-01-8.16415E+00 0.00000E+00
 -1         6-7.98512E-01 1.14645E+01 0.00000E+00
 -1         7-6.85962E-01 2.87850E+01 0.00000E+00
 -1         8-5.48817E-01 4.31921E+01 0.00000E+00
 -1         9-3.91854E-01 5.41677E+01 0.00000E+00
 -1        10-2.21536E-01 6.13246E+01 0.00000E+00
 -1        11-4.55321E-02 6.44405E+01 0.00000E+00
 -1        12 1.27810E-01 6.34803E+01 0.00000E+00
 -1        13 2.89997E-01 5.86050E+01 0.00000E+00
 -1        14 4.32926E-01 5.01696E+01 0.00000E+00
 -1        15 5.49373E-01 3.87078E+01 0.00000E+00
 -1        16 6.33439E-01 2.49064E+01 0.00000E+00
 -1        17 6.80902E-01 9.57018E+00 0.00000E+00
 -1        18 6.89471E-01-6.41971E+00 0.00000E+00
 -1        19 6.58939E-01-2.21533E+01 0.00000E+00
 -1        20 5.91201E-01-3.67403E+01 0.00000E+00
 -1        21 4.90167E-01-4.93580E+01 0.00000E+00
 -1        22 3.61555E-01-5.92961E+01 0.00000E+00
 -1        23 2.12576E-01-6.59952E+01 0.00000E+00
 -1        24 5.15482E-02-6.90771E+01 0.00000E+00
 -1        25-1.12559E-01-6.83652E+01 0.00000E+00
 -1        26-2.70624E-01-6.38942E+01 0.00000E+00
 -1        27-4.13864E-01-5.59074E+01 0.00000E+00
 -1        28-5.34328E-01-4.48436E+01 0.00000E+00
 -1        29-6.25325E-01-3.13125E+01 0.00000E+00
 -1        30-6.81800E-01-1.60607E+01 0.00000E+00
 -1        31-7.00608E-01 6.96524E-02 0.00000E+00
 -1        32-6.80688E-01 1.61869E+01 0.00000E+00
 -1        33-6.23118E-01 3.14000E+01 0.00000E+00
 -1        34-5.31059E-01 4.48673E+01 0.00000E+00
 -1        35-4.09571E-01 5.58428E+01 0.00000E+00
 -1        36-2.65344E-01 6.37179E+01 0.00000E+00
 -1        37-1.06313E-01 6.80545E+01 0.00000E+00
 -1        38 5.87739E-02 6.86092E+01 0.00000E+00
 -1        39 2.20843E-01 6.53466E+01 0.00000E+00
 -1        40 3.71001E-01 5.84408E+01 0.00000E+00
 -1        41 5.01031E-01 4.82658E+01 0.00000E+00
 -1        42 6.03849E-01 3.53737E+01 0.00000E+00
 -1        43 6.73901E-01 2.04647E+01 0.00000E+00
 -1        44 7.07481E-01 4.34644E+00 0.00000E+00
 -1        45 7.02942E-01-1.21108E+01 0.00000E+00
 -1        46 6.60799E-01-2.80231E+01 0.00000E+00
 -1        47 5.83717E-01-4.25444E+01 0.00000E+00
 -1        48 4.76380E-01-5.49137E+01 0.00000E+00
 -1        49 3.45258E-01-6.45007E+01 0.00000E+00
 -1        50 1.98281E-01-7.08427E+01 0.00000E+00
 -1        51 4.44316E-02-7.36745E+01 0.00000E+00
 -1        52-1.06695E-01-7.29477E+01 0.00000E+00
 -1        53-2.45364E-01-6.88394E+01 0.00000E+00
 -1        54-3.62163E-01-6.17502E+01 0.00000E+00
 -1        55-4.48423E-01-5.22915E+01 0.00000E+00
 -1        56-4.96570E-01-4.12644E+01 0.00000E+00
 -1        57-5.00395E-01-2.96307E+01 0.00000E+00
 -1        58-4.55191E-01-1.84796E+01 0.00000E+00
 -1        59-3.57761E-01-8.99243E+00 0.00000E+00
 -1        60-2.06284E-01-2.40923E+00 0.00000E+00
 -1        61 0.00000E+00 0.00000E+00 0.00000E+00
 -1        62-9.89647E-01-9.77776E+01 0.00000E+00
 -1        63-9.87619E-01-7.47087E+01 0.00000E+00
 -1        64-9.74400E-01-5.18172E+01 0.00000E+00
 -1        65-9.41592E-01-2.94623E+01 0.00000E+00
 -1        66-8.83794E-01-8.16415E+00 0.00000E+00
 -1        67-7.98512E-01 1.14645E+01 0.00000E+00
 -1        68-6.85962E-01 2.87850E+01 0.00000E+00
 -1        69-5.48817E-01 4.31921E+01 0.00000E+00
 -1        70-3.91854E-01 5.41677E+01 0.00000E+00
 -1        71-2.21536E-01 6.13246E+01 0.00000E+00
 -1        72-4.55321E-02 6.44405E+01 0.00000E+00
 -1        73 1.27810E-01 6.34803E+01 0.00000E+00
 -1        74 2.89997E-01 5.86050E+01 0.00000E+00
 -1        75 4.32926E-01 5.01696E+01 0.00000E+00
 -1        76 5.49373E-01 3.87078E+01 0.00000E+00
 -1        77 6.33439E-01 2.49064E+01 0.00000E+00
 -1        78 6.80902E-01 9.57018E+00 0.00000E+00
 -1        79 6.89471E-01-6.41971E+00 0.00000E+00
 -1        80 6.58939E-01-2.21533E+01 0.00000E+00
 -1        81 5.91201E-01-3.67403E+01 0.00000E+00
 -1        82 4.90167E-01-4.93580E+01 0.00000E+00
 -1        83 3.61555E-01-5.92961E+01 0.00000E+00
 -1        84 2.12576E-01-6.59952E+01 0.00000E+00
 -1        85 5.15482E-02-6.90771E+01 0.00000E+00
 -1        86-1.12559E-01-6.83652E+01 0.00000E+00
 -1        87-2.70624E-01-6.38942E+01 0.00000E+00
 -1        88-4.13864E-01-5.59074E+01 0.00000E+00
 -1        89-5.34328E-01-4.48436E+01 0.00000E+00
 -1        90-6.25325E-01-3.13125E+01 0.00000E+00
 -1        91-6.81800E-01-1.60607E+01 0.00000E+00
 -1        92-7.00608E-01 6.96525E-02 0.00000E+00
 -1        93-6.80688E-01 1.61869E+01 0.00000E+00
 -1        94-6.23118E-01 3.14000E+01 0.00000E+00
 -1        95-5.31059E-01 4.48673E+01 0.00000E+00
 -1        96-4.09571E-01 5.58428E+01 0.00000E+00
 -1        97-2.65344E-01 6.37179E+01 0.00000E+00
 -1        98-1.06313E-01 6.80545E+01 0.00000E+00
 -1        99 5.87739E-02 6.86092E+01 0.00000E+00
 -1       100 2.20843E-01 6.53466E+01 0.00000E+00
 -1       101 3.71001E-01 5.84408E+01 0.00000E+00
 -1       102 5.01031E-01 4.82658E+01 0.00000E+00
 -1       103 6.03849E-01 3.53737E+01 0.00000E+00
 -1       104 6.73901E-01 2.04647E+01 0.00000E+00
 -1       105 7.07481E-01 4.34644E+00 0.00000E+00
 -1       106 7.02942E-01-1.21108E+01 0.00000E+00
 -1       107 6.60799E-01-2.80231E+01 0.00000E+00
 -1       108 5.83717E-01-4.25444E+01 0.00000E+00
 -1       109 4.76380E-01-5.49137E+01 0.00000E+00
 -1       110 3.45258E-01-6.45007E+01 0.00000E+00
 -1       111 1.98281E-01-7.08427E+01 0.00000E+00
 -1       112 4.44316E-02-7.36745E+01 0.00000E+00
 -1       113-1.06695E-01-7.29477E+01 0.00000E+00
 -1       114-2.45364E-01-6.88394E+01 0.00000E+00
 -1       115-3.62163E-01-6.17502E+01 0.00000E+00
 -1       116-4.48423E-01-5.22915E+01 0.00000E+00
 -1       117-4.96570E-01-4.12644E+01 0.00000E+00
 -1       118-5.00395E-01-2.96307E+01 0.00000E+00
 -1       119-4.55191E-01-1.84796E+01 0.00000E+00
 -1       120-3.57761E-01-8.99243E+00 0.00000E+00
 -1       121-2.06284E-01-2.40923E+00 0.00000E+00
 -1       122 0.00000E+00 0.00000E+00 0.00000E+00
 -1       123 9.89647E-01-9.77776E+01 0.00000E+00
 -1       124 9.87619E-01-7.47087E+01 0.00000E+00
 -1       125 9.74400E-01-5.18172E+01 0.00000E+00
 -1       126 9.41592E-01-2.94623E+01 0.00000E+00
 -1       127 8.83794E-01-8.16415E+00 0.00000E+00
 -1       128 7.98512E-01 1.14645E+01 0.00000E+00
 -1       129 6.85962E-01 2.87850E+01 0.00000E+00
 -1       130 5.48817E-01 4.31921E+01 0.00000E+00
 -1       131 3.91854E-01 5.41677E+01 0.00000E+00
 -1       132 2.21536E-01 6.13246E+01 0.00000E+00
 -1       133 4.55321E-02 6.44405E+01 0.00000E+00
 -1       134-1.27810E-01 6.34803E+01 0.00000E+00
 -1       135-2.89997E-01 5.86050E+01 0.00000E+00
 -1       136-4.32926E-01 5.01696E+01 0.00000E+00
 -1       137-5.49373E-01 3.87078E+01 0.00000E+00
 -1       138-6.33439E-01 2.49064E+01 0.00000E+00
 -1       139-6.80902E-01 9.57018E+00 0.00000E+00
 -1       140-6.89471E-01-6.41971E+00 0.00000E+00
 -1       141-6.58939E-01-2.21533E+01 0.00000E+00
 -1       142-5.91201E-01-3.67403E+01 0.00000E+00
 -1       143-4.90167E-01-4.93580E+01 0.00000E+00
 -1       144-3.61555E-01-5.92961E+01 0.00000E+00
 -1       145-2.12576E-01-6.59952E+01 0.00000E+00
 -1       146-5.15482E-02-6.90771E+01 0.00000E+00
 -1       147 1.12559E-01-6.83652E+01 0.00000E+00
 -1       148 2.70624E-01-6.38942E+01 0.00000E+00
 -1       149 4.13864E-01-5.59074E+01 0.00000E+00
 -1       150 5.34328E-01-4.48436E+01 0.00000E+00
 -1       151 6.25325E-01-3.13125E+01 0.00000E+00
 -1       152 6.81800E-01-1.60607E+01 0.00000E+00
 -1       153 7.00608E-01 6.96524E-02 0.00000E+00
 -1       154 6.80688E-01 1.61869E+01 0.00000E+00
 -1       155 6.23118E-01 3.14000E+01 0.00000E+00
 -1       156 5.31059E-01 4.48673E+01 0.00000E+00
 -1       157 4.09571E-01 5.58428E+01 0.00000E+00
 -1       158 2.65344E-01 6.37179E+01 0.00000E+00
 -1       159 1.06313E-01 6.80545E+01 0.00000E+00
 -1       160-5.87739E-02 6.86092E+01 0.00000E+00
 -1       161-2.20843E-01 6.53466E+01 0.00000E+00
 -1       162-3.71001E-01 5.84408E+01 0.00000E+00
 -1       163-5.01031E-01 4.82658E+01 0.00000E+00
 -1       164-6.03849E-01 3.53737E+01 0.00000E+00
 -1       165-6.73901E-01 2.04647E+01 0.00000E+00
 -1       166-7.07481E-01 4.34644E+00 0.00000E+00
 -1       167-7.02942E-01-1.21108E+01 0.00000E+00
 -1       168-6.60799E-01-2.80231E+01 0.00000E+00
 -1       169-5.83717E-01-4.25444E+01 0.00000E+00
 -1       170-4.76380E-01-5.49137E+01 0.00000E+00
 -1       171-3.45258E-01-6.45007E+01 0.00000E+00
 -1       172-1.98281E-01-7.08427E+01 0.00000E+00
 -1       173-4.44316E-02-7.36745E+01 0.00000E+00
 -1       174 1.06695E-01-7.29477E+01 0.00000E+00
 -1       175 2.45364E-01-6.88394E+01 0.00000E+00
 -1       176 3.62163E-01-6.17502E+01 0.00000E+00
 -1       177 4.48423E-01-5.22915E+01 0.00000E+00
 -1       178 4.96570E-01-4.12644E+01 0.00000E+00
 -1       179 5.00395E-01-2.96307E+01 0.00000E+00
 -1       180 4.55191E-01-1.84796E+01 0.00000E+00
 -1       181 3.57761E-01-8.99243E+00 0.00000E+00
 -1       182 2.06284E-01-2.40923E+00 0.00000E+00
 -1       183 0.00000E+00 0.00000E+00 0.00000E+00
 -1       184 9.89647E-01-9.77776E+01 0.00000E+00
 -1       185 9.87619E-01-7.47087E+01 0.00000E+00
 -1       186 9.74400E-01-5.18172E+01 0.00000E+00
 -1       187 9.41592E-01-2.94623E+01 0.00000E+00
 -1       188 8.83794E-01-8.16415E+00 0.00000E+00
 -1       189 7.98512E-01 1.14645E+01 0.00000E+00
 -1       190 6.85962E-01 2.87850E+01 0.00000E+00
 -1       191 5.48817E-01 4.31921E+01 0.00000E+00
 -1       192 3.91854E-01 5.41677E+01 0.00000E+00
 -1       193 2.21536E-01 6.13246E+01 0.00000E+00
 -1       194 4.55321E-02 6.44405E+01 0.00000E+00
 -1       195-1.27810E-01 6.34803E+01 0.00000E+00
 -1       196-2.89997E-01 5.86050E+01 0.00000E+00
 -1       197-4.32926E-01 5.01696E+01 0.00000E+00
 -1       198-5.49373E-01 3.87078E+01 0.00000E+00
 -1       199-6.33439E-01 2.49064E+01 0.00000E+00
 -1       200-6.80902E-01 9.57018E+00 0.00000E+00
 -1       201-6.89471E-01-6.41971E+00 0.00000E+00
 -1       202-6.58939E-01-2.21533E+01 0.00000E+00
 -1       203-5.91201E-01-3.67403E+01 0.00000E+00
 -1       204-4.90167E-01-4.93580E+01 0.00000E+00
 -1       205-3.61555E-01-5.92961E+01 0.00000E+00
 -1       206-2.12576E-01-6.59952E+01 0.00000E+00
 -1       207-5.15482E-02-6.90771E+01 0.00000E+00
 -1       208 1.12559E-01-6.83652E+01 0.00000E+00
 -1       209 2.70624E-01-6.38942E+01 0.00000E+00
 -1       210 4.13864E-01-5.59074E+01 0.00000E+00
 -1       211 5.34328E-01-4.48436E+01 0.00000E+00
 -1       212 6.25325E-01-3.13125E+01 0.00000E+00
 -1       213 6.81800E-01-1.60607E+01 0.00000E+00
 -1       214 7.00608E-01 6.96525E-02 0.00000E+00
 -1       215 6.80688E-01 1.61869E+01 0.00000E+00
 -1       216 6.23118E-01 3.14000E+01 0.00000E+00
 -1       217 5.31059E-01 4.48673E+01 0.00000E+00
 -1       218 4.09571E-01 5.58428E+01 0.00000E+00
 -1       219 2.65344E-01 6.37179E+01 0.00000E+00
 -1       220 1.06313E-01 6.80545E+01 0.00000E+00
 -1       221-5.87739E-02 6.86092E+01 0.00000E+00
 -1       222-2.20843E-01 6.53466E+01 0.00000E+00
 -1       223-3.71001E-01 5.84408E+01 0.00000E+00
 -1       224-5.01031E-01 4.82658E+01 0.00000E+00
 -1       225-6.03849E-01 3.53737E+01 0.00000E+00
 -1       226-6.73901E-01 2.04647E+01 0.00000E+00
 -1       227-7.07481E-01 4.34644E+00 0.00000E+00
 -1       228-7.02942E-01-1.21108E+01 0.00000E+00
 -1       229-6.60799E-01-2.80231E+01 0.00000E+00
 -1       230-5.83717E-01-4.25444E+01 0.00000E+00
 -1       231-4.76380E-01-5.49137E+01 0.00000E+00
 -1       232-3.45258E-01-6.45007E+01 0.00000E+00
 -1       233-1.98281E-01-7.08427E+01 0.00000E+00
 -1       234-4.44316E-02-7.36745E+01 0.00000E+00
 -1       235 1.06695E-01-7.29477E+01 0.00000E+00
 -1       236 2.45364E-01-6.88394E+01 0.00000E+00
 -1       237 3.62163E-01-6.17502E+01 0.00000E+00
 -1       238 4.48423E-01-5.22915E+01 0.00000E+00
 -1       239 4.96570E-01-4.12644E+01 0.00000E+00
 -1       240 5.00395E-01-2.96307E+01 0.00000E+00
 -1       241 4.55191E-01-1.84796E+01 0.00000E+00
 -1       242 3.57761E-01-8.99243E+00 0.00000E+00
 -1       243 2.06284E-01-2.40923E+00 0.00000E+00
 -1       244 0.00000E+00 0.00000E+00 0.00000E+00
 -3
    1PSTEP                        18           1           1          
    1PGM                1.000000E+00                                  
    1PGK                2.169019E+07                                  
    1PHID                         -1                                  
    1PSUBC                         0                                  
    1PMODE                         5                                  
  100CL  105 741.2279581         244                     2    5MODAL      1
 -4  STRESS      6    1
 -5  SXX         1    4    1    1
 -5  SYY         1    4    2    2
 -5  SZZ         1    4    3    3
 -5  SXY         1    4    1    2
 -5  SYZ         1    4    2    3
 -5  SZX         1    4    3    1
 -1         1-1.95661E+10-6.74932E+07-7.46077E+09-3.37819E+07 2.15983E+11 1.03391E+00
 -1         2-7.34253E+10-5.84922E+07-2.79239E+10-1.60851E+09 1.87179E+11 1.03509E+00
 -1         3-2.21581E+11-4.06234E+07-8.42164E+10-2.76277E+09 1.29998E+11 1.03847E+00
 -1         4-4.36153E+11-2.31956E+07-1.65747E+11-3.50256E+09 7.42272E+10 1.02250E+00
 -1         5-6.88731E+11-6.60675E+06-2.61720E+11-3.84206E+09 2.11421E+10 9.52445E-01
 -1         6-9.52283E+11 8.67213E+06-3.61864E+11-3.80596E+09-2.77511E+10 8.32605E-01
 -1         7-1.20192E+12 2.21488E+07-4.56722E+11-3.43062E+09-7.08776E+10 6.83946E-01
 -1         8-1.41570E+12 3.33568E+07-5.37954E+11-2.76389E+09-1.06744E+11 6.00359E-01
 -1         9-1.57537E+12 4.18961E+07-5.98625E+11-1.86402E+09-1.34070E+11 6.37610E-01
 -1        10-1.66703E+12 4.74684E+07-6.33452E+11-7.97671E+08-1.51902E+11 7.62839E-01
 -1        11-1.68158E+12 4.99024E+07-6.38983E+11 3.62863E+08-1.59691E+11 8.82128E-01
 -1        12-1.61508E+12 4.91719E+07-6.13711E+11 1.54289E+09-1.57353E+11 9.86716E-01
 -1        13-1.46868E+12 4.54025E+07-5.58081E+11 2.66887E+09-1.45291E+11 1.15343E+00
 -1        14-1.24851E+12 3.88702E+07-4.74419E+11 3.67197E+09-1.24387E+11 1.33285E+00
 -1        15-9.65177E+11 2.99892E+07-3.66756E+11 4.49156E+09-9.59678E+10 1.51651E+00
 -1        16-6.33116E+11 1.92926E+07-2.40577E+11 5.07823E+09-6.17379E+10 1.72264E+00
 -1        17-2.69710E+11 7.40476E+06-1.02487E+11 5.39632E+09-2.36959E+10 1.91320E+00
 -1        18 1.05720E+11-4.99095E+06 4.01719E+10 5.42569E+09 1.59712E+10 2.07391E+00
 -1        19 4.73026E+11-1.71886E+07 1.79743E+11 5.16268E+09 5.50045E+10 2.21548E+00
 -1        20 8.12380E+11-2.84977E+07 3.08694E+11 4.62025E+09 9.11944E+10 2.33471E+00
 -1        21 1.10540E+12-3.82802E+07 4.20038E+11 3.82711E+09 1.22499E+11 2.34429E+00
 -1        22 1.33619E+12-4.59851E+07 5.07734E+11 2.82611E+09 1.47156E+11 2.10804E+00
 -1        23 1.49221E+12-5.11787E+07 5.67022E+11 1.67178E+09 1.63776E+11 1.62132E+00
 -1        24 1.56504E+12-5.35677E+07 5.94695E+11 4.27312E+08 1.71421E+11 9.51499E-01
 -1        25 1.55078E+12-5.30150E+07 5.89276E+11-8.39005E+08 1.69652E+11 1.58239E-01
 -1        26 1.45033E+12-4.95475E+07 5.51108E+11-2.05758E+09 1.58556E+11-6.23942E-01
 -1        27 1.26934E+12-4.33540E+07 4.82332E+11-3.16138E+09 1.38736E+11-1.22373E+00
 -1        28 1.01786E+12-3.47746E+07 3.86775E+11-4.08966E+09 1.11282E+11-1.62485E+00
 -1        29 7.09859E+11-2.42820E+07 2.69737E+11-4.79132E+09 7.77044E+10-1.91651E+00
 -1        30 3.62377E+11-1.24552E+07 1.37699E+11-5.22779E+09 3.98575E+10-2.11719E+00
 -1        31-5.35352E+09 5.28250E+04-2.03432E+09-5.37510E+09-1.68974E+08-2.21383E+00
 -1        32-3.72999E+11 1.25506E+07-1.41735E+11-5.22529E+09-4.01630E+10-2.19676E+00
 -1        33-7.20242E+11 2.43473E+07-2.73683E+11-4.78680E+09-7.79131E+10-2.07356E+00
 -1        34-1.02791E+12 3.47900E+07-3.90591E+11-4.08404E+09-1.11331E+11-1.85332E+00
 -1        35-1.27902E+12 4.33005E+07-4.86010E+11-3.15606E+09-1.38565E+11-1.53824E+00
 -1        36-1.45974E+12 4.94068E+07-5.54681E+11-2.05439E+09-1.58105E+11-1.16547E+00
 -1        37-1.56014E+12 5.27690E+07-5.92834E+11-8.40199E+08-1.68865E+11-8.01937E-01
 -1        38-1.57477E+12 5.31986E+07-5.98391E+11 4.19086E+08-1.70239E+11-4.72052E-01
 -1        39-1.50291E+12 5.06678E+07-5.71086E+11 1.65343E+09-1.62141E+11-1.33443E-01
 -1        40-1.34869E+12 4.53118E+07-5.12485E+11 2.79410E+09-1.45001E+11 2.78522E-01
 -1        41-1.12081E+12 3.74203E+07-4.25895E+11 3.77742E+09-1.19748E+11 7.93791E-01
 -1        42-8.32111E+11 2.74218E+07-3.16192E+11 4.54824E+09-8.77521E+10 1.35103E+00
 -1        43-4.98836E+11 1.58587E+07-1.89552E+11 5.06294E+09-5.07494E+10 1.82542E+00
 -1        44-1.39790E+11 3.35744E+06-5.31190E+10 5.29181E+09-1.07443E+10 2.13315E+00
 -1        45 2.24704E+11-9.40731E+06 8.53839E+10 5.22060E+09 3.01040E+10 2.24511E+00
 -1        46 5.73891E+11-2.17506E+07 2.18070E+11 4.85124E+09 6.96035E+10 2.14571E+00
 -1        47 8.87701E+11-3.30162E+07 3.37314E+11 4.20157E+09 1.05654E+11 1.81971E+00
 -1        48 1.14782E+12-4.26146E+07 4.36154E+11 3.30427E+09 1.36370E+11 1.27159E+00
 -1        49 1.33863E+12-5.00574E+07 5.08660E+11 2.20485E+09 1.60188E+11 5.33480E-01
 -1        50 1.44803E+12-5.49863E+07 5.50230E+11 9.58894E+08 1.75961E+11-3.44727E-01
 -1        51 1.46800E+12-5.71963E+07 5.57817E+11-3.71299E+08 1.83033E+11-1.18011E+00
 -1        52 1.39493E+12-5.66506E+07 5.30051E+11-1.72053E+09 1.81286E+11-1.86406E+00
 -1        53 1.22969E+12-5.34875E+07 4.67262E+11-3.02474E+09 1.71164E+11-2.46112E+00
 -1        54 9.77412E+11-4.80189E+07 3.71398E+11-4.22518E+09 1.53664E+11-2.97032E+00
 -1        55 6.46955E+11-4.07206E+07 2.45828E+11-5.27242E+09 1.30309E+11-3.30961E+00
 -1        56 2.50156E+11-3.22158E+07 9.50470E+10-6.12995E+09 1.03093E+11-3.39605E+00
 -1        57-1.99199E+11-2.32528E+07-7.57046E+10-6.77749E+09 7.44100E+10-3.20717E+00
 -1        58-6.86591E+11-1.46795E+07-2.60910E+11-7.21358E+09 4.69744E+10-2.75201E+00
 -1        59-1.19814E+12-7.41601E+06-4.55297E+11-7.45760E+09 2.37306E+10-2.05783E+00
 -1        60-1.72213E+12-2.42919E+06-6.54409E+11-7.55111E+09 7.77216E+09-1.14116E+00
 -1        61-1.98594E+12-6.27918E+05-7.54658E+11-7.56270E+09 2.00781E+09-1.22956E-02
 -1        62-1.95661E+10-6.74932E+07-7.46077E+09-3.37819E+07-2.15983E+11 1.08842E+00
 -1        63-7.34253E+10-5.84922E+07-2.79239E+10-1.60851E+09-1.87179E+11 1.08940E+00
 -1        64-2.21581E+11-4.06234E+07-8.42164E+10-2.76277E+09-1.29998E+11 1.09251E+00
 -1        65-4.36153E+11-2.31956E+07-1.65747E+11-3.50256E+09-7.42272E+10 1.07654E+00
 -1        66-6.88731E+11-6.60683E+06-2.61720E+11-3.84206E+09-2.11421E+10 1.00625E+00
 -1        67-9.52283E+11 8.67200E+06-3.61864E+11-3.80596E+09 2.77511E+10 8.85642E-01
 -1        68-1.20192E+12 2.21488E+07-4.56722E+11-3.43062E+09 7.08776E+10 7.36830E-01
 -1        69-1.41570E+12 3.33568E+07-5.37954E+11-2.76389E+09 1.06744E+11 6.53241E-01
 -1        70-1.57537E+12 4.18962E+07-5.98625E+11-1.86402E+09 1.34070E+11 6.89566E-01
 -1        71-1.66703E+12 4.74685E+07-6.33452E+11-7.97671E+08 1.51902E+11 8.13247E-01
 -1        72-1.68158E+12 4.99025E+07-6.38983E+11 3.62863E+08 1.59691E+11 9.32226E-01
 -1        73-1.61508E+12 4.91720E+07-6.13711E+11 1.54289E+09 1.57353E+11 1.03790E+00
 -1        74-1.46868E+12 4.54027E+07-5.58081E+11 2.66887E+09 1.45291E+11 1.20399E+00
 -1        75-1.24851E+12 3.88704E+07-4.74419E+11 3.67197E+09 1.24387E+11 1.38256E+00
 -1        76-9.65177E+11 2.99894E+07-3.66756E+11 4.49156E+09 9.59678E+10 1.56637E+00
 -1        77-6.33116E+11 1.92928E+07-2.40577E+11 5.07823E+09 6.17379E+10 1.77351E+00
 -1        78-2.69710E+11 7.40491E+06-1.02487E+11 5.39632E+09 2.36959E+10 1.96330E+00
 -1        79 1.05720E+11-4.99084E+06 4.01719E+10 5.42569E+09-1.59712E+10 2.12240E+00
 -1        80 4.73026E+11-1.71885E+07 1.79743E+11 5.16268E+09-5.50045E+10 2.26410E+00
 -1        81 8.12380E+11-2.84977E+07 3.08694E+11 4.62025E+09-9.11944E+10 2.38322E+00
 -1        82 1.10540E+12-3.82803E+07 4.20038E+11 3.82711E+09-1.22499E+11 2.39207E+00
 -1        83 1.33619E+12-4.59855E+07 5.07734E+11 2.82611E+09-1.47156E+11 2.15482E+00
 -1        84 1.49221E+12-5.11792E+07 5.67022E+11 1.67178E+09-1.63776E+11 1.66752E+00
 -1        85 1.56504E+12-5.35683E+07 5.94695E+11 4.27312E+08-1.71421E+11 9.96843E-01
 -1        86 1.55078E+12-5.30157E+07 5.89276E+11-8.39005E+08-1.69652E+11 2.01999E-01
 -1        87 1.45033E+12-4.95482E+07 5.51108E+11-2.05758E+09-1.58556E+11-5.81575E-01
 -1        88 1.26934E+12-4.33545E+07 4.82332E+11-3.16138E+09-1.38736E+11-1.18167E+00
 -1        89 1.01786E+12-3.47749E+07 3.86775E+11-4.08966E+09-1.11282E+11-1.58403E+00
 -1        90 7.09859E+11-2.42822E+07 2.69737E+11-4.79132E+09-7.77044E+10-1.87740E+00
 -1        91 3.62377E+11-1.24553E+07 1.37699E+11-5.22779E+09-3.98575E+10-2.07900E+00
 -1        92-5.35352E+09 5.27907E+04-2.03432E+09-5.37510E+09 1.68974E+08-2.17626E+00
 -1        93-3.72999E+11 1.25507E+07-1.41735E+11-5.22529E+09 4.01630E+10-2.16042E+00
 -1        94-7.20242E+11 2.43474E+07-2.73683E+11-4.78680E+09 7.79131E+10-2.03676E+00
 -1        95-1.02791E+12 3.47902E+07-3.90591E+11-4.08404E+09 1.11331E+11-1.81713E+00
 -1        96-1.27902E+12 4.33008E+07-4.86010E+11-3.15606E+09 1.38565E+11-1.50500E+00
 -1        97-1.45974E+12 4.94071E+07-5.54681E+11-2.05439E+09 1.58105E+11-1.13315E+00
 -1        98-1.56014E+12 5.27693E+07-5.92834E+11-8.40199E+08 1.68865E+11-7.69775E-01
 -1        99-1.57477E+12 5.31988E+07-5.98391E+11 4.19085E+08 1.70239E+11-4.40195E-01
 -1       100-1.50291E+12 5.06681E+07-5.71086E+11 1.65343E+09 1.62141E+11-1.02204E-01
 -1       101-1.34869E+12 4.53122E+07-5.12485E+11 2.79410E+09 1.45001E+11 3.08674E-01
 -1       102-1.12081E+12 3.74208E+07-4.25895E+11 3.77742E+09 1.19748E+11 8.22398E-01
 -1       103-8.32111E+11 2.74222E+07-3.16192E+11 4.54824E+09 8.77521E+10 1.37913E+00
 -1       104-4.98836E+11 1.58590E+07-1.89552E+11 5.06294E+09 5.07494E+10 1.85352E+00
 -1       105-1.39790E+11 3.35761E+06-5.31190E+10 5.29181E+09 1.07443E+10 2.16067E+00
 -1       106 2.24704E+11-9.40731E+06 8.53839E+10 5.22060E+09-3.01040E+10 2.27132E+00
 -1       107 5.73891E+11-2.17507E+07 2.18070E+11 4.85124E+09-6.96035E+10 2.17043E+00
 -1       108 8.87701E+11-3.30166E+07 3.37314E+11 4.20157E+09-1.05654E+11 1.84389E+00
 -1       109 1.14782E+12-4.26152E+07 4.36154E+11 3.30428E+09-1.36370E+11 1.29439E+00
 -1       110 1.33863E+12-5.00581E+07 5.08660E+11 2.20485E+09-1.60188E+11 5.54041E-01
 -1       111 1.44803E+12-5.49870E+07 5.50230E+11 9.58894E+08-1.75961E+11-3.25631E-01
 -1       112 1.46800E+12-5.71970E+07 5.57817E+11-3.71300E+08-1.83033E+11-1.16249E+00
 -1       113 1.39493E+12-5.66511E+07 5.30051E+11-1.72053E+09-1.81286E+11-1.84893E+00
 -1       114 1.22969E+12-5.34880E+07 4.67262E+11-3.02474E+09-1.71164E+11-2.44831E+00
 -1       115 9.77412E+11-4.80193E+07 3.71398E+11-4.22519E+09-1.53664E+11-2.95872E+00
 -1       116 6.46955E+11-4.07208E+07 2.45828E+11-5.27242E+09-1.30309E+11-3.29879E+00
 -1       117 2.50156E+11-3.22158E+07 9.50470E+10-6.12995E+09-1.03093E+11-3.38708E+00
 -1       118-1.99199E+11-2.32525E+07-7.57046E+10-6.77749E+09-7.44100E+10-3.20068E+00
 -1       119-6.86591E+11-1.46790E+07-2.60910E+11-7.21358E+09-4.69744E+10-2.74721E+00
 -1       120-1.19814E+12-7.41533E+06-4.55297E+11-7.45760E+09-2.37306E+10-2.05470E+00
 -1       121-1.72213E+12-2.42832E+06-6.54409E+11-7.55111E+09-7.77216E+09-1.13996E+00
 -1       122-1.98594E+12-6.26936E+05-7.54658E+11-7.56269E+09-2.00781E+09-1.21407E-02
 -1       123 1.95661E+10 6.74932E+07 7.46077E+09-3.37819E+07 2.15983E+11-2.02759E+00
 -1       124 7.34253E+10 5.84922E+07 2.79239E+10-1.60851E+09 1.87179E+11-2.03238E+00
 -1       125 2.21581E+11 4.06234E+07 8.42164E+10-2.76277E+09 1.29998E+11-2.04786E+00
 -1       126 4.36153E+11 2.31955E+07 1.65747E+11-3.50256E+09 7.42272E+10-2.03902E+00
 -1       127 6.88731E+11 6.60675E+06 2.61720E+11-3.84206E+09 2.11421E+10-1.97887E+00
 -1       128 9.52283E+11-8.67210E+06 3.61864E+11-3.80596E+09-2.77511E+10-1.88228E+00
 -1       129 1.20192E+12-2.21489E+07 4.56722E+11-3.43062E+09-7.08776E+10-1.75051E+00
 -1       130 1.41570E+12-3.33568E+07 5.37954E+11-2.76389E+09-1.06744E+11-1.67395E+00
 -1       131 1.57537E+12-4.18961E+07 5.98625E+11-1.86402E+09-1.34070E+11-1.72420E+00
 -1       132 1.66703E+12-4.74684E+07 6.33452E+11-7.97671E+08-1.51902E+11-1.86668E+00
 -1       133 1.68158E+12-4.99024E+07 6.38983E+11 3.62863E+08-1.59691E+11-1.99852E+00
 -1       134 1.61508E+12-4.91719E+07 6.13711E+11 1.54289E+09-1.57353E+11-2.10763E+00
 -1       135 1.46868E+12-4.54025E+07 5.58081E+11 2.66887E+09-1.45291E+11-2.27343E+00
 -1       136 1.24851E+12-3.88702E+07 4.74419E+11 3.67197E+09-1.24387E+11-2.45093E+00
 -1       137 9.65177E+11-2.99893E+07 3.66756E+11 4.49156E+09-9.59678E+10-2.62047E+00
 -1       138 6.33116E+11-1.92926E+07 2.40577E+11 5.07823E+09-6.17379E+10-2.80708E+00
 -1       139 2.69710E+11-7.40475E+06 1.02487E+11 5.39632E+09-2.36959E+10-2.98302E+00
 -1       140-1.05720E+11 4.99096E+06-4.01719E+10 5.42569E+09 1.59712E+10-3.13241E+00
 -1       141-4.73026E+11 1.71886E+07-1.79743E+11 5.16268E+09 5.50045E+10-3.27152E+00
 -1       142-8.12380E+11 2.84977E+07-3.08694E+11 4.62025E+09 9.11944E+10-3.38268E+00
 -1       143-1.10540E+12 3.82802E+07-4.20038E+11 3.82711E+09 1.22499E+11-3.37761E+00
 -1       144-1.33619E+12 4.59851E+07-5.07734E+11 2.82611E+09 1.47156E+11-3.12618E+00
 -1       145-1.49221E+12 5.11787E+07-5.67022E+11 1.67178E+09 1.63776E+11-2.62783E+00
 -1       146-1.56504E+12 5.35677E+07-5.94695E+11 4.27312E+08 1.71421E+11-1.95641E+00
 -1       147-1.55078E+12 5.30150E+07-5.89276E+11-8.39005E+08 1.69652E+11-1.17197E+00
 -1       148-1.45033E+12 4.95476E+07-5.51108E+11-2.05758E+09 1.58556E+11-4.04067E-01
 -1       149-1.26934E+12 4.33541E+07-4.82332E+11-3.16138E+09 1.38736E+11 1.84673E-01
 -1       150-1.01786E+12 3.47746E+07-3.86775E+11-4.08966E+09 1.11282E+11 5.79121E-01
 -1       151-7.09859E+11 2.42820E+07-2.69737E+11-4.79132E+09 7.77044E+10 8.66935E-01
 -1       152-3.62377E+11 1.24552E+07-1.37699E+11-5.22779E+09 3.98575E+10 1.06731E+00
 -1       153 5.35352E+09-5.28147E+04 2.03432E+09-5.37510E+09-1.68974E+08 1.16019E+00
 -1       154 3.72999E+11-1.25506E+07 1.41735E+11-5.22529E+09-4.01630E+10 1.14183E+00
 -1       155 7.20242E+11-2.43473E+07 2.73683E+11-4.78680E+09-7.79131E+10 1.01982E+00
 -1       156 1.02791E+12-3.47900E+07 3.90591E+11-4.08404E+09-1.11331E+11 8.02901E-01
 -1       157 1.27902E+12-4.33005E+07 4.86010E+11-3.15606E+09-1.38565E+11 4.93371E-01
 -1       158 1.45974E+12-4.94068E+07 5.54681E+11-2.05439E+09-1.58105E+11 1.38028E-01
 -1       159 1.56014E+12-5.27690E+07 5.92834E+11-8.40199E+08-1.68865E+11-1.91746E-01
 -1       160 1.57477E+12-5.31986E+07 5.98391E+11 4.19086E+08-1.70239E+11-4.79571E-01
 -1       161 1.50291E+12-5.06678E+07 5.71086E+11 1.65343E+09-1.62141E+11-7.73372E-01
 -1       162 1.34869E+12-4.53118E+07 5.12485E+11 2.79410E+09-1.45001E+11-1.14662E+00
 -1       163 1.12081E+12-3.74203E+07 4.25895E+11 3.77742E+09-1.19748E+11-1.63467E+00
 -1       164 8.32111E+11-2.74218E+07 3.16192E+11 4.54824E+09-8.77521E+10-2.17598E+00
 -1       165 4.98836E+11-1.58587E+07 1.89552E+11 5.06294E+09-5.07494E+10-2.63778E+00
 -1       166 1.39790E+11-3.35743E+06 5.31190E+10 5.29181E+09-1.07443E+10-2.93217E+00
 -1       167-2.24704E+11 9.40731E+06-8.53839E+10 5.22060E+09 3.01040E+10-3.02424E+00
 -1       168-5.73891E+11 2.17505E+07-2.18070E+11 4.85124E+09 6.96035E+10-2.89906E+00
 -1       169-8.87701E+11 3.30162E+07-3.37314E+11 4.20157E+09 1.05654E+11-2.54382E+00
 -1       170-1.14782E+12 4.26146E+07-4.36154E+11 3.30427E+09 1.36370E+11-1.96728E+00
 -1       171-1.33863E+12 5.00574E+07-5.08660E+11 2.20485E+09 1.60188E+11-1.19599E+00
 -1       172-1.44803E+12 5.49863E+07-5.50230E+11 9.58894E+08 1.75961E+11-2.75280E-01
 -1       173-1.46800E+12 5.71963E+07-5.57817E+11-3.71299E+08 1.83033E+11 6.08504E-01
 -1       174-1.39493E+12 5.66506E+07-5.30051E+11-1.72053E+09 1.81286E+11 1.34914E+00
 -1       175-1.22969E+12 5.34875E+07-4.67262E+11-3.02474E+09 1.71164E+11 2.00796E+00
 -1       176-9.77412E+11 4.80189E+07-3.71398E+11-4.22518E+09 1.53664E+11 2.57373E+00
 -1       177-6.46955E+11 4.07206E+07-2.45828E+11-5.27242E+09 1.30309E+11 2.96726E+00
 -1       178-2.50156E+11 3.22158E+07-9.50470E+10-6.12995E+09 1.03093E+11 3.11332E+00
 -1       179 1.99199E+11 2.32528E+07 7.57046E+10-6.77749E+09 7.44100E+10 2.98472E+00
 -1       180 6.86591E+11 1.46795E+07 2.60910E+11-7.21358E+09 4.69744E+10 2.58734E+00
 -1       181 1.19814E+12 7.41601E+06 4.55297E+11-7.45760E+09 2.37306E+10 1.95268E+00
 -1       182 1.72213E+12 2.42919E+06 6.54409E+11-7.55111E+09 7.77216E+09 1.09136E+00
 -1       183 1.98594E+12 6.27908E+05 7.54658E+11-7.56270E+09 2.00781E+09-1.22088E-02
 -1       184 1.95661E+10 6.74933E+07 7.46077E+09-3.37819E+07-2.15983E+11-1.97309E+00
 -1       185 7.34253E+10 5.84922E+07 2.79239E+10-1.60851E+09-1.87179E+11-1.97806E+00
 -1       186 2.21581E+11 4.06234E+07 8.42164E+10-2.76277E+09-1.29998E+11-1.99381E+00
 -1       187 4.36153E+11 2.31956E+07 1.65747E+11-3.50256E+09-7.42272E+10-1.98498E+00
 -1       188 6.88731E+11 6.60682E+06 2.61720E+11-3.84206E+09-2.11421E+10-1.92506E+00
 -1       189 9.52283E+11-8.67200E+06 3.61864E+11-3.80596E+09 2.77511E+10-1.82924E+00
 -1       190 1.20192E+12-2.21488E+07 4.56722E+11-3.43062E+09 7.08776E+10-1.69763E+00
 -1       191 1.41570E+12-3.33568E+07 5.37954E+11-2.76389E+09 1.06744E+11-1.62107E+00
 -1       192 1.57537E+12-4.18962E+07 5.98625E+11-1.86402E+09 1.34070E+11-1.67224E+00
 -1       193 1.66703E+12-4.74685E+07 6.33452E+11-7.97671E+08 1.51902E+11-1.81627E+00
 -1       194 1.68158E+12-4.99025E+07 6.38983E+11 3.62863E+08 1.59691E+11-1.94842E+00
 -1       195 1.61508E+12-4.91720E+07 6.13711E+11 1.54289E+09 1.57353E+11-2.05644E+00
 -1       196 1.46868E+12-4.54027E+07 5.58081E+11 2.66887E+09 1.45291E+11-2.22286E+00
 -1       197 1.24851E+12-3.88704E+07 4.74419E+11 3.67197E+09 1.24387E+11-2.40122E+00
 -1       198 9.65177E+11-2.99894E+07 3.66756E+11 4.49156E+09 9.59678E+10-2.57060E+00
 -1       199 6.33116E+11-1.92928E+07 2.40577E+11 5.07823E+09 6.17379E+10-2.75620E+00
 -1       200 2.69710E+11-7.40490E+06 1.02487E+11 5.39632E+09 2.36959E+10-2.93292E+00
 -1       201-1.05720E+11 4.99081E+06-4.01719E+10 5.42569E+09-1.59712E+10-3.08391E+00
 -1       202-4.73026E+11 1.71885E+07-1.79743E+11 5.16268E+09-5.50045E+10-3.22291E+00
 -1       203-8.12380E+11 2.84977E+07-3.08694E+11 4.62025E+09-9.11944E+10-3.33416E+00
 -1       204-1.10540E+12 3.82803E+07-4.20038E+11 3.82711E+09-1.22499E+11-3.32983E+00
 -1       205-1.33619E+12 4.59854E+07-5.07734E+11 2.82611E+09-1.47156E+11-3.07940E+00
 -1       206-1.49221E+12 5.11792E+07-5.67022E+11 1.67178E+09-1.63776E+11-2.58164E+00
 -1       207-1.56504E+12 5.35683E+07-5.94695E+11 4.27312E+08-1.71421E+11-1.91107E+00
 -1       208-1.55078E+12 5.30157E+07-5.89276E+11-8.39005E+08-1.69652E+11-1.12821E+00
 -1       209-1.45033E+12 4.95481E+07-5.51108E+11-2.05758E+09-1.58556E+11-3.61699E-01
 -1       210-1.26934E+12 4.33545E+07-4.82332E+11-3.16138E+09-1.38736E+11 2.26731E-01
 -1       211-1.01786E+12 3.47749E+07-3.86775E+11-4.08966E+09-1.11282E+11 6.19940E-01
 -1       212-7.09859E+11 2.42822E+07-2.69737E+11-4.79132E+09-7.77044E+10 9.06056E-01
 -1       213-3.62377E+11 1.24553E+07-1.37699E+11-5.22779E+09-3.98575E+10 1.10550E+00
 -1       214 5.35352E+09-5.27824E+04 2.03432E+09-5.37510E+09 1.68974E+08 1.19777E+00
 -1       215 3.72999E+11-1.25507E+07 1.41735E+11-5.22529E+09 4.01630E+10 1.17817E+00
 -1       216 7.20242E+11-2.43474E+07 2.73683E+11-4.78680E+09 7.79131E+10 1.05662E+00
 -1       217 1.02791E+12-3.47902E+07 3.90591E+11-4.08404E+09 1.11331E+11 8.39082E-01
 -1       218 1.27902E+12-4.33008E+07 4.86010E+11-3.15606E+09 1.38565E+11 5.26616E-01
 -1       219 1.45974E+12-4.94071E+07 5.54681E+11-2.05439E+09 1.58105E+11 1.70343E-01
 -1       220 1.56014E+12-5.27693E+07 5.92834E+11-8.40199E+08 1.68865E+11-1.59584E-01
 -1       221 1.57477E+12-5.31988E+07 5.98391E+11 4.19085E+08 1.70239E+11-4.47713E-01
 -1       222 1.50291E+12-5.06681E+07 5.71086E+11 1.65343E+09 1.62141E+11-7.42133E-01
 -1       223 1.34869E+12-4.53122E+07 5.12485E+11 2.79410E+09 1.45001E+11-1.11646E+00
 -1       224 1.12081E+12-3.74208E+07 4.25895E+11 3.77742E+09 1.19748E+11-1.60606E+00
 -1       225 8.32111E+11-2.74222E+07 3.16192E+11 4.54824E+09 8.77521E+10-2.14787E+00
 -1       226 4.98836E+11-1.58590E+07 1.89552E+11 5.06294E+09 5.07494E+10-2.60967E+00
 -1       227 1.39790E+11-3.35762E+06 5.31190E+10 5.29181E+09 1.07443E+10-2.90465E+00
 -1       228-2.24704E+11 9.40732E+06-8.53839E+10 5.22060E+09-3.01040E+10-2.99803E+00
 -1       229-5.73891E+11 2.17508E+07-2.18070E+11 4.85124E+09-6.96035E+10-2.87434E+00
 -1       230-8.87701E+11 3.30166E+07-3.37314E+11 4.20157E+09-1.05654E+11-2.51964E+00
 -1       231-1.14782E+12 4.26152E+07-4.36154E+11 3.30428E+09-1.36370E+11-1.94448E+00
 -1       232-1.33863E+12 5.00581E+07-5.08660E+11 2.20485E+09-1.60188E+11-1.17544E+00
 -1       233-1.44803E+12 5.49870E+07-5.50230E+11 9.58894E+08-1.75961E+11-2.56184E-01
 -1       234-1.46800E+12 5.71970E+07-5.57817E+11-3.71300E+08-1.83033E+11 6.26131E-01
 -1       235-1.39493E+12 5.66511E+07-5.30051E+11-1.72053E+09-1.81286E+11 1.36427E+00
 -1       236-1.22969E+12 5.34880E+07-4.67262E+11-3.02474E+09-1.71164E+11 2.02077E+00
 -1       237-9.77412E+11 4.80193E+07-3.71398E+11-4.22519E+09-1.53664E+11 2.58533E+00
 -1       238-6.46955E+11 4.07208E+07-2.45828E+11-5.27242E+09-1.30309E+11 2.97808E+00
 -1       239-2.50156E+11 3.22158E+07-9.50470E+10-6.12995E+09-1.03093E+11 3.12228E+00
 -1       240 1.99199E+11 2.32525E+07 7.57046E+10-6.77749E+09-7.44100E+10 2.99122E+00
 -1       241 6.86591E+11 1.46790E+07 2.60910E+11-7.21358E+09-4.69744E+10 2.59214E+00
 -1       242 1.19814E+12 7.41534E+06 4.55297E+11-7.45760E+09-2.37306E+10 1.95581E+00
 -1       243 1.72213E+12 2.42831E+06 6.54409E+11-7.55111E+09-7.77216E+09 1.09255E+00
 -1       244 1.98594E+12 6.26952E+05 7.54658E+11-7.56269E+09-2.00781E+09-1.20543E-02
 -3
    1PSTEP                        19           1           1          
    1PGM                1.000000E+00                                  
    1PGK                2.169019E+07                                  
    1PHID                         -1                                  
    1PSUBC                         0                                  
    1PMODE                         5                                  
  100CL  105 741.2279581         244                     2    5MODAL      1
 -4  TOSTRAIN    6    1
 -5  EXX         1    4    1    1
 -5  EYY         1    4    2    2
 -5  EZZ         1    4    3    3
 -5  EXY         1    4    1    2
 -5  EYZ         1    4    2    3
 -5  EZX         1    4    3    1
 -1         1-3.47666E+00 2.12335E+00-2.69116E-10-9.70218E-03 6.20304E+01 2.96939E-10
 -1         2-1.30681E+01 8.00295E+00 4.78725E-10-4.61965E-01 5.37579E+01 2.97278E-10
 -1         3-3.94513E+01 2.41753E+01 2.06912E-10-7.93469E-01 3.73354E+01 2.98250E-10
 -1         4-7.76609E+01 4.75961E+01-9.33169E-10-1.00594E+00 2.13181E+01 2.93662E-10
 -1         5-1.22638E+02 7.51644E+01-3.29734E-10-1.10344E+00 6.07204E+00 2.73543E-10
 -1         6-1.69569E+02 1.03930E+02 1.70551E-10-1.09308E+00-7.97015E+00 2.39125E-10
 -1         7-2.14022E+02 1.31177E+02-4.70709E-10-9.85278E-01-2.03561E+01 1.96430E-10
 -1         8-2.52090E+02 1.54510E+02-4.58231E-10-7.93791E-01-3.06569E+01 1.72423E-10
 -1         9-2.80522E+02 1.71938E+02 6.85447E-11-5.35349E-01-3.85051E+01 1.83122E-10
 -1        10-2.96843E+02 1.81941E+02 1.90291E-11-2.29092E-01-4.36264E+01 2.19088E-10
 -1        11-2.99436E+02 1.83531E+02-2.55727E-10 1.04215E-01-4.58634E+01 2.53348E-10
 -1        12-2.87593E+02 1.76272E+02-1.61536E-10 4.43120E-01-4.51920E+01 2.83386E-10
 -1        13-2.61525E+02 1.60294E+02 3.77973E-10 7.66500E-01-4.17278E+01 3.31265E-10
 -1        14-2.22319E+02 1.36265E+02 2.78664E-12 1.05459E+00-3.57242E+01 3.82795E-10
 -1        15-1.71867E+02 1.05341E+02-7.00302E-10 1.28998E+00-2.75620E+01 4.35542E-10
 -1        16-1.12738E+02 6.90994E+01 3.08640E-12 1.45847E+00-1.77312E+01 4.94743E-10
 -1        17-4.80265E+01 2.94364E+01 2.22720E-10 1.54983E+00-6.80549E+00 5.49473E-10
 -1        18 1.88256E+01-1.15388E+01 4.94918E-10 1.55826E+00 4.58693E+00 5.95627E-10
 -1        19 8.42310E+01-5.16273E+01 6.28421E-10 1.48273E+00 1.57973E+01 6.36289E-10
 -1        20 1.44659E+02-8.86653E+01-5.19581E-12 1.32694E+00 2.61911E+01 6.70531E-10
 -1        21 1.96837E+02-1.20646E+02 1.48169E-10 1.09915E+00 3.51819E+01 6.73281E-10
 -1        22 2.37933E+02-1.45835E+02 1.86872E-10 8.11660E-01 4.22633E+01 6.05432E-10
 -1        23 2.65716E+02-1.62864E+02 3.23406E-11 4.80138E-01 4.70366E+01 4.65646E-10
 -1        24 2.78684E+02-1.70812E+02-1.80077E-10 1.22724E-01 4.92322E+01 2.73271E-10
 -1        25 2.76145E+02-1.69256E+02-2.98570E-10-2.40963E-01 4.87243E+01 4.54464E-11
 -1        26 2.58258E+02-1.58293E+02-8.98720E-11-5.90939E-01 4.55375E+01-1.79197E-10
 -1        27 2.26029E+02-1.38539E+02 7.25526E-11-9.07950E-01 3.98452E+01-3.51457E-10
 -1        28 1.81249E+02-1.11092E+02 3.19298E-10-1.17455E+00 3.19602E+01-4.66659E-10
 -1        29 1.26403E+02-7.74757E+01-2.79774E-11-1.37607E+00 2.23168E+01-5.50424E-10
 -1        30 6.45279E+01-3.95507E+01-2.29371E-11-1.50143E+00 1.14471E+01-6.08060E-10
 -1        31-9.53277E-01 5.84272E-01 9.72365E-11-1.54373E+00-4.85295E-02-6.35814E-10
 -1        32-6.64192E+01 4.07099E+01-1.20877E-10-1.50071E+00-1.15348E+01-6.30911E-10
 -1        33-1.28252E+02 7.86089E+01-1.71906E-10-1.37477E+00-2.23767E+01-5.95529E-10
 -1        34-1.83037E+02 1.12188E+02-7.21640E-11-1.17294E+00-3.19742E+01-5.32275E-10
 -1        35-2.27752E+02 1.39595E+02 3.80604E-10-9.06424E-01-3.97959E+01-4.41784E-10
 -1        36-2.59933E+02 1.59319E+02 2.60568E-10-5.90024E-01-4.54080E+01-3.34723E-10
 -1        37-2.77812E+02 1.70278E+02 5.95770E-10-2.41306E-01-4.84981E+01-2.30317E-10
 -1        38-2.80416E+02 1.71874E+02 9.40059E-10 1.20362E-01-4.88929E+01-1.35574E-10
 -1        39-2.67620E+02 1.64031E+02 5.18904E-10 4.74866E-01-4.65669E+01-3.83251E-11
 -1        40-2.40159E+02 1.47199E+02 1.72195E-10 8.02468E-01-4.16445E+01 7.99917E-11
 -1        41-1.99581E+02 1.22328E+02 3.97324E-10 1.08488E+00-3.43918E+01 2.27977E-10
 -1        42-1.48172E+02 9.08184E+01 2.95329E-10 1.30626E+00-2.52025E+01 3.88017E-10
 -1        43-8.88268E+01 5.44440E+01 2.46923E-10 1.45408E+00-1.45753E+01 5.24262E-10
 -1        44-2.48920E+01 1.52568E+01 2.28544E-10 1.51981E+00-3.08577E+00 6.12643E-10
 -1        45 4.00128E+01-2.45250E+01 1.03084E-10 1.49936E+00 8.64589E+00 6.44799E-10
 -1        46 1.02192E+02-6.26362E+01 9.61170E-11 1.39328E+00 1.99902E+01 6.16249E-10
 -1        47 1.58072E+02-9.68863E+01 1.27142E-10 1.20669E+00 3.03441E+01 5.22622E-10
 -1        48 2.04390E+02-1.25276E+02 5.93077E-10 9.48991E-01 3.91657E+01 3.65201E-10
 -1        49 2.38368E+02-1.46102E+02 5.86189E-10 6.33235E-01 4.60061E+01 1.53216E-10
 -1        50 2.57849E+02-1.58042E+02 3.25121E-10 2.75395E-01 5.05361E+01-9.90059E-11
 -1        51 2.61404E+02-1.60222E+02 5.32199E-10-1.06637E-01 5.25672E+01-3.38930E-10
 -1        52 2.48393E+02-1.52247E+02 8.95695E-10-4.94138E-01 5.20656E+01-5.35360E-10
 -1        53 2.18970E+02-1.34213E+02 1.00752E-09-8.68707E-01 4.91585E+01-7.06836E-10
 -1        54 1.74048E+02-1.06680E+02 1.05994E-09-1.21348E+00 4.41325E+01-8.53078E-10
 -1        55 1.15204E+02-7.06136E+01 1.03032E-09-1.51424E+00 3.74248E+01-9.50523E-10
 -1        56 4.45474E+01-2.73068E+01 8.43476E-10-1.76053E+00 2.96083E+01-9.75347E-10
 -1        57-3.54678E+01 2.17358E+01 9.15107E-10-1.94650E+00 2.13706E+01-9.21103E-10
 -1        58-1.22256E+02 7.49294E+01 7.97024E-10-2.07175E+00 1.34911E+01-7.90378E-10
 -1        59-2.13346E+02 1.30760E+02 6.42110E-10-2.14183E+00 6.81546E+00-5.91011E-10
 -1        60-3.06649E+02 1.87946E+02 8.70593E-10-2.16869E+00 2.23217E+00-3.27743E-10
 -1        61-3.53626E+02 2.16738E+02 9.20724E-10-2.17201E+00 5.76645E-01-3.53132E-12
 -1        62-3.47666E+00 2.12335E+00 2.69116E-10-9.70218E-03-6.20304E+01 3.12596E-10
 -1        63-1.30681E+01 8.00295E+00-4.78725E-10-4.61965E-01-5.37579E+01 3.12878E-10
 -1        64-3.94513E+01 2.41753E+01-2.06912E-10-7.93469E-01-3.73354E+01 3.13770E-10
 -1        65-7.76609E+01 4.75961E+01 9.33169E-10-1.00594E+00-2.13181E+01 3.09183E-10
 -1        66-1.22638E+02 7.51644E+01 3.29734E-10-1.10344E+00-6.07204E+00 2.88997E-10
 -1        67-1.69569E+02 1.03930E+02-1.70551E-10-1.09308E+00 7.97015E+00 2.54357E-10
 -1        68-2.14022E+02 1.31177E+02 4.70709E-10-9.85278E-01 2.03561E+01 2.11618E-10
 -1        69-2.52090E+02 1.54510E+02 4.58231E-10-7.93791E-01 3.06569E+01 1.87611E-10
 -1        70-2.80522E+02 1.71938E+02-6.85447E-11-5.35349E-01 3.85051E+01 1.98044E-10
 -1        71-2.96843E+02 1.81941E+02-1.90291E-11-2.29092E-01 4.36264E+01 2.33565E-10
 -1        72-2.99436E+02 1.83531E+02 2.55727E-10 1.04215E-01 4.58634E+01 2.67736E-10
 -1        73-2.87593E+02 1.76272E+02 1.61536E-10 4.43120E-01 4.51920E+01 2.98085E-10
 -1        74-2.61525E+02 1.60294E+02-3.77973E-10 7.66500E-01 4.17278E+01 3.45787E-10
 -1        75-2.22319E+02 1.36265E+02-2.78664E-12 1.05459E+00 3.57242E+01 3.97073E-10
 -1        76-1.71867E+02 1.05341E+02 7.00302E-10 1.28998E+00 2.75620E+01 4.49864E-10
 -1        77-1.12738E+02 6.90994E+01-3.08640E-12 1.45847E+00 1.77312E+01 5.09353E-10
 -1        78-4.80265E+01 2.94364E+01-2.22720E-10 1.54983E+00 6.80549E+00 5.63861E-10
 -1        79 1.88256E+01-1.15388E+01-4.94918E-10 1.55826E+00-4.58693E+00 6.09555E-10
 -1        80 8.42310E+01-5.16273E+01-6.28421E-10 1.48273E+00-1.57973E+01 6.50251E-10
 -1        81 1.44659E+02-8.86653E+01 5.19581E-12 1.32694E+00-2.61911E+01 6.84464E-10
 -1        82 1.96837E+02-1.20646E+02-1.48169E-10 1.09915E+00-3.51819E+01 6.87003E-10
 -1        83 2.37933E+02-1.45835E+02-1.86872E-10 8.11660E-01-4.22633E+01 6.18865E-10
 -1        84 2.65716E+02-1.62864E+02-3.23406E-11 4.80138E-01-4.70366E+01 4.78913E-10
 -1        85 2.78684E+02-1.70812E+02 1.80077E-10 1.22724E-01-4.92322E+01 2.86294E-10
 -1        86 2.76145E+02-1.69256E+02 2.98570E-10-2.40963E-01-4.87243E+01 5.80142E-11
 -1        87 2.58258E+02-1.58293E+02 8.98720E-11-5.90939E-01-4.55375E+01-1.67029E-10
 -1        88 2.26029E+02-1.38539E+02-7.25526E-11-9.07951E-01-3.98452E+01-3.39378E-10
 -1        89 1.81249E+02-1.11092E+02-3.19298E-10-1.17455E+00-3.19602E+01-4.54935E-10
 -1        90 1.26403E+02-7.74757E+01 2.79774E-11-1.37607E+00-2.23168E+01-5.39189E-10
 -1        91 6.45279E+01-3.95507E+01 2.29371E-11-1.50143E+00-1.14471E+01-5.97091E-10
 -1        92-9.53277E-01 5.84272E-01-9.72365E-11-1.54373E+00 4.85294E-02-6.25023E-10
 -1        93-6.64192E+01 4.07099E+01 1.20877E-10-1.50071E+00 1.15348E+01-6.20476E-10
 -1        94-1.28252E+02 7.86089E+01 1.71906E-10-1.37477E+00 2.23767E+01-5.84960E-10
 -1        95-1.83037E+02 1.12188E+02 7.21640E-11-1.17294E+00 3.19742E+01-5.21882E-10
 -1        96-2.27752E+02 1.39595E+02-3.80604E-10-9.06424E-01 3.97959E+01-4.32237E-10
 -1        97-2.59933E+02 1.59319E+02-2.60568E-10-5.90024E-01 4.54080E+01-3.25441E-10
 -1        98-2.77812E+02 1.70278E+02-5.95770E-10-2.41306E-01 4.84981E+01-2.21080E-10
 -1        99-2.80416E+02 1.71874E+02-9.40059E-10 1.20362E-01 4.88929E+01-1.26424E-10
 -1       100-2.67620E+02 1.64031E+02-5.18904E-10 4.74866E-01 4.65669E+01-2.93532E-11
 -1       101-2.40159E+02 1.47199E+02-1.72195E-10 8.02468E-01 4.16445E+01 8.86513E-11
 -1       102-1.99581E+02 1.22328E+02-3.97324E-10 1.08488E+00 3.43918E+01 2.36193E-10
 -1       103-1.48172E+02 9.08184E+01-2.95329E-10 1.30626E+00 2.52025E+01 3.96088E-10
 -1       104-8.88268E+01 5.44440E+01-2.46923E-10 1.45408E+00 1.45753E+01 5.32333E-10
 -1       105-2.48920E+01 1.52568E+01-2.28544E-10 1.51981E+00 3.08577E+00 6.20547E-10
 -1       106 4.00128E+01-2.45250E+01-1.03084E-10 1.49936E+00-8.64590E+00 6.52326E-10
 -1       107 1.02192E+02-6.26362E+01-9.61170E-11 1.39328E+00-1.99902E+01 6.23349E-10
 -1       108 1.58072E+02-9.68863E+01-1.27142E-10 1.20669E+00-3.03441E+01 5.29566E-10
 -1       109 2.04390E+02-1.25276E+02-5.93077E-10 9.48991E-01-3.91657E+01 3.71750E-10
 -1       110 2.38368E+02-1.46102E+02-5.86189E-10 6.33235E-01-4.60061E+01 1.59121E-10
 -1       111 2.57849E+02-1.58042E+02-3.25121E-10 2.75395E-01-5.05361E+01-9.35215E-11
 -1       112 2.61404E+02-1.60222E+02-5.32199E-10-1.06638E-01-5.25672E+01-3.33867E-10
 -1       113 2.48393E+02-1.52247E+02-8.95695E-10-4.94138E-01-5.20656E+01-5.31013E-10
 -1       114 2.18970E+02-1.34213E+02-1.00752E-09-8.68707E-01-4.91585E+01-7.03156E-10
 -1       115 1.74048E+02-1.06680E+02-1.05994E-09-1.21348E+00-4.41325E+01-8.49747E-10
 -1       116 1.15204E+02-7.06136E+01-1.03032E-09-1.51424E+00-3.74248E+01-9.47415E-10
 -1       117 4.45474E+01-2.73068E+01-8.43476E-10-1.76053E+00-2.96083E+01-9.72771E-10
 -1       118-3.54678E+01 2.17358E+01-9.15107E-10-1.94650E+00-2.13706E+01-9.19238E-10
 -1       119-1.22256E+02 7.49294E+01-7.97024E-10-2.07175E+00-1.34911E+01-7.89001E-10
 -1       120-2.13346E+02 1.30760E+02-6.42110E-10-2.14183E+00-6.81546E+00-5.90111E-10
 -1       121-3.06649E+02 1.87946E+02-8.70593E-10-2.16869E+00-2.23217E+00-3.27399E-10
 -1       122-3.53626E+02 2.16738E+02-9.20724E-10-2.17201E+00-5.76645E-01-3.48681E-12
 -1       123 3.47666E+00-2.12335E+00-2.69116E-10-9.70218E-03 6.20304E+01-5.82327E-10
 -1       124 1.30681E+01-8.00295E+00 4.78725E-10-4.61965E-01 5.37579E+01-5.83701E-10
 -1       125 3.94513E+01-2.41753E+01 2.06912E-10-7.93469E-01 3.73354E+01-5.88147E-10
 -1       126 7.76609E+01-4.75961E+01-9.33169E-10-1.00594E+00 2.13181E+01-5.85609E-10
 -1       127 1.22638E+02-7.51644E+01-3.29734E-10-1.10344E+00 6.07204E+00-5.68332E-10
 -1       128 1.69569E+02-1.03930E+02 1.70551E-10-1.09308E+00-7.97015E+00-5.40593E-10
 -1       129 2.14022E+02-1.31177E+02-4.70709E-10-9.85278E-01-2.03561E+01-5.02749E-10
 -1       130 2.52090E+02-1.54510E+02-4.58231E-10-7.93791E-01-3.06569E+01-4.80761E-10
 -1       131 2.80522E+02-1.71938E+02 6.85447E-11-5.35349E-01-3.85051E+01-4.95190E-10
 -1       132 2.96843E+02-1.81941E+02 1.90291E-11-2.29092E-01-4.36264E+01-5.36113E-10
 -1       133 2.99436E+02-1.83531E+02-2.55727E-10 1.04215E-01-4.58634E+01-5.73975E-10
 -1       134 2.87593E+02-1.76272E+02-1.61536E-10 4.43120E-01-4.51920E+01-6.05312E-10
 -1       135 2.61525E+02-1.60294E+02 3.77973E-10 7.66500E-01-4.17278E+01-6.52930E-10
 -1       136 2.22319E+02-1.36265E+02 2.78664E-12 1.05459E+00-3.57242E+01-7.03910E-10
 -1       137 1.71867E+02-1.05341E+02-7.00302E-10 1.28998E+00-2.75620E+01-7.52601E-10
 -1       138 1.12738E+02-6.90994E+01 3.08640E-12 1.45847E+00-1.77312E+01-8.06195E-10
 -1       139 4.80265E+01-2.94364E+01 2.22720E-10 1.54983E+00-6.80549E+00-8.56725E-10
 -1       140-1.88256E+01 1.15388E+01 4.94918E-10 1.55826E+00 4.58693E+00-8.99630E-10
 -1       141-8.42310E+01 5.16273E+01 6.28421E-10 1.48273E+00 1.57973E+01-9.39583E-10
 -1       142-1.44659E+02 8.86653E+01-5.19581E-12 1.32694E+00 2.61911E+01-9.71508E-10
 -1       143-1.96837E+02 1.20646E+02 1.48169E-10 1.09915E+00 3.51819E+01-9.70054E-10
 -1       144-2.37933E+02 1.45835E+02 1.86872E-10 8.11660E-01 4.22633E+01-8.97840E-10
 -1       145-2.65716E+02 1.62864E+02 3.23406E-11 4.80138E-01 4.70366E+01-7.54716E-10
 -1       146-2.78684E+02 1.70812E+02-1.80077E-10 1.22724E-01 4.92322E+01-5.61882E-10
 -1       147-2.76145E+02 1.69256E+02-2.98570E-10-2.40963E-01 4.87243E+01-3.36591E-10
 -1       148-2.58258E+02 1.58293E+02-8.98720E-11-5.90939E-01 4.55375E+01-1.16048E-10
 -1       149-2.26029E+02 1.38539E+02 7.25526E-11-9.07950E-01 3.98452E+01 5.30381E-11
 -1       150-1.81249E+02 1.11092E+02 3.19298E-10-1.17455E+00 3.19602E+01 1.66324E-10
 -1       151-1.26403E+02 7.74757E+01-2.79774E-11-1.37607E+00 2.23168E+01 2.48984E-10
 -1       152-6.45279E+01 3.95507E+01-2.29371E-11-1.50143E+00 1.14471E+01 3.06532E-10
 -1       153 9.53277E-01-5.84272E-01 9.72365E-11-1.54373E+00-4.85295E-02 3.33208E-10
 -1       154 6.64192E+01-4.07099E+01-1.20877E-10-1.50071E+00-1.15348E+01 3.27934E-10
 -1       155 1.28252E+02-7.86089E+01-1.71906E-10-1.37477E+00-2.23767E+01 2.92894E-10
 -1       156 1.83037E+02-1.12188E+02-7.21640E-11-1.17294E+00-3.19742E+01 2.30594E-10
 -1       157 2.27752E+02-1.39595E+02 3.80604E-10-9.06424E-01-3.97959E+01 1.41696E-10
 -1       158 2.59933E+02-1.59319E+02 2.60568E-10-5.90024E-01-4.54080E+01 3.96417E-11
 -1       159 2.77812E+02-1.70278E+02 5.95770E-10-2.41306E-01-4.84981E+01-5.50697E-11
 -1       160 2.80416E+02-1.71874E+02 9.40059E-10 1.20362E-01-4.88929E+01-1.37733E-10
 -1       161 2.67620E+02-1.64031E+02 5.18904E-10 4.74866E-01-4.65669E+01-2.22113E-10
 -1       162 2.40159E+02-1.47199E+02 1.72195E-10 8.02468E-01-4.16445E+01-3.29309E-10
 -1       163 1.99581E+02-1.22328E+02 3.97324E-10 1.08488E+00-3.43918E+01-4.69478E-10
 -1       164 1.48172E+02-9.08184E+01 2.95329E-10 1.30626E+00-2.52025E+01-6.24942E-10
 -1       165 8.88268E+01-5.44440E+01 2.46923E-10 1.45408E+00-1.45753E+01-7.57572E-10
 -1       166 2.48920E+01-1.52568E+01 2.28544E-10 1.51981E+00-3.08577E+00-8.42122E-10
 -1       167-4.00128E+01 2.45250E+01 1.03084E-10 1.49936E+00 8.64589E+00-8.68563E-10
 -1       168-1.02192E+02 6.26362E+01 9.61170E-11 1.39328E+00 1.99902E+01-8.32612E-10
 -1       169-1.58072E+02 9.68863E+01 1.27142E-10 1.20669E+00 3.03441E+01-7.30588E-10
 -1       170-2.04390E+02 1.25276E+02 5.93077E-10 9.48991E-01 3.91657E+01-5.65006E-10
 -1       171-2.38368E+02 1.46102E+02 5.86189E-10 6.33235E-01 4.60061E+01-3.43491E-10
 -1       172-2.57849E+02 1.58042E+02 3.25121E-10 2.75395E-01 5.05361E+01-7.90608E-11
 -1       173-2.61404E+02 1.60222E+02 5.32199E-10-1.06637E-01 5.25672E+01 1.74763E-10
 -1       174-2.48393E+02 1.52247E+02 8.95695E-10-4.94138E-01 5.20656E+01 3.87473E-10
 -1       175-2.18970E+02 1.34213E+02 1.00752E-09-8.68707E-01 4.91585E+01 5.76688E-10
 -1       176-1.74048E+02 1.06680E+02 1.05994E-09-1.21348E+00 4.41325E+01 7.39179E-10
 -1       177-1.15204E+02 7.06136E+01 1.03032E-09-1.51424E+00 3.74248E+01 8.52199E-10
 -1       178-4.45474E+01 2.73068E+01 8.43476E-10-1.76053E+00 2.96083E+01 8.94147E-10
 -1       179 3.54678E+01-2.17358E+01 9.15107E-10-1.94650E+00 2.13706E+01 8.57215E-10
 -1       180 1.22256E+02-7.49294E+01 7.97024E-10-2.07175E+00 1.34911E+01 7.43087E-10
 -1       181 2.13346E+02-1.30760E+02 6.42110E-10-2.14183E+00 6.81546E+00 5.60810E-10
 -1       182 3.06649E+02-1.87946E+02 8.70593E-10-2.16869E+00 2.23217E+00 3.13438E-10
 -1       183 3.53626E+02-2.16738E+02 9.20724E-10-2.17201E+00 5.76645E-01-3.50637E-12
 -1       184 3.47666E+00-2.12335E+00 2.69116E-10-9.70219E-03-6.20304E+01-5.66672E-10
 -1       185 1.30681E+01-8.00295E+00-4.78725E-10-4.61965E-01-5.37579E+01-5.68101E-10
 -1       186 3.94513E+01-2.41753E+01-2.06912E-10-7.93469E-01-3.73354E+01-5.72625E-10
 -1       187 7.76609E+01-4.75961E+01 9.33169E-10-1.00594E+00-2.13181E+01-5.70088E-10
 -1       188 1.22638E+02-7.51644E+01 3.29734E-10-1.10344E+00-6.07204E+00-5.52878E-10
 -1       189 1.69569E+02-1.03930E+02-1.70551E-10-1.09308E+00 7.97015E+00-5.25360E-10
 -1       190 2.14022E+02-1.31177E+02 4.70709E-10-9.85278E-01 2.03561E+01-4.87561E-10
 -1       191 2.52090E+02-1.54510E+02 4.58231E-10-7.93791E-01 3.06569E+01-4.65574E-10
 -1       192 2.80522E+02-1.71938E+02-6.85447E-11-5.35349E-01 3.85051E+01-4.80269E-10
 -1       193 2.96843E+02-1.81941E+02-1.90291E-11-2.29092E-01 4.36264E+01-5.21635E-10
 -1       194 2.99436E+02-1.83531E+02 2.55727E-10 1.04215E-01 4.58634E+01-5.59587E-10
 -1       195 2.87593E+02-1.76272E+02 1.61536E-10 4.43120E-01 4.51920E+01-5.90612E-10
 -1       196 2.61525E+02-1.60294E+02-3.77973E-10 7.66500E-01 4.17278E+01-6.38408E-10
 -1       197 2.22319E+02-1.36265E+02-2.78664E-12 1.05459E+00 3.57242E+01-6.89633E-10
 -1       198 1.71867E+02-1.05341E+02 7.00302E-10 1.28998E+00 2.75620E+01-7.38279E-10
 -1       199 1.12738E+02-6.90994E+01-3.08640E-12 1.45847E+00 1.77312E+01-7.91584E-10
 -1       200 4.80265E+01-2.94364E+01-2.22720E-10 1.54983E+00 6.80549E+00-8.42337E-10
 -1       201-1.88256E+01 1.15388E+01-4.94918E-10 1.55826E+00-4.58693E+00-8.85702E-10
 -1       202-8.42310E+01 5.16273E+01-6.28421E-10 1.48273E+00-1.57973E+01-9.25622E-10
 -1       203-1.44659E+02 8.86653E+01 5.19581E-12 1.32694E+00-2.61911E+01-9.57574E-10
 -1       204-1.96837E+02 1.20646E+02-1.48169E-10 1.09915E+00-3.51819E+01-9.56331E-10
 -1       205-2.37933E+02 1.45835E+02-1.86872E-10 8.11660E-01-4.22633E+01-8.84407E-10
 -1       206-2.65716E+02 1.62864E+02-3.23406E-11 4.80138E-01-4.70366E+01-7.41449E-10
 -1       207-2.78684E+02 1.70812E+02 1.80077E-10 1.22724E-01-4.92322E+01-5.48859E-10
 -1       208-2.76145E+02 1.69256E+02 2.98570E-10-2.40963E-01-4.87243E+01-3.24023E-10
 -1       209-2.58258E+02 1.58293E+02 8.98720E-11-5.90939E-01-4.55375E+01-1.03880E-10
 -1       210-2.26029E+02 1.38539E+02-7.25526E-11-9.07951E-01-3.98452E+01 6.51174E-11
 -1       211-1.81249E+02 1.11092E+02-3.19298E-10-1.17455E+00-3.19602E+01 1.78047E-10
 -1       212-1.26403E+02 7.74757E+01 2.79774E-11-1.37607E+00-2.23168E+01 2.60220E-10
 -1       213-6.45279E+01 3.95507E+01 2.29371E-11-1.50143E+00-1.14471E+01 3.17501E-10
 -1       214 9.53277E-01-5.84272E-01-9.72365E-11-1.54373E+00 4.85294E-02 3.44000E-10
 -1       215 6.64192E+01-4.07099E+01 1.20877E-10-1.50071E+00 1.15348E+01 3.38370E-10
 -1       216 1.28252E+02-7.86089E+01 1.71906E-10-1.37477E+00 2.23767E+01 3.03463E-10
 -1       217 1.83037E+02-1.12188E+02 7.21640E-11-1.17294E+00 3.19742E+01 2.40985E-10
 -1       218 2.27752E+02-1.39595E+02-3.80604E-10-9.06424E-01 3.97959E+01 1.51245E-10
 -1       219 2.59933E+02-1.59319E+02-2.60568E-10-5.90024E-01 4.54080E+01 4.89227E-11
 -1       220 2.77812E+02-1.70278E+02-5.95770E-10-2.41306E-01 4.84981E+01-4.58326E-11
 -1       221 2.80416E+02-1.71874E+02-9.40059E-10 1.20362E-01 4.88929E+01-1.28584E-10
 -1       222 2.67620E+02-1.64031E+02-5.18904E-10 4.74866E-01 4.65669E+01-2.13141E-10
 -1       223 2.40159E+02-1.47199E+02-1.72195E-10 8.02468E-01 4.16445E+01-3.20649E-10
 -1       224 1.99581E+02-1.22328E+02-3.97324E-10 1.08488E+00 3.43918E+01-4.61263E-10
 -1       225 1.48172E+02-9.08184E+01-2.95329E-10 1.30626E+00 2.52025E+01-6.16871E-10
 -1       226 8.88268E+01-5.44440E+01-2.46923E-10 1.45408E+00 1.45753E+01-7.49500E-10
 -1       227 2.48920E+01-1.52568E+01-2.28544E-10 1.51981E+00 3.08577E+00-8.34217E-10
 -1       228-4.00128E+01 2.45250E+01-1.03084E-10 1.49936E+00-8.64590E+00-8.61035E-10
 -1       229-1.02192E+02 6.26362E+01-9.61170E-11 1.39328E+00-1.99902E+01-8.25512E-10
 -1       230-1.58072E+02 9.68863E+01-1.27142E-10 1.20669E+00-3.03441E+01-7.23643E-10
 -1       231-2.04390E+02 1.25276E+02-5.93077E-10 9.48991E-01-3.91657E+01-5.58457E-10
 -1       232-2.38368E+02 1.46102E+02-5.86189E-10 6.33235E-01-4.60061E+01-3.37586E-10
 -1       233-2.57849E+02 1.58042E+02-3.25121E-10 2.75395E-01-5.05361E+01-7.35763E-11
 -1       234-2.61404E+02 1.60222E+02-5.32199E-10-1.06638E-01-5.25672E+01 1.79825E-10
 -1       235-2.48393E+02 1.52247E+02-8.95695E-10-4.94138E-01-5.20656E+01 3.91819E-10
 -1       236-2.18970E+02 1.34213E+02-1.00752E-09-8.68707E-01-4.91585E+01 5.80368E-10
 -1       237-1.74048E+02 1.06680E+02-1.05994E-09-1.21348E+00-4.41325E+01 7.42509E-10
 -1       238-1.15204E+02 7.06136E+01-1.03032E-09-1.51424E+00-3.74248E+01 8.55308E-10
 -1       239-4.45474E+01 2.73068E+01-8.43476E-10-1.76053E+00-2.96083E+01 8.96722E-10
 -1       240 3.54678E+01-2.17358E+01-9.15107E-10-1.94650E+00-2.13706E+01 8.59081E-10
 -1       241 1.22256E+02-7.49294E+01-7.97024E-10-2.07175E+00-1.34911E+01 7.44463E-10
 -1       242 2.13346E+02-1.30760E+02-6.42110E-10-2.14183E+00-6.81546E+00 5.61709E-10
 -1       243 3.06649E+02-1.87946E+02-8.70593E-10-2.16869E+00-2.23217E+00 3.13782E-10
 -1       244 3.53626E+02-2.16738E+02-9.20724E-10-2.17201E+00-5.76645E-01-3.46200E-12
 -3
    1PSTEP                        20           1           1          
    1PGM                1.000000E+00                                  
    1PGK                2.169019E+07                                  
    1PHID                         -1                                  
    1PSUBC                         0                                  
    1PMODE                         5                                  
  100CL  105 741.2279581         244                     2    5MODAL      1
 -4  ERROR       1    1
 -5  STR(%)      1    1    0    0
 -1         1 1.03947E+00
 -1         2 1.86851E+01
 -1         3 9.58894E+01
 -1         4 1.19015E+02
 -1         5 1.21491E+02
 -1         6 1.21491E+02
 -1         7 1.20706E+02
 -1         8 1.19824E+02
 -1         9 1.19189E+02
 -1        10 1.18761E+02
 -1        11 1.18475E+02
 -1        12 1.18284E+02
 -1        13 1.18162E+02
 -1        14 1.18091E+02
 -1        15 1.18117E+02
 -1        16 1.18331E+02
 -1        17 1.18962E+02
 -1        18 1.18962E+02
 -1        19 1.17111E+02
 -1        20 1.17284E+02
 -1        21 1.17355E+02
 -1        22 1.17391E+02
 -1        23 1.17412E+02
 -1        24 1.17423E+02
 -1        25 1.17430E+02
 -1        26 1.17433E+02
 -1        27 1.17433E+02
 -1        28 1.17431E+02
 -1        29 1.17420E+02
 -1        30 1.17382E+02
 -1        31 1.17340E+02
 -1        32 1.17493E+02
 -1        33 1.17497E+02
 -1        34 1.17497E+02
 -1        35 1.17500E+02
 -1        36 1.17504E+02
 -1        37 1.17511E+02
 -1        38 1.17522E+02
 -1        39 1.17541E+02
 -1        40 1.17573E+02
 -1        41 1.17633E+02
 -1        42 1.17765E+02
 -1        43 1.18183E+02
 -1        44 1.18183E+02
 -1        45 1.16279E+02
 -1        46 1.16680E+02
 -1        47 1.16761E+02
 -1        48 1.16761E+02
 -1        49 1.16737E+02
 -1        50 1.16640E+02
 -1        51 1.16460E+02
 -1        52 1.16152E+02
 -1        53 1.15615E+02
 -1        54 1.14585E+02
 -1        55 1.12202E+02
 -1        56 1.03804E+02
 -1        57 1.15184E+02
 -1        58 1.21013E+02
 -1        59 1.21470E+02
 -1        60 1.21506E+02
 -1        61 1.21506E+02
 -1        62 1.03947E+00
 -1        63 1.86851E+01
 -1        64 9.58894E+01
 -1        65 1.19015E+02
 -1        66 1.21491E+02
 -1        67 1.21491E+02
 -1        68 1.20706E+02
 -1        69 1.19824E+02
 -1        70 1.19189E+02
 -1        71 1.18761E+02
 -1        72 1.18475E+02
 -1        73 1.18284E+02
 -1        74 1.18162E+02
 -1        75 1.18091E+02
 -1        76 1.18117E+02
 -1        77 1.18331E+02
 -1        78 1.18962E+02
 -1        79 1.18962E+02
 -1        80 1.17111E+02
 -1        81 1.17284E+02
 -1        82 1.17355E+02
 -1        83 1.17391E+02
 -1        84 1.17412E+02
 -1        85 1.17423E+02
 -1        86 1.17430E+02
 -1        87 1.17433E+02
 -1        88 1.17433E+02
 -1        89 1.17431E+02
 -1        90 1.17420E+02
 -1        91 1.17382E+02
 -1        92 1.17340E+02
 -1        93 1.17493E+02
 -1        94 1.17497E+02
 -1        95 1.17497E+02
 -1        96 1.17500E+02
 -1        97 1.17504E+02
 -1        98 1.17511E+02
 -1        99 1.17522E+02
 -1       100 1.17541E+02
 -1       101 1.17573E+02
 -1       102 1.17633E+02
 -1       103 1.17765E+02
 -1       104 1.18183E+02
 -1       105 1.18183E+02
 -1       106 1.16279E+02
 -1       107 1.16680E+02
 -1       108 1.16761E+02
 -1       109 1.16761E+02
 -1       110 1.16737E+02
 -1       111 1.16640E+02
 -1       112 1.16460E+02
 -1       113 1.16152E+02
 -1       114 1.15615E+02
 -1       115 1.14585E+02
 -1       116 1.12202E+02
 -1       117 1.03804E+02
 -1       118 1.15184E+02
 -1       119 1.21013E+02
 -1       120 1.21470E+02
 -1       121 1.21506E+02
 -1       122 1.21506E+02
 -1       123 1.03947E+00
 -1       124 1.86851E+01
 -1       125 9.58894E+01
 -1       126 1.19015E+02
 -1       127 1.21491E+02
 -1       128 1.21491E+02
 -1       129 1.20706E+02
 -1       130 1.19824E+02
 -1       131 1.19189E+02
 -1       132 1.18761E+02
 -1       133 1.18475E+02
 -1       134 1.18284E+02
 -1       135 1.18162E+02
 -1       136 1.18091E+02
 -1       137 1.18117E+02
 -1       138 1.18331E+02
 -1       139 1.18962E+02
 -1       140 1.18962E+02
 -1       141 1.17111E+02
 -1       142 1.17284E+02
 -1       143 1.17355E+02
 -1       144 1.17391E+02
 -1       145 1.17412E+02
 -1       146 1.17423E+02
 -1       147 1.17430E+02
 -1       148 1.17433E+02
 -1       149 1.17433E+02
 -1       150 1.17431E+02
 -1       151 1.17420E+02
 -1       152 1.17382E+02
 -1       153 1.17340E+02
 -1       154 1.17493E+02
 -1       155 1.17497E+02
 -1       156 1.17497E+02
 -1       157 1.17500E+02
 -1       158 1.17504E+02
 -1       159 1.17511E+02
 -1       160 1.17522E+02
 -1       161 1.17541E+02
 -1       162 1.17573E+02
 -1       163 1.17633E+02
 -1       164 1.17765E+02
 -1       165 1.18183E+02
 -1       166 1.18183E+02
 -1       167 1.16279E+02
 -1       168 1.16680E+02
 -1       169 1.16761E+02
 -1       170 1.16761E+02
 -1       171 1.16737E+02
 -1       172 1.16640E+02
 -1       173 1.16460E+02
 -1       174 1.16152E+02
 -1       175 1.15615E+02
 -1       176 1.14585E+02
 -1       177 1.12202E+02
 -1       178 1.03804E+02
 -1       179 1.15184E+02
 -1       180 1.21013E+02
 -1       181 1.21470E+02
 -1       182 1.21506E+02
 -1       183 1.21506E+02
 -1       184 1.03947E+00
 -1       185 1.86851E+01
 -1       186 9.58894E+01
 -1       187 1.19015E+02
 -1       188 1.21491E+02
 -1       189 1.21491E+02
 -1       190 1.20706E+02
 -1       191 1.19824E+02
 -1       192 1.19189E+02
 -1       193 1.18761E+02
 -1       194 1.18475E+02
 -1       195 1.18284E+02
 -1       196 1.18162E+02
 -1       197 1.18091E+02
 -1       198 1.18117E+02
 -1       199 1.18331E+02
 -1       200 1.18962E+02
 -1       201 1.18962E+02
 -1       202 1.17111E+02
 -1       203 1.17284E+02
 -1       204 1.17355E+02
 -1       205 1.17391E+02
 -1       206 1.17412E+02
 -1       207 1.17423E+02
 -1       208 1.17430E+02
 -1       209 1.17433E+02
 -1       210 1.17433E+02
 -1       211 1.17431E+02
 -1       212 1.17420E+02
 -1       213 1.17382E+02
 -1       214 1.17340E+02
 -1       215 1.17493E+02
 -1       216 1.17497E+02
 -1       217 1.17497E+02
 -1       218 1.17500E+02
 -1       219 1.17504E+02
 -1       220 1.17511E+02
 -1       221 1.17522E+02
 -1       222 1.17541E+02
 -1       223 1.17573E+02
 -1       224 1.17633E+02
 -1       225 1.17765E+02
 -1       226 1.18183E+02
 -1       227 1.18183E+02
 -1       228 1.16279E+02
 -1       229 1.16680E+02
 -1       230 1.16761E+02
 -1       231 1.16761E+02
 -1       232 1.16737E+02
 -1       233 1.16640E+02
 -1       234 1.16460E+02
 -1       235 1.16152E+02
 -1       236 1.15615E+02
 -1       237 1.14585E+02
 -1       238 1.12202E+02
 -1       239 1.03804E+02
 -1       240 1.15184E+02
 -1       241 1.21013E+02
 -1       242 1.21470E+02
 -1       243 1.21506E+02
 -1       244 1.21506E+02
 -3
 9999
